--------------------------------------------------------------------------
WARNING: Open MPI tried to bind a process but failed.  This is a
warning only; your job will continue, though performance may
be degraded.

  Local host:        4b82db919bf5
  Application name:  /root/q-e-qe-7.3.1/bin/pw.x
  Error message:     failed to bind memory
  Location:          ../../../../../orte/mca/rtc/hwloc/rtc_hwloc.c:447

--------------------------------------------------------------------------

     Program PWSCF v.7.3.1 starts on 23May2026 at  6: 9:58 

     This program is part of the open-source Quantum ESPRESSO suite
     for quantum simulation of materials; please cite
         "P. Giannozzi et al., J. Phys.:Condens. Matter 21 395502 (2009);
         "P. Giannozzi et al., J. Phys.:Condens. Matter 29 465901 (2017);
         "P. Giannozzi et al., J. Chem. Phys. 152 154105 (2020);
          URL http://www.quantum-espresso.org", 
     in publications or presentations arising from this work. More details at
     http://www.quantum-espresso.org/quote

     Parallel version (MPI & OpenMP), running on       8 processor cores
     Number of MPI processes:                 1
     Threads/MPI process:                     8

     MPI processes distributed on     1 nodes
     152632 MiB available memory on the printing compute node when the environment starts
 
     Reading input from inputs/fecr_fe02cr14_t0.01.in

     Current dimensions of program PWSCF are:
     Max number of different atomic species (ntypx) = 10
     Max number of k-points (npk) =  40000
     Max angular momentum in pseudopotentials (lmaxx) =  4
     file Fe.pbe-spn-kjpaw_psl.1.0.0.UPF: wavefunction(s)  3P 3D renormalized
     file Cr.pbe-spn-kjpaw_psl.1.0.0.UPF: wavefunction(s)  3S 3P 3D renormalized
     Found identity + ( -0.5000 -0.5000 -0.5000) symmetry
     This is a supercell, fractional translations are disabled
     Message from routine setup:
     using ibrav=0 with symmetry is DISCOURAGED, use correct ibrav instead
 
     Subspace diagonalization in iterative solution of the eigenvalue problem:
     a serial algorithm will be used

 
     G-vector sticks info
     --------------------
     sticks:   dense  smooth     PW     G-vecs:    dense   smooth      PW
     Sum        4373    2185    621               220903    78173   11793
 
     Using Slab Decomposition
 


     bravais-lattice index     =            0
     lattice parameter (alat)  =      10.7035  a.u.
     unit-cell volume          =    1244.6824 (a.u.)^3
     number of atoms/cell      =           16
     number of atomic types    =            2
     number of electrons       =       228.00
     number of Kohn-Sham states=          137
     kinetic-energy cutoff     =      60.0000  Ry
     charge density cutoff     =     480.0000  Ry
     scf convergence threshold =      1.0E-07
     mixing beta               =       0.3000
     number of iterations used =            8  plain     mixing
     Exchange-correlation= SLA  PW   PBX  PBC
                           (   1   4   3   4   0   0   0)

     GPU acceleration is ACTIVE.  1 visible GPUs per MPI rank


     celldm(1)=  10.703492  celldm(2)=   0.000000  celldm(3)=   0.000000
     celldm(4)=   0.000000  celldm(5)=   0.000000  celldm(6)=   0.000000

     crystal axes: (cart. coord. in units of alat)
               a(1) = (   1.000000   0.000000   0.000000 )  
               a(2) = (   0.000000   1.000000   0.000000 )  
               a(3) = (   0.000000   0.000000   1.015037 )  

     reciprocal axes: (cart. coord. in units 2 pi/alat)
               b(1) = (  1.000000  0.000000  0.000000 )  
               b(2) = (  0.000000  1.000000  0.000000 )  
               b(3) = (  0.000000  0.000000  0.985185 )  


     PseudoPot. # 1 for Fe read from file:
     ./pseudo/Fe.pbe-spn-kjpaw_psl.1.0.0.UPF
     MD5 check sum: fc81f059e5c5069939230b1155715ae8
     Pseudo is Projector augmented-wave + core cor, Zval = 16.0
     Generated using &quot;atomic&quot; code by A. Dal Corso  v.6.3
     Shape of augmentation charge: PSQ
     Using radial grid of 1191 points,  6 beta functions with: 
                l(1) =   0
                l(2) =   0
                l(3) =   1
                l(4) =   1
                l(5) =   2
                l(6) =   2
     Q(r) pseudized with 0 coefficients 


     PseudoPot. # 2 for Cr read from file:
     ./pseudo/Cr.pbe-spn-kjpaw_psl.1.0.0.UPF
     MD5 check sum: 198f1a2427a48552563eee314eba32ba
     Pseudo is Projector augmented-wave + core cor, Zval = 14.0
     Generated using &quot;atomic&quot; code by A. Dal Corso  v.6.3
     Shape of augmentation charge: PSQ
     Using radial grid of 1183 points,  6 beta functions with: 
                l(1) =   0
                l(2) =   0
                l(3) =   1
                l(4) =   1
                l(5) =   2
                l(6) =   2
     Q(r) pseudized with 0 coefficients 


     atomic species   valence    mass     pseudopotential
     Fe               16.00    55.84500     Fe( 1.00)
     Cr               14.00    51.99600     Cr( 1.00)

     Starting magnetic structure 
     atomic species   magnetization
     Fe              0.500
     Cr              0.300

      4 Sym. Ops., with inversion, found



   Cartesian axes

     site n.     atom                  positions (alat units)
         1        Cr     tau(   1) = (   0.0000000   0.0000000   0.0000000  )
         2        Fe     tau(   2) = (   0.2500000   0.2500000   0.2537594  )
         3        Cr     tau(   3) = (   0.0000000   0.0000000   0.5075187  )
         4        Cr     tau(   4) = (   0.2500000   0.2500000   0.7612781  )
         5        Cr     tau(   5) = (   0.0000000   0.5000000   0.0000000  )
         6        Cr     tau(   6) = (   0.2500000   0.7500000   0.2537594  )
         7        Cr     tau(   7) = (   0.0000000   0.5000000   0.5075187  )
         8        Cr     tau(   8) = (   0.2500000   0.7500000   0.7612781  )
         9        Cr     tau(   9) = (   0.5000000   0.0000000   0.0000000  )
        10        Cr     tau(  10) = (   0.7500000   0.2500000   0.2537594  )
        11        Cr     tau(  11) = (   0.5000000   0.0000000   0.5075187  )
        12        Cr     tau(  12) = (   0.7500000   0.2500000   0.7612781  )
        13        Cr     tau(  13) = (   0.5000000   0.5000000   0.0000000  )
        14        Cr     tau(  14) = (   0.7500000   0.7500000   0.2537594  )
        15        Cr     tau(  15) = (   0.5000000   0.5000000   0.5075187  )
        16        Fe     tau(  16) = (   0.7500000   0.7500000   0.7612781  )

     number of k points=    68  Marzari-Vanderbilt smearing, width (Ry)=  0.0200
                       cart. coord. in units 2pi/alat
        k(    1) = (   0.0000000   0.0000000   0.0000000), wk =   0.0046296
        k(    2) = (   0.0000000   0.0000000   0.1641975), wk =   0.0092593
        k(    3) = (   0.0000000   0.0000000   0.3283951), wk =   0.0092593
        k(    4) = (   0.0000000   0.0000000  -0.4925926), wk =   0.0046296
        k(    5) = (   0.0000000   0.1666667   0.0000000), wk =   0.0185185
        k(    6) = (   0.0000000   0.1666667   0.1641975), wk =   0.0185185
        k(    7) = (   0.0000000   0.1666667   0.3283951), wk =   0.0185185
        k(    8) = (   0.0000000   0.1666667  -0.4925926), wk =   0.0185185
        k(    9) = (   0.0000000   0.3333333   0.0000000), wk =   0.0185185
        k(   10) = (   0.0000000   0.3333333   0.1641975), wk =   0.0185185
        k(   11) = (   0.0000000   0.3333333   0.3283951), wk =   0.0185185
        k(   12) = (   0.0000000   0.3333333  -0.4925926), wk =   0.0185185
        k(   13) = (   0.0000000  -0.5000000   0.0000000), wk =   0.0092593
        k(   14) = (   0.0000000  -0.5000000   0.1641975), wk =   0.0185185
        k(   15) = (   0.0000000  -0.5000000   0.3283951), wk =   0.0185185
        k(   16) = (   0.0000000  -0.5000000  -0.4925926), wk =   0.0092593
        k(   17) = (   0.1666667   0.1666667   0.0000000), wk =   0.0092593
        k(   18) = (   0.1666667   0.1666667   0.1641975), wk =   0.0092593
        k(   19) = (   0.1666667   0.1666667   0.3283951), wk =   0.0092593
        k(   20) = (   0.1666667   0.1666667  -0.4925926), wk =   0.0092593
        k(   21) = (   0.1666667   0.3333333   0.0000000), wk =   0.0185185
        k(   22) = (   0.1666667   0.3333333   0.1641975), wk =   0.0185185
        k(   23) = (   0.1666667   0.3333333   0.3283951), wk =   0.0185185
        k(   24) = (   0.1666667   0.3333333  -0.4925926), wk =   0.0185185
        k(   25) = (   0.1666667  -0.5000000   0.0000000), wk =   0.0185185
        k(   26) = (   0.1666667  -0.5000000   0.1641975), wk =   0.0185185
        k(   27) = (   0.1666667  -0.5000000   0.3283951), wk =   0.0185185
        k(   28) = (   0.1666667  -0.5000000  -0.4925926), wk =   0.0185185
        k(   29) = (   0.3333333   0.3333333   0.0000000), wk =   0.0092593
        k(   30) = (   0.3333333   0.3333333   0.1641975), wk =   0.0092593
        k(   31) = (   0.3333333   0.3333333   0.3283951), wk =   0.0092593
        k(   32) = (   0.3333333   0.3333333  -0.4925926), wk =   0.0092593
        k(   33) = (   0.3333333  -0.5000000   0.0000000), wk =   0.0185185
        k(   34) = (   0.3333333  -0.5000000   0.1641975), wk =   0.0185185
        k(   35) = (   0.3333333  -0.5000000   0.3283951), wk =   0.0185185
        k(   36) = (   0.3333333  -0.5000000  -0.4925926), wk =   0.0185185
        k(   37) = (  -0.5000000  -0.5000000   0.0000000), wk =   0.0046296
        k(   38) = (  -0.5000000  -0.5000000   0.1641975), wk =   0.0092593
        k(   39) = (  -0.5000000  -0.5000000   0.3283951), wk =   0.0092593
        k(   40) = (  -0.5000000  -0.5000000  -0.4925926), wk =   0.0046296
        k(   41) = (   0.1666667   0.0000000  -0.1641975), wk =   0.0185185
        k(   42) = (   0.1666667   0.0000000  -0.3283951), wk =   0.0185185
        k(   43) = (   0.3333333   0.0000000  -0.1641975), wk =   0.0185185
        k(   44) = (   0.3333333   0.0000000  -0.3283951), wk =   0.0185185
        k(   45) = (   0.1666667  -0.1666667   0.0000000), wk =   0.0092593
        k(   46) = (   0.1666667   0.1666667  -0.1641975), wk =   0.0092593
        k(   47) = (   0.1666667  -0.1666667   0.1641975), wk =   0.0185185
        k(   48) = (   0.1666667   0.1666667  -0.3283951), wk =   0.0092593
        k(   49) = (   0.1666667  -0.1666667   0.3283951), wk =   0.0185185
        k(   50) = (   0.1666667  -0.1666667  -0.4925926), wk =   0.0092593
        k(   51) = (   0.3333333  -0.1666667   0.0000000), wk =   0.0185185
        k(   52) = (   0.3333333   0.1666667  -0.1641975), wk =   0.0185185
        k(   53) = (   0.3333333  -0.1666667   0.1641975), wk =   0.0185185
        k(   54) = (  -0.3333333   0.1666667   0.1641975), wk =   0.0185185
        k(   55) = (   0.3333333   0.1666667  -0.3283951), wk =   0.0185185
        k(   56) = (   0.3333333  -0.1666667   0.3283951), wk =   0.0185185
        k(   57) = (  -0.3333333   0.1666667   0.3283951), wk =   0.0185185
        k(   58) = (   0.3333333  -0.1666667  -0.4925926), wk =   0.0185185
        k(   59) = (  -0.5000000   0.1666667  -0.1641975), wk =   0.0185185
        k(   60) = (  -0.5000000   0.1666667  -0.3283951), wk =   0.0185185
        k(   61) = (   0.3333333  -0.3333333   0.0000000), wk =   0.0092593
        k(   62) = (   0.3333333   0.3333333  -0.1641975), wk =   0.0092593
        k(   63) = (   0.3333333  -0.3333333   0.1641975), wk =   0.0185185
        k(   64) = (   0.3333333   0.3333333  -0.3283951), wk =   0.0092593
        k(   65) = (   0.3333333  -0.3333333   0.3283951), wk =   0.0185185
        k(   66) = (   0.3333333  -0.3333333  -0.4925926), wk =   0.0092593
        k(   67) = (  -0.5000000   0.3333333  -0.1641975), wk =   0.0185185
        k(   68) = (  -0.5000000   0.3333333  -0.3283951), wk =   0.0185185

     Dense  grid:   220903 G-vectors     FFT dimensions: (  75,  75,  75)

     Smooth grid:    78173 G-vectors     FFT dimensions: (  54,  54,  54)

     Estimated max dynamical RAM per process >       3.65 GB

     Check: negative core charge=   -0.000003
     Generating pointlists ...
     new r_m :   0.1795 (alat units)  1.9215 (a.u.) for type    1
     new r_m :   0.1795 (alat units)  1.9215 (a.u.) for type    2

     Initial potential from superposition of free atoms

     starting charge     227.9883, renormalised to     228.0000
     Starting wfcs are  160 randomized atomic wfcs
     Checking if some PAW data can be deallocated... 

     total cpu time spent up to now is       27.5 secs

     Self-consistent Calculation

     iteration #  1     ecut=    60.00 Ry     beta= 0.30
     Davidson diagonalization with overlap
     ethr =  1.00E-02,  avg # of iterations =  5.3

     negative rho (up, down):  1.127E-01 1.620E+00

     total cpu time spent up to now is       69.6 secs

     total energy              =   -4121.41499854 Ry
     estimated scf accuracy    <     134.43425563 Ry

     total magnetization       =    36.01 Bohr mag/cell
     absolute magnetization    =    58.50 Bohr mag/cell

     iteration #  2     ecut=    60.00 Ry     beta= 0.30
     Davidson diagonalization with overlap
     ethr =  1.00E-02,  avg # of iterations =  3.8

     negative rho (up, down):  7.293E-02 1.169E+00

     total cpu time spent up to now is      107.4 secs

     total energy              =   -4126.67155865 Ry
     estimated scf accuracy    <      32.54161528 Ry

     total magnetization       =    24.29 Bohr mag/cell
     absolute magnetization    =    24.82 Bohr mag/cell

     iteration #  3     ecut=    60.00 Ry     beta= 0.30
     Davidson diagonalization with overlap
     ethr =  1.00E-02,  avg # of iterations =  5.0

     negative rho (up, down):  5.824E-02 1.013E+00

     total cpu time spent up to now is      149.7 secs

     total energy              =   -4127.38314775 Ry
     estimated scf accuracy    <      68.06307957 Ry

     total magnetization       =    26.07 Bohr mag/cell
     absolute magnetization    =    26.45 Bohr mag/cell

     iteration #  4     ecut=    60.00 Ry     beta= 0.30
     Davidson diagonalization with overlap
     ethr =  1.00E-02,  avg # of iterations =  2.0

     negative rho (up, down):  4.701E-02 8.837E-01

     total cpu time spent up to now is      218.2 secs

     total energy              =   -4131.08831362 Ry
     estimated scf accuracy    <       9.18684096 Ry

     total magnetization       =    20.10 Bohr mag/cell
     absolute magnetization    =    20.87 Bohr mag/cell

     iteration #  5     ecut=    60.00 Ry     beta= 0.30
     Davidson diagonalization with overlap
     ethr =  4.03E-03,  avg # of iterations =  2.3

     negative rho (up, down):  3.204E-02 6.708E-01

     total cpu time spent up to now is      293.3 secs

     total energy              =   -4131.77160160 Ry
     estimated scf accuracy    <       8.74496098 Ry

     total magnetization       =    19.82 Bohr mag/cell
     absolute magnetization    =    20.43 Bohr mag/cell

     iteration #  6     ecut=    60.00 Ry     beta= 0.30
     Davidson diagonalization with overlap
     ethr =  3.84E-03,  avg # of iterations =  1.1

     negative rho (up, down):  1.154E-02 3.952E-01

     total cpu time spent up to now is      355.8 secs

     total energy              =   -4132.23238249 Ry
     estimated scf accuracy    <       6.31649548 Ry

     total magnetization       =    17.65 Bohr mag/cell
     absolute magnetization    =    18.20 Bohr mag/cell

     iteration #  7     ecut=    60.00 Ry     beta= 0.30
     Davidson diagonalization with overlap
     ethr =  2.77E-03,  avg # of iterations =  1.6

     negative rho (up, down):  0.000E+00 5.476E-02

     total cpu time spent up to now is      426.2 secs

     total energy              =   -4132.74373284 Ry
     estimated scf accuracy    <       6.29391724 Ry

     total magnetization       =    15.41 Bohr mag/cell
     absolute magnetization    =    15.93 Bohr mag/cell

     iteration #  8     ecut=    60.00 Ry     beta= 0.30
     Davidson diagonalization with overlap
     ethr =  2.76E-03,  avg # of iterations =  1.4

     negative rho (up, down):  0.000E+00 2.122E-04

     total cpu time spent up to now is      490.1 secs

     total energy              =   -4133.14408682 Ry
     estimated scf accuracy    <       3.16188531 Ry

     total magnetization       =    10.97 Bohr mag/cell
     absolute magnetization    =    11.89 Bohr mag/cell

     iteration #  9     ecut=    60.00 Ry     beta= 0.30
     Davidson diagonalization with overlap
     ethr =  1.39E-03,  avg # of iterations =  1.4

     negative rho (up, down):  0.000E+00 1.771E-04

     total cpu time spent up to now is      559.6 secs

     total energy              =   -4133.35531490 Ry
     estimated scf accuracy    <       0.74562393 Ry

     total magnetization       =     8.43 Bohr mag/cell
     absolute magnetization    =    10.23 Bohr mag/cell

     iteration # 10     ecut=    60.00 Ry     beta= 0.30
     Davidson diagonalization with overlap
     ethr =  3.27E-04,  avg # of iterations =  5.9

     negative rho (up, down):  0.000E+00 1.165E-04

     total cpu time spent up to now is      649.7 secs

     total energy              =   -4133.39823510 Ry
     estimated scf accuracy    <       1.04346725 Ry

     total magnetization       =     6.76 Bohr mag/cell
     absolute magnetization    =     8.69 Bohr mag/cell

     iteration # 11     ecut=    60.00 Ry     beta= 0.30
     Davidson diagonalization with overlap
     ethr =  3.27E-04,  avg # of iterations =  3.9

     total cpu time spent up to now is      732.5 secs

     total energy              =   -4133.45621419 Ry
     estimated scf accuracy    <       0.49840947 Ry

     total magnetization       =     6.08 Bohr mag/cell
     absolute magnetization    =     7.95 Bohr mag/cell

     iteration # 12     ecut=    60.00 Ry     beta= 0.30
     Davidson diagonalization with overlap
     ethr =  2.19E-04,  avg # of iterations =  2.6

     negative rho (up, down):  0.000E+00 2.478E-05

     total cpu time spent up to now is      804.7 secs

     total energy              =   -4133.47596421 Ry
     estimated scf accuracy    <       0.25508112 Ry

     total magnetization       =     5.67 Bohr mag/cell
     absolute magnetization    =     7.57 Bohr mag/cell

     iteration # 13     ecut=    60.00 Ry     beta= 0.30
     Davidson diagonalization with overlap
     ethr =  1.12E-04,  avg # of iterations =  3.8

     total cpu time spent up to now is      889.3 secs

     total energy              =   -4133.49479503 Ry
     estimated scf accuracy    <       0.07919744 Ry

     total magnetization       =     5.71 Bohr mag/cell
     absolute magnetization    =     7.59 Bohr mag/cell

     iteration # 14     ecut=    60.00 Ry     beta= 0.30
     Davidson diagonalization with overlap
     c_bands:  2 eigenvalues not converged
     c_bands:  1 eigenvalues not converged
     c_bands:  2 eigenvalues not converged
     c_bands:  3 eigenvalues not converged
     c_bands:  3 eigenvalues not converged
     c_bands:  1 eigenvalues not converged
     c_bands:  1 eigenvalues not converged
     c_bands:  4 eigenvalues not converged
     c_bands:  1 eigenvalues not converged
     c_bands:  4 eigenvalues not converged
     c_bands:  1 eigenvalues not converged
     c_bands:  1 eigenvalues not converged
     c_bands:  1 eigenvalues not converged
     c_bands:  1 eigenvalues not converged
     c_bands:  2 eigenvalues not converged
     ethr =  3.47E-05,  avg # of iterations = 13.1

     total cpu time spent up to now is     1019.1 secs

     total energy              =   -4133.50954183 Ry
     estimated scf accuracy    <       0.04921027 Ry

     total magnetization       =     4.88 Bohr mag/cell
     absolute magnetization    =     6.83 Bohr mag/cell

     iteration # 15     ecut=    60.00 Ry     beta= 0.30
     Davidson diagonalization with overlap
     c_bands:  4 eigenvalues not converged
     ethr =  2.16E-05,  avg # of iterations =  5.4

     total cpu time spent up to now is     1110.5 secs

     total energy              =   -4133.51439540 Ry
     estimated scf accuracy    <       0.07150797 Ry

     total magnetization       =     4.45 Bohr mag/cell
     absolute magnetization    =     6.38 Bohr mag/cell

     iteration # 16     ecut=    60.00 Ry     beta= 0.30
     Davidson diagonalization with overlap
     c_bands:  1 eigenvalues not converged
     ethr =  2.16E-05,  avg # of iterations =  4.5

     total cpu time spent up to now is     1194.5 secs

     total energy              =   -4133.51915583 Ry
     estimated scf accuracy    <       0.05389624 Ry

     total magnetization       =     4.14 Bohr mag/cell
     absolute magnetization    =     6.09 Bohr mag/cell

     iteration # 17     ecut=    60.00 Ry     beta= 0.30
     Davidson diagonalization with overlap
     ethr =  2.16E-05,  avg # of iterations =  1.1

     total cpu time spent up to now is     1264.6 secs

     total energy              =   -4133.51971661 Ry
     estimated scf accuracy    <       0.02469964 Ry

     total magnetization       =     3.99 Bohr mag/cell
     absolute magnetization    =     5.93 Bohr mag/cell

     iteration # 18     ecut=    60.00 Ry     beta= 0.30
     Davidson diagonalization with overlap
     ethr =  1.08E-05,  avg # of iterations =  2.0

     total cpu time spent up to now is     1331.8 secs

     total energy              =   -4133.52049444 Ry
     estimated scf accuracy    <       0.00387842 Ry

     total magnetization       =     3.90 Bohr mag/cell
     absolute magnetization    =     5.81 Bohr mag/cell

     iteration # 19     ecut=    60.00 Ry     beta= 0.30
     Davidson diagonalization with overlap
     c_bands:  1 eigenvalues not converged
     c_bands:  1 eigenvalues not converged
     c_bands:  1 eigenvalues not converged
     c_bands:  2 eigenvalues not converged
     c_bands:  1 eigenvalues not converged
     c_bands:  1 eigenvalues not converged
     c_bands:  1 eigenvalues not converged
     c_bands:  1 eigenvalues not converged
     c_bands:  2 eigenvalues not converged
     c_bands:  1 eigenvalues not converged
     c_bands:  3 eigenvalues not converged
     c_bands:  1 eigenvalues not converged
     c_bands:  2 eigenvalues not converged
     c_bands:  1 eigenvalues not converged
     c_bands:  3 eigenvalues not converged
     c_bands:  1 eigenvalues not converged
     c_bands:  1 eigenvalues not converged
     c_bands:  1 eigenvalues not converged
     c_bands:  1 eigenvalues not converged
     c_bands:  1 eigenvalues not converged
     c_bands:  1 eigenvalues not converged
     ethr =  1.70E-06,  avg # of iterations = 13.1

     total cpu time spent up to now is     1469.0 secs

     total energy              =   -4133.52127102 Ry
     estimated scf accuracy    <       0.00559637 Ry

     total magnetization       =     3.86 Bohr mag/cell
     absolute magnetization    =     5.70 Bohr mag/cell

     iteration # 20     ecut=    60.00 Ry     beta= 0.30
     Davidson diagonalization with overlap
     c_bands:  1 eigenvalues not converged
     ethr =  1.70E-06,  avg # of iterations =  1.9

     total cpu time spent up to now is     1536.2 secs

     total energy              =   -4133.52181939 Ry
     estimated scf accuracy    <       0.00154187 Ry

     total magnetization       =     3.79 Bohr mag/cell
     absolute magnetization    =     5.63 Bohr mag/cell

     iteration # 21     ecut=    60.00 Ry     beta= 0.30
     Davidson diagonalization with overlap
     c_bands:  1 eigenvalues not converged
     c_bands:  1 eigenvalues not converged
     c_bands:  1 eigenvalues not converged
     c_bands:  2 eigenvalues not converged
     ethr =  6.76E-07,  avg # of iterations =  6.2

     total cpu time spent up to now is     1632.1 secs

     total energy              =   -4133.52199352 Ry
     estimated scf accuracy    <       0.00122515 Ry

     total magnetization       =     3.75 Bohr mag/cell
     absolute magnetization    =     5.48 Bohr mag/cell

     iteration # 22     ecut=    60.00 Ry     beta= 0.30
     Davidson diagonalization with overlap
     ethr =  5.37E-07,  avg # of iterations =  3.1

     total cpu time spent up to now is     1706.2 secs

     total energy              =   -4133.52221809 Ry
     estimated scf accuracy    <       0.00128309 Ry

     total magnetization       =     3.75 Bohr mag/cell
     absolute magnetization    =     5.49 Bohr mag/cell

     iteration # 23     ecut=    60.00 Ry     beta= 0.30
     Davidson diagonalization with overlap
     c_bands:  2 eigenvalues not converged
     ethr =  5.37E-07,  avg # of iterations =  5.9

     total cpu time spent up to now is     1800.0 secs

     total energy              =   -4133.52232734 Ry
     estimated scf accuracy    <       0.00341777 Ry

     total magnetization       =     3.76 Bohr mag/cell
     absolute magnetization    =     5.38 Bohr mag/cell

     iteration # 24     ecut=    60.00 Ry     beta= 0.30
     Davidson diagonalization with overlap
     ethr =  5.37E-07,  avg # of iterations =  1.6

     total cpu time spent up to now is     1872.3 secs

     total energy              =   -4133.52252373 Ry
     estimated scf accuracy    <       0.00025312 Ry

     total magnetization       =     3.72 Bohr mag/cell
     absolute magnetization    =     5.34 Bohr mag/cell

     iteration # 25     ecut=    60.00 Ry     beta= 0.30
     Davidson diagonalization with overlap
     ethr =  1.11E-07,  avg # of iterations =  5.7

     total cpu time spent up to now is     1969.8 secs

     total energy              =   -4133.52267045 Ry
     estimated scf accuracy    <       0.00037263 Ry

     total magnetization       =     3.71 Bohr mag/cell
     absolute magnetization    =     5.28 Bohr mag/cell

     iteration # 26     ecut=    60.00 Ry     beta= 0.30
     Davidson diagonalization with overlap
     c_bands:  2 eigenvalues not converged
     ethr =  1.11E-07,  avg # of iterations =  6.0

     total cpu time spent up to now is     2061.2 secs

     total energy              =   -4133.52270583 Ry
     estimated scf accuracy    <       0.00059709 Ry

     total magnetization       =     3.72 Bohr mag/cell
     absolute magnetization    =     5.23 Bohr mag/cell

     iteration # 27     ecut=    60.00 Ry     beta= 0.30
     Davidson diagonalization with overlap
     ethr =  1.11E-07,  avg # of iterations =  5.5

     total cpu time spent up to now is     2152.9 secs

     total energy              =   -4133.52270612 Ry
     estimated scf accuracy    <       0.00063542 Ry

     total magnetization       =     3.72 Bohr mag/cell
     absolute magnetization    =     5.22 Bohr mag/cell

     iteration # 28     ecut=    60.00 Ry     beta= 0.30
     Davidson diagonalization with overlap
     ethr =  1.11E-07,  avg # of iterations =  3.9

     total cpu time spent up to now is     2235.5 secs

     total energy              =   -4133.52276957 Ry
     estimated scf accuracy    <       0.00021288 Ry

     total magnetization       =     3.71 Bohr mag/cell
     absolute magnetization    =     5.21 Bohr mag/cell

     iteration # 29     ecut=    60.00 Ry     beta= 0.30
     Davidson diagonalization with overlap
     ethr =  9.34E-08,  avg # of iterations =  4.1

     total cpu time spent up to now is     2316.0 secs

     total energy              =   -4133.52279486 Ry
     estimated scf accuracy    <       0.00036685 Ry

     total magnetization       =     3.72 Bohr mag/cell
     absolute magnetization    =     5.19 Bohr mag/cell

     iteration # 30     ecut=    60.00 Ry     beta= 0.30
     Davidson diagonalization with overlap
     c_bands:  1 eigenvalues not converged
     ethr =  9.34E-08,  avg # of iterations =  8.0

     total cpu time spent up to now is     2425.3 secs

     total energy              =   -4133.52291218 Ry
     estimated scf accuracy    <       0.00016128 Ry

     total magnetization       =     3.73 Bohr mag/cell
     absolute magnetization    =     5.12 Bohr mag/cell

     iteration # 31     ecut=    60.00 Ry     beta= 0.30
     Davidson diagonalization with overlap
     ethr =  7.07E-08,  avg # of iterations =  1.3

     total cpu time spent up to now is     2490.6 secs

     total energy              =   -4133.52293391 Ry
     estimated scf accuracy    <       0.00010121 Ry

     total magnetization       =     3.74 Bohr mag/cell
     absolute magnetization    =     5.11 Bohr mag/cell

     iteration # 32     ecut=    60.00 Ry     beta= 0.30
     Davidson diagonalization with overlap
     ethr =  4.44E-08,  avg # of iterations =  5.7

     total cpu time spent up to now is     2582.9 secs

     total energy              =   -4133.52292954 Ry
     estimated scf accuracy    <       0.00008870 Ry

     total magnetization       =     3.74 Bohr mag/cell
     absolute magnetization    =     5.08 Bohr mag/cell

     iteration # 33     ecut=    60.00 Ry     beta= 0.30
     Davidson diagonalization with overlap
     ethr =  3.89E-08,  avg # of iterations =  4.0

     total cpu time spent up to now is     2664.4 secs

     total energy              =   -4133.52294418 Ry
     estimated scf accuracy    <       0.00019547 Ry

     total magnetization       =     3.74 Bohr mag/cell
     absolute magnetization    =     5.09 Bohr mag/cell

     iteration # 34     ecut=    60.00 Ry     beta= 0.30
     Davidson diagonalization with overlap
     ethr =  3.89E-08,  avg # of iterations =  3.0

     total cpu time spent up to now is     2737.6 secs

     total energy              =   -4133.52297013 Ry
     estimated scf accuracy    <       0.00008503 Ry

     total magnetization       =     3.74 Bohr mag/cell
     absolute magnetization    =     5.08 Bohr mag/cell

     iteration # 35     ecut=    60.00 Ry     beta= 0.30
     Davidson diagonalization with overlap
     ethr =  3.73E-08,  avg # of iterations =  5.3

     total cpu time spent up to now is     2826.7 secs

     total energy              =   -4133.52301470 Ry
     estimated scf accuracy    <       0.00002726 Ry

     total magnetization       =     3.75 Bohr mag/cell
     absolute magnetization    =     5.05 Bohr mag/cell

     iteration # 36     ecut=    60.00 Ry     beta= 0.30
     Davidson diagonalization with overlap
     ethr =  1.20E-08,  avg # of iterations =  6.0

     total cpu time spent up to now is     2930.4 secs

     total energy              =   -4133.52302683 Ry
     estimated scf accuracy    <       0.00004263 Ry

     total magnetization       =     3.76 Bohr mag/cell
     absolute magnetization    =     5.03 Bohr mag/cell

     iteration # 37     ecut=    60.00 Ry     beta= 0.30
     Davidson diagonalization with overlap
     ethr =  1.20E-08,  avg # of iterations =  1.0

     total cpu time spent up to now is     2995.2 secs

     total energy              =   -4133.52301907 Ry
     estimated scf accuracy    <       0.00005499 Ry

     total magnetization       =     3.76 Bohr mag/cell
     absolute magnetization    =     5.03 Bohr mag/cell

     iteration # 38     ecut=    60.00 Ry     beta= 0.30
     Davidson diagonalization with overlap
     ethr =  1.20E-08,  avg # of iterations =  1.1

     total cpu time spent up to now is     3062.3 secs

     total energy              =   -4133.52300552 Ry
     estimated scf accuracy    <       0.00003974 Ry

     total magnetization       =     3.76 Bohr mag/cell
     absolute magnetization    =     5.04 Bohr mag/cell

     iteration # 39     ecut=    60.00 Ry     beta= 0.30
     Davidson diagonalization with overlap
     ethr =  1.20E-08,  avg # of iterations =  3.9

     total cpu time spent up to now is     3144.8 secs

     total energy              =   -4133.52295732 Ry
     estimated scf accuracy    <       0.00006769 Ry

     total magnetization       =     3.75 Bohr mag/cell
     absolute magnetization    =     5.04 Bohr mag/cell

     iteration # 40     ecut=    60.00 Ry     beta= 0.30
     Davidson diagonalization with overlap
     ethr =  1.20E-08,  avg # of iterations =  5.4

     total cpu time spent up to now is     3241.0 secs

     total energy              =   -4133.52290017 Ry
     estimated scf accuracy    <       0.00011663 Ry

     total magnetization       =     3.75 Bohr mag/cell
     absolute magnetization    =     5.07 Bohr mag/cell

     iteration # 41     ecut=    60.00 Ry     beta= 0.30
     Davidson diagonalization with overlap
     ethr =  1.20E-08,  avg # of iterations =  5.2

     total cpu time spent up to now is     3336.6 secs

     total energy              =   -4133.52288484 Ry
     estimated scf accuracy    <       0.00006758 Ry

     total magnetization       =     3.73 Bohr mag/cell
     absolute magnetization    =     5.10 Bohr mag/cell

     iteration # 42     ecut=    60.00 Ry     beta= 0.30
     Davidson diagonalization with overlap
     ethr =  1.20E-08,  avg # of iterations =  5.0

     total cpu time spent up to now is     3426.9 secs

     total energy              =   -4133.52291342 Ry
     estimated scf accuracy    <       0.00006220 Ry

     total magnetization       =     3.72 Bohr mag/cell
     absolute magnetization    =     5.13 Bohr mag/cell

     iteration # 43     ecut=    60.00 Ry     beta= 0.30
     Davidson diagonalization with overlap
     ethr =  1.20E-08,  avg # of iterations =  4.3

     total cpu time spent up to now is     3508.7 secs

     total energy              =   -4133.52290757 Ry
     estimated scf accuracy    <       0.00008079 Ry

     total magnetization       =     3.73 Bohr mag/cell
     absolute magnetization    =     5.11 Bohr mag/cell

     iteration # 44     ecut=    60.00 Ry     beta= 0.30
     Davidson diagonalization with overlap
     ethr =  1.20E-08,  avg # of iterations =  1.2

     total cpu time spent up to now is     3575.0 secs

     total energy              =   -4133.52290678 Ry
     estimated scf accuracy    <       0.00007159 Ry

     total magnetization       =     3.73 Bohr mag/cell
     absolute magnetization    =     5.12 Bohr mag/cell

     iteration # 45     ecut=    60.00 Ry     beta= 0.30
     Davidson diagonalization with overlap
     ethr =  1.20E-08,  avg # of iterations =  7.5

     total cpu time spent up to now is     3693.1 secs

     total energy              =   -4133.52302890 Ry
     estimated scf accuracy    <       0.00007668 Ry

     total magnetization       =     3.75 Bohr mag/cell
     absolute magnetization    =     5.04 Bohr mag/cell

     iteration # 46     ecut=    60.00 Ry     beta= 0.30
     Davidson diagonalization with overlap
     ethr =  1.20E-08,  avg # of iterations =  5.3

     total cpu time spent up to now is     3791.0 secs

     total energy              =   -4133.52305205 Ry
     estimated scf accuracy    <       0.00012306 Ry

     total magnetization       =     3.76 Bohr mag/cell
     absolute magnetization    =     5.02 Bohr mag/cell

     iteration # 47     ecut=    60.00 Ry     beta= 0.30
     Davidson diagonalization with overlap
     ethr =  1.20E-08,  avg # of iterations =  5.3

     total cpu time spent up to now is     3882.9 secs

     total energy              =   -4133.52307926 Ry
     estimated scf accuracy    <       0.00006980 Ry

     total magnetization       =     3.77 Bohr mag/cell
     absolute magnetization    =     5.02 Bohr mag/cell

     iteration # 48     ecut=    60.00 Ry     beta= 0.30
     Davidson diagonalization with overlap
     ethr =  1.20E-08,  avg # of iterations =  5.2

     total cpu time spent up to now is     3980.5 secs

     total energy              =   -4133.52308711 Ry
     estimated scf accuracy    <       0.00006474 Ry

     total magnetization       =     3.78 Bohr mag/cell
     absolute magnetization    =     5.00 Bohr mag/cell

     iteration # 49     ecut=    60.00 Ry     beta= 0.30
     Davidson diagonalization with overlap
     ethr =  1.20E-08,  avg # of iterations =  1.2

     total cpu time spent up to now is     4047.2 secs

     total energy              =   -4133.52307671 Ry
     estimated scf accuracy    <       0.00004929 Ry

     total magnetization       =     3.77 Bohr mag/cell
     absolute magnetization    =     5.00 Bohr mag/cell

     iteration # 50     ecut=    60.00 Ry     beta= 0.30
     Davidson diagonalization with overlap
     ethr =  1.20E-08,  avg # of iterations =  3.5

     total cpu time spent up to now is     4128.6 secs

     total energy              =   -4133.52304252 Ry
     estimated scf accuracy    <       0.00005080 Ry

     total magnetization       =     3.77 Bohr mag/cell
     absolute magnetization    =     5.01 Bohr mag/cell

     iteration # 51     ecut=    60.00 Ry     beta= 0.30
     Davidson diagonalization with overlap
     ethr =  1.20E-08,  avg # of iterations =  5.5

     total cpu time spent up to now is     4225.3 secs

     total energy              =   -4133.52288631 Ry
     estimated scf accuracy    <       0.00009935 Ry

     total magnetization       =     3.76 Bohr mag/cell
     absolute magnetization    =     5.02 Bohr mag/cell

     iteration # 52     ecut=    60.00 Ry     beta= 0.30
     Davidson diagonalization with overlap
     ethr =  1.20E-08,  avg # of iterations =  6.6

     total cpu time spent up to now is     4337.2 secs

     total energy              =   -4133.52298306 Ry
     estimated scf accuracy    <       0.00005320 Ry

     total magnetization       =     3.74 Bohr mag/cell
     absolute magnetization    =     5.07 Bohr mag/cell

     iteration # 53     ecut=    60.00 Ry     beta= 0.30
     Davidson diagonalization with overlap
     ethr =  1.20E-08,  avg # of iterations =  5.4

     total cpu time spent up to now is     4437.2 secs

     total energy              =   -4133.52306890 Ry
     estimated scf accuracy    <       0.00005126 Ry

     total magnetization       =     3.76 Bohr mag/cell
     absolute magnetization    =     5.02 Bohr mag/cell

     iteration # 54     ecut=    60.00 Ry     beta= 0.30
     Davidson diagonalization with overlap
     ethr =  1.20E-08,  avg # of iterations =  5.4

     total cpu time spent up to now is     4535.9 secs

     total energy              =   -4133.52306609 Ry
     estimated scf accuracy    <       0.00018736 Ry

     total magnetization       =     3.77 Bohr mag/cell
     absolute magnetization    =     5.00 Bohr mag/cell

     iteration # 55     ecut=    60.00 Ry     beta= 0.30
     Davidson diagonalization with overlap
     ethr =  1.20E-08,  avg # of iterations =  4.5

     total cpu time spent up to now is     4620.6 secs

     total energy              =   -4133.52309690 Ry
     estimated scf accuracy    <       0.00010340 Ry

     total magnetization       =     3.76 Bohr mag/cell
     absolute magnetization    =     5.01 Bohr mag/cell

     iteration # 56     ecut=    60.00 Ry     beta= 0.30
     Davidson diagonalization with overlap
     ethr =  1.20E-08,  avg # of iterations =  5.6

     total cpu time spent up to now is     4718.5 secs

     total energy              =   -4133.52300987 Ry
     estimated scf accuracy    <       0.00005345 Ry

     total magnetization       =     3.78 Bohr mag/cell
     absolute magnetization    =     4.99 Bohr mag/cell

     iteration # 57     ecut=    60.00 Ry     beta= 0.30
     Davidson diagonalization with overlap
     ethr =  1.20E-08,  avg # of iterations =  5.6

     total cpu time spent up to now is     4821.9 secs

     total energy              =   -4133.52307737 Ry
     estimated scf accuracy    <       0.00024850 Ry

     total magnetization       =     3.76 Bohr mag/cell
     absolute magnetization    =     5.02 Bohr mag/cell

     iteration # 58     ecut=    60.00 Ry     beta= 0.30
     Davidson diagonalization with overlap
     ethr =  1.20E-08,  avg # of iterations =  5.6

     total cpu time spent up to now is     4929.5 secs

     total energy              =   -4133.52300535 Ry
     estimated scf accuracy    <       0.00021170 Ry

     total magnetization       =     3.77 Bohr mag/cell
     absolute magnetization    =     4.99 Bohr mag/cell

     iteration # 59     ecut=    60.00 Ry     beta= 0.30
     Davidson diagonalization with overlap
     ethr =  1.20E-08,  avg # of iterations =  5.5

     total cpu time spent up to now is     5032.1 secs

     total energy              =   -4133.52307499 Ry
     estimated scf accuracy    <       0.00010344 Ry

     total magnetization       =     3.77 Bohr mag/cell
     absolute magnetization    =     5.02 Bohr mag/cell

     iteration # 60     ecut=    60.00 Ry     beta= 0.30
     Davidson diagonalization with overlap
     ethr =  1.20E-08,  avg # of iterations =  5.2

     total cpu time spent up to now is     5128.4 secs

     total energy              =   -4133.52300220 Ry
     estimated scf accuracy    <       0.00007963 Ry

     total magnetization       =     3.77 Bohr mag/cell
     absolute magnetization    =     5.00 Bohr mag/cell

     iteration # 61     ecut=    60.00 Ry     beta= 0.30
     Davidson diagonalization with overlap
     ethr =  1.20E-08,  avg # of iterations =  5.3

     total cpu time spent up to now is     5226.6 secs

     total energy              =   -4133.52305029 Ry
     estimated scf accuracy    <       0.00004081 Ry

     total magnetization       =     3.76 Bohr mag/cell
     absolute magnetization    =     5.03 Bohr mag/cell

     iteration # 62     ecut=    60.00 Ry     beta= 0.30
     Davidson diagonalization with overlap
     ethr =  1.20E-08,  avg # of iterations =  2.4

     total cpu time spent up to now is     5299.0 secs

     total energy              =   -4133.52302711 Ry
     estimated scf accuracy    <       0.00002921 Ry

     total magnetization       =     3.76 Bohr mag/cell
     absolute magnetization    =     5.02 Bohr mag/cell

     iteration # 63     ecut=    60.00 Ry     beta= 0.30
     Davidson diagonalization with overlap
     ethr =  1.20E-08,  avg # of iterations =  3.5

     total cpu time spent up to now is     5378.1 secs

     total energy              =   -4133.52302824 Ry
     estimated scf accuracy    <       0.00011496 Ry

     total magnetization       =     3.76 Bohr mag/cell
     absolute magnetization    =     5.03 Bohr mag/cell

     iteration # 64     ecut=    60.00 Ry     beta= 0.30
     Davidson diagonalization with overlap
     ethr =  1.20E-08,  avg # of iterations =  2.0

     total cpu time spent up to now is     5448.6 secs

     total energy              =   -4133.52301923 Ry
     estimated scf accuracy    <       0.00006851 Ry

     total magnetization       =     3.76 Bohr mag/cell
     absolute magnetization    =     5.03 Bohr mag/cell

     iteration # 65     ecut=    60.00 Ry     beta= 0.30
     Davidson diagonalization with overlap
     ethr =  1.20E-08,  avg # of iterations =  2.1

     total cpu time spent up to now is     5520.5 secs

     total energy              =   -4133.52304803 Ry
     estimated scf accuracy    <       0.00005284 Ry

     total magnetization       =     3.76 Bohr mag/cell
     absolute magnetization    =     5.03 Bohr mag/cell

     iteration # 66     ecut=    60.00 Ry     beta= 0.30
     Davidson diagonalization with overlap
     ethr =  1.20E-08,  avg # of iterations =  5.3

     total cpu time spent up to now is     5612.4 secs

     total energy              =   -4133.52307561 Ry
     estimated scf accuracy    <       0.00006199 Ry

     total magnetization       =     3.77 Bohr mag/cell
     absolute magnetization    =     5.01 Bohr mag/cell

     iteration # 67     ecut=    60.00 Ry     beta= 0.30
     Davidson diagonalization with overlap
     ethr =  1.20E-08,  avg # of iterations =  5.3

     total cpu time spent up to now is     5703.5 secs

     total energy              =   -4133.52308784 Ry
     estimated scf accuracy    <       0.00014336 Ry

     total magnetization       =     3.77 Bohr mag/cell
     absolute magnetization    =     5.01 Bohr mag/cell

     iteration # 68     ecut=    60.00 Ry     beta= 0.30
     Davidson diagonalization with overlap
     ethr =  1.20E-08,  avg # of iterations =  5.3

     total cpu time spent up to now is     5795.2 secs

     total energy              =   -4133.52307651 Ry
     estimated scf accuracy    <       0.00011078 Ry

     total magnetization       =     3.78 Bohr mag/cell
     absolute magnetization    =     5.00 Bohr mag/cell

     iteration # 69     ecut=    60.00 Ry     beta= 0.30
     Davidson diagonalization with overlap
     ethr =  1.20E-08,  avg # of iterations =  4.8

     total cpu time spent up to now is     5882.8 secs

     total energy              =   -4133.52308813 Ry
     estimated scf accuracy    <       0.00009624 Ry

     total magnetization       =     3.77 Bohr mag/cell
     absolute magnetization    =     5.00 Bohr mag/cell

     iteration # 70     ecut=    60.00 Ry     beta= 0.30
     Davidson diagonalization with overlap
     ethr =  1.20E-08,  avg # of iterations =  4.3

     total cpu time spent up to now is     5967.8 secs

     total energy              =   -4133.52303188 Ry
     estimated scf accuracy    <       0.00006953 Ry

     total magnetization       =     3.77 Bohr mag/cell
     absolute magnetization    =     5.00 Bohr mag/cell

     iteration # 71     ecut=    60.00 Ry     beta= 0.30
     Davidson diagonalization with overlap
     ethr =  1.20E-08,  avg # of iterations =  5.3

     total cpu time spent up to now is     6060.3 secs

     total energy              =   -4133.52307449 Ry
     estimated scf accuracy    <       0.00003977 Ry

     total magnetization       =     3.76 Bohr mag/cell
     absolute magnetization    =     5.02 Bohr mag/cell

     iteration # 72     ecut=    60.00 Ry     beta= 0.30
     Davidson diagonalization with overlap
     ethr =  1.20E-08,  avg # of iterations =  5.3

     total cpu time spent up to now is     6157.3 secs

     total energy              =   -4133.52311056 Ry
     estimated scf accuracy    <       0.00003414 Ry

     total magnetization       =     3.77 Bohr mag/cell
     absolute magnetization    =     5.00 Bohr mag/cell

     iteration # 73     ecut=    60.00 Ry     beta= 0.30
     Davidson diagonalization with overlap
     ethr =  1.20E-08,  avg # of iterations =  1.0

     total cpu time spent up to now is     6222.1 secs

     total energy              =   -4133.52311020 Ry
     estimated scf accuracy    <       0.00003608 Ry

     total magnetization       =     3.78 Bohr mag/cell
     absolute magnetization    =     5.00 Bohr mag/cell

     iteration # 74     ecut=    60.00 Ry     beta= 0.30
     Davidson diagonalization with overlap
     ethr =  1.20E-08,  avg # of iterations =  1.0

     total cpu time spent up to now is     6288.4 secs

     total energy              =   -4133.52312311 Ry
     estimated scf accuracy    <       0.00003162 Ry

     total magnetization       =     3.78 Bohr mag/cell
     absolute magnetization    =     5.00 Bohr mag/cell

     iteration # 75     ecut=    60.00 Ry     beta= 0.30
     Davidson diagonalization with overlap
     ethr =  1.20E-08,  avg # of iterations =  1.5

     total cpu time spent up to now is     6355.3 secs

     total energy              =   -4133.52297908 Ry
     estimated scf accuracy    <       0.00002937 Ry

     total magnetization       =     3.78 Bohr mag/cell
     absolute magnetization    =     4.99 Bohr mag/cell

     iteration # 76     ecut=    60.00 Ry     beta= 0.30
     Davidson diagonalization with overlap
     ethr =  1.20E-08,  avg # of iterations =  8.7

     total cpu time spent up to now is     6486.1 secs

     total energy              =   -4133.52325544 Ry
     estimated scf accuracy    <       0.00005433 Ry

     total magnetization       =     3.82 Bohr mag/cell
     absolute magnetization    =     5.02 Bohr mag/cell

     iteration # 77     ecut=    60.00 Ry     beta= 0.30
     Davidson diagonalization with overlap
     ethr =  1.20E-08,  avg # of iterations =  5.0

     total cpu time spent up to now is     6575.9 secs

     total energy              =   -4133.52326660 Ry
     estimated scf accuracy    <       0.00007279 Ry

     total magnetization       =     3.81 Bohr mag/cell
     absolute magnetization    =     5.00 Bohr mag/cell

     iteration # 78     ecut=    60.00 Ry     beta= 0.30
     Davidson diagonalization with overlap
     ethr =  1.20E-08,  avg # of iterations =  1.1

     total cpu time spent up to now is     6640.8 secs

     total energy              =   -4133.52323520 Ry
     estimated scf accuracy    <       0.00007678 Ry

     total magnetization       =     3.81 Bohr mag/cell
     absolute magnetization    =     5.00 Bohr mag/cell

     iteration # 79     ecut=    60.00 Ry     beta= 0.30
     Davidson diagonalization with overlap
     ethr =  1.20E-08,  avg # of iterations =  5.2

     total cpu time spent up to now is     6732.8 secs

     total energy              =   -4133.52326883 Ry
     estimated scf accuracy    <       0.00011716 Ry

     total magnetization       =     3.81 Bohr mag/cell
     absolute magnetization    =     4.99 Bohr mag/cell

     iteration # 80     ecut=    60.00 Ry     beta= 0.30
     Davidson diagonalization with overlap
     ethr =  1.20E-08,  avg # of iterations =  5.4

     total cpu time spent up to now is     6832.4 secs

     total energy              =   -4133.52200241 Ry
     estimated scf accuracy    <       0.00008778 Ry

     total magnetization       =     3.82 Bohr mag/cell
     absolute magnetization    =     5.02 Bohr mag/cell

     iteration # 81     ecut=    60.00 Ry     beta= 0.30
     Davidson diagonalization with overlap
     ethr =  1.20E-08,  avg # of iterations = 11.2

     total cpu time spent up to now is     6985.8 secs

     total energy              =   -4133.52235837 Ry
     estimated scf accuracy    <       0.00009078 Ry

     total magnetization       =     3.75 Bohr mag/cell
     absolute magnetization    =     5.06 Bohr mag/cell

     iteration # 82     ecut=    60.00 Ry     beta= 0.30
     Davidson diagonalization with overlap
     ethr =  1.20E-08,  avg # of iterations = 11.1

     total cpu time spent up to now is     7138.5 secs

     total energy              =   -4133.52306600 Ry
     estimated scf accuracy    <       0.00009429 Ry

     total magnetization       =     3.82 Bohr mag/cell
     absolute magnetization    =     5.01 Bohr mag/cell

     iteration # 83     ecut=    60.00 Ry     beta= 0.30
     Davidson diagonalization with overlap
     ethr =  1.20E-08,  avg # of iterations =  7.1

     total cpu time spent up to now is     7254.7 secs

     total energy              =   -4133.52314927 Ry
     estimated scf accuracy    <       0.00008254 Ry

     total magnetization       =     3.79 Bohr mag/cell
     absolute magnetization    =     4.98 Bohr mag/cell

     iteration # 84     ecut=    60.00 Ry     beta= 0.30
     Davidson diagonalization with overlap
     ethr =  1.20E-08,  avg # of iterations =  5.0

     total cpu time spent up to now is     7343.3 secs

     total energy              =   -4133.52318587 Ry
     estimated scf accuracy    <       0.00004725 Ry

     total magnetization       =     3.79 Bohr mag/cell
     absolute magnetization    =     4.99 Bohr mag/cell

     iteration # 85     ecut=    60.00 Ry     beta= 0.30
     Davidson diagonalization with overlap
     ethr =  1.20E-08,  avg # of iterations =  5.2

     total cpu time spent up to now is     7436.3 secs

     total energy              =   -4133.52288341 Ry
     estimated scf accuracy    <       0.00004883 Ry

     total magnetization       =     3.80 Bohr mag/cell
     absolute magnetization    =     4.99 Bohr mag/cell

     iteration # 86     ecut=    60.00 Ry     beta= 0.30
     Davidson diagonalization with overlap
     ethr =  1.20E-08,  avg # of iterations =  9.5

     total cpu time spent up to now is     7581.5 secs

     total energy              =   -4133.52321036 Ry
     estimated scf accuracy    <       0.00017063 Ry

     total magnetization       =     3.85 Bohr mag/cell
     absolute magnetization    =     5.18 Bohr mag/cell

     iteration # 87     ecut=    60.00 Ry     beta= 0.30
     Davidson diagonalization with overlap
     ethr =  1.20E-08,  avg # of iterations =  7.1

     total cpu time spent up to now is     7694.5 secs

     total energy              =   -4133.52336092 Ry
     estimated scf accuracy    <       0.00009944 Ry

     total magnetization       =     3.82 Bohr mag/cell
     absolute magnetization    =     5.05 Bohr mag/cell

     iteration # 88     ecut=    60.00 Ry     beta= 0.30
     Davidson diagonalization with overlap
     ethr =  1.20E-08,  avg # of iterations =  5.0

     total cpu time spent up to now is     7780.4 secs

     total energy              =   -4133.52339408 Ry
     estimated scf accuracy    <       0.00007472 Ry

     total magnetization       =     3.83 Bohr mag/cell
     absolute magnetization    =     5.07 Bohr mag/cell

     iteration # 89     ecut=    60.00 Ry     beta= 0.30
     Davidson diagonalization with overlap
     ethr =  1.20E-08,  avg # of iterations =  5.3

     total cpu time spent up to now is     7880.9 secs

     total energy              =   -4133.52344114 Ry
     estimated scf accuracy    <       0.00009087 Ry

     total magnetization       =     3.84 Bohr mag/cell
     absolute magnetization    =     5.12 Bohr mag/cell

     iteration # 90     ecut=    60.00 Ry     beta= 0.30
     Davidson diagonalization with overlap
     ethr =  1.20E-08,  avg # of iterations =  5.5

     total cpu time spent up to now is     7985.9 secs

     total energy              =   -4133.52145783 Ry
     estimated scf accuracy    <       0.00006865 Ry

     total magnetization       =     3.85 Bohr mag/cell
     absolute magnetization    =     5.23 Bohr mag/cell

     iteration # 91     ecut=    60.00 Ry     beta= 0.30
     Davidson diagonalization with overlap
     ethr =  1.20E-08,  avg # of iterations = 11.7

     total cpu time spent up to now is     8142.3 secs

     total energy              =   -4133.52242666 Ry
     estimated scf accuracy    <       0.00014340 Ry

     total magnetization       =     3.77 Bohr mag/cell
     absolute magnetization    =     5.01 Bohr mag/cell

     iteration # 92     ecut=    60.00 Ry     beta= 0.30
     Davidson diagonalization with overlap
     ethr =  1.20E-08,  avg # of iterations = 11.2

     total cpu time spent up to now is     8297.5 secs

     total energy              =   -4133.52243518 Ry
     estimated scf accuracy    <       0.00019840 Ry

     total magnetization       =     3.83 Bohr mag/cell
     absolute magnetization    =     5.11 Bohr mag/cell

     iteration # 93     ecut=    60.00 Ry     beta= 0.30
     Davidson diagonalization with overlap
     ethr =  1.20E-08,  avg # of iterations = 10.3

     total cpu time spent up to now is     8441.2 secs

     total energy              =   -4133.52299731 Ry
     estimated scf accuracy    <       0.00009786 Ry

     total magnetization       =     3.78 Bohr mag/cell
     absolute magnetization    =     4.99 Bohr mag/cell

     iteration # 94     ecut=    60.00 Ry     beta= 0.30
     Davidson diagonalization with overlap
     ethr =  1.20E-08,  avg # of iterations =  5.9

     total cpu time spent up to now is     8545.3 secs

     total energy              =   -4133.52176094 Ry
     estimated scf accuracy    <       0.00006115 Ry

     total magnetization       =     3.77 Bohr mag/cell
     absolute magnetization    =     5.02 Bohr mag/cell

     iteration # 95     ecut=    60.00 Ry     beta= 0.30
     Davidson diagonalization with overlap
     ethr =  1.20E-08,  avg # of iterations = 11.2

     total cpu time spent up to now is     8696.7 secs

     total energy              =   -4133.52263027 Ry
     estimated scf accuracy    <       0.00003266 Ry

     total magnetization       =     3.70 Bohr mag/cell
     absolute magnetization    =     5.32 Bohr mag/cell

     iteration # 96     ecut=    60.00 Ry     beta= 0.30
     Davidson diagonalization with overlap
     ethr =  1.20E-08,  avg # of iterations =  8.4

     total cpu time spent up to now is     8822.4 secs

     total energy              =   -4133.52284465 Ry
     estimated scf accuracy    <       0.00004822 Ry

     total magnetization       =     3.74 Bohr mag/cell
     absolute magnetization    =     5.13 Bohr mag/cell

     iteration # 97     ecut=    60.00 Ry     beta= 0.30
     Davidson diagonalization with overlap
     ethr =  1.20E-08,  avg # of iterations =  5.2

     total cpu time spent up to now is     8920.8 secs

     total energy              =   -4133.52288968 Ry
     estimated scf accuracy    <       0.00008377 Ry

     total magnetization       =     3.72 Bohr mag/cell
     absolute magnetization    =     5.18 Bohr mag/cell

     iteration # 98     ecut=    60.00 Ry     beta= 0.30
     Davidson diagonalization with overlap
     ethr =  1.20E-08,  avg # of iterations =  5.1

     total cpu time spent up to now is     9018.8 secs

     total energy              =   -4133.52276384 Ry
     estimated scf accuracy    <       0.00004588 Ry

     total magnetization       =     3.74 Bohr mag/cell
     absolute magnetization    =     5.14 Bohr mag/cell

     iteration # 99     ecut=    60.00 Ry     beta= 0.30
     Davidson diagonalization with overlap
     ethr =  1.20E-08,  avg # of iterations =  5.9

     total cpu time spent up to now is     9122.1 secs

     total energy              =   -4133.52284809 Ry
     estimated scf accuracy    <       0.00005691 Ry

     total magnetization       =     3.72 Bohr mag/cell
     absolute magnetization    =     5.22 Bohr mag/cell

     iteration #100     ecut=    60.00 Ry     beta= 0.30
     Davidson diagonalization with overlap
     ethr =  1.20E-08,  avg # of iterations =  3.5

     total cpu time spent up to now is     9203.5 secs

     total energy              =   -4133.52284508 Ry
     estimated scf accuracy    <       0.00004311 Ry

     total magnetization       =     3.72 Bohr mag/cell
     absolute magnetization    =     5.21 Bohr mag/cell

     iteration #101     ecut=    60.00 Ry     beta= 0.30
     Davidson diagonalization with overlap
     ethr =  1.20E-08,  avg # of iterations =  4.2

     total cpu time spent up to now is     9287.0 secs

     total energy              =   -4133.52273028 Ry
     estimated scf accuracy    <       0.00007050 Ry

     total magnetization       =     3.72 Bohr mag/cell
     absolute magnetization    =     5.21 Bohr mag/cell

     iteration #102     ecut=    60.00 Ry     beta= 0.30
     Davidson diagonalization with overlap
     ethr =  1.20E-08,  avg # of iterations =  5.5

     total cpu time spent up to now is     9388.6 secs

     total energy              =   -4133.52247201 Ry
     estimated scf accuracy    <       0.00004743 Ry

     total magnetization       =     3.71 Bohr mag/cell
     absolute magnetization    =     5.29 Bohr mag/cell

     iteration #103     ecut=    60.00 Ry     beta= 0.30
     Davidson diagonalization with overlap
     ethr =  1.20E-08,  avg # of iterations =  8.1

     total cpu time spent up to now is     9512.4 secs

     total energy              =   -4133.52257156 Ry
     estimated scf accuracy    <       0.00014844 Ry

     total magnetization       =     3.68 Bohr mag/cell
     absolute magnetization    =     5.48 Bohr mag/cell

     iteration #104     ecut=    60.00 Ry     beta= 0.30
     Davidson diagonalization with overlap
     ethr =  1.20E-08,  avg # of iterations =  8.0

     total cpu time spent up to now is     9633.9 secs

     total energy              =   -4133.52152520 Ry
     estimated scf accuracy    <       0.00008288 Ry

     total magnetization       =     3.70 Bohr mag/cell
     absolute magnetization    =     5.29 Bohr mag/cell

     iteration #105     ecut=    60.00 Ry     beta= 0.30
     Davidson diagonalization with overlap
     ethr =  1.20E-08,  avg # of iterations = 10.8

     total cpu time spent up to now is     9784.1 secs

     total energy              =   -4133.52199638 Ry
     estimated scf accuracy    <       0.00006346 Ry

     total magnetization       =     3.63 Bohr mag/cell
     absolute magnetization    =     5.74 Bohr mag/cell

     iteration #106     ecut=    60.00 Ry     beta= 0.30
     Davidson diagonalization with overlap
     ethr =  1.20E-08,  avg # of iterations =  9.8

     total cpu time spent up to now is     9929.5 secs

     total energy              =   -4133.52261870 Ry
     estimated scf accuracy    <       0.00003597 Ry

     total magnetization       =     3.70 Bohr mag/cell
     absolute magnetization    =     5.34 Bohr mag/cell

     iteration #107     ecut=    60.00 Ry     beta= 0.30
     Davidson diagonalization with overlap
     ethr =  1.20E-08,  avg # of iterations =  5.5

     total cpu time spent up to now is    10031.3 secs

     total energy              =   -4133.52261346 Ry
     estimated scf accuracy    <       0.00005792 Ry

     total magnetization       =     3.68 Bohr mag/cell
     absolute magnetization    =     5.45 Bohr mag/cell

     iteration #108     ecut=    60.00 Ry     beta= 0.30
     Davidson diagonalization with overlap
     ethr =  1.20E-08,  avg # of iterations =  7.2

     total cpu time spent up to now is    10148.0 secs

     total energy              =   -4133.52267217 Ry
     estimated scf accuracy    <       0.00004605 Ry

     total magnetization       =     3.71 Bohr mag/cell
     absolute magnetization    =     5.28 Bohr mag/cell

     iteration #109     ecut=    60.00 Ry     beta= 0.30
     Davidson diagonalization with overlap
     ethr =  1.20E-08,  avg # of iterations =  5.4

     total cpu time spent up to now is    10249.1 secs

     total energy              =   -4133.52272040 Ry
     estimated scf accuracy    <       0.00003605 Ry

     total magnetization       =     3.69 Bohr mag/cell
     absolute magnetization    =     5.37 Bohr mag/cell

     iteration #110     ecut=    60.00 Ry     beta= 0.30
     Davidson diagonalization with overlap
     ethr =  1.20E-08,  avg # of iterations =  1.9

     total cpu time spent up to now is    10321.5 secs

     total energy              =   -4133.52273354 Ry
     estimated scf accuracy    <       0.00002831 Ry

     total magnetization       =     3.69 Bohr mag/cell
     absolute magnetization    =     5.38 Bohr mag/cell

     iteration #111     ecut=    60.00 Ry     beta= 0.30
     Davidson diagonalization with overlap
     ethr =  1.20E-08,  avg # of iterations =  5.3

     total cpu time spent up to now is    10419.4 secs

     total energy              =   -4133.52277694 Ry
     estimated scf accuracy    <       0.00005065 Ry

     total magnetization       =     3.70 Bohr mag/cell
     absolute magnetization    =     5.30 Bohr mag/cell

     iteration #112     ecut=    60.00 Ry     beta= 0.30
     Davidson diagonalization with overlap
     ethr =  1.20E-08,  avg # of iterations =  2.4

     total cpu time spent up to now is    10492.5 secs

     total energy              =   -4133.52228618 Ry
     estimated scf accuracy    <       0.00006620 Ry

     total magnetization       =     3.70 Bohr mag/cell
     absolute magnetization    =     5.30 Bohr mag/cell

     iteration #113     ecut=    60.00 Ry     beta= 0.30
     Davidson diagonalization with overlap
     ethr =  1.20E-08,  avg # of iterations = 10.0

     total cpu time spent up to now is    10642.3 secs

     total energy              =   -4133.52278343 Ry
     estimated scf accuracy    <       0.00012846 Ry

     total magnetization       =     3.77 Bohr mag/cell
     absolute magnetization    =     5.06 Bohr mag/cell

     iteration #114     ecut=    60.00 Ry     beta= 0.30
     Davidson diagonalization with overlap
     ethr =  1.20E-08,  avg # of iterations =  7.2

     total cpu time spent up to now is    10757.7 secs

     total energy              =   -4133.52292621 Ry
     estimated scf accuracy    <       0.00019608 Ry

     total magnetization       =     3.74 Bohr mag/cell
     absolute magnetization    =     5.14 Bohr mag/cell

     iteration #115     ecut=    60.00 Ry     beta= 0.30
     Davidson diagonalization with overlap
     ethr =  1.20E-08,  avg # of iterations =  5.3

     total cpu time spent up to now is    10856.5 secs

     total energy              =   -4133.52184197 Ry
     estimated scf accuracy    <       0.00016014 Ry

     total magnetization       =     3.75 Bohr mag/cell
     absolute magnetization    =     5.10 Bohr mag/cell

     iteration #116     ecut=    60.00 Ry     beta= 0.30
     Davidson diagonalization with overlap
     ethr =  1.20E-08,  avg # of iterations = 10.0

     total cpu time spent up to now is    11002.3 secs

     total energy              =   -4133.52270165 Ry
     estimated scf accuracy    <       0.00011943 Ry

     total magnetization       =     3.68 Bohr mag/cell
     absolute magnetization    =     5.41 Bohr mag/cell

     iteration #117     ecut=    60.00 Ry     beta= 0.30
     Davidson diagonalization with overlap
     ethr =  1.20E-08,  avg # of iterations =  5.9

     total cpu time spent up to now is    11111.5 secs

     total energy              =   -4133.52268165 Ry
     estimated scf accuracy    <       0.00009099 Ry

     total magnetization       =     3.70 Bohr mag/cell
     absolute magnetization    =     5.30 Bohr mag/cell

     iteration #118     ecut=    60.00 Ry     beta= 0.30
     Davidson diagonalization with overlap
     ethr =  1.20E-08,  avg # of iterations =  5.3

     total cpu time spent up to now is    11212.0 secs

     total energy              =   -4133.52272066 Ry
     estimated scf accuracy    <       0.00008256 Ry

     total magnetization       =     3.68 Bohr mag/cell
     absolute magnetization    =     5.38 Bohr mag/cell

     iteration #119     ecut=    60.00 Ry     beta= 0.30
     Davidson diagonalization with overlap
     ethr =  1.20E-08,  avg # of iterations =  2.3

     total cpu time spent up to now is    11283.8 secs

     total energy              =   -4133.52273726 Ry
     estimated scf accuracy    <       0.00003580 Ry

     total magnetization       =     3.68 Bohr mag/cell
     absolute magnetization    =     5.38 Bohr mag/cell

     iteration #120     ecut=    60.00 Ry     beta= 0.30
     Davidson diagonalization with overlap
     ethr =  1.20E-08,  avg # of iterations =  3.9

     total cpu time spent up to now is    11368.6 secs

     total energy              =   -4133.52240267 Ry
     estimated scf accuracy    <       0.00002194 Ry

     total magnetization       =     3.69 Bohr mag/cell
     absolute magnetization    =     5.36 Bohr mag/cell

     iteration #121     ecut=    60.00 Ry     beta= 0.30
     Davidson diagonalization with overlap
     ethr =  9.62E-09,  avg # of iterations =  8.1

     total cpu time spent up to now is    11491.9 secs

     total energy              =   -4133.52263482 Ry
     estimated scf accuracy    <       0.00006682 Ry

     total magnetization       =     3.65 Bohr mag/cell
     absolute magnetization    =     5.56 Bohr mag/cell

     iteration #122     ecut=    60.00 Ry     beta= 0.30
     Davidson diagonalization with overlap
     ethr =  9.62E-09,  avg # of iterations =  4.1

     total cpu time spent up to now is    11574.9 secs

     total energy              =   -4133.52265078 Ry
     estimated scf accuracy    <       0.00006305 Ry

     total magnetization       =     3.66 Bohr mag/cell
     absolute magnetization    =     5.54 Bohr mag/cell

     iteration #123     ecut=    60.00 Ry     beta= 0.30
     Davidson diagonalization with overlap
     ethr =  9.62E-09,  avg # of iterations =  5.4

     total cpu time spent up to now is    11673.9 secs

     total energy              =   -4133.52264934 Ry
     estimated scf accuracy    <       0.00013447 Ry

     total magnetization       =     3.66 Bohr mag/cell
     absolute magnetization    =     5.49 Bohr mag/cell

     iteration #124     ecut=    60.00 Ry     beta= 0.30
     Davidson diagonalization with overlap
     ethr =  9.62E-09,  avg # of iterations =  5.3

     total cpu time spent up to now is    11762.8 secs

     total energy              =   -4133.52263944 Ry
     estimated scf accuracy    <       0.00006436 Ry

     total magnetization       =     3.66 Bohr mag/cell
     absolute magnetization    =     5.50 Bohr mag/cell

     iteration #125     ecut=    60.00 Ry     beta= 0.30
     Davidson diagonalization with overlap
     ethr =  9.62E-09,  avg # of iterations =  7.0

     total cpu time spent up to now is    11878.1 secs

     total energy              =   -4133.52269644 Ry
     estimated scf accuracy    <       0.00007322 Ry

     total magnetization       =     3.69 Bohr mag/cell
     absolute magnetization    =     5.38 Bohr mag/cell

     iteration #126     ecut=    60.00 Ry     beta= 0.30
     Davidson diagonalization with overlap
     ethr =  9.62E-09,  avg # of iterations =  5.0

     total cpu time spent up to now is    11967.5 secs

     total energy              =   -4133.52271737 Ry
     estimated scf accuracy    <       0.00004900 Ry

     total magnetization       =     3.68 Bohr mag/cell
     absolute magnetization    =     5.41 Bohr mag/cell

     iteration #127     ecut=    60.00 Ry     beta= 0.30
     Davidson diagonalization with overlap
     ethr =  9.62E-09,  avg # of iterations =  5.3

     total cpu time spent up to now is    12067.1 secs

     total energy              =   -4133.52199512 Ry
     estimated scf accuracy    <       0.00003381 Ry

     total magnetization       =     3.69 Bohr mag/cell
     absolute magnetization    =     5.33 Bohr mag/cell

     iteration #128     ecut=    60.00 Ry     beta= 0.30
     Davidson diagonalization with overlap
     ethr =  9.62E-09,  avg # of iterations = 10.1

     total cpu time spent up to now is    12212.0 secs

     total energy              =   -4133.52222205 Ry
     estimated scf accuracy    <       0.00015603 Ry

     total magnetization       =     3.63 Bohr mag/cell
     absolute magnetization    =     5.66 Bohr mag/cell

     iteration #129     ecut=    60.00 Ry     beta= 0.30
     Davidson diagonalization with overlap
     ethr =  9.62E-09,  avg # of iterations =  9.9

     total cpu time spent up to now is    12358.1 secs

     total energy              =   -4133.52275863 Ry
     estimated scf accuracy    <       0.00002560 Ry

     total magnetization       =     3.69 Bohr mag/cell
     absolute magnetization    =     5.35 Bohr mag/cell

     iteration #130     ecut=    60.00 Ry     beta= 0.30
     Davidson diagonalization with overlap
     ethr =  9.62E-09,  avg # of iterations =  4.2

     total cpu time spent up to now is    12440.9 secs

     total energy              =   -4133.52274602 Ry
     estimated scf accuracy    <       0.00002314 Ry

     total magnetization       =     3.69 Bohr mag/cell
     absolute magnetization    =     5.33 Bohr mag/cell

     iteration #131     ecut=    60.00 Ry     beta= 0.30
     Davidson diagonalization with overlap
     ethr =  9.62E-09,  avg # of iterations =  7.1

     total cpu time spent up to now is    12556.9 secs

     total energy              =   -4133.52280524 Ry
     estimated scf accuracy    <       0.00006955 Ry

     total magnetization       =     3.71 Bohr mag/cell
     absolute magnetization    =     5.21 Bohr mag/cell

     iteration #132     ecut=    60.00 Ry     beta= 0.30
     Davidson diagonalization with overlap
     ethr =  9.62E-09,  avg # of iterations =  7.3

     total cpu time spent up to now is    12680.2 secs

     total energy              =   -4133.52199956 Ry
     estimated scf accuracy    <       0.00003763 Ry

     total magnetization       =     3.73 Bohr mag/cell
     absolute magnetization    =     5.10 Bohr mag/cell

     iteration #133     ecut=    60.00 Ry     beta= 0.30
     Davidson diagonalization with overlap
     ethr =  9.62E-09,  avg # of iterations = 10.3

     total cpu time spent up to now is    12828.5 secs

     total energy              =   -4133.52151247 Ry
     estimated scf accuracy    <       0.00013226 Ry

     total magnetization       =     3.67 Bohr mag/cell
     absolute magnetization    =     5.40 Bohr mag/cell

     iteration #134     ecut=    60.00 Ry     beta= 0.30
     Davidson diagonalization with overlap
     ethr =  9.62E-09,  avg # of iterations = 11.8

     total cpu time spent up to now is    12984.9 secs

     total energy              =   -4133.52179303 Ry
     estimated scf accuracy    <       0.00025908 Ry

     total magnetization       =     3.60 Bohr mag/cell
     absolute magnetization    =     5.90 Bohr mag/cell

     iteration #135     ecut=    60.00 Ry     beta= 0.30
     Davidson diagonalization with overlap
     c_bands:  1 eigenvalues not converged
     ethr =  9.62E-09,  avg # of iterations = 10.4

     total cpu time spent up to now is    13135.1 secs

     total energy              =   -4133.52179825 Ry
     estimated scf accuracy    <       0.00006731 Ry

     total magnetization       =     3.55 Bohr mag/cell
     absolute magnetization    =     6.35 Bohr mag/cell

     iteration #136     ecut=    60.00 Ry     beta= 0.30
     Davidson diagonalization with overlap
     c_bands:  1 eigenvalues not converged
     c_bands:  2 eigenvalues not converged
     ethr =  9.62E-09,  avg # of iterations =  9.9

     total cpu time spent up to now is    13279.0 secs

     total energy              =   -4133.52198426 Ry
     estimated scf accuracy    <       0.00014040 Ry

     total magnetization       =     3.49 Bohr mag/cell
     absolute magnetization    =     6.81 Bohr mag/cell

     iteration #137     ecut=    60.00 Ry     beta= 0.30
     Davidson diagonalization with overlap
     ethr =  9.62E-09,  avg # of iterations =  9.6

     total cpu time spent up to now is    13418.0 secs

     total energy              =   -4133.52140728 Ry
     estimated scf accuracy    <       0.00014038 Ry

     total magnetization       =     3.54 Bohr mag/cell
     absolute magnetization    =     6.39 Bohr mag/cell

     iteration #138     ecut=    60.00 Ry     beta= 0.30
     Davidson diagonalization with overlap
     c_bands:  1 eigenvalues not converged
     c_bands:  1 eigenvalues not converged
     c_bands:  1 eigenvalues not converged
     ethr =  9.62E-09,  avg # of iterations = 10.5

     total cpu time spent up to now is    13570.1 secs

     total energy              =   -4133.51972851 Ry
     estimated scf accuracy    <       0.00002736 Ry

     total magnetization       =     3.47 Bohr mag/cell
     absolute magnetization    =     7.03 Bohr mag/cell

     iteration #139     ecut=    60.00 Ry     beta= 0.30
     Davidson diagonalization with overlap
     c_bands:  1 eigenvalues not converged
     ethr =  9.62E-09,  avg # of iterations = 12.3

     total cpu time spent up to now is    13733.9 secs

     total energy              =   -4133.52178514 Ry
     estimated scf accuracy    <       0.00002760 Ry

     total magnetization       =     3.60 Bohr mag/cell
     absolute magnetization    =     5.90 Bohr mag/cell

     iteration #140     ecut=    60.00 Ry     beta= 0.30
     Davidson diagonalization with overlap
     ethr =  9.62E-09,  avg # of iterations =  9.6

     total cpu time spent up to now is    13878.9 secs

     total energy              =   -4133.52229070 Ry
     estimated scf accuracy    <       0.00008891 Ry

     total magnetization       =     3.54 Bohr mag/cell
     absolute magnetization    =     6.35 Bohr mag/cell

     iteration #141     ecut=    60.00 Ry     beta= 0.30
     Davidson diagonalization with overlap
     c_bands:  1 eigenvalues not converged
     ethr =  9.62E-09,  avg # of iterations =  5.7

     total cpu time spent up to now is    13977.1 secs

     total energy              =   -4133.52231333 Ry
     estimated scf accuracy    <       0.00002576 Ry

     total magnetization       =     3.53 Bohr mag/cell
     absolute magnetization    =     6.43 Bohr mag/cell

     iteration #142     ecut=    60.00 Ry     beta= 0.30
     Davidson diagonalization with overlap
     ethr =  9.62E-09,  avg # of iterations =  5.3

     total cpu time spent up to now is    14074.8 secs

     total energy              =   -4133.52234419 Ry
     estimated scf accuracy    <       0.00001911 Ry

     total magnetization       =     3.55 Bohr mag/cell
     absolute magnetization    =     6.32 Bohr mag/cell

     iteration #143     ecut=    60.00 Ry     beta= 0.30
     Davidson diagonalization with overlap
     ethr =  8.38E-09,  avg # of iterations =  1.2

     total cpu time spent up to now is    14139.1 secs

     total energy              =   -4133.52235345 Ry
     estimated scf accuracy    <       0.00001744 Ry

     total magnetization       =     3.55 Bohr mag/cell
     absolute magnetization    =     6.31 Bohr mag/cell

     iteration #144     ecut=    60.00 Ry     beta= 0.30
     Davidson diagonalization with overlap
     ethr =  7.65E-09,  avg # of iterations =  5.6

     total cpu time spent up to now is    14234.5 secs

     total energy              =   -4133.52236744 Ry
     estimated scf accuracy    <       0.00004727 Ry

     total magnetization       =     3.55 Bohr mag/cell
     absolute magnetization    =     6.26 Bohr mag/cell

     iteration #145     ecut=    60.00 Ry     beta= 0.30
     Davidson diagonalization with overlap
     ethr =  7.65E-09,  avg # of iterations =  4.4

     total cpu time spent up to now is    14320.3 secs

     total energy              =   -4133.52230946 Ry
     estimated scf accuracy    <       0.00002680 Ry

     total magnetization       =     3.55 Bohr mag/cell
     absolute magnetization    =     6.22 Bohr mag/cell

     iteration #146     ecut=    60.00 Ry     beta= 0.30
     Davidson diagonalization with overlap
     ethr =  7.65E-09,  avg # of iterations =  5.4

     total cpu time spent up to now is    14420.9 secs

     total energy              =   -4133.52230262 Ry
     estimated scf accuracy    <       0.00005682 Ry

     total magnetization       =     3.54 Bohr mag/cell
     absolute magnetization    =     6.33 Bohr mag/cell

     iteration #147     ecut=    60.00 Ry     beta= 0.30
     Davidson diagonalization with overlap
     ethr =  7.65E-09,  avg # of iterations =  5.1

     total cpu time spent up to now is    14518.0 secs

     total energy              =   -4133.52218518 Ry
     estimated scf accuracy    <       0.00005204 Ry

     total magnetization       =     3.52 Bohr mag/cell
     absolute magnetization    =     6.41 Bohr mag/cell

     iteration #148     ecut=    60.00 Ry     beta= 0.30
     Davidson diagonalization with overlap
     ethr =  7.65E-09,  avg # of iterations =  7.2

     total cpu time spent up to now is    14633.6 secs

     total energy              =   -4133.52208261 Ry
     estimated scf accuracy    <       0.00003853 Ry

     total magnetization       =     3.50 Bohr mag/cell
     absolute magnetization    =     6.60 Bohr mag/cell

     iteration #149     ecut=    60.00 Ry     beta= 0.30
     Davidson diagonalization with overlap
     ethr =  7.65E-09,  avg # of iterations =  8.8

     total cpu time spent up to now is    14768.5 secs

     total energy              =   -4133.52237265 Ry
     estimated scf accuracy    <       0.00001494 Ry

     total magnetization       =     3.55 Bohr mag/cell
     absolute magnetization    =     6.25 Bohr mag/cell

     iteration #150     ecut=    60.00 Ry     beta= 0.30
     Davidson diagonalization with overlap
     ethr =  6.55E-09,  avg # of iterations =  5.4

     total cpu time spent up to now is    14870.0 secs

     total energy              =   -4133.52237239 Ry
     estimated scf accuracy    <       0.00004546 Ry

     total magnetization       =     3.56 Bohr mag/cell
     absolute magnetization    =     6.18 Bohr mag/cell

     iteration #151     ecut=    60.00 Ry     beta= 0.30
     Davidson diagonalization with overlap
     ethr =  6.55E-09,  avg # of iterations =  4.8

     total cpu time spent up to now is    14955.5 secs

     total energy              =   -4133.52237253 Ry
     estimated scf accuracy    <       0.00001827 Ry

     total magnetization       =     3.56 Bohr mag/cell
     absolute magnetization    =     6.20 Bohr mag/cell

     iteration #152     ecut=    60.00 Ry     beta= 0.30
     Davidson diagonalization with overlap
     ethr =  6.55E-09,  avg # of iterations =  2.0

     total cpu time spent up to now is    15028.6 secs

     total energy              =   -4133.52238021 Ry
     estimated scf accuracy    <       0.00002052 Ry

     total magnetization       =     3.55 Bohr mag/cell
     absolute magnetization    =     6.21 Bohr mag/cell

     iteration #153     ecut=    60.00 Ry     beta= 0.30
     Davidson diagonalization with overlap
     ethr =  6.55E-09,  avg # of iterations =  1.7

     total cpu time spent up to now is    15099.6 secs

     total energy              =   -4133.52231784 Ry
     estimated scf accuracy    <       0.00002001 Ry

     total magnetization       =     3.56 Bohr mag/cell
     absolute magnetization    =     6.19 Bohr mag/cell

     iteration #154     ecut=    60.00 Ry     beta= 0.30
     Davidson diagonalization with overlap
     ethr =  6.55E-09,  avg # of iterations =  6.2

     total cpu time spent up to now is    15208.5 secs

     total energy              =   -4133.52235519 Ry
     estimated scf accuracy    <       0.00005704 Ry

     total magnetization       =     3.54 Bohr mag/cell
     absolute magnetization    =     6.30 Bohr mag/cell

     iteration #155     ecut=    60.00 Ry     beta= 0.30
     Davidson diagonalization with overlap
     ethr =  6.55E-09,  avg # of iterations =  5.1

     total cpu time spent up to now is    15301.0 secs

     total energy              =   -4133.52226734 Ry
     estimated scf accuracy    <       0.00004882 Ry

     total magnetization       =     3.55 Bohr mag/cell
     absolute magnetization    =     6.25 Bohr mag/cell

     iteration #156     ecut=    60.00 Ry     beta= 0.30
     Davidson diagonalization with overlap
     ethr =  6.55E-09,  avg # of iterations =  6.7

     total cpu time spent up to now is    15409.5 secs

     total energy              =   -4133.52226988 Ry
     estimated scf accuracy    <       0.00006194 Ry

     total magnetization       =     3.53 Bohr mag/cell
     absolute magnetization    =     6.40 Bohr mag/cell

     iteration #157     ecut=    60.00 Ry     beta= 0.30
     Davidson diagonalization with overlap
     ethr =  6.55E-09,  avg # of iterations =  5.8

     total cpu time spent up to now is    15512.0 secs

     total energy              =   -4133.52229852 Ry
     estimated scf accuracy    <       0.00008933 Ry

     total magnetization       =     3.52 Bohr mag/cell
     absolute magnetization    =     6.50 Bohr mag/cell

     iteration #158     ecut=    60.00 Ry     beta= 0.30
     Davidson diagonalization with overlap
     ethr =  6.55E-09,  avg # of iterations =  5.2

     total cpu time spent up to now is    15604.6 secs

     total energy              =   -4133.52228820 Ry
     estimated scf accuracy    <       0.00006126 Ry

     total magnetization       =     3.53 Bohr mag/cell
     absolute magnetization    =     6.45 Bohr mag/cell

     iteration #159     ecut=    60.00 Ry     beta= 0.30
     Davidson diagonalization with overlap
     ethr =  6.55E-09,  avg # of iterations =  7.0

     total cpu time spent up to now is    15721.1 secs

     total energy              =   -4133.52173874 Ry
     estimated scf accuracy    <       0.00006972 Ry

     total magnetization       =     3.54 Bohr mag/cell
     absolute magnetization    =     6.28 Bohr mag/cell

     iteration #160     ecut=    60.00 Ry     beta= 0.30
     Davidson diagonalization with overlap
     ethr =  6.55E-09,  avg # of iterations = 10.2

     total cpu time spent up to now is    15871.5 secs

     total energy              =   -4133.52210908 Ry
     estimated scf accuracy    <       0.00003639 Ry

     total magnetization       =     3.48 Bohr mag/cell
     absolute magnetization    =     6.76 Bohr mag/cell

     iteration #161     ecut=    60.00 Ry     beta= 0.30
     Davidson diagonalization with overlap
     ethr =  6.55E-09,  avg # of iterations =  9.2

     total cpu time spent up to now is    16004.7 secs

     total energy              =   -4133.52231067 Ry
     estimated scf accuracy    <       0.00003895 Ry

     total magnetization       =     3.52 Bohr mag/cell
     absolute magnetization    =     6.44 Bohr mag/cell

     iteration #162     ecut=    60.00 Ry     beta= 0.30
     Davidson diagonalization with overlap
