
     Program PWSCF v.7.5 starts on 21Apr2026 at 17:34:51 

     This program is part of the open-source Quantum ESPRESSO suite
     for quantum simulation of materials; please cite
         "P. Giannozzi et al., J. Phys.:Condens. Matter 21 395502 (2009);
         "P. Giannozzi et al., J. Phys.:Condens. Matter 29 465901 (2017);
         "P. Giannozzi et al., J. Chem. Phys. 152 154105 (2020);
          URL http://www.quantum-espresso.org", 
     in publications or presentations arising from this work. More details at
     http://www.quantum-espresso.org/quote

     Parallel version (MPI), running on     4 processors

     MPI processes distributed on     1 nodes
     2404 MiB available memory on the printing compute node when the environment starts

     Waiting for input...
     Reading input from standard input

     Current dimensions of program PWSCF are:
     Max number of different atomic species (ntypx) = 10
     Max number of k-points (npk) =  40000
     Max angular momentum in pseudopotentials (lmaxx) =  4
     file Cr.pbe-spn-kjpaw_psl.1.0.0.UPF: wavefunction(s)  3S 3P 3D renormalized
     Found identity + (  0.2500  0.2500  0.2500) symmetry
     This is a supercell, fractional translations are disabled
     Message from routine setup:
     using ibrav=0 with symmetry is DISCOURAGED, use correct ibrav instead

     R & G space division:  proc/nbgrp/npool/nimage =       4
     Subspace diagonalization in iterative solution of the eigenvalue problem:
     a serial algorithm will be used


     Parallelization info
     --------------------
     sticks:   dense  smooth     PW     G-vecs:    dense   smooth      PW
     Min         775     387    109                32368    11453    1779
     Max         779     388    110                32369    11456    1784
     Sum        3109    1549    437               129475    45817    7123

     Using Slab Decomposition



     bravais-lattice index     =            0
     lattice parameter (alat)  =      10.3935  a.u.
     unit-cell volume          =    1122.7542 (a.u.)^3
     number of atoms/cell      =           16
     number of atomic types    =            1
     number of electrons       =       224.00
     number of Kohn-Sham states=          134
     kinetic-energy cutoff     =      45.0000  Ry
     charge density cutoff     =     360.0000  Ry
     scf convergence threshold =      1.0E-06
     mixing beta               =       0.3000
     number of iterations used =            8  plain     mixing
     Exchange-correlation= SLA  PW   PBX  PBC
                           (   1   4   3   4   0   0   0)

     celldm(1)=  10.393494  celldm(2)=   0.000000  celldm(3)=   0.000000
     celldm(4)=   0.000000  celldm(5)=   0.000000  celldm(6)=   0.000000

     crystal axes: (cart. coord. in units of alat)
               a(1) = (   1.000000   0.000000   0.000000 )  
               a(2) = (   0.000000   1.000000   0.000000 )  
               a(3) = (   0.000000   0.000000   1.000000 )  

     reciprocal axes: (cart. coord. in units 2 pi/alat)
               b(1) = (  1.000000  0.000000  0.000000 )  
               b(2) = (  0.000000  1.000000  0.000000 )  
               b(3) = (  0.000000  0.000000  1.000000 )  


     PseudoPot. # 1 for Cr read from file:
     ./pseudo/Cr.pbe-spn-kjpaw_psl.1.0.0.UPF
     MD5 check sum: 198f1a2427a48552563eee314eba32ba
     Pseudo is Projector augmented-wave + core cor, Zval = 14.0
     Generated using &quot;atomic&quot; code by A. Dal Corso  v.6.3
     Shape of augmentation charge: PSQ
     Using radial grid of 1183 points,  6 beta functions with: 
                l(1) =   0
                l(2) =   0
                l(3) =   1
                l(4) =   1
                l(5) =   2
                l(6) =   2
     Q(r) pseudized with 0 coefficients 


     atomic species   valence    mass     pseudopotential
     Cr               14.00    51.99600     Cr( 1.00)

     Starting magnetic structure 
     atomic species   magnetization
     Cr              0.300

     48 Sym. Ops., with inversion, found



   Cartesian axes

     site n.     atom                  positions (alat units)
         1        Cr     tau(   1) = (   0.0000000   0.0000000   0.0000000  )
         2        Cr     tau(   2) = (   0.2500000   0.2500000   0.2500000  )
         3        Cr     tau(   3) = (   0.0000000   0.0000000   0.5000000  )
         4        Cr     tau(   4) = (   0.2500000   0.2500000   0.7500000  )
         5        Cr     tau(   5) = (   0.0000000   0.5000000   0.0000000  )
         6        Cr     tau(   6) = (   0.2500000   0.7500000   0.2500000  )
         7        Cr     tau(   7) = (   0.0000000   0.5000000   0.5000000  )
         8        Cr     tau(   8) = (   0.2500000   0.7500000   0.7500000  )
         9        Cr     tau(   9) = (   0.5000000   0.0000000   0.0000000  )
        10        Cr     tau(  10) = (   0.7500000   0.2500000   0.2500000  )
        11        Cr     tau(  11) = (   0.5000000   0.0000000   0.5000000  )
        12        Cr     tau(  12) = (   0.7500000   0.2500000   0.7500000  )
        13        Cr     tau(  13) = (   0.5000000   0.5000000   0.0000000  )
        14        Cr     tau(  14) = (   0.7500000   0.7500000   0.2500000  )
        15        Cr     tau(  15) = (   0.5000000   0.5000000   0.5000000  )
        16        Cr     tau(  16) = (   0.7500000   0.7500000   0.7500000  )

     number of k points=    10  Marzari-Vanderbilt smearing, width (Ry)=  0.0200
                       cart. coord. in units 2pi/alat
        k(    1) = (   0.0000000   0.0000000   0.0000000), wk =   0.0156250
        k(    2) = (   0.0000000   0.0000000   0.2500000), wk =   0.0937500
        k(    3) = (   0.0000000   0.0000000  -0.5000000), wk =   0.0468750
        k(    4) = (   0.0000000   0.2500000   0.2500000), wk =   0.1875000
        k(    5) = (   0.0000000   0.2500000  -0.5000000), wk =   0.1875000
        k(    6) = (   0.0000000  -0.5000000  -0.5000000), wk =   0.0468750
        k(    7) = (   0.2500000   0.2500000   0.2500000), wk =   0.1250000
        k(    8) = (   0.2500000   0.2500000  -0.5000000), wk =   0.1875000
        k(    9) = (   0.2500000  -0.5000000  -0.5000000), wk =   0.0937500
        k(   10) = (  -0.5000000  -0.5000000  -0.5000000), wk =   0.0156250

     Dense  grid:   129475 G-vectors     FFT dimensions: (  64,  64,  64)

     Smooth grid:    45817 G-vectors     FFT dimensions: (  45,  45,  45)

     Estimated max dynamical RAM per process >     199.65 MB

     Estimated total dynamical RAM >     798.60 MB

     Check: negative core charge=   -0.000007
     Generating pointlists ...
     new r_m :   0.1786 (alat units)  1.8565 (a.u.) for type    1

     Initial potential from superposition of free atoms

     starting charge     223.9876, renormalised to     224.0000
     Starting wfcs are  160 randomized atomic wfcs
     Checking if some PAW data can be deallocated... 

     total cpu time spent up to now is       36.6 secs

     Self-consistent Calculation

     iteration #  1     ecut=    45.00 Ry     beta= 0.30
     Davidson diagonalization with overlap
     ethr =  1.00E-02,  avg # of iterations =  2.9

     total cpu time spent up to now is      132.2 secs

     total energy              =   -3969.00735902 Ry
     estimated scf accuracy    <       2.76054558 Ry

     total magnetization       =    26.44 Bohr mag/cell
     absolute magnetization    =    26.44 Bohr mag/cell

     iteration #  2     ecut=    45.00 Ry     beta= 0.30
     Davidson diagonalization with overlap
     ethr =  1.23E-03,  avg # of iterations =  2.5

     total cpu time spent up to now is      217.9 secs

     total energy              =   -3969.87298970 Ry
     estimated scf accuracy    <       1.86926097 Ry

     total magnetization       =    20.38 Bohr mag/cell
     absolute magnetization    =    20.38 Bohr mag/cell

     iteration #  3     ecut=    45.00 Ry     beta= 0.30
     Davidson diagonalization with overlap
     ethr =  8.34E-04,  avg # of iterations =  3.8

     total cpu time spent up to now is      338.5 secs

     total energy              =   -3971.49805717 Ry
     estimated scf accuracy    <       1.30999540 Ry

     total magnetization       =     0.88 Bohr mag/cell
     absolute magnetization    =     1.44 Bohr mag/cell

     iteration #  4     ecut=    45.00 Ry     beta= 0.30
     Davidson diagonalization with overlap
     ethr =  5.85E-04,  avg # of iterations =  1.4

     total cpu time spent up to now is      413.7 secs

     total energy              =   -3971.44393842 Ry
     estimated scf accuracy    <       1.16502591 Ry

     total magnetization       =     1.15 Bohr mag/cell
     absolute magnetization    =     1.76 Bohr mag/cell

     iteration #  5     ecut=    45.00 Ry     beta= 0.30
     Davidson diagonalization with overlap
     ethr =  5.20E-04,  avg # of iterations =  1.0

     total cpu time spent up to now is      489.5 secs

     total energy              =   -3970.86660539 Ry
     estimated scf accuracy    <       1.07184860 Ry

     total magnetization       =     1.19 Bohr mag/cell
     absolute magnetization    =     1.83 Bohr mag/cell

     iteration #  6     ecut=    45.00 Ry     beta= 0.30
     Davidson diagonalization with overlap
     ethr =  4.79E-04,  avg # of iterations =  4.2

     total cpu time spent up to now is      616.4 secs

     total energy              =   -3971.33880594 Ry
     estimated scf accuracy    <       0.35608348 Ry

     total magnetization       =     0.34 Bohr mag/cell
     absolute magnetization    =     1.03 Bohr mag/cell

     iteration #  7     ecut=    45.00 Ry     beta= 0.30
     Davidson diagonalization with overlap
     ethr =  1.59E-04,  avg # of iterations =  1.4

     total cpu time spent up to now is      696.1 secs

     total energy              =   -3971.31321507 Ry
     estimated scf accuracy    <       0.34363089 Ry

     total magnetization       =     0.33 Bohr mag/cell
     absolute magnetization    =     0.93 Bohr mag/cell

     iteration #  8     ecut=    45.00 Ry     beta= 0.30
     Davidson diagonalization with overlap
     ethr =  1.53E-04,  avg # of iterations =  1.0

     total cpu time spent up to now is      768.3 secs

     total energy              =   -3971.28585729 Ry
     estimated scf accuracy    <       0.21951850 Ry

     total magnetization       =     0.34 Bohr mag/cell
     absolute magnetization    =     0.89 Bohr mag/cell

     iteration #  9     ecut=    45.00 Ry     beta= 0.30
     Davidson diagonalization with overlap
     ethr =  9.80E-05,  avg # of iterations =  1.4

     total cpu time spent up to now is      847.3 secs

     total energy              =   -3971.24562933 Ry
     estimated scf accuracy    <       0.10545264 Ry

     total magnetization       =     0.27 Bohr mag/cell
     absolute magnetization    =     0.73 Bohr mag/cell

     iteration # 10     ecut=    45.00 Ry     beta= 0.30
     Davidson diagonalization with overlap
     ethr =  4.71E-05,  avg # of iterations =  3.8

     total cpu time spent up to now is      953.7 secs

     total energy              =   -3971.27553037 Ry
     estimated scf accuracy    <       0.00560303 Ry

     total magnetization       =     0.02 Bohr mag/cell
     absolute magnetization    =     0.18 Bohr mag/cell

     iteration # 11     ecut=    45.00 Ry     beta= 0.30
     Davidson diagonalization with overlap
     ethr =  2.50E-06,  avg # of iterations =  6.8

     total cpu time spent up to now is     1075.1 secs

     total energy              =   -3971.27681574 Ry
     estimated scf accuracy    <       0.00998394 Ry

     total magnetization       =    -0.02 Bohr mag/cell
     absolute magnetization    =     0.15 Bohr mag/cell

     iteration # 12     ecut=    45.00 Ry     beta= 0.30
     Davidson diagonalization with overlap
     ethr =  2.50E-06,  avg # of iterations =  1.1

     total cpu time spent up to now is     1149.3 secs

     total energy              =   -3971.27247600 Ry
     estimated scf accuracy    <       0.00821858 Ry

     total magnetization       =    -0.03 Bohr mag/cell
     absolute magnetization    =     0.12 Bohr mag/cell

     iteration # 13     ecut=    45.00 Ry     beta= 0.30
     Davidson diagonalization with overlap
     ethr =  2.50E-06,  avg # of iterations =  4.6

     total cpu time spent up to now is     1284.5 secs

     total energy              =   -3971.27488846 Ry
     estimated scf accuracy    <       0.00123118 Ry

     total magnetization       =    -0.01 Bohr mag/cell
     absolute magnetization    =     0.05 Bohr mag/cell

     iteration # 14     ecut=    45.00 Ry     beta= 0.30
     Davidson diagonalization with overlap
     ethr =  5.50E-07,  avg # of iterations =  2.8

     total cpu time spent up to now is     1380.0 secs

     total energy              =   -3971.27503841 Ry
     estimated scf accuracy    <       0.00007044 Ry

     total magnetization       =    -0.00 Bohr mag/cell
     absolute magnetization    =     0.03 Bohr mag/cell

     iteration # 15     ecut=    45.00 Ry     beta= 0.30
     Davidson diagonalization with overlap
     ethr =  3.14E-08,  avg # of iterations =  5.8

     total cpu time spent up to now is     1519.4 secs

     total energy              =   -3971.27508229 Ry
     estimated scf accuracy    <       0.00004433 Ry

     total magnetization       =    -0.01 Bohr mag/cell
     absolute magnetization    =     0.02 Bohr mag/cell

     iteration # 16     ecut=    45.00 Ry     beta= 0.30
     Davidson diagonalization with overlap
     ethr =  1.98E-08,  avg # of iterations =  2.0

     total cpu time spent up to now is     1606.1 secs

     total energy              =   -3971.27508619 Ry
     estimated scf accuracy    <       0.00000665 Ry

     total magnetization       =    -0.01 Bohr mag/cell
     absolute magnetization    =     0.01 Bohr mag/cell

     iteration # 17     ecut=    45.00 Ry     beta= 0.30
     Davidson diagonalization with overlap
     ethr =  2.97E-09,  avg # of iterations =  6.5

     total cpu time spent up to now is     1759.9 secs

     total energy              =   -3971.27508732 Ry
     estimated scf accuracy    <       0.00001418 Ry

     total magnetization       =    -0.00 Bohr mag/cell
     absolute magnetization    =     0.01 Bohr mag/cell

     iteration # 18     ecut=    45.00 Ry     beta= 0.30
     Davidson diagonalization with overlap
     ethr =  2.97E-09,  avg # of iterations =  5.0

     total cpu time spent up to now is     1894.1 secs

     total energy              =   -3971.27509130 Ry
     estimated scf accuracy    <       0.00000274 Ry

     total magnetization       =    -0.00 Bohr mag/cell
     absolute magnetization    =     0.00 Bohr mag/cell

     iteration # 19     ecut=    45.00 Ry     beta= 0.30
     Davidson diagonalization with overlap
     ethr =  1.22E-09,  avg # of iterations =  2.4

     Magnetic moment per site  (integrated on atomic sphere of radius R)
     atom   1 (R=0.179)  charge= 12.1422  magn=  0.0002
     atom   2 (R=0.179)  charge= 12.1420  magn= -0.0002
     atom   3 (R=0.179)  charge= 12.1419  magn= -0.0001
     atom   4 (R=0.179)  charge= 12.1420  magn= -0.0002
     atom   5 (R=0.179)  charge= 12.1419  magn= -0.0001
     atom   6 (R=0.179)  charge= 12.1420  magn= -0.0002
     atom   7 (R=0.179)  charge= 12.1417  magn= -0.0000
     atom   8 (R=0.179)  charge= 12.1420  magn= -0.0002
     atom   9 (R=0.179)  charge= 12.1419  magn= -0.0001
     atom  10 (R=0.179)  charge= 12.1420  magn= -0.0002
     atom  11 (R=0.179)  charge= 12.1417  magn= -0.0000
     atom  12 (R=0.179)  charge= 12.1420  magn= -0.0002
     atom  13 (R=0.179)  charge= 12.1417  magn= -0.0000
     atom  14 (R=0.179)  charge= 12.1420  magn= -0.0002
     atom  15 (R=0.179)  charge= 12.1423  magn=  0.0004
     atom  16 (R=0.179)  charge= 12.1420  magn= -0.0002

     total cpu time spent up to now is     1987.7 secs

     End of self-consistent calculation

 ------ SPIN UP ------------


          k = 0.0000 0.0000 0.0000 (  5743 PWs)   bands (ev):

   -49.9360 -49.6497 -49.6492 -49.6492 -49.6492 -49.6490 -49.6490 -49.6220
   -49.6215 -49.6215 -49.6215 -49.6213 -49.6213 -49.5954 -49.5954 -49.4095
   -21.7576 -21.7576 -21.7576 -21.7574 -21.7574 -21.7574 -21.3446 -21.3446
   -21.3446 -21.1598 -21.1598 -21.1598 -21.1598 -21.1597 -21.1597 -21.1178
   -21.1178 -21.1178 -21.1178 -21.1178 -21.1178 -20.8960 -20.8960 -20.8960
   -20.8958 -20.8958 -20.8958 -20.8958 -20.8958 -20.8958 -20.8956 -20.8956
   -20.8956 -20.8724 -20.8724 -20.8724 -20.8723 -20.8723 -20.8723 -20.4908
   -20.4908 -20.4908 -20.4906 -20.4906 -20.4906 -20.4806 -20.4806 -20.4806
    13.7970  17.0159  17.0159  17.0375  17.0375  17.0375  17.0375  17.0375
    17.0375  17.8894  17.8895  17.8895  17.8895  17.8895  17.8895  19.1939
    19.1939  19.1939  19.1941  19.1941  19.1941  19.4601  19.4601  19.4601
    19.4602  19.4602  19.4602  19.8768  19.8768  19.8769  19.8769  19.8769
    19.8771  20.9994  20.9994  20.9994  21.5919  21.5919  21.5919  21.5921
    21.5921  21.5921  21.5921  21.5921  21.5921  21.5923  21.5923  21.5923
    22.8359  22.8359  22.8359  22.8360  22.8360  22.8360  23.3643  23.3643
    23.3918  23.3918  23.3919  23.3919  23.3919  23.3920  23.7833  23.7833
    23.7834  23.7835  23.7836  23.7838  23.8580  23.8580

          k = 0.0000 0.0000 0.2500 (  5714 PWs)   bands (ev):

   -49.9125 -49.7537 -49.6455 -49.6452 -49.6452 -49.6450 -49.6258 -49.6255
   -49.6255 -49.6253 -49.6177 -49.6177 -49.5990 -49.5990 -49.5516 -49.4260
   -21.7074 -21.7074 -21.6951 -21.6950 -21.6950 -21.6949 -21.3600 -21.3600
   -21.3473 -21.3106 -21.3106 -21.3106 -21.3105 -21.3095 -21.3095 -21.2843
   -21.0800 -21.0800 -21.0648 -21.0648 -20.9618 -20.9098 -20.9097 -20.8936
   -20.8936 -20.8936 -20.8936 -20.8750 -20.8750 -20.8750 -20.8750 -20.8735
   -20.8735 -20.7745 -20.7743 -20.7743 -20.7742 -20.7317 -20.7317 -20.5479
   -20.5380 -20.5380 -20.5242 -20.5240 -20.5240 -20.5239 -20.5109 -20.5109
    14.1742  16.6497  17.2057  17.2057  17.2057  17.2057  17.2158  17.2563
    17.3492  17.3492  17.9123  17.9124  17.9124  17.9124  18.2551  18.7181
    19.0526  19.0526  19.1376  19.1376  19.1488  19.1488  19.4083  19.4084
    19.4084  19.4085  19.8136  19.8137  19.8137  19.8138  20.1300  20.1300
    20.9078  20.9079  20.9079  20.9080  20.9834  20.9834  21.1280  21.1321
    21.1560  21.1560  21.9959  21.9960  21.9960  21.9961  22.0280  22.0280
    22.0280  22.0280  22.1082  22.3521  22.3521  22.4856  22.4856  23.0735
    23.2295  23.2295  23.2295  23.2296  23.4528  23.4528  23.4739  23.5411
    23.5412  23.5412  23.5413  23.5984  23.7798  23.7798

          k = 0.0000 0.0000-0.5000 (  5702 PWs)   bands (ev):

   -49.8474 -49.8474 -49.6358 -49.6355 -49.6354 -49.6354 -49.6354 -49.6354
   -49.6352 -49.6350 -49.6084 -49.6083 -49.6083 -49.6083 -49.4744 -49.4744
   -21.5677 -21.5677 -21.5677 -21.5677 -21.5297 -21.5295 -21.5295 -21.5295
   -21.5295 -21.5295 -21.5294 -21.5293 -21.3374 -21.3373 -21.2099 -21.2099
   -21.2098 -21.2098 -20.9952 -20.9952 -20.9952 -20.9952 -20.8850 -20.8850
   -20.8849 -20.8849 -20.8849 -20.8849 -20.8849 -20.8849 -20.7332 -20.7331
   -20.6712 -20.6712 -20.6712 -20.6712 -20.6220 -20.6218 -20.6218 -20.6218
   -20.6218 -20.6218 -20.6217 -20.6216 -20.5982 -20.5982 -20.5982 -20.5982
    15.2192  15.2192  17.6197  17.6197  17.6197  17.6197  17.6197  17.6197
    17.6197  17.6197  17.7999  17.7999  17.8263  17.8263  18.1539  18.1539
    18.1539  18.1540  19.0804  19.0804  19.0804  19.0804  20.0183  20.0184
    20.0185  20.0185  20.0185  20.0185  20.0186  20.0186  20.5059  20.5061
    20.5061  20.5061  20.5062  20.5062  20.5062  20.5063  20.9927  20.9927
    20.9927  20.9927  21.1610  21.1610  21.1611  21.1611  21.5160  21.5160
    22.2685  22.2686  22.7308  22.7309  22.7309  22.7309  22.7309  22.7309
    22.7309  22.7310  23.3779  23.3779  23.3779  23.3780  23.6081  23.6081
    23.6081  23.6081  23.7741  23.7742  23.8206  23.8206

          k = 0.0000 0.2500 0.2500 (  5752 PWs)   bands (ev):

   -49.8906 -49.7424 -49.7421 -49.6684 -49.6413 -49.6413 -49.6220 -49.6217
   -49.6217 -49.6215 -49.6029 -49.6029 -49.5908 -49.5554 -49.5552 -49.4409
   -21.6976 -21.6558 -21.6557 -21.6556 -21.6555 -21.5783 -21.4184 -21.4182
   -21.4174 -21.4174 -21.4063 -21.3759 -21.3759 -21.2768 -21.2224 -21.1223
   -21.1221 -21.0840 -21.0839 -21.0484 -21.0482 -20.9439 -20.9367 -20.9365
   -20.9298 -20.9298 -20.9188 -20.9187 -20.9187 -20.9186 -20.8157 -20.7814
   -20.7814 -20.7424 -20.7422 -20.7005 -20.7005 -20.6731 -20.6289 -20.6287
   -20.6205 -20.5545 -20.5544 -20.5543 -20.5543 -20.5384 -20.4896 -20.4802
    14.5324  16.8118  16.8118  17.1028  17.4061  17.4905  17.5088  17.5119
    17.5119  17.5119  17.5119  18.0465  18.0465  18.2794  18.2795  18.8053
    18.8054  18.8876  18.8877  19.3251  19.3252  19.3252  19.3253  19.3707
    19.3707  19.4301  19.5653  19.5653  19.8053  20.0407  20.0408  20.5541
    20.5543  20.5567  20.5568  20.7020  20.7673  20.7673  20.9198  20.9724
    21.5298  21.5892  21.5892  21.5893  21.5893  21.6020  21.6022  21.8804
    22.0428  22.0430  22.1958  22.1959  22.3247  22.3249  22.7925  22.7927
    22.7948  23.0806  23.2820  23.2820  23.2820  23.2821  23.3116  23.3893
    23.6690  23.6821  23.7047  23.7047  23.8313  23.8403

          k = 0.0000 0.2500-0.5000 (  5716 PWs)   bands (ev):

   -49.8295 -49.8294 -49.7109 -49.7109 -49.6314 -49.6314 -49.6314 -49.6314
   -49.6124 -49.6123 -49.6123 -49.6123 -49.5677 -49.5676 -49.4847 -49.4847
   -21.5927 -21.5927 -21.5476 -21.5476 -21.5475 -21.5475 -21.5211 -21.5211
   -21.5211 -21.5211 -21.4426 -21.4426 -21.3688 -21.3688 -21.1826 -21.1826
   -21.0887 -21.0887 -21.0135 -21.0135 -21.0135 -21.0135 -21.0059 -21.0059
   -20.9353 -20.9353 -20.9353 -20.9353 -20.8870 -20.8870 -20.7711 -20.7710
   -20.7631 -20.7631 -20.6454 -20.6454 -20.6454 -20.6454 -20.6173 -20.6172
   -20.6083 -20.6083 -20.6083 -20.6083 -20.5233 -20.5233 -20.5210 -20.5210
    15.5125  15.5125  17.0445  17.0445  17.8787  17.8787  17.9005  17.9005
    17.9005  17.9005  17.9496  17.9496  18.1073  18.1073  18.2602  18.2602
    18.2602  18.2602  19.2141  19.2141  19.2141  19.2141  19.6363  19.6363
    19.6363  19.6363  19.7581  19.7581  19.8445  19.8445  20.5118  20.5118
    20.5279  20.5279  20.5279  20.5279  20.5800  20.5800  20.6974  20.6974
    20.6974  20.6974  20.7884  20.7884  20.8018  20.8018  22.1064  22.1064
    22.4304  22.4305  22.5821  22.5821  22.5871  22.5871  22.7967  22.7967
    22.7967  22.7968  22.8780  22.8780  23.0342  23.0343  23.4822  23.4822
    23.4823  23.4823  23.6583  23.6583  23.7532  23.7536

          k = 0.0000-0.5000-0.5000 (  5712 PWs)   bands (ev):

   -49.7805 -49.7805 -49.7803 -49.7803 -49.6221 -49.6220 -49.6218 -49.6218
   -49.6218 -49.6218 -49.6216 -49.6216 -49.5162 -49.5162 -49.5160 -49.5160
   -21.5535 -21.5535 -21.5533 -21.5533 -21.5176 -21.5176 -21.5176 -21.5176
   -21.5174 -21.5174 -21.5173 -21.5173 -21.1349 -21.1349 -21.1346 -21.1346
   -21.1112 -21.1111 -21.1109 -21.1109 -21.0065 -21.0065 -21.0062 -21.0062
   -21.0062 -21.0062 -21.0060 -21.0060 -20.9240 -20.9240 -20.9237 -20.9237
   -20.6788 -20.6788 -20.6786 -20.6786 -20.6102 -20.6102 -20.6101 -20.6101
   -20.6099 -20.6099 -20.6099 -20.6099 -20.4847 -20.4847 -20.4844 -20.4844
    16.2474  16.2474  16.2475  16.2475  17.9993  17.9993  17.9995  17.9995
    18.3627  18.3627  18.3628  18.3628  18.3628  18.3628  18.3629  18.3629
    18.8579  18.8579  18.8581  18.8581  19.3144  19.3144  19.3144  19.3144
    19.3145  19.3145  19.3146  19.3146  20.0358  20.0358  20.0360  20.0360
    20.2835  20.2835  20.2836  20.2837  20.2837  20.2837  20.2838  20.2838
    20.6738  20.6738  20.6740  20.6740  21.4822  21.4822  21.4824  21.4824
    22.5027  22.5027  22.5029  22.5029  22.9326  22.9326  22.9328  22.9329
    22.9864  22.9864  22.9866  22.9866  23.1274  23.1275  23.1275  23.1275
    23.1276  23.1276  23.1277  23.1278  23.4981  23.4982

          k = 0.2500 0.2500 0.2500 (  5692 PWs)   bands (ev):

   -49.8699 -49.7315 -49.7312 -49.7312 -49.6617 -49.6613 -49.6613 -49.6215
   -49.5920 -49.5900 -49.5897 -49.5897 -49.5585 -49.5581 -49.5581 -49.4540
   -21.6509 -21.6509 -21.6507 -21.5572 -21.5571 -21.5571 -21.4693 -21.4544
   -21.4541 -21.4541 -21.3682 -21.3682 -21.3177 -21.3177 -21.2082 -21.2082
   -21.2081 -21.1079 -21.1069 -21.1069 -21.1067 -21.0158 -21.0156 -21.0156
   -20.8522 -20.8522 -20.8342 -20.8341 -20.8341 -20.8306 -20.8306 -20.8305
   -20.7793 -20.7550 -20.7550 -20.7548 -20.6910 -20.6109 -20.6109 -20.6109
   -20.5934 -20.5931 -20.5931 -20.5332 -20.5332 -20.5330 -20.5133 -20.5133
    14.8793  17.0241  17.0242  17.0242  17.4407  17.4407  17.4407  17.6558
    17.6558  17.7985  17.7985  17.7986  18.5259  18.5259  18.5259  18.6612
    18.8209  18.8209  18.8211  19.1920  19.1920  19.3615  19.3615  19.3616
    19.5302  19.6144  19.6145  19.6145  19.7936  19.7936  20.1148  20.1148
    20.1149  20.4532  20.4534  20.4534  20.6242  20.6242  20.8089  20.8089
    20.8090  21.0203  21.0203  21.0204  21.2193  21.2195  21.2195  21.9445
    22.3011  22.3011  22.3012  22.6551  22.6551  22.6552  22.7300  23.0104
    23.0104  23.0104  23.2228  23.2228  23.3244  23.3244  23.3244  23.3664
    23.3664  23.3666  23.6953  23.6955  23.6969  23.7187

          k = 0.2500 0.2500-0.5000 (  5728 PWs)   bands (ev):

   -49.8128 -49.8127 -49.7017 -49.7016 -49.7014 -49.7013 -49.6438 -49.6437
   -49.5888 -49.5887 -49.5692 -49.5691 -49.5690 -49.5689 -49.4940 -49.4940
   -21.5608 -21.5608 -21.5607 -21.5606 -21.5158 -21.5158 -21.5156 -21.5155
   -21.4452 -21.4452 -21.3885 -21.3885 -21.3884 -21.3884 -21.2629 -21.2629
   -21.1684 -21.1684 -21.0964 -21.0964 -21.0963 -21.0963 -20.9863 -20.9863
   -20.9722 -20.9722 -20.8675 -20.8675 -20.7825 -20.7825 -20.7825 -20.7825
   -20.7049 -20.7049 -20.7048 -20.7047 -20.6608 -20.6608 -20.6261 -20.6261
   -20.6090 -20.6090 -20.5468 -20.5468 -20.5466 -20.5466 -20.5256 -20.5256
    15.8165  15.8165  17.3632  17.3632  17.3632  17.3632  18.1269  18.1269
    18.2255  18.2255  18.2547  18.2547  18.2547  18.2547  18.3299  18.3299
    18.4386  18.4386  19.2302  19.2302  19.3828  19.3829  19.5439  19.5440
    19.5441  19.5441  19.7037  19.7037  19.7037  19.7038  20.1651  20.1651
    20.3147  20.3147  20.3148  20.3148  20.3525  20.3525  20.3698  20.3698
    20.3843  20.3844  20.3845  20.3845  20.4260  20.4260  21.6642  21.6642
    22.6362  22.6362  22.7819  22.7820  22.8007  22.8007  22.8007  22.8007
    22.9240  22.9240  22.9241  22.9241  23.4251  23.4252  23.4986  23.4987
    23.5271  23.5272  23.5762  23.5763  23.7169  23.7170

          k = 0.2500-0.5000-0.5000 (  5736 PWs)   bands (ev):

   -49.7666 -49.7666 -49.7663 -49.7663 -49.6767 -49.6766 -49.6764 -49.6764
   -49.5752 -49.5752 -49.5750 -49.5750 -49.5223 -49.5223 -49.5221 -49.5221
   -21.5107 -21.5107 -21.5105 -21.5105 -21.5002 -21.5002 -21.5001 -21.5001
   -21.4471 -21.4471 -21.4471 -21.4471 -21.2284 -21.2284 -21.2283 -21.2283
   -21.2144 -21.2144 -21.2142 -21.2142 -21.1882 -21.1882 -21.1881 -21.1881
   -20.8276 -20.8276 -20.8274 -20.8274 -20.8040 -20.8040 -20.8037 -20.8037
   -20.6631 -20.6630 -20.6629 -20.6629 -20.6422 -20.6422 -20.6422 -20.6422
   -20.6124 -20.6124 -20.6124 -20.6124 -20.5228 -20.5228 -20.5225 -20.5225
    16.5766  16.5766  16.5767  16.5767  18.0815  18.0815  18.0815  18.0815
    18.3055  18.3055  18.3057  18.3057  18.8034  18.8034  18.8034  18.8034
    18.9161  18.9161  18.9162  18.9162  19.1997  19.1997  19.1997  19.1997
    19.4629  19.4629  19.4630  19.4630  19.7951  19.7952  19.7953  19.7953
    19.9298  19.9298  19.9300  19.9300  20.0285  20.0285  20.0286  20.0286
    20.2427  20.2427  20.2428  20.2428  20.6839  20.6839  20.6840  20.6840
    23.0820  23.0820  23.0822  23.0822  23.1800  23.1800  23.1801  23.1801
    23.2293  23.2294  23.2295  23.2295  23.2824  23.2824  23.2825  23.2825
    23.4742  23.4742  23.4744  23.4744  23.5324  23.5326

          k =-0.5000-0.5000-0.5000 (  5832 PWs)   bands (ev):

   -49.7292 -49.7290 -49.7287 -49.7287 -49.7287 -49.7286 -49.7286 -49.7286
   -49.5422 -49.5420 -49.5416 -49.5416 -49.5416 -49.5415 -49.5415 -49.5415
   -21.3931 -21.3931 -21.3931 -21.3929 -21.3929 -21.3929 -21.3928 -21.3928
   -21.3927 -21.3927 -21.3927 -21.3927 -21.3927 -21.3927 -21.3927 -21.3927
   -21.3161 -21.3161 -21.3161 -21.3160 -21.3160 -21.3160 -21.3160 -21.3159
   -20.7169 -20.7169 -20.7169 -20.7168 -20.7168 -20.7168 -20.7167 -20.7166
   -20.6350 -20.6350 -20.6350 -20.6348 -20.6348 -20.6348 -20.6346 -20.6346
   -20.6346 -20.6346 -20.6346 -20.6345 -20.6345 -20.6345 -20.6345 -20.6345
    17.3969  17.3969  17.3970  17.3970  17.3970  17.3970  17.3970  17.3970
    19.0558  19.0558  19.0558  19.0558  19.0560  19.0560  19.0560  19.0560
    19.0560  19.0560  19.0560  19.0560  19.0560  19.0561  19.0561  19.0561
    19.6907  19.6907  19.6907  19.6908  19.6908  19.6908  19.6910  19.6910
    19.6910  19.6910  19.6910  19.6910  19.6910  19.6911  19.6911  19.6911
    19.6937  19.6937  19.6937  19.6938  19.6938  19.6938  19.6938  19.6939
    23.3825  23.3825  23.3826  23.3827  23.3828  23.3828  23.3829  23.3829
    23.3829  23.3829  23.3829  23.3829  23.3830  23.3830  23.3830  23.3831
    23.8366  23.8366  23.8367  23.8367  23.8368  23.8368

 ------ SPIN DOWN ----------


          k = 0.0000 0.0000 0.0000 (  5743 PWs)   bands (ev):

   -49.9364 -49.6497 -49.6497 -49.6497 -49.6496 -49.6494 -49.6494 -49.6221
   -49.6221 -49.6221 -49.6220 -49.6217 -49.6217 -49.5960 -49.5957 -49.4099
   -21.7580 -21.7580 -21.7580 -21.7579 -21.7579 -21.7579 -21.3450 -21.3450
   -21.3450 -21.1604 -21.1603 -21.1603 -21.1601 -21.1601 -21.1601 -21.1184
   -21.1184 -21.1184 -21.1181 -21.1181 -21.1181 -20.8964 -20.8964 -20.8964
   -20.8963 -20.8963 -20.8963 -20.8962 -20.8962 -20.8962 -20.8960 -20.8960
   -20.8960 -20.8730 -20.8729 -20.8729 -20.8726 -20.8726 -20.8726 -20.4912
   -20.4912 -20.4912 -20.4911 -20.4911 -20.4911 -20.4810 -20.4810 -20.4810
    13.7967  17.0154  17.0154  17.0372  17.0372  17.0372  17.0372  17.0372
    17.0372  17.8891  17.8891  17.8891  17.8891  17.8892  17.8892  19.1937
    19.1937  19.1937  19.1938  19.1938  19.1938  19.4598  19.4598  19.4598
    19.4600  19.4600  19.4600  19.8762  19.8762  19.8762  19.8764  19.8764
    19.8765  20.9991  20.9991  20.9991  21.5917  21.5917  21.5917  21.5918
    21.5918  21.5918  21.5919  21.5919  21.5919  21.5920  21.5920  21.5920
    22.8355  22.8356  22.8356  22.8358  22.8358  22.8358  23.3636  23.3636
    23.3913  23.3913  23.3913  23.3914  23.3914  23.3914  23.7826  23.7827
    23.7828  23.7829  23.7830  23.7831  23.8573  23.8574

          k = 0.0000 0.0000 0.2500 (  5714 PWs)   bands (ev):

   -49.9129 -49.7541 -49.6458 -49.6458 -49.6456 -49.6454 -49.6260 -49.6260
   -49.6259 -49.6257 -49.6183 -49.6180 -49.5995 -49.5993 -49.5520 -49.4264
   -21.7078 -21.7078 -21.6954 -21.6954 -21.6954 -21.6953 -21.3604 -21.3604
   -21.3478 -21.3111 -21.3110 -21.3109 -21.3109 -21.3100 -21.3100 -21.2847
   -21.0806 -21.0803 -21.0653 -21.0653 -20.9622 -20.9103 -20.9100 -20.8942
   -20.8942 -20.8939 -20.8939 -20.8756 -20.8755 -20.8753 -20.8753 -20.8740
   -20.8740 -20.7748 -20.7748 -20.7748 -20.7746 -20.7322 -20.7322 -20.5483
   -20.5384 -20.5384 -20.5245 -20.5245 -20.5245 -20.5244 -20.5113 -20.5113
    14.1739  16.6494  17.2054  17.2054  17.2054  17.2054  17.2153  17.2558
    17.3489  17.3489  17.9120  17.9120  17.9120  17.9120  18.2547  18.7175
    19.0523  19.0524  19.1373  19.1373  19.1486  19.1486  19.4081  19.4082
    19.4082  19.4082  19.8132  19.8132  19.8132  19.8133  20.1297  20.1297
    20.9076  20.9076  20.9077  20.9077  20.9831  20.9831  21.1274  21.1318
    21.1558  21.1558  21.9955  21.9955  21.9955  21.9957  22.0276  22.0276
    22.0277  22.0277  22.1079  22.3518  22.3518  22.4853  22.4853  23.0729
    23.2290  23.2290  23.2291  23.2291  23.4522  23.4523  23.4732  23.5408
    23.5409  23.5410  23.5410  23.5981  23.7792  23.7794

          k = 0.0000 0.0000-0.5000 (  5702 PWs)   bands (ev):

   -49.8478 -49.8478 -49.6359 -49.6359 -49.6359 -49.6359 -49.6358 -49.6357
   -49.6357 -49.6354 -49.6089 -49.6089 -49.6087 -49.6086 -49.4749 -49.4748
   -21.5682 -21.5682 -21.5681 -21.5681 -21.5300 -21.5300 -21.5299 -21.5299
   -21.5299 -21.5299 -21.5299 -21.5298 -21.3378 -21.3377 -21.2103 -21.2103
   -21.2102 -21.2102 -20.9958 -20.9958 -20.9955 -20.9955 -20.8855 -20.8855
   -20.8855 -20.8855 -20.8853 -20.8853 -20.8852 -20.8852 -20.7336 -20.7335
   -20.6717 -20.6717 -20.6716 -20.6716 -20.6223 -20.6223 -20.6223 -20.6222
   -20.6222 -20.6222 -20.6222 -20.6220 -20.5987 -20.5987 -20.5986 -20.5986
    15.2188  15.2189  17.6194  17.6194  17.6194  17.6194  17.6194  17.6194
    17.6194  17.6194  17.7993  17.7994  17.8258  17.8258  18.1536  18.1536
    18.1536  18.1537  19.0801  19.0801  19.0802  19.0802  20.0182  20.0182
    20.0182  20.0182  20.0182  20.0183  20.0183  20.0184  20.5056  20.5056
    20.5056  20.5056  20.5056  20.5057  20.5057  20.5059  20.9924  20.9924
    20.9925  20.9925  21.1608  21.1608  21.1608  21.1608  21.5157  21.5157
    22.2679  22.2680  22.7304  22.7305  22.7305  22.7305  22.7305  22.7305
    22.7305  22.7305  23.3776  23.3776  23.3776  23.3777  23.6075  23.6075
    23.6076  23.6077  23.7734  23.7734  23.8199  23.8201

          k = 0.0000 0.2500 0.2500 (  5752 PWs)   bands (ev):

   -49.8910 -49.7427 -49.7426 -49.6689 -49.6418 -49.6416 -49.6223 -49.6223
   -49.6221 -49.6219 -49.6035 -49.6032 -49.5913 -49.5557 -49.5557 -49.4413
   -21.6980 -21.6561 -21.6561 -21.6561 -21.6560 -21.5788 -21.4188 -21.4187
   -21.4178 -21.4178 -21.4067 -21.3764 -21.3763 -21.2772 -21.2228 -21.1227
   -21.1226 -21.0845 -21.0842 -21.0488 -21.0487 -20.9443 -20.9370 -20.9370
   -20.9304 -20.9301 -20.9193 -20.9192 -20.9190 -20.9190 -20.8161 -20.7818
   -20.7818 -20.7428 -20.7427 -20.7010 -20.7009 -20.6735 -20.6293 -20.6292
   -20.6209 -20.5549 -20.5548 -20.5548 -20.5548 -20.5389 -20.4900 -20.4806
    14.5321  16.8115  16.8115  17.1025  17.4056  17.4900  17.5085  17.5116
    17.5116  17.5116  17.5116  18.0462  18.0462  18.2789  18.2790  18.8051
    18.8051  18.8871  18.8871  19.3249  19.3249  19.3249  19.3249  19.3704
    19.3705  19.4299  19.5648  19.5649  19.8050  20.0404  20.0405  20.5539
    20.5540  20.5563  20.5563  20.7018  20.7670  20.7670  20.9196  20.9720
    21.5295  21.5888  21.5889  21.5889  21.5889  21.6018  21.6018  21.8800
    22.0424  22.0425  22.1954  22.1955  22.3245  22.3245  22.7923  22.7924
    22.7943  23.0800  23.2814  23.2815  23.2815  23.2815  23.3111  23.3887
    23.6687  23.6815  23.7041  23.7042  23.8307  23.8308

          k = 0.0000 0.2500-0.5000 (  5716 PWs)   bands (ev):

   -49.8299 -49.8298 -49.7113 -49.7113 -49.6319 -49.6319 -49.6317 -49.6316
   -49.6129 -49.6129 -49.6127 -49.6126 -49.5681 -49.5680 -49.4851 -49.4851
   -21.5931 -21.5931 -21.5480 -21.5480 -21.5480 -21.5479 -21.5216 -21.5215
   -21.5215 -21.5215 -21.4430 -21.4430 -21.3693 -21.3693 -21.1830 -21.1830
   -21.0891 -21.0891 -21.0140 -21.0140 -21.0138 -21.0138 -21.0064 -21.0063
   -20.9359 -20.9359 -20.9356 -20.9356 -20.8875 -20.8875 -20.7715 -20.7715
   -20.7636 -20.7636 -20.6459 -20.6458 -20.6458 -20.6458 -20.6177 -20.6176
   -20.6088 -20.6088 -20.6088 -20.6087 -20.5237 -20.5237 -20.5215 -20.5215
    15.5122  15.5122  17.0441  17.0442  17.8782  17.8782  17.9002  17.9002
    17.9002  17.9002  17.9492  17.9492  18.1068  18.1068  18.2599  18.2599
    18.2599  18.2600  19.2138  19.2138  19.2139  19.2139  19.6360  19.6360
    19.6360  19.6360  19.7576  19.7577  19.8443  19.8443  20.5116  20.5116
    20.5275  20.5275  20.5276  20.5276  20.5798  20.5798  20.6971  20.6971
    20.6971  20.6972  20.7880  20.7880  20.8015  20.8016  22.1061  22.1061
    22.4301  22.4301  22.5818  22.5818  22.5865  22.5865  22.7963  22.7963
    22.7963  22.7963  22.8775  22.8775  23.0339  23.0340  23.4816  23.4816
    23.4817  23.4817  23.6576  23.6577  23.7529  23.7530

          k = 0.0000-0.5000-0.5000 (  5712 PWs)   bands (ev):

   -49.7809 -49.7808 -49.7808 -49.7808 -49.6224 -49.6224 -49.6224 -49.6224
   -49.6223 -49.6221 -49.6220 -49.6220 -49.5166 -49.5165 -49.5165 -49.5165
   -21.5539 -21.5539 -21.5538 -21.5538 -21.5180 -21.5179 -21.5179 -21.5179
   -21.5179 -21.5179 -21.5178 -21.5178 -21.1352 -21.1352 -21.1351 -21.1351
   -21.1116 -21.1115 -21.1114 -21.1114 -21.0068 -21.0068 -21.0067 -21.0067
   -21.0066 -21.0066 -21.0064 -21.0064 -20.9243 -20.9243 -20.9243 -20.9242
   -20.6792 -20.6791 -20.6791 -20.6791 -20.6106 -20.6105 -20.6105 -20.6105
   -20.6104 -20.6104 -20.6104 -20.6104 -20.4850 -20.4850 -20.4849 -20.4849
    16.2471  16.2472  16.2472  16.2472  17.9989  17.9989  17.9990  17.9990
    18.3624  18.3625  18.3625  18.3625  18.3625  18.3625  18.3626  18.3626
    18.8574  18.8575  18.8575  18.8575  19.3141  19.3141  19.3141  19.3141
    19.3141  19.3141  19.3142  19.3142  20.0356  20.0356  20.0357  20.0357
    20.2833  20.2833  20.2833  20.2833  20.2834  20.2834  20.2835  20.2835
    20.6735  20.6736  20.6736  20.6736  21.4820  21.4820  21.4820  21.4821
    22.5024  22.5025  22.5025  22.5025  22.9325  22.9325  22.9325  22.9325
    22.9859  22.9859  22.9860  22.9860  23.1270  23.1270  23.1271  23.1271
    23.1271  23.1271  23.1271  23.1272  23.4976  23.4976

          k = 0.2500 0.2500 0.2500 (  5692 PWs)   bands (ev):

   -49.8703 -49.7318 -49.7317 -49.7317 -49.6619 -49.6618 -49.6618 -49.6219
   -49.5925 -49.5903 -49.5902 -49.5902 -49.5588 -49.5586 -49.5586 -49.4545
   -21.6513 -21.6513 -21.6512 -21.5576 -21.5575 -21.5575 -21.4697 -21.4547
   -21.4546 -21.4546 -21.3686 -21.3686 -21.3181 -21.3181 -21.2086 -21.2086
   -21.2086 -21.1083 -21.1073 -21.1073 -21.1072 -21.0161 -21.0160 -21.0160
   -20.8526 -20.8526 -20.8346 -20.8345 -20.8345 -20.8310 -20.8310 -20.8310
   -20.7798 -20.7554 -20.7554 -20.7553 -20.6914 -20.6113 -20.6113 -20.6113
   -20.5937 -20.5936 -20.5936 -20.5336 -20.5336 -20.5335 -20.5137 -20.5137
    14.8790  17.0239  17.0239  17.0239  17.4404  17.4404  17.4404  17.6553
    17.6553  17.7982  17.7982  17.7982  18.5254  18.5254  18.5254  18.6610
    18.8205  18.8205  18.8205  19.1917  19.1917  19.3612  19.3612  19.3613
    19.5299  19.6142  19.6143  19.6143  19.7933  19.7933  20.1145  20.1145
    20.1145  20.4530  20.4531  20.4531  20.6240  20.6240  20.8085  20.8085
    20.8086  21.0200  21.0200  21.0200  21.2190  21.2191  21.2191  21.9442
    22.3006  22.3006  22.3007  22.6548  22.6548  22.6549  22.7297  23.0100
    23.0100  23.0100  23.2221  23.2222  23.3239  23.3239  23.3239  23.3661
    23.3662  23.3662  23.6947  23.6948  23.6965  23.7181

          k = 0.2500 0.2500-0.5000 (  5728 PWs)   bands (ev):

   -49.8132 -49.8131 -49.7020 -49.7020 -49.7019 -49.7018 -49.6442 -49.6441
   -49.5892 -49.5891 -49.5695 -49.5695 -49.5695 -49.5694 -49.4945 -49.4944
   -21.5612 -21.5612 -21.5611 -21.5611 -21.5162 -21.5162 -21.5160 -21.5159
   -21.4456 -21.4456 -21.3890 -21.3889 -21.3889 -21.3889 -21.2634 -21.2633
   -21.1688 -21.1688 -21.0968 -21.0968 -21.0968 -21.0967 -20.9868 -20.9868
   -20.9727 -20.9727 -20.8679 -20.8679 -20.7830 -20.7829 -20.7829 -20.7829
   -20.7053 -20.7053 -20.7052 -20.7052 -20.6613 -20.6612 -20.6265 -20.6265
   -20.6094 -20.6094 -20.5472 -20.5472 -20.5471 -20.5471 -20.5260 -20.5260
    15.8162  15.8163  17.3629  17.3629  17.3629  17.3629  18.1263  18.1264
    18.2250  18.2250  18.2543  18.2543  18.2543  18.2543  18.3296  18.3296
    18.4383  18.4384  19.2299  19.2300  19.3825  19.3825  19.5436  19.5436
    19.5436  19.5437  19.7034  19.7034  19.7035  19.7035  20.1648  20.1648
    20.3144  20.3144  20.3145  20.3145  20.3521  20.3521  20.3696  20.3696
    20.3841  20.3841  20.3841  20.3842  20.4257  20.4258  21.6639  21.6639
    22.6360  22.6360  22.7814  22.7814  22.8003  22.8003  22.8003  22.8003
    22.9235  22.9235  22.9235  22.9236  23.4247  23.4247  23.4981  23.4981
    23.5268  23.5269  23.5756  23.5757  23.7164  23.7169

          k = 0.2500-0.5000-0.5000 (  5736 PWs)   bands (ev):

   -49.7670 -49.7669 -49.7668 -49.7668 -49.6771 -49.6770 -49.6769 -49.6769
   -49.5756 -49.5755 -49.5755 -49.5755 -49.5227 -49.5226 -49.5226 -49.5226
   -21.5111 -21.5111 -21.5110 -21.5109 -21.5006 -21.5006 -21.5006 -21.5006
   -21.4475 -21.4475 -21.4475 -21.4475 -21.2289 -21.2288 -21.2288 -21.2288
   -21.2148 -21.2148 -21.2147 -21.2147 -21.1886 -21.1886 -21.1886 -21.1886
   -20.8279 -20.8279 -20.8279 -20.8279 -20.8043 -20.8043 -20.8042 -20.8042
   -20.6635 -20.6634 -20.6633 -20.6633 -20.6427 -20.6426 -20.6426 -20.6426
   -20.6129 -20.6128 -20.6128 -20.6128 -20.5231 -20.5231 -20.5230 -20.5230
    16.5763  16.5764  16.5764  16.5764  18.0812  18.0812  18.0812  18.0812
    18.3051  18.3051  18.3052  18.3052  18.8031  18.8031  18.8031  18.8031
    18.9156  18.9157  18.9157  18.9157  19.1992  19.1992  19.1992  19.1993
    19.4626  19.4626  19.4627  19.4627  19.7949  19.7949  19.7950  19.7950
    19.9296  19.9296  19.9297  19.9297  20.0282  20.0282  20.0282  20.0282
    20.2425  20.2425  20.2425  20.2425  20.6837  20.6837  20.6837  20.6837
    23.0815  23.0816  23.0816  23.0816  23.1797  23.1798  23.1798  23.1799
    23.2288  23.2289  23.2289  23.2289  23.2820  23.2821  23.2821  23.2822
    23.4736  23.4737  23.4737  23.4739  23.5322  23.5323

          k =-0.5000-0.5000-0.5000 (  5832 PWs)   bands (ev):

   -49.7293 -49.7293 -49.7292 -49.7292 -49.7292 -49.7290 -49.7290 -49.7290
   -49.5423 -49.5422 -49.5422 -49.5422 -49.5422 -49.5420 -49.5420 -49.5420
   -21.3933 -21.3933 -21.3933 -21.3933 -21.3933 -21.3933 -21.3933 -21.3933
   -21.3933 -21.3933 -21.3933 -21.3931 -21.3931 -21.3931 -21.3931 -21.3931
   -21.3165 -21.3165 -21.3165 -21.3165 -21.3164 -21.3164 -21.3164 -21.3164
   -20.7173 -20.7173 -20.7173 -20.7173 -20.7172 -20.7172 -20.7172 -20.7171
   -20.6352 -20.6352 -20.6352 -20.6352 -20.6352 -20.6352 -20.6351 -20.6351
   -20.6351 -20.6351 -20.6351 -20.6350 -20.6350 -20.6350 -20.6350 -20.6350
    17.3966  17.3966  17.3967  17.3967  17.3967  17.3967  17.3967  17.3967
    19.0554  19.0554  19.0554  19.0554  19.0554  19.0554  19.0554  19.0555
    19.0555  19.0555  19.0555  19.0555  19.0555  19.0556  19.0556  19.0556
    19.6906  19.6906  19.6906  19.6906  19.6906  19.6906  19.6906  19.6906
    19.6906  19.6906  19.6906  19.6907  19.6907  19.6907  19.6907  19.6907
    19.6935  19.6935  19.6935  19.6935  19.6935  19.6935  19.6935  19.6936
    23.3821  23.3821  23.3821  23.3821  23.3822  23.3822  23.3822  23.3822
    23.3822  23.3822  23.3823  23.3823  23.3823  23.3823  23.3823  23.3824
    23.8363  23.8363  23.8364  23.8364  23.8364  23.8364

     the Fermi energy is    22.0722 ev

!    total energy              =   -3971.27509160 Ry
     total all-electron energy =    -33627.797948 Ry
     estimated scf accuracy    <       0.00000038 Ry
     smearing contrib. (-TS)   =      -0.00336551 Ry
     internal energy E=F+TS    =   -3971.27172609 Ry

     The total energy is F=E-TS. E is the sum of the following terms:
     one-electron contribution =    -773.53741149 Ry
     hartree contribution      =     544.67568158 Ry
     xc contribution           =    -358.24857736 Ry
     ewald contribution        =   -2196.11161426 Ry
     one-center paw contrib.   =   -1188.04980457 Ry

     total magnetization       =    -0.00 Bohr mag/cell
     absolute magnetization    =     0.00 Bohr mag/cell

     convergence has been achieved in  19 iterations


     Computing stress (Cartesian axis) and pressure

          total   stress  (Ry/bohr**3)                   (kbar)     P=      285.75
   0.00194251   0.00000000   0.00000000          285.75        0.00        0.00
   0.00000000   0.00194251   0.00000000            0.00      285.75        0.00
   0.00000000   0.00000000   0.00194251            0.00        0.00      285.75


     Writing all to output data dir ./tmp/cr16_a5.50.save/ :
     XML data file, charge density, pseudopotentials, collected wavefunctions

     init_run     :     34.30s CPU     36.36s WALL (       1 calls)
     electrons    :   1905.63s CPU   1951.21s WALL (       1 calls)
     stress       :     64.10s CPU     65.17s WALL (       1 calls)

     Called by init_run:
     wfcinit      :     29.84s CPU     30.38s WALL (       1 calls)
     potinit      :      3.30s CPU      4.37s WALL (       1 calls)
     hinit0       :      0.43s CPU      0.51s WALL (       1 calls)

     Called by electrons:
     c_bands      :   1687.86s CPU   1707.54s WALL (      19 calls)
     sum_band     :    138.72s CPU    145.43s WALL (      19 calls)
     v_of_rho     :      3.17s CPU      3.64s WALL (      20 calls)
     newd         :     15.11s CPU     19.22s WALL (      20 calls)
     PAW_pot      :     63.51s CPU     79.31s WALL (      20 calls)
     mix_rho      :      0.59s CPU      0.67s WALL (      19 calls)

     Called by c_bands:
     init_us_2    :      5.21s CPU      5.73s WALL (     800 calls)
     cegterg      :   1671.70s CPU   1689.75s WALL (     380 calls)

     Called by *egterg:
     cdiaghg      :    143.43s CPU    140.48s WALL (    1588 calls)
     h_psi        :    582.95s CPU    593.93s WALL (    1608 calls)
     s_psi        :    208.67s CPU    214.27s WALL (    1608 calls)
     g_psi        :      0.65s CPU      0.72s WALL (    1208 calls)

     Called by h_psi:
     h_psi:calbec :    214.18s CPU    220.50s WALL (    1608 calls)
     vloc_psi     :    158.35s CPU    162.38s WALL (    1608 calls)
                                        0.00s GPU  (    1608 calls)
     add_vuspsi   :    209.06s CPU    206.81s WALL (    1608 calls)

     General routines
     calbec       :    355.52s CPU    361.27s WALL (    2248 calls)
     fft          :      2.10s CPU      2.51s WALL (     519 calls)
     ffts         :      0.17s CPU      0.19s WALL (      78 calls)
     fftw         :    175.87s CPU    177.68s WALL (  310122 calls)
     interpolate  :      0.32s CPU      0.37s WALL (      40 calls)

     Parallel routines

     PWSCF        :  33m24.42s CPU  34m14.12s WALL


   This run was terminated on:  18: 9: 5  21Apr2026            

=------------------------------------------------------------------------------=
   JOB DONE.
=------------------------------------------------------------------------------=
