
     Program PWSCF v.7.5 starts on 21Apr2026 at 20:58:57 

     This program is part of the open-source Quantum ESPRESSO suite
     for quantum simulation of materials; please cite
         "P. Giannozzi et al., J. Phys.:Condens. Matter 21 395502 (2009);
         "P. Giannozzi et al., J. Phys.:Condens. Matter 29 465901 (2017);
         "P. Giannozzi et al., J. Chem. Phys. 152 154105 (2020);
          URL http://www.quantum-espresso.org", 
     in publications or presentations arising from this work. More details at
     http://www.quantum-espresso.org/quote

     Parallel version (MPI), running on     4 processors

     MPI processes distributed on     1 nodes
     2367 MiB available memory on the printing compute node when the environment starts

     Waiting for input...
     Reading input from standard input

     Current dimensions of program PWSCF are:
     Max number of different atomic species (ntypx) = 10
     Max number of k-points (npk) =  40000
     Max angular momentum in pseudopotentials (lmaxx) =  4
     file Cr.pbe-spn-kjpaw_psl.1.0.0.UPF: wavefunction(s)  3S 3P 3D renormalized
     Found identity + (  0.2500  0.2500  0.2500) symmetry
     This is a supercell, fractional translations are disabled
     Message from routine setup:
     using ibrav=0 with symmetry is DISCOURAGED, use correct ibrav instead

     R & G space division:  proc/nbgrp/npool/nimage =       4
     Subspace diagonalization in iterative solution of the eigenvalue problem:
     a serial algorithm will be used


     Parallelization info
     --------------------
     sticks:   dense  smooth     PW     G-vecs:    dense   smooth      PW
     Min         816     404    120                35058    12376    1952
     Max         817     405    121                35059    12381    1953
     Sum        3265    1617    481               140233    49509    7809

     Using Slab Decomposition



     bravais-lattice index     =            0
     lattice parameter (alat)  =      10.6770  a.u.
     unit-cell volume          =    1217.1439 (a.u.)^3
     number of atoms/cell      =           16
     number of atomic types    =            1
     number of electrons       =       224.00
     number of Kohn-Sham states=          134
     kinetic-energy cutoff     =      45.0000  Ry
     charge density cutoff     =     360.0000  Ry
     scf convergence threshold =      1.0E-06
     mixing beta               =       0.3000
     number of iterations used =            8  plain     mixing
     Exchange-correlation= SLA  PW   PBX  PBC
                           (   1   4   3   4   0   0   0)

     celldm(1)=  10.676953  celldm(2)=   0.000000  celldm(3)=   0.000000
     celldm(4)=   0.000000  celldm(5)=   0.000000  celldm(6)=   0.000000

     crystal axes: (cart. coord. in units of alat)
               a(1) = (   1.000000   0.000000   0.000000 )  
               a(2) = (   0.000000   1.000000   0.000000 )  
               a(3) = (   0.000000   0.000000   1.000000 )  

     reciprocal axes: (cart. coord. in units 2 pi/alat)
               b(1) = (  1.000000  0.000000  0.000000 )  
               b(2) = (  0.000000  1.000000  0.000000 )  
               b(3) = (  0.000000  0.000000  1.000000 )  


     PseudoPot. # 1 for Cr read from file:
     ./pseudo/Cr.pbe-spn-kjpaw_psl.1.0.0.UPF
     MD5 check sum: 198f1a2427a48552563eee314eba32ba
     Pseudo is Projector augmented-wave + core cor, Zval = 14.0
     Generated using &quot;atomic&quot; code by A. Dal Corso  v.6.3
     Shape of augmentation charge: PSQ
     Using radial grid of 1183 points,  6 beta functions with: 
                l(1) =   0
                l(2) =   0
                l(3) =   1
                l(4) =   1
                l(5) =   2
                l(6) =   2
     Q(r) pseudized with 0 coefficients 


     atomic species   valence    mass     pseudopotential
     Cr               14.00    51.99600     Cr( 1.00)

     Starting magnetic structure 
     atomic species   magnetization
     Cr              0.300

     48 Sym. Ops., with inversion, found



   Cartesian axes

     site n.     atom                  positions (alat units)
         1        Cr     tau(   1) = (   0.0000000   0.0000000   0.0000000  )
         2        Cr     tau(   2) = (   0.2500000   0.2500000   0.2500000  )
         3        Cr     tau(   3) = (   0.0000000   0.0000000   0.5000000  )
         4        Cr     tau(   4) = (   0.2500000   0.2500000   0.7500000  )
         5        Cr     tau(   5) = (   0.0000000   0.5000000   0.0000000  )
         6        Cr     tau(   6) = (   0.2500000   0.7500000   0.2500000  )
         7        Cr     tau(   7) = (   0.0000000   0.5000000   0.5000000  )
         8        Cr     tau(   8) = (   0.2500000   0.7500000   0.7500000  )
         9        Cr     tau(   9) = (   0.5000000   0.0000000   0.0000000  )
        10        Cr     tau(  10) = (   0.7500000   0.2500000   0.2500000  )
        11        Cr     tau(  11) = (   0.5000000   0.0000000   0.5000000  )
        12        Cr     tau(  12) = (   0.7500000   0.2500000   0.7500000  )
        13        Cr     tau(  13) = (   0.5000000   0.5000000   0.0000000  )
        14        Cr     tau(  14) = (   0.7500000   0.7500000   0.2500000  )
        15        Cr     tau(  15) = (   0.5000000   0.5000000   0.5000000  )
        16        Cr     tau(  16) = (   0.7500000   0.7500000   0.7500000  )

     number of k points=    10  Marzari-Vanderbilt smearing, width (Ry)=  0.0200
                       cart. coord. in units 2pi/alat
        k(    1) = (   0.0000000   0.0000000   0.0000000), wk =   0.0156250
        k(    2) = (   0.0000000   0.0000000   0.2500000), wk =   0.0937500
        k(    3) = (   0.0000000   0.0000000  -0.5000000), wk =   0.0468750
        k(    4) = (   0.0000000   0.2500000   0.2500000), wk =   0.1875000
        k(    5) = (   0.0000000   0.2500000  -0.5000000), wk =   0.1875000
        k(    6) = (   0.0000000  -0.5000000  -0.5000000), wk =   0.0468750
        k(    7) = (   0.2500000   0.2500000   0.2500000), wk =   0.1250000
        k(    8) = (   0.2500000   0.2500000  -0.5000000), wk =   0.1875000
        k(    9) = (   0.2500000  -0.5000000  -0.5000000), wk =   0.0937500
        k(   10) = (  -0.5000000  -0.5000000  -0.5000000), wk =   0.0156250

     Dense  grid:   140233 G-vectors     FFT dimensions: (  72,  72,  72)

     Smooth grid:    49509 G-vectors     FFT dimensions: (  45,  45,  45)

     Estimated max dynamical RAM per process >     218.60 MB

     Estimated total dynamical RAM >     874.40 MB

     Check: negative core charge=   -0.000006
     Generating pointlists ...
     new r_m :   0.1786 (alat units)  1.9071 (a.u.) for type    1

     Initial potential from superposition of free atoms

     starting charge     223.9876, renormalised to     224.0000
     Starting wfcs are  160 randomized atomic wfcs
     Checking if some PAW data can be deallocated... 

     total cpu time spent up to now is       41.8 secs

     Self-consistent Calculation

     iteration #  1     ecut=    45.00 Ry     beta= 0.30
     Davidson diagonalization with overlap
     ethr =  1.00E-02,  avg # of iterations =  2.8

     total cpu time spent up to now is      147.4 secs

     total energy              =   -3969.21820348 Ry
     estimated scf accuracy    <       2.31537399 Ry

     total magnetization       =    30.03 Bohr mag/cell
     absolute magnetization    =    30.03 Bohr mag/cell

     iteration #  2     ecut=    45.00 Ry     beta= 0.30
     Davidson diagonalization with overlap
     ethr =  1.03E-03,  avg # of iterations =  3.1

     total cpu time spent up to now is      247.5 secs

     total energy              =   -3969.88206136 Ry
     estimated scf accuracy    <       1.68220820 Ry

     total magnetization       =    23.79 Bohr mag/cell
     absolute magnetization    =    23.79 Bohr mag/cell

     iteration #  3     ecut=    45.00 Ry     beta= 0.30
     Davidson diagonalization with overlap
     ethr =  7.51E-04,  avg # of iterations =  4.5

     total cpu time spent up to now is      402.9 secs

     total energy              =   -3971.48872206 Ry
     estimated scf accuracy    <       2.10509530 Ry

     total magnetization       =     1.97 Bohr mag/cell
     absolute magnetization    =     2.54 Bohr mag/cell

     iteration #  4     ecut=    45.00 Ry     beta= 0.30
     Davidson diagonalization with overlap
     ethr =  7.51E-04,  avg # of iterations =  1.3

     total cpu time spent up to now is      478.4 secs

     total energy              =   -3971.50234041 Ry
     estimated scf accuracy    <       1.09216967 Ry

     total magnetization       =     2.03 Bohr mag/cell
     absolute magnetization    =     2.68 Bohr mag/cell

     iteration #  5     ecut=    45.00 Ry     beta= 0.30
     Davidson diagonalization with overlap
     ethr =  4.88E-04,  avg # of iterations =  1.2

     total cpu time spent up to now is      556.1 secs

     total energy              =   -3971.33912657 Ry
     estimated scf accuracy    <       0.92815021 Ry

     total magnetization       =     2.11 Bohr mag/cell
     absolute magnetization    =     2.79 Bohr mag/cell

     iteration #  6     ecut=    45.00 Ry     beta= 0.30
     Davidson diagonalization with overlap
     ethr =  4.14E-04,  avg # of iterations =  2.2

     total cpu time spent up to now is      649.0 secs

     total energy              =   -3971.22358104 Ry
     estimated scf accuracy    <       0.82099833 Ry

     total magnetization       =     1.47 Bohr mag/cell
     absolute magnetization    =     2.14 Bohr mag/cell

     iteration #  7     ecut=    45.00 Ry     beta= 0.30
     Davidson diagonalization with overlap
     ethr =  3.67E-04,  avg # of iterations =  4.0

     total cpu time spent up to now is      750.2 secs

     total energy              =   -3971.41237392 Ry
     estimated scf accuracy    <       0.14967432 Ry

     total magnetization       =     0.42 Bohr mag/cell
     absolute magnetization    =     0.92 Bohr mag/cell

     iteration #  8     ecut=    45.00 Ry     beta= 0.30
     Davidson diagonalization with overlap
     ethr =  6.68E-05,  avg # of iterations =  2.0

     total cpu time spent up to now is      836.1 secs

     total energy              =   -3971.38687042 Ry
     estimated scf accuracy    <       0.10622530 Ry

     total magnetization       =     0.49 Bohr mag/cell
     absolute magnetization    =     0.94 Bohr mag/cell

     iteration #  9     ecut=    45.00 Ry     beta= 0.30
     Davidson diagonalization with overlap
     ethr =  4.74E-05,  avg # of iterations =  2.8

     total cpu time spent up to now is      935.5 secs

     total energy              =   -3971.40401555 Ry
     estimated scf accuracy    <       0.02310034 Ry

     total magnetization       =     0.59 Bohr mag/cell
     absolute magnetization    =     0.91 Bohr mag/cell

     iteration # 10     ecut=    45.00 Ry     beta= 0.30
     Davidson diagonalization with overlap
     c_bands:  4 eigenvalues not converged
     ethr =  1.03E-05,  avg # of iterations =  7.8

     total cpu time spent up to now is     1057.5 secs

     total energy              =   -3971.40960232 Ry
     estimated scf accuracy    <       0.04898084 Ry

     total magnetization       =     0.28 Bohr mag/cell
     absolute magnetization    =     0.48 Bohr mag/cell

     iteration # 11     ecut=    45.00 Ry     beta= 0.30
     Davidson diagonalization with overlap
     ethr =  1.03E-05,  avg # of iterations =  3.2

     total cpu time spent up to now is     1151.0 secs

     total energy              =   -3971.40627859 Ry
     estimated scf accuracy    <       0.01553581 Ry

     total magnetization       =    -0.07 Bohr mag/cell
     absolute magnetization    =     0.17 Bohr mag/cell

     iteration # 12     ecut=    45.00 Ry     beta= 0.30
     Davidson diagonalization with overlap
     ethr =  6.94E-06,  avg # of iterations =  5.3

     total cpu time spent up to now is     1256.2 secs

     total energy              =   -3971.40978706 Ry
     estimated scf accuracy    <       0.00196510 Ry

     total magnetization       =     0.00 Bohr mag/cell
     absolute magnetization    =     0.16 Bohr mag/cell

     iteration # 13     ecut=    45.00 Ry     beta= 0.30
     Davidson diagonalization with overlap
     ethr =  8.77E-07,  avg # of iterations =  6.2

     total cpu time spent up to now is     1357.5 secs

     total energy              =   -3971.41002528 Ry
     estimated scf accuracy    <       0.00033437 Ry

     total magnetization       =     0.01 Bohr mag/cell
     absolute magnetization    =     0.11 Bohr mag/cell

     iteration # 14     ecut=    45.00 Ry     beta= 0.30
     Davidson diagonalization with overlap
     ethr =  1.49E-07,  avg # of iterations =  6.8

     total cpu time spent up to now is     1497.7 secs

     total energy              =   -3971.41010462 Ry
     estimated scf accuracy    <       0.00099575 Ry

     total magnetization       =     0.01 Bohr mag/cell
     absolute magnetization    =     0.06 Bohr mag/cell

     iteration # 15     ecut=    45.00 Ry     beta= 0.30
     Davidson diagonalization with overlap
     ethr =  1.49E-07,  avg # of iterations =  4.8

     total cpu time spent up to now is     1605.6 secs

     total energy              =   -3971.41020739 Ry
     estimated scf accuracy    <       0.00005114 Ry

     total magnetization       =    -0.00 Bohr mag/cell
     absolute magnetization    =     0.03 Bohr mag/cell

     iteration # 16     ecut=    45.00 Ry     beta= 0.30
     Davidson diagonalization with overlap
     ethr =  2.28E-08,  avg # of iterations =  5.8

     total cpu time spent up to now is     1725.0 secs

     total energy              =   -3971.41022248 Ry
     estimated scf accuracy    <       0.00005957 Ry

     total magnetization       =    -0.00 Bohr mag/cell
     absolute magnetization    =     0.03 Bohr mag/cell

     iteration # 17     ecut=    45.00 Ry     beta= 0.30
     Davidson diagonalization with overlap
     ethr =  2.28E-08,  avg # of iterations =  1.1

     total cpu time spent up to now is     1802.7 secs

     total energy              =   -3971.41022403 Ry
     estimated scf accuracy    <       0.00000831 Ry

     total magnetization       =    -0.00 Bohr mag/cell
     absolute magnetization    =     0.03 Bohr mag/cell

     iteration # 18     ecut=    45.00 Ry     beta= 0.30
     Davidson diagonalization with overlap
     ethr =  3.71E-09,  avg # of iterations =  5.6

     total cpu time spent up to now is     1921.5 secs

     total energy              =   -3971.41022712 Ry
     estimated scf accuracy    <       0.00001266 Ry

     total magnetization       =    -0.00 Bohr mag/cell
     absolute magnetization    =     0.03 Bohr mag/cell

     iteration # 19     ecut=    45.00 Ry     beta= 0.30
     Davidson diagonalization with overlap
     ethr =  3.71E-09,  avg # of iterations =  1.0

     total cpu time spent up to now is     1997.3 secs

     total energy              =   -3971.41022683 Ry
     estimated scf accuracy    <       0.00000585 Ry

     total magnetization       =    -0.00 Bohr mag/cell
     absolute magnetization    =     0.03 Bohr mag/cell

     iteration # 20     ecut=    45.00 Ry     beta= 0.30
     Davidson diagonalization with overlap
     ethr =  2.61E-09,  avg # of iterations =  3.8

     Magnetic moment per site  (integrated on atomic sphere of radius R)
     atom   1 (R=0.179)  charge= 12.1993  magn=  0.0026
     atom   2 (R=0.179)  charge= 12.1990  magn= -0.0018
     atom   3 (R=0.179)  charge= 12.1989  magn=  0.0012
     atom   4 (R=0.179)  charge= 12.1990  magn= -0.0018
     atom   5 (R=0.179)  charge= 12.1989  magn=  0.0012
     atom   6 (R=0.179)  charge= 12.1990  magn= -0.0018
     atom   7 (R=0.179)  charge= 12.1989  magn=  0.0018
     atom   8 (R=0.179)  charge= 12.1990  magn= -0.0018
     atom   9 (R=0.179)  charge= 12.1989  magn=  0.0012
     atom  10 (R=0.179)  charge= 12.1990  magn= -0.0018
     atom  11 (R=0.179)  charge= 12.1989  magn=  0.0018
     atom  12 (R=0.179)  charge= 12.1990  magn= -0.0018
     atom  13 (R=0.179)  charge= 12.1989  magn=  0.0018
     atom  14 (R=0.179)  charge= 12.1990  magn= -0.0018
     atom  15 (R=0.179)  charge= 12.1988  magn=  0.0012
     atom  16 (R=0.179)  charge= 12.1990  magn= -0.0018

     total cpu time spent up to now is     2089.4 secs

     End of self-consistent calculation

 ------ SPIN UP ------------


          k = 0.0000 0.0000 0.0000 (  6187 PWs)   bands (ev):

   -51.8382 -51.6293 -51.6289 -51.6289 -51.6273 -51.6273 -51.6273 -51.6096
   -51.6094 -51.6094 -51.6077 -51.6077 -51.6077 -51.5906 -51.5889 -51.4504
   -23.5480 -23.5480 -23.5480 -23.5479 -23.5479 -23.5479 -23.2304 -23.2304
   -23.2304 -23.0835 -23.0835 -23.0835 -23.0817 -23.0817 -23.0817 -23.0411
   -23.0411 -23.0411 -23.0394 -23.0394 -23.0394 -22.8866 -22.8866 -22.8866
   -22.8863 -22.8863 -22.8863 -22.8847 -22.8847 -22.8847 -22.8847 -22.8847
   -22.8847 -22.8671 -22.8671 -22.8671 -22.8654 -22.8654 -22.8653 -22.5573
   -22.5573 -22.5573 -22.5572 -22.5572 -22.5572 -22.5536 -22.5536 -22.5536
    12.1114  15.5180  15.5180  15.5180  15.5182  15.5182  15.5182  15.6127
    15.6127  16.0758  16.0758  16.0758  16.0762  16.0762  16.0762  17.5494
    17.5494  17.5494  17.5494  17.5494  17.5494  17.7096  17.7096  17.7096
    17.7107  17.7107  17.7107  18.2109  18.2109  18.2110  18.2121  18.2121
    18.2121  19.1615  19.1615  19.1615  19.6872  19.6872  19.6872  19.6874
    19.6874  19.6874  19.6889  19.6889  19.6889  19.6889  19.6889  19.6889
    20.8125  20.8125  20.8125  20.8143  20.8143  20.8144  21.2963  21.2963
    21.2996  21.2996  21.2998  21.3000  21.3000  21.3000  21.6539  21.6540
    21.6541  21.6554  21.6554  21.6554  21.7182  21.7194

          k = 0.0000 0.0000 0.2500 (  6179 PWs)   bands (ev):

   -51.8210 -51.7047 -51.6261 -51.6258 -51.6241 -51.6241 -51.6124 -51.6122
   -51.6106 -51.6106 -51.6068 -51.6050 -51.5938 -51.5920 -51.5562 -51.4628
   -23.5095 -23.5095 -23.5012 -23.5012 -23.5012 -23.5011 -23.2354 -23.2350
   -23.2350 -23.2044 -23.2044 -23.2000 -23.2000 -23.1993 -23.1993 -23.1829
   -23.0213 -23.0195 -23.0164 -23.0164 -22.9243 -22.8935 -22.8917 -22.8815
   -22.8815 -22.8797 -22.8797 -22.8692 -22.8692 -22.8674 -22.8674 -22.8552
   -22.8552 -22.7845 -22.7843 -22.7837 -22.7837 -22.7559 -22.7559 -22.6061
   -22.5930 -22.5930 -22.5856 -22.5855 -22.5855 -22.5855 -22.5771 -22.5771
    12.4616  14.8136  15.6556  15.6556  15.6558  15.6558  15.7957  15.7990
    15.7993  15.8150  16.1328  16.1328  16.1331  16.1331  16.5662  17.1647
    17.3400  17.3409  17.4504  17.4504  17.5034  17.5034  17.7412  17.7412
    17.7413  17.7413  18.1201  18.1202  18.1209  18.1209  18.2847  18.2847
    19.0803  19.0804  19.0810  19.0810  19.1475  19.1475  19.2814  19.3003
    19.3003  19.3309  19.9690  19.9691  19.9696  19.9696  20.0841  20.0841
    20.0850  20.0851  20.1608  20.3672  20.3672  20.3798  20.3798  21.0437
    21.1568  21.1569  21.1570  21.1570  21.3550  21.3554  21.3915  21.4376
    21.4376  21.4384  21.4384  21.4938  21.6492  21.6503

          k = 0.0000 0.0000-0.5000 (  6174 PWs)   bands (ev):

   -51.7733 -51.7731 -51.6202 -51.6196 -51.6186 -51.6184 -51.6175 -51.6175
   -51.6175 -51.6175 -51.6004 -51.6000 -51.5984 -51.5984 -51.4991 -51.4989
   -23.3980 -23.3980 -23.3978 -23.3978 -23.3737 -23.3737 -23.3737 -23.3735
   -23.3735 -23.3735 -23.3731 -23.3730 -23.2268 -23.2266 -23.1291 -23.1291
   -23.1289 -23.1289 -22.9566 -22.9562 -22.9547 -22.9547 -22.8758 -22.8758
   -22.8754 -22.8754 -22.8739 -22.8739 -22.8738 -22.8738 -22.7453 -22.7451
   -22.6971 -22.6971 -22.6969 -22.6969 -22.6647 -22.6644 -22.6640 -22.6640
   -22.6638 -22.6638 -22.6638 -22.6637 -22.6469 -22.6469 -22.6467 -22.6467
    13.4416  13.4417  15.9739  15.9739  15.9739  15.9740  15.9740  15.9740
    15.9740  15.9741  16.2805  16.2806  16.3293  16.3294  16.5263  16.5265
    16.5269  16.5270  17.4252  17.4252  17.4253  17.4253  18.2861  18.2864
    18.2867  18.2867  18.2869  18.2869  18.2869  18.2870  18.6546  18.6549
    18.6553  18.6554  18.6557  18.6557  18.6557  18.6557  19.1557  19.1557
    19.1559  19.1559  19.1942  19.1942  19.1942  19.1942  19.6277  19.6279
    20.3395  20.3397  20.7153  20.7153  20.7155  20.7155  20.7155  20.7157
    20.7159  20.7160  21.2862  21.2862  21.2864  21.2864  21.4955  21.4957
    21.4962  21.4963  21.6497  21.6499  21.6863  21.6874

          k = 0.0000 0.2500 0.2500 (  6202 PWs)   bands (ev):

   -51.8050 -51.6962 -51.6961 -51.6427 -51.6232 -51.6214 -51.6098 -51.6096
   -51.6079 -51.6079 -51.5965 -51.5948 -51.5857 -51.5590 -51.5589 -51.4741
   -23.5029 -23.4700 -23.4699 -23.4699 -23.4699 -23.4080 -23.2874 -23.2874
   -23.2822 -23.2821 -23.2802 -23.2528 -23.2523 -23.1812 -23.1389 -23.0512
   -23.0511 -23.0223 -23.0206 -23.0030 -23.0029 -22.9211 -22.9133 -22.9132
   -22.9086 -22.9069 -22.9001 -22.9000 -22.8984 -22.8983 -22.8204 -22.7855
   -22.7854 -22.7620 -22.7619 -22.7268 -22.7262 -22.7051 -22.6683 -22.6682
   -22.6616 -22.6095 -22.6095 -22.6095 -22.6094 -22.5990 -22.5564 -22.5538
    12.7964  14.9921  14.9921  15.4943  15.9339  15.9339  15.9341  15.9341
    15.9599  15.9602  16.0220  16.2682  16.2684  16.6209  16.6210  17.1431
    17.1436  17.2764  17.2764  17.6430  17.6439  17.6609  17.6609  17.6609
    17.6610  17.7620  17.8970  17.8974  18.0951  18.1941  18.1948  18.7663
    18.7664  18.7721  18.7721  18.8983  18.9369  18.9369  19.0741  19.0912
    19.5875  19.5876  19.5880  19.5880  19.6358  19.7004  19.7005  19.8043
    20.1153  20.1154  20.2435  20.2443  20.3467  20.3468  20.7679  20.7680
    20.7765  21.0481  21.2064  21.2065  21.2066  21.2067  21.2282  21.3184
    21.5502  21.5690  21.5838  21.5848  21.6944  21.6956

          k = 0.0000 0.2500-0.5000 (  6212 PWs)   bands (ev):

   -51.7604 -51.7602 -51.6736 -51.6734 -51.6167 -51.6162 -51.6147 -51.6147
   -51.6034 -51.6030 -51.6014 -51.6014 -51.5684 -51.5682 -51.5070 -51.5068
   -23.4219 -23.4219 -23.3854 -23.3853 -23.3852 -23.3852 -23.3676 -23.3673
   -23.3673 -23.3671 -23.3078 -23.3077 -23.2432 -23.2432 -23.1087 -23.1085
   -23.0373 -23.0372 -22.9709 -22.9706 -22.9692 -22.9690 -22.9690 -22.9690
   -22.9130 -22.9127 -22.9111 -22.9111 -22.8702 -22.8701 -22.7845 -22.7843
   -22.7750 -22.7749 -22.6806 -22.6805 -22.6805 -22.6803 -22.6634 -22.6632
   -22.6540 -22.6539 -22.6537 -22.6536 -22.5855 -22.5855 -22.5851 -22.5851
    13.7245  13.7245  15.3153  15.3153  16.2303  16.2304  16.2304  16.2305
    16.3647  16.3648  16.3678  16.3679  16.5557  16.5558  16.6208  16.6210
    16.6214  16.6215  17.5396  17.5398  17.5399  17.5399  17.9319  17.9321
    17.9321  17.9322  18.0001  18.0002  18.1331  18.1331  18.6735  18.6735
    18.6741  18.6742  18.7294  18.7294  18.7797  18.7797  18.7802  18.7802
    18.7874  18.7875  18.8981  18.8981  18.9844  18.9845  20.1524  20.1525
    20.4490  20.4491  20.5778  20.5778  20.6124  20.6125  20.7795  20.7795
    20.7796  20.7798  20.8506  20.8506  20.9766  20.9768  21.3867  21.3869
    21.3873  21.3874  21.5496  21.5498  21.6233  21.6235

          k = 0.0000-0.5000-0.5000 (  6216 PWs)   bands (ev):

   -51.7246 -51.7243 -51.7243 -51.7242 -51.6104 -51.6098 -51.6098 -51.6095
   -51.6081 -51.6081 -51.6081 -51.6081 -51.5304 -51.5301 -51.5301 -51.5300
   -23.3924 -23.3924 -23.3923 -23.3923 -23.3661 -23.3658 -23.3658 -23.3657
   -23.3657 -23.3657 -23.3656 -23.3656 -23.0611 -23.0611 -23.0609 -23.0609
   -23.0523 -23.0520 -23.0520 -23.0519 -22.9660 -22.9660 -22.9658 -22.9658
   -22.9641 -22.9641 -22.9641 -22.9641 -22.9033 -22.9033 -22.9032 -22.9032
   -22.7107 -22.7104 -22.7104 -22.7104 -22.6553 -22.6553 -22.6552 -22.6552
   -22.6552 -22.6549 -22.6549 -22.6548 -22.5560 -22.5560 -22.5560 -22.5560
    14.4591  14.4592  14.4592  14.4592  16.4603  16.4605  16.4605  16.4605
    16.6777  16.6777  16.6778  16.6778  16.6781  16.6782  16.6782  16.6782
    17.2107  17.2109  17.2109  17.2109  17.6271  17.6271  17.6272  17.6272
    17.6274  17.6276  17.6276  17.6276  18.3051  18.3051  18.3051  18.3052
    18.4363  18.4366  18.4366  18.4366  18.4373  18.4374  18.4374  18.4374
    18.8403  18.8404  18.8404  18.8404  19.5942  19.5942  19.5943  19.5943
    20.5038  20.5040  20.5040  20.5040  20.8902  20.8902  20.8903  20.8903
    20.9544  20.9546  20.9546  20.9546  21.0758  21.0762  21.0762  21.0762
    21.0762  21.0763  21.0763  21.0763  21.4123  21.4125

          k = 0.2500 0.2500 0.2500 (  6217 PWs)   bands (ev):

   -51.7901 -51.6883 -51.6882 -51.6882 -51.6379 -51.6378 -51.6378 -51.6095
   -51.5874 -51.5853 -51.5851 -51.5851 -51.5617 -51.5615 -51.5615 -51.4840
   -23.4654 -23.4654 -23.4654 -23.3942 -23.3942 -23.3942 -23.3291 -23.3179
   -23.3178 -23.3178 -23.2501 -23.2501 -23.2030 -23.2030 -23.1178 -23.1178
   -23.1177 -23.0537 -23.0500 -23.0500 -23.0500 -22.9758 -22.9758 -22.9758
   -22.8427 -22.8427 -22.8341 -22.8341 -22.8340 -22.8329 -22.8329 -22.8329
   -22.7892 -22.7698 -22.7698 -22.7697 -22.7160 -22.6554 -22.6554 -22.6554
   -22.6411 -22.6409 -22.6409 -22.5916 -22.5916 -22.5915 -22.5805 -22.5805
    13.1215  15.2050  15.2050  15.2050  15.8027  15.8027  15.8027  16.1729
    16.1729  16.2214  16.2214  16.2215  16.8232  16.8232  16.8232  17.0302
    17.2305  17.2305  17.2305  17.5081  17.5081  17.6606  17.6960  17.6960
    17.6961  17.9186  17.9186  17.9186  18.0032  18.0032  18.3815  18.3815
    18.3816  18.6588  18.6589  18.6589  18.8298  18.8298  18.9196  18.9196
    18.9196  19.1781  19.1781  19.1781  19.2257  19.2257  19.2257  20.0033
    20.3506  20.3506  20.3507  20.6440  20.6440  20.6441  20.7067  20.9678
    20.9678  20.9679  21.1719  21.1719  21.2456  21.2456  21.2456  21.2759
    21.2759  21.2760  21.5797  21.5798  21.5810  21.5973

          k = 0.2500 0.2500-0.5000 (  6238 PWs)   bands (ev):

   -51.7482 -51.7480 -51.6673 -51.6670 -51.6665 -51.6664 -51.6254 -51.6252
   -51.5850 -51.5848 -51.5701 -51.5698 -51.5693 -51.5692 -51.5140 -51.5138
   -23.3976 -23.3976 -23.3975 -23.3974 -23.3628 -23.3627 -23.3615 -23.3613
   -23.3109 -23.3108 -23.2601 -23.2601 -23.2596 -23.2596 -23.1689 -23.1687
   -23.0918 -23.0916 -23.0389 -23.0387 -23.0387 -23.0386 -22.9478 -22.9478
   -22.9452 -22.9451 -22.8558 -22.8556 -22.7920 -22.7920 -22.7919 -22.7918
   -22.7317 -22.7317 -22.7311 -22.7310 -22.6922 -22.6920 -22.6687 -22.6686
   -22.6559 -22.6557 -22.6045 -22.6044 -22.6044 -22.6043 -22.5894 -22.5894
    14.0141  14.0141  15.6067  15.6068  15.6068  15.6068  16.6019  16.6020
    16.6210  16.6211  16.6374  16.6375  16.6375  16.6376  16.6428  16.6429
    16.8096  16.8097  17.5644  17.5646  17.6831  17.6832  17.8163  17.8164
    17.8167  17.8167  18.0035  18.0035  18.0039  18.0039  18.2944  18.2944
    18.4994  18.4995  18.5345  18.5345  18.5348  18.5348  18.5453  18.5454
    18.5456  18.5456  18.5991  18.5991  18.6548  18.6549  19.7506  19.7507
    20.6196  20.6196  20.7789  20.7789  20.7790  20.7790  20.7824  20.7825
    20.8981  20.8982  20.8983  20.8983  21.3357  21.3358  21.4024  21.4026
    21.4201  21.4202  21.4778  21.4779  21.5969  21.5970

          k = 0.2500-0.5000-0.5000 (  6156 PWs)   bands (ev):

   -51.7145 -51.7142 -51.7142 -51.7141 -51.6490 -51.6487 -51.6487 -51.6486
   -51.5745 -51.5742 -51.5742 -51.5741 -51.5351 -51.5348 -51.5348 -51.5347
   -23.3593 -23.3593 -23.3593 -23.3592 -23.3493 -23.3491 -23.3491 -23.3490
   -23.3063 -23.3062 -23.3062 -23.3061 -23.1420 -23.1418 -23.1418 -23.1417
   -23.1250 -23.1250 -23.1249 -23.1249 -23.1036 -23.1036 -23.1035 -23.1035
   -22.8294 -22.8294 -22.8294 -22.8293 -22.8052 -22.8052 -22.8051 -22.8051
   -22.6983 -22.6980 -22.6980 -22.6979 -22.6812 -22.6812 -22.6812 -22.6811
   -22.6540 -22.6539 -22.6539 -22.6538 -22.5857 -22.5857 -22.5856 -22.5856
    14.7620  14.7621  14.7621  14.7621  16.2858  16.2858  16.2858  16.2859
    16.7311  16.7312  16.7312  16.7313  17.1329  17.1329  17.1329  17.1330
    17.2625  17.2627  17.2627  17.2627  17.5170  17.5171  17.5171  17.5172
    17.7732  17.7732  17.7732  17.7732  18.0282  18.0283  18.0283  18.0284
    18.2088  18.2088  18.2089  18.2089  18.2452  18.2452  18.2453  18.2453
    18.4692  18.4693  18.4693  18.4693  18.8718  18.8718  18.8718  18.8719
    21.0407  21.0408  21.0408  21.0409  21.1112  21.1112  21.1112  21.1113
    21.1686  21.1688  21.1688  21.1689  21.2082  21.2082  21.2082  21.2083
    21.3895  21.3897  21.3897  21.3898  21.4157  21.4158

          k =-0.5000-0.5000-0.5000 (  6152 PWs)   bands (ev):

   -51.6876 -51.6870 -51.6870 -51.6870 -51.6865 -51.6865 -51.6865 -51.6863
   -51.5500 -51.5494 -51.5494 -51.5494 -51.5489 -51.5489 -51.5489 -51.5487
   -23.2650 -23.2650 -23.2650 -23.2646 -23.2646 -23.2646 -23.2646 -23.2646
   -23.2641 -23.2641 -23.2641 -23.2641 -23.2641 -23.2640 -23.2640 -23.2640
   -23.2038 -23.2038 -23.2038 -23.2036 -23.2032 -23.2031 -23.2031 -23.2031
   -22.7404 -22.7404 -22.7404 -22.7402 -22.7398 -22.7397 -22.7397 -22.7397
   -22.6743 -22.6743 -22.6743 -22.6739 -22.6739 -22.6739 -22.6739 -22.6739
   -22.6734 -22.6734 -22.6734 -22.6734 -22.6734 -22.6733 -22.6733 -22.6733
    15.5345  15.5347  15.5347  15.5347  15.5348  15.5348  15.5348  15.5349
    17.3869  17.3869  17.3872  17.3872  17.3872  17.3872  17.3872  17.3872
    17.3874  17.3874  17.3874  17.3875  17.3875  17.3875  17.3875  17.3875
    17.9729  17.9729  17.9729  17.9731  17.9735  17.9735  17.9735  17.9735
    17.9885  17.9885  17.9885  17.9887  17.9887  17.9888  17.9888  17.9888
    17.9891  17.9891  17.9891  17.9891  17.9891  17.9892  17.9892  17.9892
    21.3055  21.3055  21.3059  21.3059  21.3059  21.3060  21.3060  21.3060
    21.3064  21.3064  21.3064  21.3064  21.3064  21.3064  21.3066  21.3066
    21.6958  21.6961  21.6961  21.6962  21.6962  21.6962

 ------ SPIN DOWN ----------


          k = 0.0000 0.0000 0.0000 (  6187 PWs)   bands (ev):

   -51.8386 -51.6295 -51.6295 -51.6295 -51.6277 -51.6277 -51.6275 -51.6099
   -51.6099 -51.6099 -51.6081 -51.6081 -51.6079 -51.5911 -51.5892 -51.4507
   -23.5483 -23.5483 -23.5483 -23.5483 -23.5483 -23.5483 -23.2308 -23.2308
   -23.2308 -23.0839 -23.0839 -23.0839 -23.0821 -23.0821 -23.0821 -23.0415
   -23.0415 -23.0415 -23.0397 -23.0397 -23.0397 -22.8869 -22.8869 -22.8869
   -22.8869 -22.8869 -22.8869 -22.8851 -22.8851 -22.8851 -22.8850 -22.8850
   -22.8850 -22.8676 -22.8675 -22.8675 -22.8657 -22.8657 -22.8657 -22.5577
   -22.5577 -22.5577 -22.5577 -22.5577 -22.5577 -22.5540 -22.5540 -22.5540
    12.1113  15.5177  15.5178  15.5178  15.5180  15.5180  15.5180  15.6123
    15.6123  16.0757  16.0757  16.0757  16.0761  16.0761  16.0761  17.5492
    17.5492  17.5492  17.5493  17.5493  17.5493  17.7095  17.7095  17.7095
    17.7106  17.7106  17.7106  18.2103  18.2103  18.2103  18.2115  18.2115
    18.2115  19.1613  19.1613  19.1613  19.6871  19.6871  19.6871  19.6871
    19.6871  19.6871  19.6887  19.6887  19.6887  19.6888  19.6888  19.6888
    20.8122  20.8123  20.8123  20.8142  20.8142  20.8142  21.2955  21.2956
    21.2991  21.2991  21.2991  21.2994  21.2995  21.2995  21.6531  21.6532
    21.6533  21.6545  21.6546  21.6548  21.7169  21.7187

          k = 0.0000 0.0000 0.2500 (  6179 PWs)   bands (ev):

   -51.8214 -51.7051 -51.6263 -51.6263 -51.6245 -51.6244 -51.6128 -51.6128
   -51.6110 -51.6109 -51.6072 -51.6054 -51.5942 -51.5924 -51.5566 -51.4632
   -23.5099 -23.5099 -23.5016 -23.5016 -23.5015 -23.5015 -23.2358 -23.2354
   -23.2354 -23.2048 -23.2048 -23.2004 -23.2004 -23.1997 -23.1997 -23.1833
   -23.0217 -23.0199 -23.0168 -23.0168 -22.9247 -22.8939 -22.8921 -22.8819
   -22.8819 -22.8801 -22.8801 -22.8696 -22.8696 -22.8678 -22.8678 -22.8556
   -22.8556 -22.7848 -22.7848 -22.7841 -22.7840 -22.7563 -22.7563 -22.6065
   -22.5935 -22.5935 -22.5860 -22.5860 -22.5859 -22.5859 -22.5775 -22.5775
    12.4616  14.8135  15.6554  15.6554  15.6556  15.6556  15.7952  15.7988
    15.7992  15.8146  16.1326  16.1326  16.1329  16.1329  16.5658  17.1642
    17.3398  17.3408  17.4503  17.4503  17.5032  17.5032  17.7411  17.7411
    17.7411  17.7411  18.1196  18.1196  18.1204  18.1204  18.2846  18.2846
    19.0802  19.0802  19.0808  19.0809  19.1474  19.1474  19.2812  19.3001
    19.3001  19.3303  19.9687  19.9687  19.9693  19.9693  20.0838  20.0838
    20.0848  20.0848  20.1607  20.3671  20.3671  20.3797  20.3797  21.0430
    21.1563  21.1563  21.1565  21.1565  21.3544  21.3549  21.3908  21.4374
    21.4374  21.4382  21.4382  21.4937  21.6485  21.6498

          k = 0.0000 0.0000-0.5000 (  6174 PWs)   bands (ev):

   -51.7736 -51.7736 -51.6196 -51.6196 -51.6196 -51.6196 -51.6179 -51.6178
   -51.6178 -51.6177 -51.6006 -51.6006 -51.5988 -51.5987 -51.4994 -51.4994
   -23.3983 -23.3983 -23.3983 -23.3983 -23.3740 -23.3740 -23.3739 -23.3739
   -23.3737 -23.3737 -23.3737 -23.3737 -23.2271 -23.2271 -23.1294 -23.1294
   -23.1294 -23.1294 -22.9568 -22.9568 -22.9550 -22.9550 -22.8760 -22.8760
   -22.8760 -22.8760 -22.8742 -22.8742 -22.8742 -22.8742 -22.7456 -22.7456
   -22.6974 -22.6974 -22.6974 -22.6974 -22.6646 -22.6646 -22.6645 -22.6645
   -22.6644 -22.6643 -22.6643 -22.6642 -22.6472 -22.6472 -22.6472 -22.6472
    13.4416  13.4416  15.9737  15.9738  15.9738  15.9738  15.9738  15.9738
    15.9738  15.9738  16.2801  16.2801  16.3288  16.3289  16.5262  16.5262
    16.5267  16.5268  17.4251  17.4251  17.4251  17.4251  18.2865  18.2865
    18.2865  18.2865  18.2866  18.2866  18.2867  18.2867  18.6546  18.6546
    18.6547  18.6547  18.6553  18.6553  18.6554  18.6554  19.1556  19.1556
    19.1556  19.1556  19.1941  19.1941  19.1941  19.1941  19.6276  19.6277
    20.3389  20.3390  20.7150  20.7150  20.7151  20.7151  20.7153  20.7153
    20.7153  20.7153  21.2861  21.2862  21.2862  21.2862  21.4950  21.4950
    21.4957  21.4957  21.6490  21.6491  21.6853  21.6868

          k = 0.0000 0.2500 0.2500 (  6202 PWs)   bands (ev):

   -51.8054 -51.6966 -51.6965 -51.6431 -51.6236 -51.6218 -51.6101 -51.6101
   -51.6083 -51.6082 -51.5970 -51.5951 -51.5861 -51.5594 -51.5593 -51.4745
   -23.5033 -23.4704 -23.4703 -23.4703 -23.4703 -23.4084 -23.2878 -23.2878
   -23.2826 -23.2825 -23.2806 -23.2532 -23.2527 -23.1816 -23.1393 -23.0516
   -23.0515 -23.0227 -23.0209 -23.0034 -23.0033 -22.9215 -22.9137 -22.9136
   -22.9091 -22.9073 -22.9005 -22.9005 -22.8987 -22.8987 -22.8208 -22.7859
   -22.7858 -22.7624 -22.7623 -22.7272 -22.7266 -22.7055 -22.6687 -22.6686
   -22.6620 -22.6099 -22.6099 -22.6098 -22.6098 -22.5994 -22.5568 -22.5542
    12.7964  14.9920  14.9920  15.4942  15.9337  15.9337  15.9339  15.9339
    15.9596  15.9597  16.0216  16.2680  16.2682  16.6206  16.6206  17.1430
    17.1435  17.2759  17.2759  17.6428  17.6438  17.6607  17.6607  17.6608
    17.6608  17.7618  17.8966  17.8970  18.0949  18.1940  18.1947  18.7662
    18.7662  18.7717  18.7718  18.8982  18.9368  18.9368  19.0737  19.0910
    19.5873  19.5873  19.5878  19.5878  19.6357  19.7003  19.7004  19.8042
    20.1149  20.1149  20.2432  20.2440  20.3465  20.3466  20.7677  20.7678
    20.7760  21.0474  21.2059  21.2059  21.2061  21.2062  21.2277  21.3177
    21.5500  21.5683  21.5831  21.5841  21.6937  21.6949

          k = 0.0000 0.2500-0.5000 (  6212 PWs)   bands (ev):

   -51.7607 -51.7607 -51.6739 -51.6738 -51.6169 -51.6169 -51.6150 -51.6150
   -51.6036 -51.6036 -51.6018 -51.6017 -51.5687 -51.5687 -51.5073 -51.5072
   -23.4223 -23.4223 -23.3857 -23.3857 -23.3857 -23.3856 -23.3679 -23.3678
   -23.3676 -23.3676 -23.3082 -23.3082 -23.2436 -23.2436 -23.1090 -23.1090
   -23.0377 -23.0377 -22.9712 -22.9712 -22.9695 -22.9695 -22.9694 -22.9694
   -22.9133 -22.9133 -22.9115 -22.9115 -22.8706 -22.8706 -22.7848 -22.7848
   -22.7753 -22.7753 -22.6810 -22.6809 -22.6808 -22.6808 -22.6638 -22.6637
   -22.6543 -22.6543 -22.6540 -22.6540 -22.5859 -22.5859 -22.5855 -22.5855
    13.7244  13.7245  15.3152  15.3152  16.2302  16.2302  16.2303  16.2303
    16.3644  16.3644  16.3674  16.3674  16.5553  16.5553  16.6208  16.6208
    16.6213  16.6213  17.5396  17.5396  17.5398  17.5398  17.9317  17.9318
    17.9319  17.9319  17.9998  17.9998  18.1330  18.1330  18.6732  18.6733
    18.6739  18.6739  18.7292  18.7292  18.7796  18.7796  18.7800  18.7800
    18.7873  18.7873  18.8978  18.8978  18.9842  18.9842  20.1523  20.1523
    20.4487  20.4487  20.5776  20.5776  20.6118  20.6118  20.7791  20.7791
    20.7793  20.7793  20.8501  20.8501  20.9765  20.9765  21.3862  21.3862
    21.3868  21.3868  21.5489  21.5490  21.6232  21.6233

          k = 0.0000-0.5000-0.5000 (  6216 PWs)   bands (ev):

   -51.7247 -51.7247 -51.7247 -51.7246 -51.6103 -51.6103 -51.6103 -51.6103
   -51.6085 -51.6085 -51.6084 -51.6083 -51.5306 -51.5306 -51.5305 -51.5305
   -23.3927 -23.3927 -23.3927 -23.3927 -23.3663 -23.3663 -23.3662 -23.3662
   -23.3660 -23.3660 -23.3660 -23.3660 -23.0614 -23.0614 -23.0614 -23.0614
   -23.0524 -23.0524 -23.0524 -23.0524 -22.9663 -22.9663 -22.9663 -22.9663
   -22.9645 -22.9645 -22.9644 -22.9644 -22.9037 -22.9037 -22.9036 -22.9036
   -22.7109 -22.7109 -22.7109 -22.7108 -22.6556 -22.6556 -22.6556 -22.6556
   -22.6554 -22.6554 -22.6553 -22.6553 -22.5564 -22.5564 -22.5564 -22.5564
    14.4591  14.4591  14.4591  14.4591  16.4600  16.4600  16.4600  16.4601
    16.6776  16.6776  16.6776  16.6776  16.6780  16.6781  16.6781  16.6781
    17.2104  17.2104  17.2104  17.2104  17.6269  17.6269  17.6269  17.6270
    17.6273  17.6273  17.6273  17.6273  18.3050  18.3050  18.3050  18.3050
    18.4363  18.4363  18.4363  18.4364  18.4372  18.4372  18.4373  18.4373
    18.8402  18.8402  18.8402  18.8402  19.5941  19.5941  19.5942  19.5942
    20.5036  20.5036  20.5037  20.5037  20.8900  20.8900  20.8901  20.8901
    20.9540  20.9540  20.9540  20.9540  21.0756  21.0756  21.0756  21.0756
    21.0757  21.0757  21.0758  21.0760  21.4117  21.4118

          k = 0.2500 0.2500 0.2500 (  6217 PWs)   bands (ev):

   -51.7904 -51.6886 -51.6886 -51.6885 -51.6382 -51.6382 -51.6382 -51.6099
   -51.5877 -51.5856 -51.5856 -51.5855 -51.5620 -51.5620 -51.5619 -51.4844
   -23.4658 -23.4658 -23.4658 -23.3946 -23.3946 -23.3946 -23.3295 -23.3183
   -23.3183 -23.3182 -23.2505 -23.2505 -23.2034 -23.2034 -23.1182 -23.1181
   -23.1181 -23.0540 -23.0504 -23.0504 -23.0504 -22.9762 -22.9762 -22.9762
   -22.8431 -22.8431 -22.8344 -22.8344 -22.8344 -22.8333 -22.8333 -22.8333
   -22.7896 -22.7702 -22.7701 -22.7701 -22.7164 -22.6558 -22.6558 -22.6558
   -22.6414 -22.6414 -22.6413 -22.5920 -22.5919 -22.5919 -22.5809 -22.5809
    13.1214  15.2049  15.2049  15.2050  15.8025  15.8025  15.8025  16.1724
    16.1724  16.2212  16.2212  16.2212  16.8229  16.8229  16.8229  17.0301
    17.2300  17.2300  17.2300  17.5079  17.5079  17.6605  17.6959  17.6959
    17.6959  17.9185  17.9185  17.9185  18.0030  18.0030  18.3812  18.3813
    18.3813  18.6587  18.6587  18.6588  18.8296  18.8296  18.9192  18.9193
    18.9193  19.1779  19.1779  19.1779  19.2256  19.2256  19.2256  20.0032
    20.3501  20.3501  20.3501  20.6438  20.6438  20.6438  20.7065  20.9674
    20.9674  20.9674  21.1712  21.1712  21.2450  21.2451  21.2451  21.2757
    21.2758  21.2758  21.5791  21.5794  21.5803  21.5967

          k = 0.2500 0.2500-0.5000 (  6238 PWs)   bands (ev):

   -51.7485 -51.7485 -51.6672 -51.6672 -51.6672 -51.6671 -51.6257 -51.6256
   -51.5853 -51.5853 -51.5701 -51.5700 -51.5700 -51.5700 -51.5143 -51.5142
   -23.3979 -23.3979 -23.3979 -23.3979 -23.3631 -23.3631 -23.3618 -23.3618
   -23.3112 -23.3112 -23.2603 -23.2603 -23.2602 -23.2602 -23.1692 -23.1692
   -23.0921 -23.0921 -23.0391 -23.0391 -23.0391 -23.0391 -22.9483 -22.9483
   -22.9455 -22.9455 -22.8561 -22.8561 -22.7923 -22.7923 -22.7923 -22.7923
   -22.7318 -22.7318 -22.7318 -22.7317 -22.6925 -22.6925 -22.6691 -22.6691
   -22.6562 -22.6562 -22.6048 -22.6048 -22.6048 -22.6047 -22.5898 -22.5898
    14.0140  14.0141  15.6066  15.6067  15.6067  15.6067  16.6015  16.6015
    16.6209  16.6210  16.6372  16.6372  16.6372  16.6372  16.6425  16.6425
    16.8095  16.8095  17.5644  17.5644  17.6829  17.6829  17.8161  17.8162
    17.8162  17.8162  18.0035  18.0035  18.0036  18.0036  18.2943  18.2943
    18.4992  18.4992  18.5344  18.5344  18.5344  18.5345  18.5453  18.5453
    18.5453  18.5453  18.5989  18.5989  18.6547  18.6547  19.7505  19.7505
    20.6195  20.6195  20.7786  20.7786  20.7786  20.7786  20.7818  20.7818
    20.8977  20.8977  20.8977  20.8977  21.3353  21.3353  21.4019  21.4019
    21.4199  21.4200  21.4771  21.4772  21.5962  21.5963

          k = 0.2500-0.5000-0.5000 (  6156 PWs)   bands (ev):

   -51.7147 -51.7147 -51.7146 -51.7146 -51.6492 -51.6492 -51.6491 -51.6491
   -51.5747 -51.5747 -51.5746 -51.5746 -51.5352 -51.5352 -51.5352 -51.5351
   -23.3597 -23.3597 -23.3597 -23.3597 -23.3496 -23.3496 -23.3496 -23.3495
   -23.3066 -23.3066 -23.3066 -23.3066 -23.1422 -23.1422 -23.1422 -23.1422
   -23.1254 -23.1254 -23.1253 -23.1253 -23.1040 -23.1039 -23.1039 -23.1039
   -22.8298 -22.8298 -22.8298 -22.8298 -22.8056 -22.8056 -22.8055 -22.8055
   -22.6985 -22.6985 -22.6985 -22.6984 -22.6816 -22.6816 -22.6816 -22.6816
   -22.6543 -22.6543 -22.6543 -22.6543 -22.5861 -22.5861 -22.5860 -22.5860
    14.7620  14.7620  14.7620  14.7620  16.2857  16.2858  16.2858  16.2858
    16.7308  16.7308  16.7308  16.7308  17.1328  17.1328  17.1328  17.1328
    17.2622  17.2622  17.2622  17.2623  17.5168  17.5168  17.5168  17.5168
    17.7730  17.7730  17.7730  17.7730  18.0282  18.0282  18.0282  18.0282
    18.2087  18.2087  18.2087  18.2087  18.2450  18.2450  18.2450  18.2450
    18.4690  18.4690  18.4691  18.4691  18.8716  18.8717  18.8717  18.8717
    21.0402  21.0402  21.0402  21.0402  21.1110  21.1110  21.1110  21.1111
    21.1682  21.1682  21.1682  21.1682  21.2079  21.2079  21.2079  21.2080
    21.3890  21.3890  21.3890  21.3891  21.4156  21.4157

          k =-0.5000-0.5000-0.5000 (  6152 PWs)   bands (ev):

   -51.6873 -51.6873 -51.6873 -51.6872 -51.6872 -51.6872 -51.6871 -51.6871
   -51.5497 -51.5497 -51.5497 -51.5496 -51.5496 -51.5496 -51.5495 -51.5495
   -23.2649 -23.2649 -23.2649 -23.2649 -23.2649 -23.2648 -23.2648 -23.2648
   -23.2648 -23.2648 -23.2648 -23.2648 -23.2648 -23.2647 -23.2647 -23.2647
   -23.2039 -23.2038 -23.2038 -23.2038 -23.2038 -23.2038 -23.2038 -23.2038
   -22.7406 -22.7405 -22.7405 -22.7405 -22.7405 -22.7404 -22.7404 -22.7404
   -22.6742 -22.6742 -22.6742 -22.6742 -22.6742 -22.6741 -22.6741 -22.6741
   -22.6741 -22.6741 -22.6741 -22.6741 -22.6741 -22.6740 -22.6740 -22.6740
    15.5346  15.5346  15.5346  15.5347  15.5347  15.5347  15.5347  15.5347
    17.3868  17.3868  17.3868  17.3868  17.3868  17.3868  17.3869  17.3869
    17.3869  17.3869  17.3869  17.3869  17.3869  17.3869  17.3869  17.3869
    17.9730  17.9731  17.9731  17.9731  17.9731  17.9732  17.9732  17.9732
    17.9887  17.9887  17.9887  17.9887  17.9887  17.9887  17.9887  17.9887
    17.9888  17.9888  17.9888  17.9888  17.9888  17.9888  17.9888  17.9888
    21.3054  21.3054  21.3054  21.3054  21.3054  21.3054  21.3055  21.3055
    21.3055  21.3055  21.3055  21.3055  21.3055  21.3056  21.3056  21.3056
    21.6955  21.6955  21.6955  21.6955  21.6955  21.6956

     the Fermi energy is    20.1027 ev

!    total energy              =   -3971.41022746 Ry
     total all-electron energy =    -33627.933084 Ry
     estimated scf accuracy    <       0.00000020 Ry
     smearing contrib. (-TS)   =      -0.00071959 Ry
     internal energy E=F+TS    =   -3971.40950788 Ry

     The total energy is F=E-TS. E is the sum of the following terms:
     one-electron contribution =    -860.62660362 Ry
     hartree contribution      =     571.85770837 Ry
     xc contribution           =    -356.84278599 Ry
     ewald contribution        =   -2137.80776609 Ry
     one-center paw contrib.   =   -1187.99006054 Ry

     total magnetization       =    -0.00 Bohr mag/cell
     absolute magnetization    =     0.03 Bohr mag/cell

     convergence has been achieved in  20 iterations


     Computing stress (Cartesian axis) and pressure

          total   stress  (Ry/bohr**3)                   (kbar)     P=       15.60
   0.00010602   0.00000000   0.00000000           15.60        0.00        0.00
   0.00000000   0.00010602   0.00000000            0.00       15.60        0.00
   0.00000000   0.00000000   0.00010602            0.00        0.00       15.60


     Writing all to output data dir ./tmp/cr16_a5.65.save/ :
     XML data file, charge density, pseudopotentials, collected wavefunctions

     init_run     :     39.32s CPU     41.63s WALL (       1 calls)
     electrons    :   1997.06s CPU   2047.66s WALL (       1 calls)
     stress       :     66.49s CPU     68.00s WALL (       1 calls)

     Called by init_run:
     wfcinit      :     34.76s CPU     35.73s WALL (       1 calls)
     potinit      :      3.14s CPU      4.05s WALL (       1 calls)
     hinit0       :      0.59s CPU      0.68s WALL (       1 calls)

     Called by electrons:
     c_bands      :   1760.73s CPU   1784.53s WALL (      20 calls)
     sum_band     :    153.58s CPU    160.55s WALL (      20 calls)
     v_of_rho     :      4.68s CPU      5.36s WALL (      21 calls)
     newd         :     16.64s CPU     21.48s WALL (      21 calls)
     PAW_pot      :     63.81s CPU     79.08s WALL (      21 calls)
     mix_rho      :      0.75s CPU      0.85s WALL (      20 calls)

     Called by c_bands:
     init_us_2    :      5.67s CPU      6.28s WALL (     840 calls)
     cegterg      :   1739.95s CPU   1764.16s WALL (     400 calls)

     Called by *egterg:
     cdiaghg      :    163.24s CPU    165.23s WALL (    1908 calls)
     h_psi        :    605.75s CPU    622.11s WALL (    1928 calls)
     s_psi        :    217.59s CPU    224.18s WALL (    1928 calls)
     g_psi        :      0.68s CPU      0.75s WALL (    1508 calls)

     Called by h_psi:
     h_psi:calbec :    228.52s CPU    231.33s WALL (    1928 calls)
     vloc_psi     :    154.84s CPU    172.11s WALL (    1928 calls)
                                        0.00s GPU  (    1928 calls)
     add_vuspsi   :    220.99s CPU    214.23s WALL (    1928 calls)

     General routines
     calbec       :    382.35s CPU    381.03s WALL (    2588 calls)
     fft          :      3.26s CPU      3.82s WALL (     544 calls)
     ffts         :      0.17s CPU      0.19s WALL (      82 calls)
     fftw         :    173.77s CPU    191.28s WALL (  315140 calls)
     interpolate  :      0.43s CPU      0.49s WALL (      42 calls)

     Parallel routines

     PWSCF        :  35m 3.27s CPU  35m58.78s WALL


   This run was terminated on:  21:34:56  21Apr2026            

=------------------------------------------------------------------------------=
   JOB DONE.
=------------------------------------------------------------------------------=
