
     Program PWSCF v.7.5 starts on 27Apr2026 at  9:38:56 

     This program is part of the open-source Quantum ESPRESSO suite
     for quantum simulation of materials; please cite
         "P. Giannozzi et al., J. Phys.:Condens. Matter 21 395502 (2009);
         "P. Giannozzi et al., J. Phys.:Condens. Matter 29 465901 (2017);
         "P. Giannozzi et al., J. Chem. Phys. 152 154105 (2020);
          URL http://www.quantum-espresso.org", 
     in publications or presentations arising from this work. More details at
     http://www.quantum-espresso.org/quote

     Parallel version (MPI), running on     4 processors

     MPI processes distributed on     1 nodes
     1063 MiB available memory on the printing compute node when the environment starts

     Waiting for input...
     Reading input from standard input

     Current dimensions of program PWSCF are:
     Max number of different atomic species (ntypx) = 10
     Max number of k-points (npk) =  40000
     Max angular momentum in pseudopotentials (lmaxx) =  4
     file Fe.pbe-spn-kjpaw_psl.1.0.0.UPF: wavefunction(s)  3P 3D renormalized
     file Cr.pbe-spn-kjpaw_psl.1.0.0.UPF: wavefunction(s)  3S 3P 3D renormalized
     Found identity + ( -0.0000 -0.5000 -0.5000) symmetry
     This is a supercell, fractional translations are disabled
     Message from routine setup:
     using ibrav=0 with symmetry is DISCOURAGED, use correct ibrav instead

     R & G space division:  proc/nbgrp/npool/nimage =       4
     Subspace diagonalization in iterative solution of the eigenvalue problem:
     a serial algorithm will be used


     Parallelization info
     --------------------
     sticks:   dense  smooth     PW     G-vecs:    dense   smooth      PW
     Min         819     406    119                35103    12390    1941
     Max         820     407    120                35104    12395    1942
     Sum        3279    1627    477               140415    49575    7765

     Using Slab Decomposition



     bravais-lattice index     =            0
     lattice parameter (alat)  =      10.6778  a.u.
     unit-cell volume          =    1217.1353 (a.u.)^3
     number of atoms/cell      =           16
     number of atomic types    =            2
     number of electrons       =       248.00
     number of Kohn-Sham states=          149
     kinetic-energy cutoff     =      45.0000  Ry
     charge density cutoff     =     360.0000  Ry
     scf convergence threshold =      1.0E-06
     mixing beta               =       0.3000
     number of iterations used =            8  plain     mixing
     Exchange-correlation= SLA  PW   PBX  PBC
                           (   1   4   3   4   0   0   0)

     celldm(1)=  10.677817  celldm(2)=   0.000000  celldm(3)=   0.000000
     celldm(4)=   0.000000  celldm(5)=   0.000000  celldm(6)=   0.000000

     crystal axes: (cart. coord. in units of alat)
               a(1) = (   0.999950  -0.010000   0.000000 )  
               a(2) = (  -0.010000   0.999950   0.000000 )  
               a(3) = (   0.000000   0.000000   0.999950 )  

     reciprocal axes: (cart. coord. in units 2 pi/alat)
               b(1) = (  1.000150  0.010002 -0.000000 )  
               b(2) = (  0.010002  1.000150 -0.000000 )  
               b(3) = ( -0.000000 -0.000000  1.000050 )  


     PseudoPot. # 1 for Fe read from file:
     ./pseudo/Fe.pbe-spn-kjpaw_psl.1.0.0.UPF
     MD5 check sum: fc81f059e5c5069939230b1155715ae8
     Pseudo is Projector augmented-wave + core cor, Zval = 16.0
     Generated using &quot;atomic&quot; code by A. Dal Corso  v.6.3
     Shape of augmentation charge: PSQ
     Using radial grid of 1191 points,  6 beta functions with: 
                l(1) =   0
                l(2) =   0
                l(3) =   1
                l(4) =   1
                l(5) =   2
                l(6) =   2
     Q(r) pseudized with 0 coefficients 


     PseudoPot. # 2 for Cr read from file:
     ./pseudo/Cr.pbe-spn-kjpaw_psl.1.0.0.UPF
     MD5 check sum: 198f1a2427a48552563eee314eba32ba
     Pseudo is Projector augmented-wave + core cor, Zval = 14.0
     Generated using &quot;atomic&quot; code by A. Dal Corso  v.6.3
     Shape of augmentation charge: PSQ
     Using radial grid of 1183 points,  6 beta functions with: 
                l(1) =   0
                l(2) =   0
                l(3) =   1
                l(4) =   1
                l(5) =   2
                l(6) =   2
     Q(r) pseudized with 0 coefficients 


     atomic species   valence    mass     pseudopotential
     Fe               16.00    55.84500     Fe( 1.00)
     Cr               14.00    51.99600     Cr( 1.00)

     Starting magnetic structure 
     atomic species   magnetization
     Fe              0.500
     Cr              0.300

      4 Sym. Ops., with inversion, found



   Cartesian axes

     site n.     atom                  positions (alat units)
         1        Cr     tau(   1) = (   0.0000000   0.0000000   0.0000000  )
         2        Fe     tau(   2) = (   0.2474876   0.2474876   0.2499875  )
         3        Fe     tau(   3) = (   0.0000000   0.0000000   0.4999750  )
         4        Fe     tau(   4) = (   0.2474876   0.2474876   0.7499625  )
         5        Fe     tau(   5) = (  -0.0049998   0.4999750   0.0000000  )
         6        Fe     tau(   6) = (   0.2424878   0.7474626   0.2499875  )
         7        Cr     tau(   7) = (  -0.0049998   0.4999750   0.4999750  )
         8        Fe     tau(   8) = (   0.2424878   0.7474626   0.7499625  )
         9        Cr     tau(   9) = (   0.4999750  -0.0049998   0.0000000  )
        10        Fe     tau(  10) = (   0.7474626   0.2424878   0.2499875  )
        11        Fe     tau(  11) = (   0.4999750  -0.0049998   0.4999750  )
        12        Fe     tau(  12) = (   0.7474626   0.2424878   0.7499625  )
        13        Fe     tau(  13) = (   0.4949752   0.4949752   0.0000000  )
        14        Fe     tau(  14) = (   0.7424628   0.7424628   0.2499875  )
        15        Cr     tau(  15) = (   0.4949752   0.4949752   0.4999750  )
        16        Fe     tau(  16) = (   0.7424628   0.7424628   0.7499625  )

     number of k points=    30  Marzari-Vanderbilt smearing, width (Ry)=  0.0200
                       cart. coord. in units 2pi/alat
        k(    1) = (   0.0000000   0.0000000   0.0000000), wk =   0.0156250
        k(    2) = (   0.0000000   0.0000000   0.2500125), wk =   0.0312500
        k(    3) = (   0.0000000   0.0000000  -0.5000250), wk =   0.0156250
        k(    4) = (   0.0025004   0.2500375   0.0000000), wk =   0.0312500
        k(    5) = (   0.0025004   0.2500375   0.2500125), wk =   0.0625000
        k(    6) = (   0.0025004   0.2500375  -0.5000250), wk =   0.0312500
        k(    7) = (  -0.0050008  -0.5000750   0.0000000), wk =   0.0156250
        k(    8) = (  -0.0050008  -0.5000750   0.2500125), wk =   0.0312500
        k(    9) = (  -0.0050008  -0.5000750  -0.5000250), wk =   0.0156250
        k(   10) = (   0.2525379   0.2525379   0.0000000), wk =   0.0312500
        k(   11) = (   0.2525379   0.2525379   0.2500125), wk =   0.0625000
        k(   12) = (   0.2525379   0.2525379  -0.5000250), wk =   0.0312500
        k(   13) = (   0.2450367  -0.4975746   0.0000000), wk =   0.0312500
        k(   14) = (   0.2450367  -0.4975746   0.2500125), wk =   0.0625000
        k(   15) = (   0.2450367  -0.4975746  -0.5000250), wk =   0.0312500
        k(   16) = (   0.2475371  -0.2475371   0.0000000), wk =   0.0312500
        k(   17) = (   0.2475371  -0.2475371   0.2500125), wk =   0.0625000
        k(   18) = (   0.2475371  -0.2475371  -0.5000250), wk =   0.0312500
        k(   19) = (  -0.5050758  -0.5050758   0.0000000), wk =   0.0156250
        k(   20) = (  -0.5050758  -0.5050758   0.2500125), wk =   0.0312500
        k(   21) = (  -0.5050758  -0.5050758  -0.5000250), wk =   0.0156250
        k(   22) = (   0.2500375   0.0025004   0.0000000), wk =   0.0312500
        k(   23) = (   0.2500375   0.0025004  -0.2500125), wk =   0.0625000
        k(   24) = (   0.2500375   0.0025004   0.5000250), wk =   0.0312500
        k(   25) = (  -0.5000750  -0.0050008   0.0000000), wk =   0.0156250
        k(   26) = (  -0.5000750  -0.0050008  -0.2500125), wk =   0.0312500
        k(   27) = (  -0.5000750  -0.0050008   0.5000250), wk =   0.0156250
        k(   28) = (  -0.4975746   0.2450367   0.0000000), wk =   0.0312500
        k(   29) = (  -0.4975746   0.2450367  -0.2500125), wk =   0.0625000
        k(   30) = (  -0.4975746   0.2450367   0.5000250), wk =   0.0312500

     Dense  grid:   140415 G-vectors     FFT dimensions: (  72,  72,  72)

     Smooth grid:    49575 G-vectors     FFT dimensions: (  45,  45,  45)

     Estimated max dynamical RAM per process >     369.61 MB

     Estimated total dynamical RAM >       1.44 GB

     Check: negative core charge=   -0.000005
     Generating pointlists ...
     new r_m :   0.1774 (alat units)  1.8945 (a.u.) for type    1
     new r_m :   0.1774 (alat units)  1.8945 (a.u.) for type    2

     Initial potential from superposition of free atoms

     starting charge     247.9917, renormalised to     248.0000
     Starting wfcs are  160 randomized atomic wfcs
     Checking if some PAW data can be deallocated... 

     total cpu time spent up to now is      105.4 secs

     Self-consistent Calculation

     iteration #  1     ecut=    45.00 Ry     beta= 0.30
     Davidson diagonalization with overlap
     ethr =  1.00E-02,  avg # of iterations =  4.0

     negative rho (up, down):  0.000E+00 5.798E-01

     total cpu time spent up to now is      490.3 secs

     total energy              =   -4933.40939501 Ry
     estimated scf accuracy    <      52.58092705 Ry

     total magnetization       =    49.95 Bohr mag/cell
     absolute magnetization    =    57.93 Bohr mag/cell

     iteration #  2     ecut=    45.00 Ry     beta= 0.30
     Davidson diagonalization with overlap
     ethr =  1.00E-02,  avg # of iterations =  4.8

     negative rho (up, down):  0.000E+00 4.690E-01

     total cpu time spent up to now is      837.1 secs

     total energy              =   -4933.58294011 Ry
     estimated scf accuracy    <      58.32928256 Ry

     total magnetization       =    27.04 Bohr mag/cell
     absolute magnetization    =    28.79 Bohr mag/cell

     iteration #  3     ecut=    45.00 Ry     beta= 0.30
     Davidson diagonalization with overlap
     ethr =  1.00E-02,  avg # of iterations =  2.9

     negative rho (up, down):  0.000E+00 3.598E-01

     total cpu time spent up to now is     1184.7 secs

     total energy              =   -4938.92419617 Ry
     estimated scf accuracy    <      18.56619328 Ry

     total magnetization       =    46.40 Bohr mag/cell
     absolute magnetization    =    47.72 Bohr mag/cell

     iteration #  4     ecut=    45.00 Ry     beta= 0.30
     Davidson diagonalization with overlap
     ethr =  7.49E-03,  avg # of iterations =  3.6

     negative rho (up, down):  0.000E+00 3.170E-01

     total cpu time spent up to now is     1491.5 secs

     total energy              =   -4940.07890375 Ry
     estimated scf accuracy    <      18.20900221 Ry

     total magnetization       =    37.32 Bohr mag/cell
     absolute magnetization    =    38.63 Bohr mag/cell

     iteration #  5     ecut=    45.00 Ry     beta= 0.30
     Davidson diagonalization with overlap
     ethr =  7.34E-03,  avg # of iterations =  2.0

     negative rho (up, down):  0.000E+00 8.986E-02

     total cpu time spent up to now is     1776.7 secs

     total energy              =   -4941.69052413 Ry
     estimated scf accuracy    <       7.96039102 Ry

     total magnetization       =    38.26 Bohr mag/cell
     absolute magnetization    =    39.41 Bohr mag/cell

     iteration #  6     ecut=    45.00 Ry     beta= 0.30
     Davidson diagonalization with overlap
     ethr =  3.21E-03,  avg # of iterations =  3.4

     negative rho (up, down):  0.000E+00 8.828E-03

     total cpu time spent up to now is     2101.2 secs

     total energy              =   -4942.23999077 Ry
     estimated scf accuracy    <      17.40419581 Ry

     total magnetization       =    35.05 Bohr mag/cell
     absolute magnetization    =    37.00 Bohr mag/cell

     iteration #  7     ecut=    45.00 Ry     beta= 0.30
     Davidson diagonalization with overlap
     ethr =  3.21E-03,  avg # of iterations =  2.8

     negative rho (up, down):  0.000E+00 5.386E-03

     total cpu time spent up to now is     2405.9 secs

     total energy              =   -4942.69343867 Ry
     estimated scf accuracy    <      11.46054946 Ry

     total magnetization       =    34.25 Bohr mag/cell
     absolute magnetization    =    35.97 Bohr mag/cell

     iteration #  8     ecut=    45.00 Ry     beta= 0.30
     Davidson diagonalization with overlap
     ethr =  3.21E-03,  avg # of iterations =  1.1

     negative rho (up, down):  0.000E+00 5.366E-03

     total cpu time spent up to now is     2669.3 secs

     total energy              =   -4942.91697495 Ry
     estimated scf accuracy    <       3.34940910 Ry

     total magnetization       =    30.92 Bohr mag/cell
     absolute magnetization    =    32.91 Bohr mag/cell

     iteration #  9     ecut=    45.00 Ry     beta= 0.30
     Davidson diagonalization with overlap
     ethr =  1.35E-03,  avg # of iterations =  1.4

     negative rho (up, down):  0.000E+00 5.188E-03

     total cpu time spent up to now is     2944.8 secs

     total energy              =   -4943.03576128 Ry
     estimated scf accuracy    <       0.46904836 Ry

     total magnetization       =    28.49 Bohr mag/cell
     absolute magnetization    =    30.79 Bohr mag/cell

     iteration # 10     ecut=    45.00 Ry     beta= 0.30
     Davidson diagonalization with overlap
     ethr =  1.89E-04,  avg # of iterations =  5.9

     negative rho (up, down):  0.000E+00 4.830E-03

     total cpu time spent up to now is     3290.3 secs

     total energy              =   -4943.00816553 Ry
     estimated scf accuracy    <       2.05948504 Ry

     total magnetization       =    26.72 Bohr mag/cell
     absolute magnetization    =    29.61 Bohr mag/cell

     iteration # 11     ecut=    45.00 Ry     beta= 0.30
     Davidson diagonalization with overlap
     ethr =  1.89E-04,  avg # of iterations =  4.2

     negative rho (up, down):  0.000E+00 4.350E-03

     total cpu time spent up to now is     3605.5 secs

     total energy              =   -4943.07411342 Ry
     estimated scf accuracy    <       1.77547736 Ry

     total magnetization       =    26.88 Bohr mag/cell
     absolute magnetization    =    29.12 Bohr mag/cell

     iteration # 12     ecut=    45.00 Ry     beta= 0.30
     Davidson diagonalization with overlap
     ethr =  1.89E-04,  avg # of iterations =  2.1

     negative rho (up, down):  0.000E+00 3.595E-03

     total cpu time spent up to now is     3892.2 secs

     total energy              =   -4943.15669319 Ry
     estimated scf accuracy    <       0.27781962 Ry

     total magnetization       =    25.32 Bohr mag/cell
     absolute magnetization    =    28.04 Bohr mag/cell

     iteration # 13     ecut=    45.00 Ry     beta= 0.30
     Davidson diagonalization with overlap
     ethr =  1.12E-04,  avg # of iterations =  2.0

     negative rho (up, down):  0.000E+00 3.256E-03

     total cpu time spent up to now is     4185.6 secs

     total energy              =   -4943.17763647 Ry
     estimated scf accuracy    <       0.20928378 Ry

     total magnetization       =    24.18 Bohr mag/cell
     absolute magnetization    =    27.18 Bohr mag/cell

     iteration # 14     ecut=    45.00 Ry     beta= 0.30
     Davidson diagonalization with overlap
     ethr =  8.44E-05,  avg # of iterations =  2.5

     negative rho (up, down):  0.000E+00 2.122E-03

     total cpu time spent up to now is     4472.2 secs

     total energy              =   -4943.21065833 Ry
     estimated scf accuracy    <       0.14662184 Ry

     total magnetization       =    24.20 Bohr mag/cell
     absolute magnetization    =    27.20 Bohr mag/cell

     iteration # 15     ecut=    45.00 Ry     beta= 0.30
     Davidson diagonalization with overlap
     ethr =  5.91E-05,  avg # of iterations =  1.7

     negative rho (up, down):  0.000E+00 2.352E-03

     total cpu time spent up to now is     4756.7 secs

     total energy              =   -4943.21205610 Ry
     estimated scf accuracy    <       0.06053966 Ry

     total magnetization       =    23.20 Bohr mag/cell
     absolute magnetization    =    26.48 Bohr mag/cell

     iteration # 16     ecut=    45.00 Ry     beta= 0.30
     Davidson diagonalization with overlap
     c_bands:  1 eigenvalues not converged
     ethr =  2.44E-05,  avg # of iterations =  3.0

     negative rho (up, down):  0.000E+00 2.225E-03

     total cpu time spent up to now is     5059.5 secs

     total energy              =   -4943.21255847 Ry
     estimated scf accuracy    <       0.07173650 Ry

     total magnetization       =    23.36 Bohr mag/cell
     absolute magnetization    =    26.53 Bohr mag/cell

     iteration # 17     ecut=    45.00 Ry     beta= 0.30
     Davidson diagonalization with overlap
     c_bands:  2 eigenvalues not converged
     ethr =  2.44E-05,  avg # of iterations =  6.6

     negative rho (up, down):  0.000E+00 1.969E-03

     total cpu time spent up to now is     5405.3 secs

     total energy              =   -4943.20599235 Ry
     estimated scf accuracy    <       0.47993455 Ry

     total magnetization       =    23.74 Bohr mag/cell
     absolute magnetization    =    26.97 Bohr mag/cell

     iteration # 18     ecut=    45.00 Ry     beta= 0.30
     Davidson diagonalization with overlap
     ethr =  2.44E-05,  avg # of iterations =  4.2

     negative rho (up, down):  0.000E+00 1.718E-03

     total cpu time spent up to now is     5722.5 secs

     total energy              =   -4943.22340907 Ry
     estimated scf accuracy    <       0.06193670 Ry

     total magnetization       =    23.04 Bohr mag/cell
     absolute magnetization    =    26.50 Bohr mag/cell

     iteration # 19     ecut=    45.00 Ry     beta= 0.30
     Davidson diagonalization with overlap
     ethr =  2.44E-05,  avg # of iterations =  1.1

     negative rho (up, down):  0.000E+00 1.586E-03

     total cpu time spent up to now is     5988.6 secs

     total energy              =   -4943.22810229 Ry
     estimated scf accuracy    <       0.00291092 Ry

     total magnetization       =    22.76 Bohr mag/cell
     absolute magnetization    =    26.34 Bohr mag/cell

     iteration # 20     ecut=    45.00 Ry     beta= 0.30
     Davidson diagonalization with overlap
     c_bands:  1 eigenvalues not converged
     ethr =  1.17E-06,  avg # of iterations =  9.0

     negative rho (up, down):  0.000E+00 1.552E-03

     total cpu time spent up to now is     6425.6 secs

     total energy              =   -4943.22929148 Ry
     estimated scf accuracy    <       0.00417323 Ry

     total magnetization       =    22.56 Bohr mag/cell
     absolute magnetization    =    26.33 Bohr mag/cell

     iteration # 21     ecut=    45.00 Ry     beta= 0.30
     Davidson diagonalization with overlap
     ethr =  1.17E-06,  avg # of iterations =  1.4

     negative rho (up, down):  0.000E+00 1.501E-03

     total cpu time spent up to now is     6706.0 secs

     total energy              =   -4943.22990349 Ry
     estimated scf accuracy    <       0.00332033 Ry

     total magnetization       =    22.47 Bohr mag/cell
     absolute magnetization    =    26.36 Bohr mag/cell

     iteration # 22     ecut=    45.00 Ry     beta= 0.30
     Davidson diagonalization with overlap
     ethr =  1.17E-06,  avg # of iterations =  1.9

     negative rho (up, down):  0.000E+00 1.504E-03

     total cpu time spent up to now is     7002.1 secs

     total energy              =   -4943.23073130 Ry
     estimated scf accuracy    <       0.00306148 Ry

     total magnetization       =    22.36 Bohr mag/cell
     absolute magnetization    =    26.42 Bohr mag/cell

     iteration # 23     ecut=    45.00 Ry     beta= 0.30
     Davidson diagonalization with overlap
     ethr =  1.17E-06,  avg # of iterations =  3.5

     negative rho (up, down):  0.000E+00 1.446E-03

     total cpu time spent up to now is     7325.6 secs

     total energy              =   -4943.23132370 Ry
     estimated scf accuracy    <       0.00703842 Ry

     total magnetization       =    22.20 Bohr mag/cell
     absolute magnetization    =    26.57 Bohr mag/cell

     iteration # 24     ecut=    45.00 Ry     beta= 0.30
     Davidson diagonalization with overlap
     ethr =  1.17E-06,  avg # of iterations =  4.1

     negative rho (up, down):  0.000E+00 1.433E-03

     total cpu time spent up to now is     7663.7 secs

     total energy              =   -4943.23175449 Ry
     estimated scf accuracy    <       0.00225647 Ry

     total magnetization       =    22.05 Bohr mag/cell
     absolute magnetization    =    26.72 Bohr mag/cell

     iteration # 25     ecut=    45.00 Ry     beta= 0.30
     Davidson diagonalization with overlap
     ethr =  9.10E-07,  avg # of iterations =  2.1

     negative rho (up, down):  0.000E+00 1.411E-03

     total cpu time spent up to now is     7950.8 secs

     total energy              =   -4943.23214435 Ry
     estimated scf accuracy    <       0.00217535 Ry

     total magnetization       =    22.04 Bohr mag/cell
     absolute magnetization    =    26.69 Bohr mag/cell

     iteration # 26     ecut=    45.00 Ry     beta= 0.30
     Davidson diagonalization with overlap
     ethr =  8.77E-07,  avg # of iterations =  2.4

     negative rho (up, down):  0.000E+00 1.446E-03

     total cpu time spent up to now is     8265.0 secs

     total energy              =   -4943.23230359 Ry
     estimated scf accuracy    <       0.00124764 Ry

     total magnetization       =    21.90 Bohr mag/cell
     absolute magnetization    =    26.83 Bohr mag/cell

     iteration # 27     ecut=    45.00 Ry     beta= 0.30
     Davidson diagonalization with overlap
     ethr =  5.03E-07,  avg # of iterations =  2.3

     negative rho (up, down):  0.000E+00 1.523E-03

     total cpu time spent up to now is     8561.3 secs

     total energy              =   -4943.23273289 Ry
     estimated scf accuracy    <       0.00138936 Ry

     total magnetization       =    21.92 Bohr mag/cell
     absolute magnetization    =    26.82 Bohr mag/cell

     iteration # 28     ecut=    45.00 Ry     beta= 0.30
     Davidson diagonalization with overlap
     ethr =  5.03E-07,  avg # of iterations =  5.4

     negative rho (up, down):  0.000E+00 1.449E-03

     total cpu time spent up to now is     8909.4 secs

     total energy              =   -4943.23280380 Ry
     estimated scf accuracy    <       0.00594163 Ry

     total magnetization       =    21.84 Bohr mag/cell
     absolute magnetization    =    27.07 Bohr mag/cell

     iteration # 29     ecut=    45.00 Ry     beta= 0.30
     Davidson diagonalization with overlap
     ethr =  5.03E-07,  avg # of iterations =  4.5

     negative rho (up, down):  0.000E+00 1.461E-03

     total cpu time spent up to now is     9244.9 secs

     total energy              =   -4943.23332178 Ry
     estimated scf accuracy    <       0.00059116 Ry

     total magnetization       =    21.68 Bohr mag/cell
     absolute magnetization    =    27.16 Bohr mag/cell

     iteration # 30     ecut=    45.00 Ry     beta= 0.30
     Davidson diagonalization with overlap
     ethr =  2.38E-07,  avg # of iterations =  5.4

     negative rho (up, down):  0.000E+00 1.480E-03

     total cpu time spent up to now is     9580.6 secs

     total energy              =   -4943.23350620 Ry
     estimated scf accuracy    <       0.00073026 Ry

     total magnetization       =    21.64 Bohr mag/cell
     absolute magnetization    =    27.25 Bohr mag/cell

     iteration # 31     ecut=    45.00 Ry     beta= 0.30
     Davidson diagonalization with overlap
     ethr =  2.38E-07,  avg # of iterations =  5.0

     negative rho (up, down):  0.000E+00 1.525E-03

     total cpu time spent up to now is     9920.7 secs

     total energy              =   -4943.23385223 Ry
     estimated scf accuracy    <       0.00041783 Ry

     total magnetization       =    21.52 Bohr mag/cell
     absolute magnetization    =    27.43 Bohr mag/cell

     iteration # 32     ecut=    45.00 Ry     beta= 0.30
     Davidson diagonalization with overlap
     ethr =  1.68E-07,  avg # of iterations =  5.4

     negative rho (up, down):  0.000E+00 1.560E-03

     total cpu time spent up to now is    10279.1 secs

     total energy              =   -4943.23410591 Ry
     estimated scf accuracy    <       0.00078064 Ry

     total magnetization       =    21.43 Bohr mag/cell
     absolute magnetization    =    27.66 Bohr mag/cell

     iteration # 33     ecut=    45.00 Ry     beta= 0.30
     Davidson diagonalization with overlap
     ethr =  1.68E-07,  avg # of iterations =  4.6

     negative rho (up, down):  0.000E+00 1.626E-03

     total cpu time spent up to now is    10625.0 secs

     total energy              =   -4943.23408097 Ry
     estimated scf accuracy    <       0.00084207 Ry

     total magnetization       =    21.34 Bohr mag/cell
     absolute magnetization    =    27.85 Bohr mag/cell

     iteration # 34     ecut=    45.00 Ry     beta= 0.30
     Davidson diagonalization with overlap
     ethr =  1.68E-07,  avg # of iterations =  6.0

     negative rho (up, down):  0.000E+00 1.600E-03

     total cpu time spent up to now is    11040.9 secs

     total energy              =   -4943.23439026 Ry
     estimated scf accuracy    <       0.00068670 Ry

     total magnetization       =    21.17 Bohr mag/cell
     absolute magnetization    =    28.23 Bohr mag/cell

     iteration # 35     ecut=    45.00 Ry     beta= 0.30
     Davidson diagonalization with overlap
     ethr =  1.68E-07,  avg # of iterations =  4.4

     negative rho (up, down):  0.000E+00 1.634E-03

     total cpu time spent up to now is    11372.2 secs

     total energy              =   -4943.23448592 Ry
     estimated scf accuracy    <       0.00094346 Ry

     total magnetization       =    21.24 Bohr mag/cell
     absolute magnetization    =    28.09 Bohr mag/cell

     iteration # 36     ecut=    45.00 Ry     beta= 0.30
     Davidson diagonalization with overlap
     ethr =  1.68E-07,  avg # of iterations =  4.0

     negative rho (up, down):  0.000E+00 1.611E-03

     total cpu time spent up to now is    11702.2 secs

     total energy              =   -4943.23437625 Ry
     estimated scf accuracy    <       0.00025742 Ry

     total magnetization       =    21.14 Bohr mag/cell
     absolute magnetization    =    28.29 Bohr mag/cell

     iteration # 37     ecut=    45.00 Ry     beta= 0.30
     Davidson diagonalization with overlap
     ethr =  1.04E-07,  avg # of iterations =  5.1

     negative rho (up, down):  0.000E+00 1.643E-03

     total cpu time spent up to now is    12089.6 secs

     total energy              =   -4943.23443416 Ry
     estimated scf accuracy    <       0.00231513 Ry

     total magnetization       =    21.24 Bohr mag/cell
     absolute magnetization    =    28.10 Bohr mag/cell

     iteration # 38     ecut=    45.00 Ry     beta= 0.30
     Davidson diagonalization with overlap
     ethr =  1.04E-07,  avg # of iterations =  4.6

     negative rho (up, down):  0.000E+00 1.676E-03

     total cpu time spent up to now is    12456.8 secs

     total energy              =   -4943.23469809 Ry
     estimated scf accuracy    <       0.00046433 Ry

     total magnetization       =    21.14 Bohr mag/cell
     absolute magnetization    =    28.36 Bohr mag/cell

     iteration # 39     ecut=    45.00 Ry     beta= 0.30
     Davidson diagonalization with overlap
     ethr =  1.04E-07,  avg # of iterations =  5.0

     negative rho (up, down):  0.000E+00 1.689E-03

     total cpu time spent up to now is    12828.2 secs

     total energy              =   -4943.23487795 Ry
     estimated scf accuracy    <       0.00018616 Ry

     total magnetization       =    21.03 Bohr mag/cell
     absolute magnetization    =    28.57 Bohr mag/cell

     iteration # 40     ecut=    45.00 Ry     beta= 0.30
     Davidson diagonalization with overlap
     ethr =  7.51E-08,  avg # of iterations =  3.9

     negative rho (up, down):  0.000E+00 1.707E-03

     total cpu time spent up to now is    13165.5 secs

     total energy              =   -4943.23489411 Ry
     estimated scf accuracy    <       0.00029477 Ry

     total magnetization       =    20.99 Bohr mag/cell
     absolute magnetization    =    28.67 Bohr mag/cell

     iteration # 41     ecut=    45.00 Ry     beta= 0.30
     Davidson diagonalization with overlap
     ethr =  7.51E-08,  avg # of iterations =  4.2

     negative rho (up, down):  0.000E+00 1.713E-03

     total cpu time spent up to now is    13510.1 secs

     total energy              =   -4943.23497981 Ry
     estimated scf accuracy    <       0.00009319 Ry

     total magnetization       =    20.94 Bohr mag/cell
     absolute magnetization    =    28.80 Bohr mag/cell

     iteration # 42     ecut=    45.00 Ry     beta= 0.30
     Davidson diagonalization with overlap
     ethr =  3.76E-08,  avg # of iterations =  4.9

     negative rho (up, down):  0.000E+00 1.709E-03

     total cpu time spent up to now is    13862.2 secs

     total energy              =   -4943.23501944 Ry
     estimated scf accuracy    <       0.00010639 Ry

     total magnetization       =    20.91 Bohr mag/cell
     absolute magnetization    =    28.88 Bohr mag/cell

     iteration # 43     ecut=    45.00 Ry     beta= 0.30
     Davidson diagonalization with overlap
     ethr =  3.76E-08,  avg # of iterations =  1.6

     negative rho (up, down):  0.000E+00 1.731E-03

     total cpu time spent up to now is    14138.3 secs

     total energy              =   -4943.23488546 Ry
     estimated scf accuracy    <       0.00014061 Ry

     total magnetization       =    20.91 Bohr mag/cell
     absolute magnetization    =    28.88 Bohr mag/cell

     iteration # 44     ecut=    45.00 Ry     beta= 0.30
     Davidson diagonalization with overlap
     ethr =  3.76E-08,  avg # of iterations =  5.9

     negative rho (up, down):  0.000E+00 1.726E-03

     total cpu time spent up to now is    14571.4 secs

     total energy              =   -4943.23506498 Ry
     estimated scf accuracy    <       0.00015249 Ry

     total magnetization       =    20.82 Bohr mag/cell
     absolute magnetization    =    29.10 Bohr mag/cell

     iteration # 45     ecut=    45.00 Ry     beta= 0.30
     Davidson diagonalization with overlap
     ethr =  3.76E-08,  avg # of iterations =  4.3

     negative rho (up, down):  0.000E+00 1.734E-03

     total cpu time spent up to now is    14900.8 secs

     total energy              =   -4943.23504386 Ry
     estimated scf accuracy    <       0.00042644 Ry

     total magnetization       =    20.83 Bohr mag/cell
     absolute magnetization    =    29.08 Bohr mag/cell

     iteration # 46     ecut=    45.00 Ry     beta= 0.30
     Davidson diagonalization with overlap
     ethr =  3.76E-08,  avg # of iterations =  4.2

     negative rho (up, down):  0.000E+00 1.737E-03

     total cpu time spent up to now is    15227.5 secs

     total energy              =   -4943.23505464 Ry
     estimated scf accuracy    <       0.00004590 Ry

     total magnetization       =    20.82 Bohr mag/cell
     absolute magnetization    =    29.13 Bohr mag/cell

     iteration # 47     ecut=    45.00 Ry     beta= 0.30
     Davidson diagonalization with overlap
     ethr =  1.85E-08,  avg # of iterations =  4.8

     negative rho (up, down):  0.000E+00 1.734E-03

     total cpu time spent up to now is    15615.0 secs

     total energy              =   -4943.23506052 Ry
     estimated scf accuracy    <       0.00036662 Ry

     total magnetization       =    20.79 Bohr mag/cell
     absolute magnetization    =    29.17 Bohr mag/cell

     iteration # 48     ecut=    45.00 Ry     beta= 0.30
     Davidson diagonalization with overlap
     ethr =  1.85E-08,  avg # of iterations =  4.2

     negative rho (up, down):  0.000E+00 1.735E-03

     total cpu time spent up to now is    15954.6 secs

     total energy              =   -4943.23507497 Ry
     estimated scf accuracy    <       0.00006385 Ry

     total magnetization       =    20.80 Bohr mag/cell
     absolute magnetization    =    29.17 Bohr mag/cell

     iteration # 49     ecut=    45.00 Ry     beta= 0.30
     Davidson diagonalization with overlap
     ethr =  1.85E-08,  avg # of iterations =  1.5

     negative rho (up, down):  0.000E+00 1.737E-03

     total cpu time spent up to now is    16235.8 secs

     total energy              =   -4943.23506954 Ry
     estimated scf accuracy    <       0.00001775 Ry

     total magnetization       =    20.79 Bohr mag/cell
     absolute magnetization    =    29.18 Bohr mag/cell

     iteration # 50     ecut=    45.00 Ry     beta= 0.30
     Davidson diagonalization with overlap
     ethr =  7.16E-09,  avg # of iterations =  5.0

     negative rho (up, down):  0.000E+00 1.735E-03

     total cpu time spent up to now is    16589.2 secs

     total energy              =   -4943.23508033 Ry
     estimated scf accuracy    <       0.00001949 Ry

     total magnetization       =    20.78 Bohr mag/cell
     absolute magnetization    =    29.22 Bohr mag/cell

     iteration # 51     ecut=    45.00 Ry     beta= 0.30
     Davidson diagonalization with overlap
     ethr =  7.16E-09,  avg # of iterations =  2.2

     negative rho (up, down):  0.000E+00 1.733E-03

     total cpu time spent up to now is    16890.3 secs

     total energy              =   -4943.23508375 Ry
     estimated scf accuracy    <       0.00002151 Ry

     total magnetization       =    20.78 Bohr mag/cell
     absolute magnetization    =    29.21 Bohr mag/cell

     iteration # 52     ecut=    45.00 Ry     beta= 0.30
     Davidson diagonalization with overlap
     ethr =  7.16E-09,  avg # of iterations =  1.5

     negative rho (up, down):  0.000E+00 1.735E-03

     total cpu time spent up to now is    17176.1 secs

     total energy              =   -4943.23507855 Ry
     estimated scf accuracy    <       0.00001396 Ry

     total magnetization       =    20.78 Bohr mag/cell
     absolute magnetization    =    29.21 Bohr mag/cell

     iteration # 53     ecut=    45.00 Ry     beta= 0.30
     Davidson diagonalization with overlap
     ethr =  5.63E-09,  avg # of iterations =  3.4

     negative rho (up, down):  0.000E+00 1.733E-03

     total cpu time spent up to now is    17492.5 secs

     total energy              =   -4943.23508338 Ry
     estimated scf accuracy    <       0.00002513 Ry

     total magnetization       =    20.78 Bohr mag/cell
     absolute magnetization    =    29.22 Bohr mag/cell

     iteration # 54     ecut=    45.00 Ry     beta= 0.30
     Davidson diagonalization with overlap
     ethr =  5.63E-09,  avg # of iterations =  2.8

     negative rho (up, down):  0.000E+00 1.732E-03

     total cpu time spent up to now is    17800.4 secs

     total energy              =   -4943.23508424 Ry
     estimated scf accuracy    <       0.00002392 Ry

     total magnetization       =    20.78 Bohr mag/cell
     absolute magnetization    =    29.21 Bohr mag/cell

     iteration # 55     ecut=    45.00 Ry     beta= 0.30
     Davidson diagonalization with overlap
     ethr =  5.63E-09,  avg # of iterations =  2.6

     negative rho (up, down):  0.000E+00 1.731E-03

     total cpu time spent up to now is    18114.6 secs

     total energy              =   -4943.23508563 Ry
     estimated scf accuracy    <       0.00000989 Ry

     total magnetization       =    20.78 Bohr mag/cell
     absolute magnetization    =    29.21 Bohr mag/cell

     iteration # 56     ecut=    45.00 Ry     beta= 0.30
     Davidson diagonalization with overlap
     ethr =  3.99E-09,  avg # of iterations =  1.7

     negative rho (up, down):  0.000E+00 1.730E-03

     total cpu time spent up to now is    18396.5 secs

     total energy              =   -4943.23508841 Ry
     estimated scf accuracy    <       0.00000513 Ry

     total magnetization       =    20.78 Bohr mag/cell
     absolute magnetization    =    29.21 Bohr mag/cell

     iteration # 57     ecut=    45.00 Ry     beta= 0.30
     Davidson diagonalization with overlap
     ethr =  2.07E-09,  avg # of iterations =  4.5

     negative rho (up, down):  0.000E+00 1.727E-03

     total cpu time spent up to now is    18728.0 secs

     total energy              =   -4943.23509068 Ry
     estimated scf accuracy    <       0.00001580 Ry

     total magnetization       =    20.79 Bohr mag/cell
     absolute magnetization    =    29.20 Bohr mag/cell

     iteration # 58     ecut=    45.00 Ry     beta= 0.30
     Davidson diagonalization with overlap
     ethr =  2.07E-09,  avg # of iterations =  4.9

     negative rho (up, down):  0.000E+00 1.729E-03

     total cpu time spent up to now is    19079.0 secs

     total energy              =   -4943.23508833 Ry
     estimated scf accuracy    <       0.00001094 Ry

     total magnetization       =    20.80 Bohr mag/cell
     absolute magnetization    =    29.18 Bohr mag/cell

     iteration # 59     ecut=    45.00 Ry     beta= 0.30
     Davidson diagonalization with overlap
     ethr =  2.07E-09,  avg # of iterations =  2.8

     negative rho (up, down):  0.000E+00 1.727E-03

     total cpu time spent up to now is    19395.7 secs

     total energy              =   -4943.23509131 Ry
     estimated scf accuracy    <       0.00000487 Ry

     total magnetization       =    20.79 Bohr mag/cell
     absolute magnetization    =    29.19 Bohr mag/cell

     iteration # 60     ecut=    45.00 Ry     beta= 0.30
     Davidson diagonalization with overlap
     ethr =  1.96E-09,  avg # of iterations =  1.9

     negative rho (up, down):  0.000E+00 1.724E-03

     total cpu time spent up to now is    19693.2 secs

     total energy              =   -4943.23509278 Ry
     estimated scf accuracy    <       0.00000837 Ry

     total magnetization       =    20.79 Bohr mag/cell
     absolute magnetization    =    29.18 Bohr mag/cell

     iteration # 61     ecut=    45.00 Ry     beta= 0.30
     Davidson diagonalization with overlap
     ethr =  1.96E-09,  avg # of iterations =  5.3

     negative rho (up, down):  0.000E+00 1.720E-03

     total cpu time spent up to now is    20108.6 secs

     total energy              =   -4943.23509565 Ry
     estimated scf accuracy    <       0.00001788 Ry

     total magnetization       =    20.81 Bohr mag/cell
     absolute magnetization    =    29.15 Bohr mag/cell

     iteration # 62     ecut=    45.00 Ry     beta= 0.30
     Davidson diagonalization with overlap
     ethr =  1.96E-09,  avg # of iterations =  4.3

     negative rho (up, down):  0.000E+00 1.720E-03

     total cpu time spent up to now is    20464.6 secs

     total energy              =   -4943.23509900 Ry
     estimated scf accuracy    <       0.00000190 Ry

     total magnetization       =    20.82 Bohr mag/cell
     absolute magnetization    =    29.12 Bohr mag/cell

     iteration # 63     ecut=    45.00 Ry     beta= 0.30
     Davidson diagonalization with overlap
     c_bands:  1 eigenvalues not converged
     ethr =  7.67E-10,  avg # of iterations =  4.6

     negative rho (up, down):  0.000E+00 1.719E-03

     total cpu time spent up to now is    20796.5 secs

     total energy              =   -4943.23509952 Ry
     estimated scf accuracy    <       0.00000662 Ry

     total magnetization       =    20.82 Bohr mag/cell
     absolute magnetization    =    29.12 Bohr mag/cell

     iteration # 64     ecut=    45.00 Ry     beta= 0.30
     Davidson diagonalization with overlap
     ethr =  7.67E-10,  avg # of iterations =  5.0

     negative rho (up, down):  0.000E+00 1.718E-03

     total cpu time spent up to now is    21161.8 secs

     total energy              =   -4943.23510029 Ry
     estimated scf accuracy    <       0.00000443 Ry

     total magnetization       =    20.83 Bohr mag/cell
     absolute magnetization    =    29.10 Bohr mag/cell

     iteration # 65     ecut=    45.00 Ry     beta= 0.30
     Davidson diagonalization with overlap
     ethr =  7.67E-10,  avg # of iterations =  2.3

     negative rho (up, down):  0.000E+00 1.718E-03

     total cpu time spent up to now is    21470.0 secs

     total energy              =   -4943.23510049 Ry
     estimated scf accuracy    <       0.00000214 Ry

     total magnetization       =    20.83 Bohr mag/cell
     absolute magnetization    =    29.10 Bohr mag/cell

     iteration # 66     ecut=    45.00 Ry     beta= 0.30
     Davidson diagonalization with overlap
     ethr =  7.67E-10,  avg # of iterations =  1.5

     negative rho (up, down):  0.000E+00 1.717E-03

     total cpu time spent up to now is    21746.3 secs

     total energy              =   -4943.23510088 Ry
     estimated scf accuracy    <       0.00000179 Ry

     total magnetization       =    20.83 Bohr mag/cell
     absolute magnetization    =    29.10 Bohr mag/cell

     iteration # 67     ecut=    45.00 Ry     beta= 0.30
     Davidson diagonalization with overlap
     ethr =  7.21E-10,  avg # of iterations =  5.1

     negative rho (up, down):  0.000E+00 1.718E-03

     total cpu time spent up to now is    22119.1 secs

     total energy              =   -4943.23510102 Ry
     estimated scf accuracy    <       0.00000327 Ry

     total magnetization       =    20.84 Bohr mag/cell
     absolute magnetization    =    29.09 Bohr mag/cell

     iteration # 68     ecut=    45.00 Ry     beta= 0.30
     Davidson diagonalization with overlap
     ethr =  7.21E-10,  avg # of iterations =  3.4

     negative rho (up, down):  0.000E+00 1.716E-03

     total cpu time spent up to now is    22439.2 secs

     total energy              =   -4943.23510136 Ry
     estimated scf accuracy    <       0.00000373 Ry

     total magnetization       =    20.83 Bohr mag/cell
     absolute magnetization    =    29.09 Bohr mag/cell

     iteration # 69     ecut=    45.00 Ry     beta= 0.30
     Davidson diagonalization with overlap
     ethr =  7.21E-10,  avg # of iterations =  4.2

     negative rho (up, down):  0.000E+00 1.713E-03

     total cpu time spent up to now is    22786.4 secs

     total energy              =   -4943.23509924 Ry
     estimated scf accuracy    <       0.00000251 Ry

     total magnetization       =    20.84 Bohr mag/cell
     absolute magnetization    =    29.08 Bohr mag/cell

     iteration # 70     ecut=    45.00 Ry     beta= 0.30
     Davidson diagonalization with overlap
     ethr =  7.21E-10,  avg # of iterations =  5.8

     negative rho (up, down):  0.000E+00 1.713E-03

     total cpu time spent up to now is    23243.9 secs

     total energy              =   -4943.23510352 Ry
     estimated scf accuracy    <       0.00000109 Ry

     total magnetization       =    20.86 Bohr mag/cell
     absolute magnetization    =    29.05 Bohr mag/cell

     iteration # 71     ecut=    45.00 Ry     beta= 0.30
     Davidson diagonalization with overlap
     ethr =  4.39E-10,  avg # of iterations =  1.4

     negative rho (up, down):  0.000E+00 1.715E-03

     Magnetic moment per site  (integrated on atomic sphere of radius R)
     atom   1 (R=0.177)  charge= 12.0678  magn= -0.7631
     atom   2 (R=0.177)  charge= 14.3837  magn=  1.9495
     atom   3 (R=0.177)  charge= 14.3540  magn=  2.2755
     atom   4 (R=0.177)  charge= 14.3837  magn=  1.9495
     atom   5 (R=0.177)  charge= 14.3536  magn=  2.2756
     atom   6 (R=0.177)  charge= 14.3839  magn=  1.9494
     atom   7 (R=0.177)  charge= 12.0672  magn= -0.7656
     atom   8 (R=0.177)  charge= 14.3839  magn=  1.9494
     atom   9 (R=0.177)  charge= 12.0677  magn= -0.7655
     atom  10 (R=0.177)  charge= 14.3839  magn=  1.9494
     atom  11 (R=0.177)  charge= 14.3537  magn=  2.2754
     atom  12 (R=0.177)  charge= 14.3839  magn=  1.9494
     atom  13 (R=0.177)  charge= 14.3538  magn=  2.2754
     atom  14 (R=0.177)  charge= 14.3837  magn=  1.9495
     atom  15 (R=0.177)  charge= 12.0675  magn= -0.7643
     atom  16 (R=0.177)  charge= 14.3837  magn=  1.9495

     total cpu time spent up to now is    23531.9 secs

     End of self-consistent calculation

 ------ SPIN UP ------------


          k = 0.0000 0.0000 0.0000 (  6185 PWs)   bands (ev):

   -69.3089 -69.2855 -69.2801 -69.2797 -69.1964 -69.1963 -69.1963 -69.1905
   -69.1904 -69.1904 -69.1846 -69.1781 -52.3935 -52.3916 -52.3747 -52.3739
   -35.4626 -35.4404 -35.4391 -35.4305 -35.4300 -35.3177 -35.3166 -35.3139
   -35.3049 -35.2999 -35.2983 -35.2937 -35.2919 -35.2584 -35.2545 -35.2490
   -35.2486 -35.2479 -35.2372 -35.2320 -35.2284 -35.2251 -35.2029 -35.1838
   -35.1833 -35.1778 -35.1511 -35.1468 -35.1338 -35.1303 -35.1209 -35.1126
   -35.1003 -35.0355 -35.0336 -35.0182 -23.8269 -23.8113 -23.7348 -23.7347
   -23.7188 -23.7182 -23.7116 -23.7110 -23.7066 -23.7065 -23.6471 -23.6414
    10.4746  13.9639  13.9711  13.9759  14.0445  14.0621  14.1081  14.1590
    14.2193  14.2209  14.2339  14.2355  14.2659  14.4305  14.5703  15.4718
    15.6735  15.6742  15.7328  15.7365  15.7472  15.7513  15.7874  15.7889
    15.7920  15.8191  15.8681  15.8910  15.9464  15.9474  16.1299  16.3088
    16.8357  16.9101  16.9290  16.9507  17.0080  17.0392  17.0594  17.0688
    17.0828  17.0834  17.0935  17.2728  17.2843  17.7393  17.8179  17.8327
    17.8751  17.8791  17.9086  17.9825  18.0398  18.0433  18.0474  18.1243
    18.1382  18.1562  18.1577  18.1655  18.1682  18.1682  18.6152  18.9346
    19.0888  19.1705  19.1710  19.1757  19.1906  19.2173  19.2285  19.3280
    19.4980  19.5039  19.5049  19.5063  19.5065  19.6388  19.6408  19.8764
    19.8878  20.0627  20.0868  20.1570  20.2366

          k = 0.0000 0.0000 0.2500 (  6213 PWs)   bands (ev):

   -69.3058 -69.2894 -69.2801 -69.2798 -69.1954 -69.1953 -69.1930 -69.1914
   -69.1913 -69.1895 -69.1857 -69.1805 -52.3932 -52.3919 -52.3747 -52.3740
   -35.4460 -35.4329 -35.4290 -35.4213 -35.4183 -35.3486 -35.3431 -35.3418
   -35.3405 -35.3326 -35.3104 -35.2895 -35.2892 -35.2609 -35.2606 -35.2589
   -35.2572 -35.2491 -35.2320 -35.2289 -35.2146 -35.2010 -35.1819 -35.1781
   -35.1615 -35.1612 -35.1482 -35.1383 -35.1305 -35.1256 -35.1172 -35.1104
   -35.1057 -35.0535 -35.0452 -35.0337 -23.8253 -23.8144 -23.7328 -23.7314
   -23.7219 -23.7216 -23.7122 -23.7111 -23.7081 -23.7072 -23.6463 -23.6422
    10.8052  13.0632  14.0548  14.0688  14.1427  14.1774  14.2181  14.2446
    14.3072  14.3244  14.3463  14.3521  14.4926  14.5001  14.8034  15.2959
    15.4701  15.5164  15.5556  15.5932  15.6236  15.7202  15.8045  15.8046
    15.8135  15.8208  15.9064  16.0044  16.2253  16.2337  16.2941  16.3494
    16.6513  16.8170  16.8354  16.8581  16.8842  16.9353  16.9810  16.9916
    17.0198  17.1024  17.3279  17.3284  17.3651  17.3670  17.5636  17.5765
    17.5790  17.6943  17.7529  17.7652  17.8943  17.8988  18.0464  18.0490
    18.0889  18.1226  18.1614  18.1990  18.2053  18.2906  18.5621  18.6453
    18.7604  18.8694  18.9049  18.9771  18.9771  19.0774  19.1044  19.3180
    19.3548  19.3767  19.3915  19.5025  19.8429  19.8487  19.8564  19.9005
    19.9816  20.0271  20.0870  20.1340  20.6739

          k = 0.0000 0.0000-0.5000 (  6226 PWs)   bands (ev):

   -69.2982 -69.2980 -69.2801 -69.2799 -69.1934 -69.1934 -69.1933 -69.1933
   -69.1877 -69.1877 -69.1864 -69.1863 -52.3929 -52.3923 -52.3746 -52.3741
   -35.3994 -35.3993 -35.3991 -35.3990 -35.3901 -35.3898 -35.3895 -35.3894
   -35.3869 -35.3867 -35.2904 -35.2902 -35.2764 -35.2764 -35.2752 -35.2752
   -35.2421 -35.2421 -35.2413 -35.2413 -35.1791 -35.1791 -35.1677 -35.1676
   -35.1600 -35.1599 -35.1391 -35.1391 -35.1296 -35.1295 -35.1008 -35.1008
   -35.0736 -35.0736 -35.0691 -35.0690 -23.8203 -23.8197 -23.7277 -23.7274
   -23.7272 -23.7268 -23.7108 -23.7102 -23.7095 -23.7090 -23.6445 -23.6439
    11.7365  11.7365  14.2590  14.2590  14.2756  14.2756  14.3935  14.3936
    14.4069  14.4069  14.5879  14.5879  14.7228  14.7229  14.8395  14.8396
    14.8777  14.8777  15.5486  15.5487  15.6466  15.6466  16.1636  16.1636
    16.2310  16.2310  16.2603  16.2603  16.2846  16.2846  16.2863  16.2863
    16.3741  16.3741  16.6928  16.6928  16.7298  16.7298  16.8433  16.8434
    16.9418  16.9418  17.0187  17.0187  17.2227  17.2228  17.2579  17.2580
    17.4167  17.4167  17.7205  17.7207  17.7916  17.7917  18.0644  18.0644
    18.1645  18.1645  18.2844  18.2845  18.2870  18.2871  18.4162  18.4163
    18.7306  18.7307  18.7783  18.7784  19.0341  19.0341  19.0905  19.0908
    19.6069  19.6070  19.7070  19.7070  19.7688  19.7688  19.8809  19.8815
    19.9621  19.9621  20.3194  20.3197  20.4064

          k = 0.0025 0.2500 0.0000 (  6198 PWs)   bands (ev):

   -69.3059 -69.2894 -69.2801 -69.2798 -69.1954 -69.1954 -69.1930 -69.1914
   -69.1912 -69.1896 -69.1856 -69.1805 -52.3932 -52.3919 -52.3746 -52.3739
   -35.4447 -35.4319 -35.4273 -35.4202 -35.4180 -35.3482 -35.3432 -35.3408
   -35.3358 -35.3319 -35.3079 -35.2889 -35.2878 -35.2600 -35.2595 -35.2591
   -35.2571 -35.2485 -35.2322 -35.2288 -35.2152 -35.1953 -35.1813 -35.1783
   -35.1648 -35.1594 -35.1489 -35.1362 -35.1337 -35.1202 -35.1165 -35.1114
   -35.1081 -35.0534 -35.0468 -35.0314 -23.8244 -23.8138 -23.7321 -23.7320
   -23.7221 -23.7213 -23.7116 -23.7114 -23.7075 -23.7072 -23.6464 -23.6423
    10.8041  13.0624  14.0572  14.0662  14.1470  14.1789  14.2208  14.2473
    14.3063  14.3226  14.3529  14.3535  14.4920  14.4990  14.7996  15.2903
    15.4887  15.5166  15.5596  15.6022  15.6214  15.7151  15.8010  15.8055
    15.8095  15.8211  15.9058  16.0096  16.2357  16.2583  16.2925  16.3185
    16.6556  16.8119  16.8523  16.8633  16.8898  16.9152  16.9209  16.9897
    17.0558  17.1066  17.3244  17.3291  17.3639  17.3737  17.5577  17.5725
    17.5872  17.6941  17.7526  17.7672  17.9031  17.9156  18.0480  18.0566
    18.0973  18.1364  18.1783  18.1993  18.2051  18.2931  18.5464  18.6524
    18.7593  18.8709  18.9078  18.9707  18.9894  19.0750  19.1039  19.3233
    19.3552  19.3721  19.3967  19.5033  19.8496  19.8557  19.8678  19.9011
    19.9602  20.0410  20.0934  20.1356  20.6754

          k = 0.0025 0.2500 0.2500 (  6210 PWs)   bands (ev):

   -69.3036 -69.2920 -69.2801 -69.2799 -69.1962 -69.1945 -69.1925 -69.1906
   -69.1904 -69.1896 -69.1866 -69.1816 -52.3931 -52.3920 -52.3747 -52.3740
   -35.4371 -35.4363 -35.4256 -35.3978 -35.3893 -35.3885 -35.3864 -35.3529
   -35.3214 -35.3063 -35.3044 -35.2836 -35.2829 -35.2675 -35.2595 -35.2583
   -35.2569 -35.2534 -35.2426 -35.2352 -35.2337 -35.1820 -35.1781 -35.1702
   -35.1649 -35.1617 -35.1543 -35.1498 -35.1371 -35.1196 -35.1139 -35.0959
   -35.0883 -35.0811 -35.0416 -35.0363 -23.8236 -23.8162 -23.7342 -23.7274
   -23.7269 -23.7195 -23.7128 -23.7099 -23.7094 -23.7071 -23.6456 -23.6428
    11.1222  13.1337  13.4224  13.9397  14.2969  14.2970  14.3239  14.3584
    14.4031  14.4635  14.4793  14.5158  14.6055  14.7675  14.9070  15.3702
    15.3817  15.4321  15.4383  15.5769  15.5907  15.6621  15.8205  15.8414
    15.8477  15.9586  15.9827  16.0473  16.0754  16.1331  16.2083  16.3830
    16.4095  16.7179  16.7391  16.7796  16.7907  16.8438  16.8854  17.0070
    17.0588  17.0977  17.2298  17.2317  17.2623  17.3319  17.3734  17.4418
    17.4516  17.5442  17.5452  17.7421  17.7423  17.7879  17.8075  17.8739
    17.9799  18.0809  18.1458  18.1793  18.3100  18.3213  18.5047  18.5789
    18.6352  18.6396  18.6570  18.6756  18.8373  19.1999  19.2213  19.2340
    19.2512  19.3549  19.4019  19.6667  19.6900  19.7097  19.7871  19.8387
    19.9186  20.3544  20.3599  20.6771  20.8524

          k = 0.0025 0.2500-0.5000 (  6214 PWs)   bands (ev):

   -69.2980 -69.2978 -69.2802 -69.2799 -69.1950 -69.1950 -69.1926 -69.1926
   -69.1885 -69.1885 -69.1848 -69.1848 -52.3929 -52.3923 -52.3747 -52.3741
   -35.4234 -35.4234 -35.4214 -35.4214 -35.3953 -35.3951 -35.3502 -35.3502
   -35.3408 -35.3408 -35.2887 -35.2885 -35.2714 -35.2714 -35.2703 -35.2703
   -35.2463 -35.2463 -35.2463 -35.2463 -35.2111 -35.2111 -35.1792 -35.1792
   -35.1487 -35.1487 -35.1366 -35.1366 -35.1314 -35.1314 -35.1280 -35.1279
   -35.0652 -35.0651 -35.0495 -35.0495 -23.8204 -23.8198 -23.7322 -23.7321
   -23.7222 -23.7222 -23.7119 -23.7117 -23.7086 -23.7085 -23.6443 -23.6437
    12.0143  12.0143  13.6909  13.6910  14.5008  14.5008  14.5670  14.5671
    14.5996  14.5996  14.7722  14.7722  14.8718  14.8719  14.9311  14.9311
    14.9710  14.9710  15.6366  15.6367  15.7103  15.7103  15.9546  15.9547
    15.9694  15.9694  15.9846  15.9846  16.0545  16.0545  16.4475  16.4475
    16.5497  16.5498  16.5632  16.5632  16.5868  16.5868  16.6784  16.6784
    16.6844  16.6844  16.8649  16.8649  17.1536  17.1536  17.4647  17.4647
    17.5714  17.5715  17.6623  17.6624  17.7648  17.7649  17.8573  17.8573
    17.9522  17.9522  18.0001  18.0001  18.1940  18.1940  18.4016  18.4017
    18.5279  18.5280  19.0061  19.0063  19.0181  19.0182  19.0661  19.0661
    19.2326  19.2328  19.4834  19.4837  19.7465  19.7471  19.8888  19.8888
    20.2596  20.2597  20.6822  20.6823  20.7841

          k =-0.0050-0.5001 0.0000 (  6216 PWs)   bands (ev):

   -69.2982 -69.2980 -69.2801 -69.2798 -69.1934 -69.1934 -69.1933 -69.1933
   -69.1877 -69.1877 -69.1864 -69.1863 -52.3929 -52.3923 -52.3746 -52.3740
   -35.4005 -35.4003 -35.3983 -35.3981 -35.3904 -35.3903 -35.3889 -35.3887
   -35.3833 -35.3832 -35.2910 -35.2908 -35.2756 -35.2755 -35.2734 -35.2734
   -35.2424 -35.2424 -35.2423 -35.2423 -35.1794 -35.1794 -35.1663 -35.1662
   -35.1577 -35.1577 -35.1381 -35.1381 -35.1329 -35.1328 -35.0983 -35.0982
   -35.0754 -35.0754 -35.0674 -35.0673 -23.8197 -23.8191 -23.7281 -23.7275
   -23.7273 -23.7267 -23.7104 -23.7099 -23.7092 -23.7087 -23.6448 -23.6442
    11.7360  11.7360  14.2581  14.2582  14.2744  14.2745  14.3917  14.3918
    14.4074  14.4076  14.5880  14.5881  14.7206  14.7208  14.8482  14.8484
    14.8942  14.8943  15.5452  15.5453  15.6438  15.6439  16.1635  16.1636
    16.2144  16.2145  16.2580  16.2580  16.2791  16.2791  16.2950  16.2950
    16.3864  16.3865  16.6948  16.6949  16.7270  16.7272  16.8676  16.8677
    16.9148  16.9149  17.0651  17.0652  17.1734  17.1735  17.2586  17.2587
    17.4162  17.4163  17.7243  17.7244  17.7919  17.7920  18.0779  18.0779
    18.1773  18.1774  18.2829  18.2831  18.2848  18.2849  18.4139  18.4140
    18.7362  18.7364  18.7748  18.7749  19.0354  19.0355  19.0880  19.0883
    19.6058  19.6060  19.7364  19.7364  19.7519  19.7521  19.8805  19.8811
    19.9636  19.9636  20.3188  20.3191  20.4057

          k =-0.0050-0.5001 0.2500 (  6212 PWs)   bands (ev):

   -69.2981 -69.2978 -69.2801 -69.2799 -69.1950 -69.1950 -69.1925 -69.1925
   -69.1886 -69.1886 -69.1848 -69.1848 -52.3929 -52.3923 -52.3746 -52.3741
   -35.4222 -35.4222 -35.4214 -35.4214 -35.3945 -35.3944 -35.3512 -35.3512
   -35.3411 -35.3411 -35.2890 -35.2889 -35.2711 -35.2711 -35.2707 -35.2706
   -35.2459 -35.2459 -35.2458 -35.2458 -35.2103 -35.2103 -35.1810 -35.1810
   -35.1483 -35.1483 -35.1381 -35.1380 -35.1303 -35.1303 -35.1285 -35.1284
   -35.0642 -35.0641 -35.0491 -35.0491 -23.8202 -23.8196 -23.7324 -23.7323
   -23.7220 -23.7219 -23.7118 -23.7118 -23.7083 -23.7083 -23.6447 -23.6441
    12.0147  12.0147  13.6882  13.6882  14.5045  14.5046  14.5668  14.5669
    14.5981  14.5982  14.7727  14.7728  14.8689  14.8690  14.9288  14.9289
    14.9741  14.9742  15.6343  15.6344  15.7146  15.7147  15.9571  15.9572
    15.9717  15.9718  15.9872  15.9872  16.0512  16.0512  16.4383  16.4383
    16.5580  16.5580  16.5702  16.5703  16.5910  16.5910  16.6706  16.6707
    16.6836  16.6837  16.8585  16.8585  17.1487  17.1487  17.4709  17.4710
    17.5671  17.5671  17.6592  17.6593  17.7702  17.7703  17.8541  17.8541
    17.9569  17.9570  17.9908  17.9908  18.1989  18.1990  18.4037  18.4038
    18.5290  18.5291  19.0055  19.0057  19.0187  19.0187  19.0666  19.0666
    19.2335  19.2337  19.4836  19.4839  19.7455  19.7461  19.8880  19.8881
    20.2602  20.2603  20.6869  20.6870  20.7843

          k =-0.0050-0.5001-0.5000 (  6200 PWs)   bands (ev):

   -69.2979 -69.2976 -69.2801 -69.2799 -69.1962 -69.1962 -69.1906 -69.1906
   -69.1905 -69.1905 -69.1837 -69.1837 -52.3928 -52.3922 -52.3747 -52.3741
   -35.4320 -35.4320 -35.4316 -35.4315 -35.3942 -35.3940 -35.3252 -35.3252
   -35.3064 -35.3064 -35.2866 -35.2865 -35.2635 -35.2635 -35.2610 -35.2610
   -35.2556 -35.2556 -35.2493 -35.2493 -35.2463 -35.2463 -35.1806 -35.1806
   -35.1647 -35.1647 -35.1575 -35.1575 -35.1270 -35.1269 -35.1191 -35.1191
   -35.0589 -35.0588 -35.0368 -35.0368 -23.8207 -23.8201 -23.7342 -23.7342
   -23.7200 -23.7200 -23.7130 -23.7129 -23.7074 -23.7074 -23.6442 -23.6436
    12.6260  12.6260  12.9327  12.9328  14.6247  14.6248  14.8002  14.8002
    14.8620  14.8620  14.9494  14.9495  15.1329  15.1330  15.1505  15.1506
    15.1829  15.1829  15.4685  15.4685  15.5129  15.5131  15.5836  15.5837
    15.8953  15.8954  15.9415  15.9415  16.0470  16.0470  16.1364  16.1365
    16.3062  16.3062  16.3303  16.3303  16.4304  16.4304  16.5192  16.5192
    16.8369  16.8369  16.9402  16.9402  17.2087  17.2087  17.3512  17.3512
    17.5450  17.5451  17.6779  17.6780  17.7358  17.7359  17.7822  17.7822
    17.8038  17.8039  17.8815  17.8816  18.2421  18.2422  18.2854  18.2854
    18.5292  18.5292  18.8954  18.8954  19.0012  19.0014  19.1533  19.1533
    19.2293  19.2293  19.3645  19.3650  19.6529  19.6529  19.6711  19.6717
    20.6184  20.6188  20.9484  20.9484  21.2909

          k = 0.2525 0.2525 0.0000 (  6218 PWs)   bands (ev):

   -69.3021 -69.2886 -69.2849 -69.2809 -69.1946 -69.1922 -69.1920 -69.1920
   -69.1906 -69.1905 -69.1866 -69.1827 -52.3904 -52.3894 -52.3773 -52.3767
   -35.4291 -35.4210 -35.4151 -35.4062 -35.3958 -35.3823 -35.3758 -35.3598
   -35.3580 -35.3129 -35.3005 -35.2923 -35.2889 -35.2754 -35.2642 -35.2599
   -35.2536 -35.2499 -35.2317 -35.2298 -35.2175 -35.2096 -35.1926 -35.1864
   -35.1761 -35.1439 -35.1424 -35.1271 -35.1238 -35.1203 -35.1058 -35.0997
   -35.0933 -35.0603 -35.0580 -35.0472 -23.7988 -23.7909 -23.7285 -23.7282
   -23.7223 -23.7201 -23.7134 -23.7127 -23.7114 -23.7106 -23.6707 -23.6685
    11.1388  13.2371  13.2521  13.9573  14.3009  14.3141  14.3256  14.3840
    14.3998  14.4471  14.4595  14.5411  14.6350  14.8404  14.8464  15.3090
    15.3433  15.3919  15.4183  15.6479  15.6920  15.7046  15.7426  15.7727
    15.7823  15.8369  16.0204  16.0321  16.1464  16.1933  16.2013  16.4261
    16.4709  16.6488  16.6957  16.7078  16.8317  16.8541  16.8573  16.8754
    17.0905  17.1227  17.1645  17.2329  17.3270  17.3327  17.4029  17.4250
    17.4431  17.6129  17.6324  17.7171  17.7934  17.8348  17.9628  17.9845
    18.0126  18.0644  18.0843  18.1053  18.1177  18.2456  18.3871  18.4620
    18.4827  18.5583  18.7404  18.9013  19.1651  19.1908  19.2170  19.4437
    19.4443  19.5208  19.5976  19.6658  19.7392  19.8405  19.8468  19.8729
    19.9363  19.9695  20.1052  20.1839  20.4279

          k = 0.2525 0.2525 0.2500 (  6212 PWs)   bands (ev):

   -69.3002 -69.2906 -69.2843 -69.2814 -69.1954 -69.1919 -69.1919 -69.1914
   -69.1906 -69.1893 -69.1874 -69.1832 -52.3903 -52.3895 -52.3773 -52.3767
   -35.4229 -35.4227 -35.4138 -35.4029 -35.3993 -35.3933 -35.3686 -35.3391
   -35.3373 -35.3268 -35.3028 -35.2866 -35.2847 -35.2843 -35.2622 -35.2557
   -35.2555 -35.2532 -35.2365 -35.2350 -35.2280 -35.1911 -35.1856 -35.1808
   -35.1788 -35.1680 -35.1437 -35.1300 -35.1291 -35.1264 -35.1237 -35.0809
   -35.0799 -35.0701 -35.0514 -35.0475 -23.7973 -23.7920 -23.7303 -23.7260
   -23.7241 -23.7185 -23.7137 -23.7125 -23.7120 -23.7111 -23.6706 -23.6686
    11.4479  13.3461  13.4668  13.6264  14.1602  14.1937  14.2504  14.4739
    14.5342  14.6173  14.6294  14.7135  14.9691  15.0041  15.0143  15.2802
    15.2952  15.2968  15.4563  15.6547  15.6639  15.6793  15.7778  15.8299
    15.9159  15.9205  15.9685  15.9993  16.0051  16.1173  16.1290  16.2980
    16.3852  16.4158  16.5362  16.5801  16.6676  16.7055  16.7402  16.7901
    16.8319  16.9149  16.9972  17.0076  17.0373  17.0446  17.3203  17.4214
    17.4825  17.5192  17.7653  17.7854  17.7948  17.8086  17.8243  17.8358
    17.8999  17.9133  17.9843  18.0833  18.0969  18.2044  18.5297  18.5529
    18.6858  18.8132  18.8402  18.9023  18.9546  18.9941  19.2015  19.3445
    19.4442  19.4560  19.5464  19.5641  19.6122  19.8184  19.8211  19.8731
    20.1100  20.1131  20.1381  20.3757  20.5952

          k = 0.2525 0.2525-0.5000 (  6214 PWs)   bands (ev):

   -69.2956 -69.2953 -69.2830 -69.2827 -69.1943 -69.1943 -69.1914 -69.1914
   -69.1893 -69.1893 -69.1855 -69.1855 -52.3902 -52.3896 -52.3773 -52.3768
   -35.4214 -35.4214 -35.4171 -35.4170 -35.3782 -35.3780 -35.3597 -35.3596
   -35.3358 -35.3358 -35.2910 -35.2909 -35.2714 -35.2714 -35.2707 -35.2707
   -35.2472 -35.2472 -35.2455 -35.2455 -35.2187 -35.2187 -35.1838 -35.1838
   -35.1687 -35.1687 -35.1462 -35.1462 -35.1269 -35.1268 -35.1073 -35.1072
   -35.0620 -35.0619 -35.0517 -35.0517 -23.7952 -23.7946 -23.7296 -23.7295
   -23.7202 -23.7201 -23.7135 -23.7134 -23.7115 -23.7114 -23.6701 -23.6695
    12.3085  12.3085  13.9108  13.9108  13.9315  13.9315  14.7606  14.7607
    14.8684  14.8684  14.8953  14.8953  14.9486  14.9486  15.0580  15.0580
    15.0970  15.0970  15.6867  15.6868  15.7428  15.7428  15.7975  15.7975
    15.8275  15.8275  15.9695  15.9695  16.0628  16.0628  16.2793  16.2794
    16.2824  16.2824  16.3070  16.3071  16.4038  16.4038  16.5917  16.5917
    16.6290  16.6290  16.6897  16.6897  16.7296  16.7297  17.2996  17.2996
    17.6757  17.6757  17.7085  17.7085  17.7431  17.7432  17.8874  17.8874
    17.8909  17.8910  18.0900  18.0901  18.2985  18.2986  18.4183  18.4183
    18.7000  18.7000  18.7368  18.7368  19.1075  19.1077  19.2549  19.2551
    19.3487  19.3488  19.6236  19.6240  19.7532  19.7537  19.8645  19.8646
    20.1982  20.1985  20.2463  20.2466  20.3953

          k = 0.2450-0.4976 0.0000 (  6200 PWs)   bands (ev):

   -69.2963 -69.2949 -69.2837 -69.2820 -69.1928 -69.1926 -69.1926 -69.1912
   -69.1886 -69.1886 -69.1878 -69.1865 -52.3902 -52.3896 -52.3773 -52.3767
   -35.4235 -35.4113 -35.4101 -35.3975 -35.3914 -35.3903 -35.3814 -35.3784
   -35.3452 -35.3415 -35.2865 -35.2847 -35.2773 -35.2753 -35.2715 -35.2704
   -35.2423 -35.2422 -35.2419 -35.2395 -35.1832 -35.1826 -35.1812 -35.1805
   -35.1787 -35.1742 -35.1733 -35.1683 -35.1235 -35.1122 -35.0825 -35.0822
   -35.0739 -35.0685 -35.0636 -35.0561 -23.7955 -23.7936 -23.7270 -23.7248
   -23.7239 -23.7237 -23.7126 -23.7122 -23.7120 -23.7116 -23.6701 -23.6684
    11.9951  12.0439  13.6348  13.7108  14.4937  14.4976  14.5826  14.5929
    14.6603  14.6782  14.7065  14.7323  14.8735  14.8771  14.9188  14.9287
    14.9524  14.9558  15.5975  15.6578  15.6612  15.7168  15.8618  15.9246
    15.9318  15.9525  15.9656  16.0196  16.1825  16.2633  16.3676  16.3694
    16.5188  16.5442  16.5611  16.5743  16.5747  16.6171  16.6490  16.7389
    16.7761  16.7794  16.9034  16.9106  16.9308  16.9667  17.4225  17.4986
    17.5489  17.6110  17.6233  17.6277  17.6982  17.7385  17.9434  17.9996
    18.0608  18.0629  18.0967  18.1243  18.1991  18.2093  18.4297  18.4450
    18.5030  18.5057  18.5721  18.5832  19.1757  19.2292  19.2883  19.3738
    19.4065  19.4326  19.6129  19.6601  19.6919  19.7429  19.8431  19.9484
    19.9983  20.0449  20.0484  20.0915  21.1171

          k = 0.2450-0.4976 0.2500 (  6207 PWs)   bands (ev):

   -69.2960 -69.2950 -69.2834 -69.2823 -69.1943 -69.1941 -69.1924 -69.1911
   -69.1890 -69.1889 -69.1860 -69.1853 -52.3902 -52.3896 -52.3773 -52.3767
   -35.4231 -35.4185 -35.4114 -35.4105 -35.3830 -35.3826 -35.3682 -35.3588
   -35.3389 -35.3368 -35.2949 -35.2917 -35.2723 -35.2714 -35.2706 -35.2676
   -35.2480 -35.2476 -35.2454 -35.2453 -35.2189 -35.2163 -35.1855 -35.1812
   -35.1694 -35.1649 -35.1447 -35.1409 -35.1294 -35.1167 -35.1056 -35.0969
   -35.0703 -35.0594 -35.0587 -35.0519 -23.7955 -23.7937 -23.7295 -23.7284
   -23.7212 -23.7202 -23.7138 -23.7129 -23.7118 -23.7114 -23.6706 -23.6688
    12.2741  12.3223  13.8979  13.9449  13.9690  13.9743  14.7568  14.7642
    14.8458  14.8644  14.8646  14.8805  14.9396  14.9516  15.0476  15.0555
    15.0882  15.1194  15.6628  15.6785  15.7277  15.7565  15.8029  15.8338
    15.8431  15.8519  15.9734  16.0061  16.0673  16.0997  16.2490  16.2491
    16.2559  16.2746  16.3115  16.3423  16.3797  16.4039  16.5901  16.5932
    16.6138  16.6513  16.6565  16.6927  16.6983  16.7296  17.2748  17.2974
    17.6444  17.6775  17.6838  17.7184  17.7275  17.7663  17.8781  17.8928
    17.9076  17.9150  18.0717  18.1205  18.3009  18.3135  18.4476  18.4588
    18.6814  18.7061  18.7384  18.7499  19.0797  19.1138  19.2215  19.2904
    19.3525  19.4103  19.5964  19.6299  19.7440  19.7641  19.8836  19.9087
    20.1930  20.1968  20.2157  20.2533  20.3892

          k = 0.2450-0.4976-0.5000 (  6194 PWs)   bands (ev):

   -69.2954 -69.2952 -69.2829 -69.2827 -69.1954 -69.1954 -69.1914 -69.1914
   -69.1893 -69.1893 -69.1845 -69.1845 -52.3902 -52.3896 -52.3773 -52.3767
   -35.4183 -35.4183 -35.4166 -35.4166 -35.3797 -35.3795 -35.3421 -35.3421
   -35.3334 -35.3334 -35.3096 -35.3094 -35.2621 -35.2621 -35.2595 -35.2595
   -35.2558 -35.2558 -35.2542 -35.2542 -35.2340 -35.2340 -35.1774 -35.1774
   -35.1668 -35.1668 -35.1295 -35.1295 -35.1257 -35.1257 -35.1125 -35.1124
   -35.0654 -35.0653 -35.0486 -35.0486 -23.7951 -23.7945 -23.7303 -23.7303
   -23.7191 -23.7190 -23.7137 -23.7136 -23.7109 -23.7108 -23.6703 -23.6697
    12.9081  12.9082  13.2220  13.2221  14.4823  14.4824  14.6423  14.6424
    14.8174  14.8175  15.1567  15.1568  15.2120  15.2121  15.3597  15.3597
    15.3886  15.3886  15.4865  15.4865  15.5239  15.5240  15.5318  15.5320
    15.8798  15.8799  15.9171  15.9172  16.0105  16.0105  16.0220  16.0220
    16.1456  16.1456  16.1663  16.1663  16.1873  16.1873  16.3756  16.3756
    16.4244  16.4244  16.5953  16.5954  16.7426  16.7426  16.8469  16.8469
    17.7300  17.7300  17.7900  17.7901  17.8775  17.8776  17.8831  17.8831
    18.0356  18.0357  18.0945  18.0947  18.1704  18.1704  18.5969  18.5969
    18.6212  18.6212  18.7684  18.7685  19.0844  19.0844  19.1162  19.1165
    19.5107  19.5107  19.5946  19.5950  19.6841  19.6847  19.8536  19.8536
    20.2401  20.2405  20.4593  20.4593  20.7219

          k = 0.2475-0.2475 0.0000 (  6200 PWs)   bands (ev):

   -69.3029 -69.2875 -69.2837 -69.2820 -69.1946 -69.1932 -69.1931 -69.1908
   -69.1906 -69.1905 -69.1866 -69.1819 -52.3904 -52.3893 -52.3773 -52.3767
   -35.4443 -35.4297 -35.4218 -35.4132 -35.3898 -35.3712 -35.3639 -35.3491
   -35.3478 -35.3099 -35.2950 -35.2899 -35.2889 -35.2714 -35.2603 -35.2597
   -35.2550 -35.2498 -35.2324 -35.2293 -35.2185 -35.2081 -35.1894 -35.1847
   -35.1761 -35.1531 -35.1408 -35.1399 -35.1283 -35.1115 -35.1109 -35.1100
   -35.1042 -35.0548 -35.0472 -35.0341 -23.7996 -23.7891 -23.7297 -23.7288
   -23.7205 -23.7201 -23.7134 -23.7126 -23.7114 -23.7103 -23.6697 -23.6689
    11.1101  13.2888  13.3036  13.9058  14.3013  14.3157  14.3165  14.3732
    14.3742  14.4302  14.4496  14.5410  14.6266  14.8719  14.8816  15.3106
    15.3556  15.3885  15.4036  15.6023  15.7327  15.7391  15.7438  15.7805
    15.8029  15.8318  15.9724  16.0814  16.0954  16.1762  16.2240  16.4802
    16.5355  16.6827  16.6852  16.7543  16.7592  16.7810  16.8858  16.9194
    17.1324  17.1378  17.1806  17.3042  17.3119  17.3512  17.3543  17.3838
    17.4739  17.5619  17.5859  17.6559  17.8324  17.9031  17.9577  17.9606
    18.0164  18.0656  18.1078  18.1234  18.1293  18.2132  18.3777  18.4381
    18.4563  18.5401  18.6650  18.8471  19.1128  19.1402  19.2355  19.3906
    19.4754  19.5282  19.6374  19.6495  19.7907  19.8007  19.8765  19.9098
    19.9145  20.0167  20.1494  20.1992  20.4117

          k = 0.2475-0.2475 0.2500 (  6209 PWs)   bands (ev):

   -69.3008 -69.2899 -69.2835 -69.2822 -69.1954 -69.1929 -69.1917 -69.1914
   -69.1900 -69.1898 -69.1872 -69.1828 -52.3904 -52.3894 -52.3773 -52.3767
   -35.4315 -35.4238 -35.4167 -35.4053 -35.3948 -35.3879 -35.3702 -35.3396
   -35.3366 -35.3291 -35.3037 -35.2870 -35.2841 -35.2838 -35.2597 -35.2565
   -35.2558 -35.2536 -35.2370 -35.2346 -35.2312 -35.1886 -35.1853 -35.1836
   -35.1743 -35.1656 -35.1487 -35.1292 -35.1274 -35.1234 -35.1152 -35.0901
   -35.0830 -35.0691 -35.0485 -35.0427 -23.7985 -23.7909 -23.7304 -23.7258
   -23.7244 -23.7187 -23.7139 -23.7123 -23.7116 -23.7110 -23.6698 -23.6692
    11.4213  13.3680  13.5204  13.6430  14.1457  14.2178  14.2489  14.4722
    14.5144  14.5920  14.6090  14.7028  14.9763  14.9885  15.0200  15.3142
    15.3314  15.3419  15.4761  15.6314  15.6666  15.6887  15.7392  15.7786
    15.8912  15.9107  15.9125  15.9878  16.0657  16.1144  16.1396  16.3585
    16.4048  16.4341  16.5700  16.5867  16.6583  16.7295  16.7339  16.8252
    16.8326  16.9271  16.9331  16.9841  17.0145  17.0361  17.2524  17.4174
    17.4555  17.4671  17.7125  17.7952  17.8000  17.8221  17.8441  17.8467
    17.9227  17.9289  18.0360  18.0689  18.0994  18.1880  18.5282  18.5371
    18.6801  18.8143  18.8736  18.9240  18.9549  18.9754  19.2533  19.3589
    19.4348  19.4459  19.5255  19.6048  19.6291  19.8085  19.8437  19.8750
    20.0391  20.0947  20.1589  20.3829  20.5749

          k = 0.2475-0.2475-0.5000 (  6202 PWs)   bands (ev):

   -69.2956 -69.2954 -69.2829 -69.2827 -69.1941 -69.1941 -69.1921 -69.1921
   -69.1886 -69.1885 -69.1858 -69.1858 -52.3902 -52.3896 -52.3773 -52.3767
   -35.4121 -35.4121 -35.4113 -35.4113 -35.3878 -35.3876 -35.3692 -35.3691
   -35.3395 -35.3395 -35.2961 -35.2960 -35.2707 -35.2707 -35.2703 -35.2703
   -35.2473 -35.2473 -35.2461 -35.2461 -35.2166 -35.2166 -35.1841 -35.1841
   -35.1655 -35.1655 -35.1393 -35.1393 -35.1202 -35.1202 -35.0955 -35.0954
   -35.0657 -35.0657 -35.0601 -35.0601 -23.7947 -23.7941 -23.7287 -23.7286
   -23.7215 -23.7214 -23.7130 -23.7127 -23.7117 -23.7114 -23.6700 -23.6694
    12.2878  12.2878  13.9624  13.9624  13.9821  13.9821  14.7588  14.7588
    14.8499  14.8499  14.8575  14.8575  14.9280  14.9280  15.0437  15.0438
    15.1031  15.1031  15.6621  15.6621  15.7443  15.7443  15.8474  15.8474
    15.8556  15.8557  16.0061  16.0061  16.1036  16.1036  16.2257  16.2257
    16.2413  16.2413  16.3337  16.3337  16.3876  16.3877  16.6087  16.6087
    16.6190  16.6191  16.6720  16.6720  16.6894  16.6894  17.2626  17.2626
    17.6439  17.6439  17.7041  17.7041  17.7395  17.7396  17.9075  17.9076
    17.9146  17.9147  18.1017  18.1018  18.3125  18.3126  18.4816  18.4817
    18.6924  18.6924  18.7538  18.7539  19.0855  19.0857  19.2622  19.2624
    19.4124  19.4125  19.6016  19.6020  19.7569  19.7574  19.9246  19.9247
    20.2002  20.2005  20.2127  20.2130  20.3996

          k =-0.5051-0.5051 0.0000 (  6196 PWs)   bands (ev):

   -69.2906 -69.2903 -69.2885 -69.2883 -69.1907 -69.1906 -69.1906 -69.1905
   -69.1904 -69.1903 -69.1885 -69.1884 -52.3844 -52.3835 -52.3831 -52.3828
   -35.4262 -35.4261 -35.4076 -35.4074 -35.3899 -35.3898 -35.3774 -35.3772
   -35.2900 -35.2898 -35.2887 -35.2884 -35.2780 -35.2779 -35.2738 -35.2737
   -35.2428 -35.2427 -35.2397 -35.2397 -35.2032 -35.2031 -35.2009 -35.2008
   -35.1881 -35.1880 -35.1868 -35.1867 -35.0989 -35.0988 -35.0861 -35.0861
   -35.0679 -35.0678 -35.0502 -35.0502 -23.7402 -23.7393 -23.7330 -23.7320
   -23.7196 -23.7185 -23.7180 -23.7180 -23.7172 -23.7171 -23.7126 -23.7116
    12.7282  12.7282  12.8139  12.8140  14.7031  14.7031  14.7970  14.7972
    14.9429  14.9431  14.9500  14.9501  15.0242  15.0243  15.0324  15.0324
    15.2596  15.2597  15.2758  15.2759  15.6176  15.6177  15.6975  15.6976
    15.7922  15.7923  15.8524  15.8526  16.2235  16.2236  16.2374  16.2375
    16.3027  16.3029  16.3221  16.3223  16.3607  16.3607  16.4423  16.4425
    16.8464  16.8465  16.9085  16.9086  17.1541  17.1541  17.1822  17.1824
    17.7545  17.7547  17.7835  17.7837  17.8249  17.8251  17.8430  17.8431
    17.8532  17.8533  17.9027  17.9028  18.3403  18.3404  18.3425  18.3426
    18.4164  18.4168  18.4227  18.4231  19.2197  19.2204  19.3052  19.3059
    19.4265  19.4273  19.5064  19.5071  19.8231  19.8234  19.9502  19.9507
    19.9508  19.9509  20.0033  20.0038  22.0981

          k =-0.5051-0.5051 0.2500 (  6190 PWs)   bands (ev):

   -69.2902 -69.2899 -69.2887 -69.2885 -69.1927 -69.1927 -69.1922 -69.1921
   -69.1880 -69.1880 -69.1872 -69.1871 -52.3844 -52.3835 -52.3831 -52.3828
   -35.4104 -35.4102 -35.3968 -35.3965 -35.3878 -35.3877 -35.3772 -35.3770
   -35.3155 -35.3152 -35.3119 -35.3117 -35.2725 -35.2724 -35.2701 -35.2700
   -35.2471 -35.2470 -35.2464 -35.2463 -35.2063 -35.2062 -35.2051 -35.2051
   -35.1637 -35.1636 -35.1591 -35.1591 -35.0969 -35.0968 -35.0900 -35.0899
   -35.0745 -35.0743 -35.0583 -35.0582 -23.7387 -23.7377 -23.7333 -23.7324
   -23.7201 -23.7192 -23.7191 -23.7190 -23.7162 -23.7158 -23.7131 -23.7122
    13.0106  13.0106  13.0933  13.0934  14.5624  14.5624  14.6113  14.6114
    14.9043  14.9043  14.9965  14.9966  15.2813  15.2815  15.3049  15.3049
    15.3607  15.3607  15.3680  15.3680  15.6081  15.6081  15.6793  15.6794
    15.8380  15.8380  15.8774  15.8775  15.9960  15.9961  16.0235  16.0235
    16.0770  16.0770  16.1006  16.1007  16.2864  16.2865  16.3598  16.3599
    16.5298  16.5298  16.5596  16.5596  16.7948  16.7949  16.7965  16.7965
    17.7924  17.7925  17.8477  17.8478  17.8601  17.8602  17.8920  17.8921
    18.0011  18.0012  18.0255  18.0256  18.2629  18.2629  18.2691  18.2692
    18.8468  18.8468  18.8819  18.8821  19.3266  19.3269  19.3646  19.3649
    19.4759  19.4763  19.5321  19.5325  19.7088  19.7091  19.7583  19.7586
    19.9135  19.9140  19.9751  19.9755  20.9565

          k =-0.5051-0.5051-0.5000 (  6136 PWs)   bands (ev):

   -69.2895 -69.2891 -69.2890 -69.2890 -69.1934 -69.1934 -69.1933 -69.1933
   -69.1867 -69.1867 -69.1867 -69.1866 -52.3843 -52.3834 -52.3831 -52.3827
   -35.3815 -35.3812 -35.3812 -35.3811 -35.3782 -35.3780 -35.3779 -35.3779
   -35.3436 -35.3432 -35.3432 -35.3432 -35.2576 -35.2576 -35.2576 -35.2576
   -35.2566 -35.2566 -35.2565 -35.2565 -35.2024 -35.2024 -35.2024 -35.2024
   -35.1411 -35.1411 -35.1410 -35.1410 -35.0876 -35.0875 -35.0874 -35.0874
   -35.0778 -35.0778 -35.0778 -35.0777 -23.7358 -23.7350 -23.7346 -23.7342
   -23.7195 -23.7188 -23.7186 -23.7186 -23.7144 -23.7138 -23.7136 -23.7135
    13.6597  13.6597  13.6597  13.6598  13.9612  13.9613  13.9613  13.9613
    15.3179  15.3180  15.3180  15.3181  15.3476  15.3477  15.3478  15.3478
    15.5523  15.5523  15.5523  15.5524  15.6609  15.6609  15.6610  15.6610
    15.8028  15.8029  15.8029  15.8029  15.9187  15.9187  15.9187  15.9188
    15.9574  15.9574  15.9574  15.9575  16.2186  16.2186  16.2186  16.2186
    16.2731  16.2731  16.2732  16.2732  16.3013  16.3014  16.3014  16.3014
    17.8628  17.8630  17.8630  17.8630  17.8932  17.8933  17.8933  17.8933
    18.2286  18.2286  18.2287  18.2288  18.4898  18.4900  18.4900  18.4900
    18.6314  18.6315  18.6315  18.6315  19.5151  19.5155  19.5158  19.5160
    19.6504  19.6505  19.6506  19.6506  19.6909  19.6914  19.6916  19.6919
    20.1538  20.1541  20.1542  20.1545  20.2637

          k = 0.2500 0.0025 0.0000 (  6198 PWs)   bands (ev):

   -69.3051 -69.2849 -69.2846 -69.2809 -69.1954 -69.1954 -69.1928 -69.1914
   -69.1912 -69.1896 -69.1856 -69.1803 -52.3906 -52.3891 -52.3773 -52.3767
   -35.4428 -35.4270 -35.4269 -35.4177 -35.4174 -35.3384 -35.3380 -35.3367
   -35.3366 -35.3205 -35.3117 -35.3060 -35.2979 -35.2973 -35.2528 -35.2500
   -35.2493 -35.2490 -35.2291 -35.2273 -35.2252 -35.2144 -35.1853 -35.1665
   -35.1657 -35.1362 -35.1343 -35.1309 -35.1272 -35.1264 -35.1251 -35.1195
   -35.1166 -35.0459 -35.0459 -35.0357 -23.8012 -23.7882 -23.7311 -23.7302
   -23.7182 -23.7174 -23.7133 -23.7122 -23.7111 -23.7105 -23.6701 -23.6686
    10.8051  13.0809  14.0657  14.0708  14.1565  14.2095  14.2097  14.2404
    14.2449  14.3100  14.3116  14.3899  14.4311  14.5830  14.8090  15.2601
    15.5275  15.5660  15.6053  15.6077  15.6113  15.6459  15.6464  15.8051
    15.8068  15.8800  15.8808  15.9372  16.1110  16.2606  16.2622  16.5563
    16.7143  16.7150  16.8120  16.8332  16.8650  16.8949  17.0384  17.0405
    17.0490  17.2573  17.2932  17.3290  17.3330  17.4072  17.5536  17.6126
    17.6145  17.6346  17.7253  17.8064  17.9211  18.0491  18.0810  18.0824
    18.0866  18.1036  18.1558  18.1922  18.1948  18.2809  18.2843  18.4393
    18.4404  18.8478  18.8842  19.1708  19.1728  19.1946  19.3346  19.4730
    19.5416  19.5511  19.5919  19.6688  19.6812  19.8002  19.9028  19.9036
    19.9185  19.9736  20.1084  20.3374  20.3416

          k = 0.2500 0.0025-0.2500 (  6210 PWs)   bands (ev):

   -69.3025 -69.2881 -69.2843 -69.2814 -69.1946 -69.1927 -69.1926 -69.1916
   -69.1906 -69.1903 -69.1866 -69.1822 -52.3905 -52.3894 -52.3773 -52.3767
   -35.4379 -35.4267 -35.4150 -35.4074 -35.3933 -35.3789 -35.3724 -35.3527
   -35.3506 -35.3091 -35.2975 -35.2911 -35.2898 -35.2732 -35.2634 -35.2596
   -35.2534 -35.2492 -35.2324 -35.2288 -35.2187 -35.2076 -35.1899 -35.1872
   -35.1781 -35.1485 -35.1401 -35.1366 -35.1248 -35.1159 -35.1128 -35.1024
   -35.0976 -35.0600 -35.0522 -35.0399 -23.7993 -23.7897 -23.7296 -23.7281
   -23.7211 -23.7204 -23.7134 -23.7125 -23.7111 -23.7105 -23.6702 -23.6692
    11.1232  13.2624  13.2787  13.9343  14.2969  14.3126  14.3258  14.3789
    14.3927  14.4338  14.4508  14.5400  14.6302  14.8545  14.8580  15.3089
    15.3498  15.3912  15.4117  15.6243  15.7093  15.7349  15.7354  15.7726
    15.7847  15.8231  15.9969  16.0588  16.1179  16.2083  16.2118  16.4428
    16.5097  16.6633  16.7301  16.7302  16.7361  16.8337  16.8597  16.9046
    17.1180  17.1296  17.1660  17.2638  17.3338  17.3354  17.3851  17.4124
    17.4545  17.5964  17.6005  17.6879  17.8076  17.8692  17.9608  17.9721
    18.0124  18.0683  18.0976  18.1166  18.1215  18.2304  18.3827  18.4496
    18.4745  18.5502  18.7049  18.8758  19.1346  19.1655  19.2327  19.4190
    19.4592  19.5622  19.5782  19.6576  19.8121  19.8123  19.8251  19.9041
    19.9189  19.9739  20.1329  20.1931  20.4190

          k = 0.2500 0.0025 0.5000 (  6214 PWs)   bands (ev):

   -69.2958 -69.2955 -69.2830 -69.2827 -69.1926 -69.1926 -69.1921 -69.1921
   -69.1885 -69.1885 -69.1872 -69.1871 -52.3902 -52.3896 -52.3773 -52.3767
   -35.4184 -35.4184 -35.4074 -35.4073 -35.3857 -35.3855 -35.3833 -35.3832
   -35.3414 -35.3414 -35.2870 -35.2869 -35.2766 -35.2766 -35.2723 -35.2722
   -35.2420 -35.2420 -35.2414 -35.2414 -35.1837 -35.1837 -35.1807 -35.1807
   -35.1770 -35.1770 -35.1726 -35.1726 -35.1177 -35.1176 -35.0838 -35.0837
   -35.0703 -35.0703 -35.0625 -35.0625 -23.7948 -23.7942 -23.7262 -23.7260
   -23.7244 -23.7242 -23.7132 -23.7127 -23.7116 -23.7110 -23.6699 -23.6693
    12.0182  12.0182  13.6743  13.6743  14.4913  14.4913  14.5897  14.5898
    14.6888  14.6888  14.6956  14.6956  14.8730  14.8731  14.9233  14.9233
    14.9567  14.9567  15.6254  15.6255  15.6891  15.6891  15.8913  15.8913
    15.9436  15.9436  15.9809  15.9810  16.2223  16.2223  16.3733  16.3733
    16.5325  16.5326  16.5369  16.5370  16.6196  16.6197  16.6870  16.6870
    16.7729  16.7729  16.9192  16.9192  16.9473  16.9473  17.4494  17.4494
    17.5864  17.5865  17.6144  17.6144  17.7197  17.7198  17.9659  17.9659
    18.0758  18.0758  18.1009  18.1010  18.2029  18.2029  18.4361  18.4362
    18.5010  18.5010  18.5760  18.5761  19.1963  19.1967  19.3340  19.3340
    19.4212  19.4213  19.6490  19.6491  19.7034  19.7038  19.8872  19.8873
    20.0260  20.0264  20.0700  20.0700  21.1313

          k =-0.5001-0.0050 0.0000 (  6216 PWs)   bands (ev):

   -69.2957 -69.2955 -69.2829 -69.2827 -69.1934 -69.1934 -69.1933 -69.1933
   -69.1877 -69.1877 -69.1860 -69.1860 -52.3844 -52.3836 -52.3830 -52.3828
   -35.3904 -35.3903 -35.3900 -35.3898 -35.3891 -35.3890 -35.3818 -35.3816
   -35.3800 -35.3798 -35.3245 -35.3244 -35.2978 -35.2978 -35.2509 -35.2509
   -35.2508 -35.2507 -35.2257 -35.2257 -35.2081 -35.2081 -35.1615 -35.1614
   -35.1451 -35.1450 -35.1430 -35.1429 -35.1266 -35.1266 -35.0809 -35.0809
   -35.0807 -35.0807 -35.0748 -35.0747 -23.7382 -23.7378 -23.7338 -23.7337
   -23.7207 -23.7203 -23.7169 -23.7165 -23.7155 -23.7153 -23.7135 -23.7134
    11.7410  11.7410  14.2721  14.2721  14.2726  14.2726  14.3782  14.3783
    14.4488  14.4488  14.5786  14.5786  14.6494  14.6494  14.8382  14.8383
    14.9540  14.9541  15.5835  15.5835  15.5850  15.5851  16.0026  16.0027
    16.2344  16.2344  16.2515  16.2515  16.2662  16.2663  16.2867  16.2868
    16.2914  16.2914  16.5807  16.5808  16.7627  16.7628  16.7645  16.7646
    17.2389  17.2389  17.2454  17.2454  17.2833  17.2834  17.3524  17.3525
    17.3920  17.3921  17.8553  17.8554  17.9202  17.9203  17.9245  17.9246
    18.0572  18.0573  18.0711  18.0711  18.1343  18.1343  18.2756  18.2756
    18.8219  18.8220  19.0694  19.0694  19.0695  19.0696  19.3451  19.3452
    19.3468  19.3469  19.6990  19.6993  19.8059  19.8061  20.0046  20.0048
    20.2482  20.2485  20.2678  20.2679  20.2691

          k =-0.5001-0.0050-0.2500 (  6212 PWs)   bands (ev):

   -69.2940 -69.2938 -69.2849 -69.2847 -69.1928 -69.1928 -69.1919 -69.1919
   -69.1887 -69.1887 -69.1869 -69.1869 -52.3844 -52.3836 -52.3831 -52.3828
   -35.4111 -35.4111 -35.4073 -35.4072 -35.3874 -35.3873 -35.3797 -35.3796
   -35.3337 -35.3337 -35.3044 -35.3044 -35.2900 -35.2900 -35.2584 -35.2584
   -35.2512 -35.2512 -35.2305 -35.2305 -35.2023 -35.2023 -35.1873 -35.1873
   -35.1680 -35.1680 -35.1622 -35.1622 -35.1108 -35.1107 -35.0874 -35.0874
   -35.0675 -35.0675 -35.0639 -35.0638 -23.7385 -23.7381 -23.7343 -23.7343
   -23.7197 -23.7194 -23.7170 -23.7168 -23.7161 -23.7158 -23.7137 -23.7136
    12.0227  12.0227  13.6656  13.6657  14.5067  14.5067  14.6257  14.6257
    14.6657  14.6658  14.7082  14.7082  14.7956  14.7956  14.9137  14.9137
    15.0201  15.0201  15.6528  15.6528  15.6878  15.6878  15.8085  15.8086
    15.8162  15.8162  16.0894  16.0894  16.2000  16.2001  16.4300  16.4300
    16.4815  16.4815  16.5101  16.5101  16.5344  16.5344  16.6736  16.6737
    16.7373  16.7373  17.0579  17.0579  17.0675  17.0675  17.4959  17.4959
    17.5725  17.5726  17.8436  17.8437  17.8437  17.8437  17.8934  17.8934
    17.9054  17.9054  17.9950  17.9951  18.1765  18.1765  18.2001  18.2001
    18.5442  18.5443  18.8143  18.8145  19.1110  19.1110  19.3776  19.3777
    19.6026  19.6027  19.6991  19.6992  19.7094  19.7096  19.8257  19.8258
    19.9650  19.9650  19.9809  19.9810  21.1187

          k =-0.5001-0.0050 0.5000 (  6200 PWs)   bands (ev):

   -69.2898 -69.2893 -69.2893 -69.2893 -69.1908 -69.1908 -69.1907 -69.1907
   -69.1892 -69.1892 -69.1892 -69.1891 -52.3844 -52.3835 -52.3831 -52.3828
   -35.4177 -35.4176 -35.4176 -35.4176 -35.3823 -35.3819 -35.3819 -35.3818
   -35.2905 -35.2904 -35.2903 -35.2903 -35.2761 -35.2761 -35.2760 -35.2760
   -35.2417 -35.2417 -35.2417 -35.2417 -35.2010 -35.2010 -35.2010 -35.2010
   -35.1880 -35.1880 -35.1879 -35.1879 -35.0938 -35.0937 -35.0937 -35.0937
   -35.0578 -35.0578 -35.0577 -35.0577 -23.7376 -23.7369 -23.7365 -23.7361
   -23.7189 -23.7185 -23.7178 -23.7177 -23.7151 -23.7146 -23.7140 -23.7138
    12.7702  12.7702  12.7703  12.7703  14.7530  14.7530  14.7530  14.7530
    14.9388  14.9388  14.9388  14.9388  15.0368  15.0368  15.0369  15.0369
    15.2707  15.2707  15.2707  15.2707  15.6562  15.6562  15.6563  15.6563
    15.8178  15.8179  15.8179  15.8180  16.2202  16.2202  16.2202  16.2202
    16.3199  16.3200  16.3201  16.3201  16.3922  16.3922  16.3922  16.3923
    16.8774  16.8774  16.8775  16.8775  17.1686  17.1686  17.1686  17.1686
    17.7964  17.7965  17.7966  17.7966  17.8094  17.8095  17.8095  17.8095
    17.8757  17.8759  17.8759  17.8759  18.3498  18.3498  18.3498  18.3498
    18.4200  18.4202  18.4204  18.4204  19.2583  19.2584  19.2589  19.2591
    19.4703  19.4709  19.4712  19.4715  19.8826  19.8827  19.8827  19.8828
    19.9817  19.9821  19.9822  19.9825  22.0736

          k =-0.4976 0.2450 0.0000 (  6200 PWs)   bands (ev):

   -69.2945 -69.2932 -69.2855 -69.2840 -69.1928 -69.1926 -69.1926 -69.1913
   -69.1886 -69.1886 -69.1876 -69.1863 -52.3844 -52.3836 -52.3831 -52.3828
   -35.4176 -35.4110 -35.4030 -35.3974 -35.3936 -35.3871 -35.3840 -35.3744
   -35.3374 -35.3330 -35.3029 -35.3013 -35.2911 -35.2890 -35.2588 -35.2579
   -35.2514 -35.2488 -35.2312 -35.2295 -35.2021 -35.2014 -35.1850 -35.1843
   -35.1673 -35.1669 -35.1644 -35.1619 -35.1146 -35.1041 -35.0883 -35.0803
   -35.0773 -35.0704 -35.0614 -35.0571 -23.7401 -23.7372 -23.7349 -23.7311
   -23.7202 -23.7197 -23.7181 -23.7171 -23.7161 -23.7157 -23.7134 -23.7119
    11.9989  12.0478  13.6285  13.7042  14.5067  14.5096  14.6181  14.6269
    14.6405  14.6850  14.6899  14.7415  14.7978  14.8039  14.9122  14.9194
    15.0169  15.0170  15.6412  15.6495  15.6941  15.7017  15.7762  15.8083
    15.8105  15.8524  16.0759  16.1073  16.1695  16.2335  16.4345  16.4554
    16.4609  16.4654  16.5039  16.5144  16.5383  16.5460  16.6640  16.6792
    16.7183  16.7800  17.0539  17.0546  17.0768  17.0794  17.4687  17.5253
    17.5313  17.6151  17.8195  17.8437  17.8501  17.8743  17.8788  17.8845
    17.9135  17.9172  17.9731  18.0243  18.1758  18.1795  18.1939  18.2013
    18.5425  18.5484  18.8135  18.8239  19.0881  19.1365  19.3347  19.4212
    19.5790  19.6281  19.6605  19.6881  19.7357  19.7374  19.7635  19.8893
    19.9349  19.9660  19.9886  19.9951  21.1067

          k =-0.4976 0.2450-0.2500 (  6207 PWs)   bands (ev):

   -69.2931 -69.2921 -69.2866 -69.2856 -69.1934 -69.1934 -69.1906 -69.1904
   -69.1899 -69.1893 -69.1867 -69.1865 -52.3844 -52.3836 -52.3831 -52.3828
   -35.4149 -35.4109 -35.4016 -35.3964 -35.3875 -35.3861 -35.3808 -35.3805
   -35.3269 -35.3263 -35.3081 -35.3027 -35.2846 -35.2836 -35.2603 -35.2584
   -35.2552 -35.2545 -35.2373 -35.2360 -35.1983 -35.1981 -35.1957 -35.1951
   -35.1879 -35.1860 -35.1435 -35.1420 -35.1127 -35.1096 -35.0851 -35.0833
   -35.0779 -35.0686 -35.0655 -35.0560 -23.7388 -23.7372 -23.7354 -23.7326
   -23.7205 -23.7190 -23.7185 -23.7176 -23.7170 -23.7147 -23.7137 -23.7128
    12.2808  12.3290  13.8200  13.8522  14.0396  14.0579  14.8233  14.8410
    14.8415  14.8593  14.8728  14.8767  14.9087  14.9425  14.9528  14.9848
    15.1337  15.1627  15.6425  15.6440  15.6904  15.6939  15.7349  15.8044
    15.8806  15.9054  15.9702  15.9732  16.0852  16.1119  16.2625  16.2671
    16.2710  16.2750  16.2786  16.3104  16.4697  16.4752  16.4937  16.5077
    16.5470  16.6289  16.7042  16.7195  16.7557  16.7826  17.3230  17.3477
    17.6450  17.6983  17.7374  17.8072  17.8463  17.8560  17.8781  17.8877
    17.9176  17.9417  17.9532  17.9776  18.1752  18.1841  18.3886  18.3889
    18.6758  18.7116  18.9151  18.9731  19.1039  19.1428  19.3168  19.3198
    19.4944  19.5266  19.6689  19.7141  19.7343  19.7624  19.7749  19.8347
    19.9021  19.9237  20.2446  20.2464  20.3202

          k =-0.4976 0.2450 0.5000 (  6194 PWs)   bands (ev):

   -69.2897 -69.2892 -69.2892 -69.2892 -69.1927 -69.1927 -69.1921 -69.1921
   -69.1879 -69.1879 -69.1873 -69.1873 -52.3844 -52.3835 -52.3831 -52.3828
   -35.4062 -35.4062 -35.4031 -35.4030 -35.3820 -35.3818 -35.3811 -35.3810
   -35.3141 -35.3140 -35.3138 -35.3138 -35.2717 -35.2717 -35.2708 -35.2708
   -35.2483 -35.2483 -35.2463 -35.2463 -35.2061 -35.2061 -35.2050 -35.2050
   -35.1628 -35.1628 -35.1606 -35.1606 -35.0968 -35.0967 -35.0916 -35.0916
   -35.0681 -35.0681 -35.0629 -35.0629 -23.7368 -23.7361 -23.7356 -23.7352
   -23.7198 -23.7195 -23.7178 -23.7174 -23.7158 -23.7153 -23.7140 -23.7138
    13.0312  13.0312  13.0723  13.0723  14.5457  14.5458  14.6284  14.6284
    14.9440  14.9440  14.9608  14.9608  15.2806  15.2807  15.3053  15.3054
    15.3571  15.3571  15.3756  15.3756  15.6317  15.6317  15.6525  15.6526
    15.8547  15.8547  15.8570  15.8571  15.9824  15.9825  16.0296  16.0296
    16.0723  16.0723  16.1166  16.1166  16.3151  16.3151  16.3267  16.3268
    16.5364  16.5364  16.5547  16.5548  16.7928  16.7928  16.7954  16.7954
    17.8238  17.8239  17.8249  17.8250  17.8571  17.8572  17.8826  17.8827
    18.0114  18.0114  18.0145  18.0146  18.2514  18.2515  18.2709  18.2710
    18.8504  18.8504  18.8840  18.8840  19.3311  19.3313  19.3581  19.3583
    19.4991  19.4993  19.5061  19.5063  19.7273  19.7277  19.7362  19.7367
    19.9347  19.9348  19.9568  19.9569  20.9494

 ------ SPIN DOWN ----------


          k = 0.0000 0.0000 0.0000 (  6185 PWs)   bands (ev):

   -66.9127 -66.8970 -66.8969 -66.8969 -66.8909 -66.8909 -66.8908 -66.8848
   -66.6083 -66.6023 -66.6021 -66.5985 -53.1815 -53.1797 -53.1631 -53.1626
   -33.1065 -33.1041 -33.1009 -33.0998 -33.0806 -33.0787 -33.0592 -33.0544
   -33.0540 -33.0307 -33.0181 -33.0025 -33.0007 -32.9920 -32.9790 -32.9530
   -32.9438 -32.9273 -32.9273 -32.9204 -32.8882 -32.8834 -32.8666 -32.8594
   -32.7441 -32.7425 -32.7285 -32.7255 -32.6509 -32.6478 -32.6293 -32.5978
   -32.5969 -32.5641 -32.5259 -32.4976 -24.5882 -24.5876 -24.5689 -24.5688
   -24.5663 -24.5654 -24.5592 -24.5587 -24.4584 -24.4391 -24.2835 -24.2770
    10.5277  14.4083  14.6110  14.6809  14.7022  14.7109  14.7338  14.7384
    14.7387  14.7843  14.7846  14.8257  15.0644  15.2600  15.5320  16.4433
    16.4675  16.5144  16.5404  16.7694  16.7710  16.8644  16.8662  16.8858
    16.8862  16.9574  17.0699  17.2576  17.3509  17.7928  17.8106  17.8129
    17.8251  18.0700  18.1303  18.2395  18.3194  18.4946  18.5003  18.5834
    18.6058  18.6150  18.6182  18.6264  18.6543  18.6558  18.6612  18.8107
    19.3088  19.4743  19.4974  19.4984  19.5187  19.5189  19.5400  19.5824
    19.5935  19.6928  19.6992  19.8104  19.8537  20.0232  20.0904  20.0940
    20.2292  20.2383  20.2406  20.4778  20.5166  20.5591  20.6039  20.6068
    20.6079  20.6097  20.6126  20.7014  20.7108  20.8295  21.0127  21.0988
    21.1647  21.1753  21.2849  21.2867  21.2876

          k = 0.0000 0.0000 0.2500 (  6213 PWs)   bands (ev):

   -66.9105 -66.8993 -66.8961 -66.8960 -66.8918 -66.8917 -66.8900 -66.8858
   -66.6068 -66.6024 -66.6021 -66.5999 -53.1812 -53.1800 -53.1632 -53.1628
   -33.0998 -33.0998 -33.0990 -33.0880 -33.0756 -33.0659 -33.0657 -33.0591
   -33.0384 -33.0345 -33.0224 -33.0165 -33.0014 -32.9995 -32.9956 -32.9626
   -32.9517 -32.9336 -32.9255 -32.9209 -32.9198 -32.9031 -32.8852 -32.8636
   -32.7167 -32.7146 -32.7109 -32.7048 -32.6612 -32.6597 -32.6151 -32.6120
   -32.6030 -32.5577 -32.5296 -32.5146 -24.5852 -24.5845 -24.5728 -24.5724
   -24.5663 -24.5656 -24.5607 -24.5601 -24.4563 -24.4428 -24.2825 -24.2778
    10.8610  13.2000  14.7552  14.7573  14.7644  14.7880  14.8350  14.8565
    14.8623  14.8774  14.9431  15.2198  15.3844  15.5737  15.6434  16.2082
    16.4575  16.5086  16.5177  16.5274  16.7104  16.8095  16.9273  16.9287
    17.0280  17.0996  17.1313  17.2215  17.2644  17.4390  17.5119  17.6246
    17.9956  18.0189  18.0641  18.1314  18.1441  18.1784  18.3016  18.3441
    18.3785  18.5253  18.5638  18.5944  18.6347  18.6652  18.7212  18.9472
    18.9608  18.9806  19.0498  19.0792  19.0928  19.1471  19.1903  19.8170
    19.8461  19.9942  20.0341  20.0708  20.0770  20.0990  20.1518  20.1580
    20.1787  20.2165  20.3048  20.3981  20.4725  20.5616  20.5931  20.6030
    20.6287  20.6612  20.6796  20.7641  20.8284  20.9733  21.0681  21.0932
    21.1080  21.1909  21.1916  21.2343  21.2461

          k = 0.0000 0.0000-0.5000 (  6226 PWs)   bands (ev):

   -66.9050 -66.9050 -66.8940 -66.8940 -66.8938 -66.8938 -66.8879 -66.8879
   -66.6034 -66.6032 -66.6023 -66.6021 -53.1807 -53.1806 -53.1631 -53.1629
   -33.0952 -33.0952 -33.0834 -33.0834 -33.0570 -33.0570 -33.0560 -33.0559
   -33.0371 -33.0371 -33.0318 -33.0318 -32.9934 -32.9933 -32.9875 -32.9875
   -32.9667 -32.9667 -32.9410 -32.9410 -32.9223 -32.9223 -32.8747 -32.8747
   -32.6875 -32.6873 -32.6845 -32.6843 -32.6594 -32.6592 -32.6502 -32.6500
   -32.5532 -32.5530 -32.5431 -32.5429 -24.5794 -24.5793 -24.5789 -24.5789
   -24.5639 -24.5638 -24.5629 -24.5628 -24.4499 -24.4496 -24.2803 -24.2800
    11.8078  11.8079  14.8865  14.8865  14.9199  14.9199  14.9449  14.9450
    14.9575  14.9576  15.5385  15.5385  15.6132  15.6133  15.7953  15.7953
    16.0408  16.0410  16.5052  16.5053  16.6490  16.6491  17.3745  17.3746
    17.3799  17.3799  17.4415  17.4415  17.4839  17.4839  17.5230  17.5231
    17.6185  17.6187  17.6936  17.6936  17.7577  17.7577  17.7974  17.7975
    17.9711  17.9711  18.0922  18.0922  18.2715  18.2715  18.6310  18.6310
    19.3477  19.3478  19.4709  19.4710  19.6524  19.6524  19.6992  19.6992
    19.7316  19.7317  19.8708  19.8709  19.9514  19.9515  20.2974  20.2975
    20.4349  20.4349  20.5557  20.5558  20.5682  20.5684  20.6019  20.6019
    20.6512  20.6513  20.7333  20.7333  20.7654  20.7655  20.7875  20.7876
    20.7980  20.7981  21.3414  21.3415  21.3517

          k = 0.0025 0.2500 0.0000 (  6198 PWs)   bands (ev):

   -66.9105 -66.8993 -66.8961 -66.8960 -66.8918 -66.8918 -66.8899 -66.8858
   -66.6068 -66.6023 -66.6021 -66.5999 -53.1812 -53.1800 -53.1631 -53.1627
   -33.0987 -33.0985 -33.0984 -33.0880 -33.0698 -33.0684 -33.0655 -33.0587
   -33.0374 -33.0347 -33.0225 -33.0172 -33.0044 -32.9916 -32.9883 -32.9621
   -32.9517 -32.9347 -32.9249 -32.9212 -32.9189 -32.9033 -32.8860 -32.8637
   -32.7166 -32.7138 -32.7107 -32.7055 -32.6608 -32.6570 -32.6160 -32.6127
   -32.6001 -32.5585 -32.5307 -32.5120 -24.5852 -24.5844 -24.5726 -24.5724
   -24.5662 -24.5655 -24.5604 -24.5598 -24.4553 -24.4421 -24.2827 -24.2779
    10.8601  13.1997  14.7548  14.7584  14.7609  14.7829  14.8338  14.8578
    14.8673  14.8789  14.9447  15.2256  15.3866  15.5723  15.6453  16.2069
    16.4653  16.5111  16.5159  16.5433  16.7056  16.8054  16.9292  16.9303
    17.0160  17.1441  17.1479  17.1753  17.2660  17.4375  17.5104  17.6224
    18.0049  18.0168  18.0861  18.1035  18.1741  18.1765  18.2234  18.3663
    18.3874  18.4732  18.5646  18.6017  18.6650  18.7094  18.7790  18.8744
    18.9450  18.9707  19.0520  19.0809  19.0920  19.1493  19.1978  19.8162
    19.8483  19.9930  20.0372  20.0696  20.0763  20.0974  20.1528  20.1780
    20.1966  20.2206  20.2979  20.3919  20.4818  20.5988  20.6066  20.6182
    20.6209  20.6578  20.6875  20.7311  20.8237  20.9949  21.0691  21.0956
    21.1110  21.1702  21.2085  21.2446  21.2495

          k = 0.0025 0.2500 0.2500 (  6210 PWs)   bands (ev):

   -66.9085 -66.8994 -66.8970 -66.8952 -66.8928 -66.8909 -66.8909 -66.8867
   -66.6057 -66.6024 -66.6021 -66.6009 -53.1810 -53.1802 -53.1631 -53.1628
   -33.0936 -33.0936 -33.0882 -33.0823 -33.0782 -33.0647 -33.0634 -33.0482
   -33.0398 -33.0347 -33.0257 -33.0230 -33.0126 -32.9934 -32.9917 -32.9725
   -32.9487 -32.9345 -32.9338 -32.9259 -32.9212 -32.8958 -32.8911 -32.8701
   -32.7387 -32.7314 -32.6858 -32.6852 -32.6556 -32.6535 -32.6508 -32.5992
   -32.5850 -32.5533 -32.5339 -32.5247 -24.5873 -24.5790 -24.5790 -24.5700
   -24.5675 -24.5633 -24.5631 -24.5596 -24.4541 -24.4449 -24.2818 -24.2785
    11.1823  13.3818  13.4747  14.4646  14.9381  14.9395  14.9985  15.0685
    15.1081  15.1246  15.3126  15.5381  15.6143  15.6411  15.7878  16.1651
    16.3609  16.4974  16.5799  16.7294  16.7489  16.8462  16.8551  16.9134
    16.9394  16.9556  17.1071  17.1684  17.1983  17.2287  17.3930  17.6171
    17.6872  17.9365  17.9696  17.9770  18.0182  18.0407  18.0616  18.0958
    18.1143  18.1766  18.2898  18.3591  18.3785  18.4553  18.6288  18.7156
    19.0096  19.0839  19.1138  19.2635  19.2820  19.3160  19.4685  19.6446
    19.6599  19.8078  19.9957  20.1023  20.1376  20.1583  20.1796  20.1939
    20.2870  20.2876  20.3192  20.3351  20.4030  20.5296  20.5459  20.5479
    20.5632  20.6271  20.6654  20.6677  20.6976  20.7082  20.7520  20.8468
    20.8734  20.9153  21.1414  21.3702  21.4744

          k = 0.0025 0.2500-0.5000 (  6214 PWs)   bands (ev):

   -66.9037 -66.9037 -66.8952 -66.8952 -66.8930 -66.8930 -66.8888 -66.8888
   -66.6034 -66.6032 -66.6024 -66.6021 -53.1807 -53.1806 -53.1631 -53.1629
   -33.0839 -33.0839 -33.0802 -33.0802 -33.0686 -33.0686 -33.0604 -33.0604
   -33.0434 -33.0434 -33.0173 -33.0172 -33.0109 -33.0109 -32.9822 -32.9822
   -32.9456 -32.9456 -32.9271 -32.9271 -32.9224 -32.9224 -32.8832 -32.8832
   -32.7164 -32.7164 -32.7064 -32.7064 -32.6613 -32.6612 -32.6144 -32.6144
   -32.5523 -32.5521 -32.5423 -32.5421 -24.5849 -24.5849 -24.5731 -24.5731
   -24.5661 -24.5661 -24.5614 -24.5613 -24.4499 -24.4496 -24.2800 -24.2798
    12.0978  12.0979  13.9616  13.9617  15.0749  15.0749  15.2121  15.2122
    15.4635  15.4636  15.6600  15.6601  15.7925  15.7926  15.8468  15.8469
    16.1859  16.1860  16.6153  16.6154  16.6801  16.6802  17.0288  17.0289
    17.1836  17.1837  17.2100  17.2100  17.2164  17.2164  17.4447  17.4448
    17.6035  17.6035  17.6960  17.6961  17.7033  17.7034  17.7406  17.7406
    17.8065  17.8066  17.9200  17.9200  18.0897  18.0897  19.0355  19.0355
    19.3276  19.3277  19.3488  19.3488  19.5198  19.5200  19.6387  19.6388
    19.6556  19.6556  19.7740  19.7740  19.8659  19.8660  20.2120  20.2122
    20.2551  20.2551  20.3491  20.3491  20.4404  20.4407  20.4439  20.4440
    20.5818  20.5818  20.6802  20.6803  20.6891  20.6892  20.8373  20.8374
    20.9959  20.9960  21.1597  21.1597  21.8846

          k =-0.0050-0.5001 0.0000 (  6216 PWs)   bands (ev):

   -66.9050 -66.9050 -66.8939 -66.8939 -66.8939 -66.8939 -66.8879 -66.8879
   -66.6034 -66.6032 -66.6023 -66.6021 -53.1807 -53.1806 -53.1630 -53.1628
   -33.0950 -33.0950 -33.0821 -33.0821 -33.0586 -33.0586 -33.0502 -33.0502
   -33.0450 -33.0450 -33.0248 -33.0248 -32.9954 -32.9954 -32.9855 -32.9854
   -32.9615 -32.9614 -32.9461 -32.9461 -32.9224 -32.9224 -32.8748 -32.8748
   -32.6873 -32.6872 -32.6821 -32.6819 -32.6591 -32.6590 -32.6509 -32.6507
   -32.5509 -32.5507 -32.5443 -32.5441 -24.5794 -24.5794 -24.5791 -24.5791
   -24.5640 -24.5639 -24.5622 -24.5622 -24.4492 -24.4489 -24.2806 -24.2803
    11.8075  11.8076  14.8858  14.8858  14.9102  14.9102  14.9439  14.9439
    14.9663  14.9663  15.5414  15.5414  15.6143  15.6143  15.8086  15.8087
    16.0377  16.0377  16.5043  16.5044  16.6459  16.6459  17.3705  17.3705
    17.3812  17.3812  17.4176  17.4177  17.5111  17.5112  17.5210  17.5210
    17.6179  17.6179  17.6919  17.6919  17.7780  17.7780  17.8677  17.8677
    17.8850  17.8850  18.1234  18.1235  18.2275  18.2275  18.6388  18.6389
    19.3480  19.3482  19.4711  19.4712  19.6542  19.6543  19.7003  19.7003
    19.7309  19.7310  19.8882  19.8883  19.9306  19.9306  20.3223  20.3223
    20.4299  20.4299  20.5492  20.5492  20.6024  20.6025  20.6073  20.6073
    20.6269  20.6269  20.7271  20.7272  20.7779  20.7780  20.7866  20.7867
    20.7993  20.7994  21.3396  21.3396  21.3491

          k =-0.0050-0.5001 0.2500 (  6212 PWs)   bands (ev):

   -66.9037 -66.9037 -66.8952 -66.8952 -66.8931 -66.8931 -66.8888 -66.8888
   -66.6034 -66.6032 -66.6024 -66.6021 -53.1807 -53.1806 -53.1631 -53.1629
   -33.0845 -33.0845 -33.0803 -33.0803 -33.0675 -33.0675 -33.0596 -33.0596
   -33.0443 -33.0443 -33.0162 -33.0162 -33.0099 -33.0099 -32.9815 -32.9814
   -32.9445 -32.9445 -32.9295 -32.9295 -32.9243 -32.9243 -32.8830 -32.8830
   -32.7163 -32.7163 -32.7067 -32.7067 -32.6602 -32.6602 -32.6141 -32.6141
   -32.5512 -32.5511 -32.5439 -32.5437 -24.5851 -24.5851 -24.5729 -24.5729
   -24.5662 -24.5662 -24.5611 -24.5611 -24.4497 -24.4494 -24.2805 -24.2802
    12.0982  12.0982  13.9600  13.9600  15.0745  15.0745  15.2127  15.2127
    15.4623  15.4624  15.6589  15.6589  15.7932  15.7933  15.8504  15.8504
    16.1845  16.1845  16.6097  16.6098  16.6884  16.6884  17.0313  17.0313
    17.1854  17.1855  17.2119  17.2120  17.2152  17.2152  17.4555  17.4555
    17.6148  17.6148  17.6454  17.6454  17.7046  17.7047  17.7661  17.7662
    17.8059  17.8059  17.9241  17.9241  18.0761  18.0762  19.0419  19.0419
    19.3293  19.3294  19.3479  19.3480  19.5214  19.5215  19.6354  19.6355
    19.6530  19.6530  19.7769  19.7769  19.8620  19.8620  20.2210  20.2211
    20.2496  20.2496  20.3401  20.3401  20.4419  20.4420  20.4459  20.4461
    20.5805  20.5805  20.6798  20.6799  20.6908  20.6908  20.8373  20.8374
    20.9967  20.9968  21.1629  21.1629  21.8921

          k =-0.0050-0.5001-0.5000 (  6200 PWs)   bands (ev):

   -66.9019 -66.9019 -66.8971 -66.8971 -66.8910 -66.8910 -66.8909 -66.8909
   -66.6033 -66.6031 -66.6024 -66.6021 -53.1806 -53.1806 -53.1631 -53.1629
   -33.0823 -33.0823 -33.0686 -33.0686 -33.0670 -33.0670 -33.0647 -33.0647
   -33.0515 -33.0515 -33.0325 -33.0325 -32.9991 -32.9991 -32.9757 -32.9757
   -32.9403 -32.9403 -32.9245 -32.9245 -32.9020 -32.9020 -32.8937 -32.8937
   -32.7365 -32.7365 -32.7315 -32.7315 -32.6497 -32.6497 -32.5996 -32.5996
   -32.5501 -32.5499 -32.5421 -32.5419 -24.5874 -24.5874 -24.5705 -24.5705
   -24.5677 -24.5677 -24.5599 -24.5599 -24.4501 -24.4498 -24.2800 -24.2797
    12.8815  12.8815  12.9103  12.9103  15.2518  15.2518  15.5896  15.5898
    15.6946  15.6946  15.7735  15.7736  15.9312  15.9312  16.1556  16.1557
    16.2765  16.2766  16.4946  16.4947  16.5762  16.5763  16.7994  16.7995
    16.8807  16.8809  17.0718  17.0719  17.1111  17.1111  17.2109  17.2109
    17.3849  17.3849  17.5009  17.5009  17.6062  17.6063  17.6087  17.6088
    17.7264  17.7264  18.0224  18.0225  18.3579  18.3579  18.6464  18.6464
    19.2436  19.2437  19.4086  19.4087  19.5493  19.5493  19.6383  19.6384
    19.7462  19.7462  19.7877  19.7878  20.0142  20.0142  20.0752  20.0753
    20.1414  20.1415  20.1481  20.1482  20.1929  20.1930  20.3758  20.3761
    20.5199  20.5200  20.5670  20.5670  20.6749  20.6749  20.8623  20.8625
    21.2126  21.2126  21.2952  21.2952  22.7755

          k = 0.2525 0.2525 0.0000 (  6218 PWs)   bands (ev):

   -66.9082 -66.8985 -66.8984 -66.8952 -66.8927 -66.8910 -66.8908 -66.8867
   -66.6059 -66.6031 -66.6017 -66.6004 -53.1785 -53.1776 -53.1656 -53.1654
   -33.0999 -33.0996 -33.0926 -33.0814 -33.0697 -33.0649 -33.0540 -33.0479
   -33.0357 -33.0241 -33.0203 -33.0186 -32.9956 -32.9928 -32.9921 -32.9833
   -32.9651 -32.9570 -32.9380 -32.9303 -32.9296 -32.9095 -32.8909 -32.8651
   -32.7037 -32.7027 -32.6916 -32.6883 -32.6729 -32.6680 -32.6330 -32.6247
   -32.5871 -32.5449 -32.5401 -32.5206 -24.5814 -24.5808 -24.5723 -24.5718
   -24.5672 -24.5662 -24.5645 -24.5641 -24.4304 -24.4196 -24.3056 -24.3047
    11.1973  13.3936  13.4012  14.5039  14.9252  14.9794  14.9868  15.0232
    15.0753  15.1113  15.3792  15.5445  15.7007  15.7114  15.7791  16.0985
    16.3766  16.4808  16.6251  16.6453  16.6617  16.8565  16.8707  16.8853
    16.9387  16.9470  17.1518  17.1714  17.2076  17.2928  17.3160  17.5847
    17.6647  17.8306  17.9009  17.9029  18.0682  18.0904  18.0935  18.1018
    18.2391  18.2545  18.2641  18.3132  18.4532  18.5204  18.5916  18.6378
    19.1210  19.1377  19.2025  19.2196  19.2697  19.3143  19.5383  19.6242
    19.6454  19.8917  19.9506  19.9886  20.0290  20.1080  20.1181  20.1902
    20.3331  20.3689  20.3999  20.4217  20.4311  20.4999  20.5187  20.5285
    20.6152  20.6327  20.6434  20.6723  20.6800  20.7048  20.7587  20.8167
    20.8382  20.9598  21.0445  21.2843  21.4626

          k = 0.2525 0.2525 0.2500 (  6212 PWs)   bands (ev):

   -66.9064 -66.8983 -66.8973 -66.8961 -66.8921 -66.8919 -66.8918 -66.8875
   -66.6051 -66.6029 -66.6019 -66.6012 -53.1784 -53.1777 -53.1656 -53.1655
   -33.0939 -33.0926 -33.0818 -33.0795 -33.0696 -33.0640 -33.0581 -33.0409
   -33.0404 -33.0321 -33.0274 -33.0086 -33.0024 -33.0008 -32.9861 -32.9718
   -32.9538 -32.9521 -32.9349 -32.9312 -32.9277 -32.9207 -32.9004 -32.8770
   -32.7189 -32.7018 -32.6883 -32.6851 -32.6691 -32.6613 -32.6588 -32.6116
   -32.5731 -32.5435 -32.5405 -32.5277 -24.5831 -24.5773 -24.5763 -24.5694
   -24.5679 -24.5661 -24.5654 -24.5639 -24.4285 -24.4211 -24.3057 -24.3046
    11.5109  13.5926  13.6349  13.7124  14.6698  14.7191  14.8436  15.3389
    15.3559  15.6041  15.6833  15.6903  15.8264  15.9022  15.9331  16.1229
    16.4514  16.5062  16.5645  16.5670  16.6686  16.6962  16.8697  16.8913
    16.9762  17.0299  17.0492  17.0612  17.0917  17.2507  17.3893  17.4395
    17.5802  17.6427  17.7048  17.7148  17.7656  17.8285  17.8515  17.8975
    17.9312  17.9717  18.0093  18.0593  18.1713  18.2592  18.3229  18.8398
    19.3005  19.3316  19.4015  19.4674  19.4677  19.4954  19.5301  19.6950
    19.7768  19.8802  19.9322  19.9581  19.9964  20.0415  20.0717  20.0763
    20.1288  20.3649  20.3938  20.4277  20.4703  20.5201  20.5496  20.5553
    20.6186  20.6366  20.6471  20.6535  20.7082  20.7250  20.7883  20.8408
    20.8913  20.9144  20.9265  20.9345  21.4076

          k = 0.2525 0.2525-0.5000 (  6214 PWs)   bands (ev):

   -66.9021 -66.9021 -66.8947 -66.8947 -66.8943 -66.8943 -66.8897 -66.8897
   -66.6032 -66.6030 -66.6025 -66.6023 -53.1781 -53.1780 -53.1657 -53.1655
   -33.0839 -33.0839 -33.0820 -33.0820 -33.0565 -33.0565 -33.0551 -33.0551
   -33.0459 -33.0459 -33.0159 -33.0159 -33.0053 -33.0052 -32.9641 -32.9641
   -32.9573 -32.9573 -32.9420 -32.9420 -32.9169 -32.9169 -32.9024 -32.9024
   -32.7056 -32.7055 -32.7029 -32.7028 -32.6665 -32.6664 -32.6263 -32.6262
   -32.5480 -32.5478 -32.5416 -32.5414 -24.5818 -24.5818 -24.5716 -24.5716
   -24.5679 -24.5679 -24.5642 -24.5642 -24.4251 -24.4248 -24.3054 -24.3051
    12.3982  12.3983  14.1950  14.1950  14.1981  14.1982  15.4938  15.4938
    15.7027  15.7028  15.7838  15.7839  15.9197  15.9199  16.0427  16.0427
    16.2982  16.2983  16.6750  16.6751  16.7662  16.7662  16.8899  16.8900
    16.9771  16.9771  17.1320  17.1321  17.2190  17.2190  17.2683  17.2683
    17.3543  17.3543  17.4294  17.4295  17.5336  17.5336  17.5953  17.5953
    17.7611  17.7612  17.7976  17.7976  17.9419  17.9420  18.6636  18.6636
    19.3421  19.3421  19.5456  19.5457  19.5689  19.5689  19.8071  19.8072
    19.8327  19.8328  19.9398  19.9399  20.0193  20.0194  20.1749  20.1751
    20.2885  20.2885  20.4037  20.4039  20.4136  20.4137  20.5399  20.5399
    20.5592  20.5593  20.6900  20.6900  20.7949  20.7949  20.8121  20.8121
    20.8356  20.8356  20.8907  20.8907  20.8917

          k = 0.2450-0.4976 0.0000 (  6200 PWs)   bands (ev):

   -66.9037 -66.9031 -66.8959 -66.8953 -66.8930 -66.8930 -66.8888 -66.8888
   -66.6034 -66.6028 -66.6027 -66.6021 -53.1781 -53.1780 -53.1656 -53.1654
   -33.0928 -33.0926 -33.0864 -33.0846 -33.0577 -33.0573 -33.0529 -33.0495
   -33.0420 -33.0312 -33.0222 -33.0160 -33.0154 -32.9917 -32.9712 -32.9688
   -32.9680 -32.9638 -32.9457 -32.9376 -32.9207 -32.9199 -32.8898 -32.8801
   -32.6957 -32.6880 -32.6826 -32.6780 -32.6736 -32.6677 -32.6575 -32.6484
   -32.5477 -32.5433 -32.5406 -32.5361 -24.5775 -24.5771 -24.5760 -24.5759
   -24.5665 -24.5655 -24.5654 -24.5653 -24.4249 -24.4242 -24.3051 -24.3047
    12.0734  12.1233  13.9141  14.0092  15.0905  15.0995  15.1815  15.1915
    15.5359  15.5766  15.5913  15.5973  15.7566  15.7714  15.8877  15.8883
    16.1179  16.1304  16.5490  16.6098  16.6990  16.7513  17.0491  17.0999
    17.1133  17.1344  17.1928  17.2002  17.3076  17.4356  17.4898  17.5068
    17.5091  17.5165  17.5289  17.5449  17.5542  17.6049  17.8266  17.8573
    17.9037  17.9290  17.9443  17.9704  18.0959  18.1815  18.9269  19.0616
    19.3021  19.3331  19.3348  19.3568  19.4654  19.5620  19.6829  19.6906
    19.7037  19.7264  19.7370  19.7904  19.8093  19.8387  20.1541  20.1548
    20.1787  20.2279  20.3262  20.3885  20.4634  20.5023  20.5057  20.5241
    20.6238  20.6250  20.6498  20.6597  20.6661  20.6967  20.7849  20.8497
    20.9390  21.0566  21.0709  21.1541  21.8762

          k = 0.2450-0.4976 0.2500 (  6207 PWs)   bands (ev):

   -66.9024 -66.9019 -66.8948 -66.8944 -66.8943 -66.8943 -66.8898 -66.8897
   -66.6033 -66.6029 -66.6026 -66.6021 -53.1781 -53.1780 -53.1657 -53.1654
   -33.0836 -33.0822 -33.0819 -33.0781 -33.0653 -33.0596 -33.0567 -33.0505
   -33.0425 -33.0416 -33.0178 -33.0083 -33.0050 -33.0037 -32.9676 -32.9671
   -32.9641 -32.9598 -32.9437 -32.9422 -32.9174 -32.9154 -32.9046 -32.9020
   -32.7053 -32.7031 -32.6973 -32.6913 -32.6713 -32.6655 -32.6278 -32.6260
   -32.5498 -32.5450 -32.5432 -32.5409 -24.5817 -24.5811 -24.5722 -24.5717
   -24.5681 -24.5666 -24.5651 -24.5642 -24.4251 -24.4242 -24.3055 -24.3050
    12.3626  12.4120  14.1756  14.2114  14.2415  14.2698  15.4291  15.4936
    15.6882  15.6941  15.7549  15.7841  15.9055  15.9167  16.0275  16.0644
    16.2947  16.3105  16.6327  16.6751  16.7433  16.7778  16.8723  16.9204
    16.9779  17.0276  17.1359  17.1645  17.2031  17.2363  17.2751  17.2777
    17.4027  17.4074  17.4198  17.4570  17.4804  17.5016  17.5694  17.6476
    17.7029  17.7584  17.7745  17.8776  17.8810  17.9071  18.6551  18.6592
    19.3305  19.3872  19.5479  19.5516  19.5732  19.6156  19.7646  19.7784
    19.8437  19.8637  19.8809  19.9585  20.0404  20.0417  20.1260  20.2098
    20.3105  20.3320  20.3961  20.4088  20.4150  20.4193  20.5251  20.5428
    20.5592  20.5602  20.6467  20.6825  20.7947  20.8052  20.8109  20.8285
    20.8478  20.8608  20.8783  20.8960  20.9081

          k = 0.2450-0.4976-0.5000 (  6194 PWs)   bands (ev):

   -66.9003 -66.9003 -66.8962 -66.8962 -66.8926 -66.8926 -66.8918 -66.8918
   -66.6032 -66.6030 -66.6025 -66.6022 -53.1781 -53.1780 -53.1656 -53.1654
   -33.0698 -33.0698 -33.0668 -33.0668 -33.0661 -33.0661 -33.0630 -33.0630
   -33.0464 -33.0464 -33.0177 -33.0177 -32.9939 -32.9939 -32.9590 -32.9589
   -32.9572 -32.9572 -32.9515 -32.9515 -32.9234 -32.9234 -32.9084 -32.9084
   -32.7168 -32.7167 -32.7008 -32.7007 -32.6586 -32.6586 -32.6125 -32.6125
   -32.5493 -32.5491 -32.5453 -32.5451 -24.5831 -24.5831 -24.5700 -24.5700
   -24.5678 -24.5678 -24.5636 -24.5636 -24.4252 -24.4249 -24.3056 -24.3053
    13.1453  13.1454  13.2166  13.2166  14.7531  14.7532  15.0325  15.0325
    15.8267  15.8268  16.1464  16.1465  16.2111  16.2112  16.3582  16.3583
    16.4798  16.4799  16.5042  16.5043  16.5625  16.5625  16.7930  16.7931
    16.8154  16.8155  17.0884  17.0885  17.1623  17.1624  17.2032  17.2032
    17.2109  17.2110  17.3309  17.3309  17.3352  17.3354  17.5187  17.5187
    17.5561  17.5561  17.6419  17.6419  17.9121  17.9122  18.0710  18.0710
    19.7125  19.7126  19.7551  19.7553  19.8324  19.8324  19.9055  19.9056
    20.0130  20.0130  20.0352  20.0353  20.1182  20.1182  20.1611  20.1612
    20.1648  20.1649  20.2408  20.2409  20.2466  20.2467  20.3103  20.3105
    20.4924  20.4926  20.5137  20.5137  20.5960  20.5961  20.7780  20.7782
    20.8692  20.8692  20.9470  20.9470  21.6111

          k = 0.2475-0.2475 0.0000 (  6200 PWs)   bands (ev):

   -66.9086 -66.8981 -66.8979 -66.8952 -66.8931 -66.8910 -66.8908 -66.8867
   -66.6063 -66.6027 -66.6021 -66.6000 -53.1785 -53.1776 -53.1657 -53.1654
   -33.0987 -33.0981 -33.0954 -33.0859 -33.0716 -33.0665 -33.0626 -33.0591
   -33.0324 -33.0196 -33.0134 -33.0123 -33.0029 -32.9934 -32.9855 -32.9785
   -32.9521 -32.9516 -32.9373 -32.9280 -32.9260 -32.9023 -32.8877 -32.8688
   -32.7110 -32.7095 -32.6995 -32.6981 -32.6652 -32.6624 -32.6333 -32.6215
   -32.5897 -32.5457 -32.5350 -32.5135 -24.5819 -24.5811 -24.5717 -24.5717
   -24.5675 -24.5671 -24.5640 -24.5631 -24.4304 -24.4185 -24.3054 -24.3042
    11.1685  13.4518  13.4596  14.4249  14.9170  14.9696  14.9910  15.0280
    15.0730  15.1126  15.3685  15.5275  15.7119  15.7133  15.7838  16.0673
    16.3708  16.5692  16.6186  16.6533  16.6644  16.8204  16.8414  16.8778
    16.8994  16.9402  17.0590  17.1401  17.2546  17.3212  17.3771  17.6712
    17.7557  17.8858  17.9462  18.0227  18.0413  18.0482  18.1410  18.1813
    18.2192  18.2535  18.2668  18.2816  18.2918  18.5783  18.6240  18.6801
    19.0160  19.0460  19.1461  19.1579  19.2164  19.2213  19.4643  19.5406
    19.6206  19.9457  19.9873  20.0453  20.0941  20.1357  20.1691  20.1703
    20.3070  20.3737  20.3770  20.3833  20.4594  20.4848  20.5213  20.5706
    20.6010  20.6030  20.6393  20.6812  20.6827  20.7091  20.7682  20.7965
    20.8112  20.9186  21.1872  21.3837  21.4656

          k = 0.2475-0.2475 0.2500 (  6209 PWs)   bands (ev):

   -66.9068 -66.8980 -66.8970 -66.8961 -66.8923 -66.8919 -66.8918 -66.8876
   -66.6054 -66.6026 -66.6022 -66.6009 -53.1784 -53.1777 -53.1657 -53.1654
   -33.0925 -33.0918 -33.0848 -33.0813 -33.0700 -33.0652 -33.0639 -33.0501
   -33.0384 -33.0257 -33.0234 -33.0055 -32.9987 -32.9943 -32.9885 -32.9880
   -32.9543 -32.9454 -32.9365 -32.9284 -32.9263 -32.9204 -32.9009 -32.8802
   -32.7180 -32.7022 -32.6920 -32.6768 -32.6662 -32.6618 -32.6594 -32.6130
   -32.5761 -32.5450 -32.5384 -32.5233 -24.5831 -24.5772 -24.5765 -24.5696
   -24.5679 -24.5664 -24.5647 -24.5637 -24.4291 -24.4206 -24.3056 -24.3046
    11.4840  13.6137  13.6940  13.7341  14.6477  14.7531  14.8262  15.3301
    15.3424  15.5859  15.6630  15.6887  15.8220  15.8764  15.9346  16.1090
    16.4478  16.4739  16.5837  16.6163  16.6580  16.6668  16.8732  16.9136
    16.9922  17.0089  17.0298  17.0422  17.0792  17.2437  17.4004  17.5265
    17.5947  17.6875  17.7763  17.7833  17.8100  17.8118  17.8505  17.8815
    17.8972  17.9767  17.9855  18.0207  18.1449  18.1970  18.2990  18.9337
    19.2223  19.2629  19.3853  19.4297  19.4422  19.4610  19.4866  19.7176
    19.8288  19.8898  19.9048  19.9348  19.9768  20.0808  20.0957  20.1377
    20.1965  20.3651  20.3751  20.4152  20.4988  20.5159  20.5371  20.5490
    20.6064  20.6325  20.6470  20.6796  20.7261  20.7610  20.8169  20.8406
    20.8933  20.8967  20.9224  20.9397  21.3949

          k = 0.2475-0.2475-0.5000 (  6202 PWs)   bands (ev):

   -66.9022 -66.9022 -66.8945 -66.8945 -66.8942 -66.8942 -66.8899 -66.8899
   -66.6032 -66.6030 -66.6025 -66.6022 -53.1781 -53.1780 -53.1656 -53.1654
   -33.0838 -33.0838 -33.0775 -33.0775 -33.0617 -33.0617 -33.0572 -33.0572
   -33.0339 -33.0339 -33.0116 -33.0115 -33.0059 -33.0059 -32.9739 -32.9739
   -32.9664 -32.9664 -32.9436 -32.9436 -32.9167 -32.9167 -32.9029 -32.9029
   -32.6981 -32.6981 -32.6917 -32.6916 -32.6694 -32.6694 -32.6282 -32.6282
   -32.5474 -32.5472 -32.5424 -32.5422 -24.5814 -24.5814 -24.5724 -24.5724
   -24.5665 -24.5665 -24.5649 -24.5648 -24.4247 -24.4244 -24.3055 -24.3052
    12.3759  12.3760  14.2510  14.2511  14.2551  14.2552  15.4295  15.4295
    15.6801  15.6802  15.7571  15.7571  15.8999  15.9000  16.0473  16.0473
    16.3035  16.3036  16.6420  16.6421  16.7532  16.7532  16.8976  16.8977
    17.0269  17.0269  17.1662  17.1663  17.2219  17.2219  17.2860  17.2860
    17.4378  17.4379  17.4519  17.4520  17.4620  17.4620  17.6141  17.6141
    17.7133  17.7134  17.8306  17.8307  17.8634  17.8634  18.6388  18.6388
    19.3747  19.3747  19.5844  19.5845  19.5899  19.5900  19.8069  19.8069
    19.8110  19.8110  19.8969  19.8970  20.0562  20.0562  20.1537  20.1538
    20.3552  20.3553  20.3997  20.3998  20.4262  20.4263  20.5296  20.5297
    20.5543  20.5543  20.6467  20.6467  20.8095  20.8096  20.8328  20.8328
    20.8716  20.8716  20.8887  20.8887  20.9224

          k =-0.5051-0.5051 0.0000 (  6196 PWs)   bands (ev):

   -66.9000 -66.8998 -66.8991 -66.8990 -66.8910 -66.8910 -66.8909 -66.8908
   -66.6033 -66.6031 -66.6024 -66.6022 -53.1727 -53.1722 -53.1715 -53.1708
   -33.0916 -33.0914 -33.0890 -33.0889 -33.0561 -33.0560 -33.0470 -33.0468
   -33.0423 -33.0422 -33.0098 -33.0097 -32.9945 -32.9944 -32.9907 -32.9906
   -32.9468 -32.9467 -32.9450 -32.9449 -32.9077 -32.9076 -32.9033 -32.9031
   -32.6984 -32.6982 -32.6867 -32.6865 -32.6705 -32.6704 -32.6564 -32.6563
   -32.5414 -32.5412 -32.5343 -32.5342 -24.5728 -24.5725 -24.5716 -24.5713
   -24.5712 -24.5708 -24.5700 -24.5696 -24.3662 -24.3653 -24.3648 -24.3636
    12.8496  12.8497  12.9397  12.9398  15.4969  15.4972  15.5142  15.5145
    15.5994  15.5997  15.6149  15.6151  16.0141  16.0142  16.0650  16.0650
    16.3673  16.3677  16.3940  16.3946  16.6878  16.6882  16.7684  16.7689
    16.9998  16.9998  17.0350  17.0351  17.1682  17.1688  17.1892  17.1897
    17.2982  17.2985  17.3539  17.3540  17.5509  17.5510  17.6524  17.6524
    17.9200  17.9200  18.0380  18.0380  18.5285  18.5287  18.5318  18.5319
    19.3332  19.3333  19.3434  19.3437  19.5340  19.5343  19.6324  19.6328
    19.7927  19.7931  19.8094  19.8100  19.9076  19.9083  19.9384  19.9389
    20.0100  20.0100  20.1203  20.1204  20.4403  20.4403  20.5228  20.5229
    20.6089  20.6089  20.6103  20.6104  20.6189  20.6190  20.6294  20.6295
    21.1669  21.1671  21.2769  21.2772  22.8198

          k =-0.5051-0.5051 0.2500 (  6190 PWs)   bands (ev):

   -66.8988 -66.8986 -66.8981 -66.8979 -66.8922 -66.8921 -66.8920 -66.8919
   -66.6031 -66.6029 -66.6025 -66.6023 -53.1727 -53.1722 -53.1715 -53.1708
   -33.0817 -33.0815 -33.0805 -33.0804 -33.0583 -33.0581 -33.0506 -33.0505
   -33.0266 -33.0265 -33.0072 -33.0071 -32.9944 -32.9944 -32.9915 -32.9914
   -32.9501 -32.9500 -32.9455 -32.9454 -32.9225 -32.9224 -32.9221 -32.9221
   -32.6908 -32.6907 -32.6829 -32.6828 -32.6624 -32.6623 -32.6543 -32.6543
   -32.5443 -32.5441 -32.5388 -32.5387 -24.5738 -24.5737 -24.5724 -24.5723
   -24.5700 -24.5700 -24.5690 -24.5689 -24.3659 -24.3652 -24.3647 -24.3635
    13.1350  13.1351  13.2226  13.2227  14.8596  14.8596  14.9195  14.9195
    15.9377  15.9380  15.9974  15.9976  16.3174  16.3175  16.3324  16.3324
    16.4108  16.4112  16.4119  16.4122  16.7337  16.7341  16.7885  16.7890
    16.9910  16.9914  17.0218  17.0222  17.0388  17.0388  17.0529  17.0530
    17.2015  17.2015  17.2106  17.2106  17.4411  17.4411  17.5446  17.5446
    17.6811  17.6812  17.7340  17.7341  17.9468  17.9468  17.9746  17.9747
    19.7819  19.7822  19.8081  19.8083  19.8705  19.8707  19.9315  19.9317
    19.9403  19.9404  19.9676  19.9676  20.0036  20.0038  20.0359  20.0362
    20.1279  20.1281  20.2049  20.2049  20.4429  20.4430  20.4862  20.4862
    20.5566  20.5567  20.5589  20.5589  20.5748  20.5748  20.5849  20.5850
    20.8531  20.8533  20.9231  20.9233  21.6362

          k =-0.5051-0.5051-0.5000 (  6136 PWs)   bands (ev):

   -66.8964 -66.8964 -66.8964 -66.8964 -66.8940 -66.8940 -66.8940 -66.8940
   -66.6029 -66.6027 -66.6027 -66.6025 -53.1726 -53.1721 -53.1714 -53.1707
   -33.0652 -33.0652 -33.0651 -33.0651 -33.0613 -33.0613 -33.0611 -33.0611
   -33.0045 -33.0045 -33.0045 -33.0045 -32.9807 -32.9807 -32.9807 -32.9806
   -32.9685 -32.9685 -32.9685 -32.9685 -32.9277 -32.9277 -32.9277 -32.9277
   -32.6822 -32.6822 -32.6821 -32.6821 -32.6484 -32.6484 -32.6483 -32.6483
   -32.5453 -32.5451 -32.5451 -32.5449 -24.5733 -24.5732 -24.5727 -24.5727
   -24.5686 -24.5686 -24.5680 -24.5680 -24.3654 -24.3651 -24.3642 -24.3633
    13.8704  13.8704  13.8705  13.8705  14.0281  14.0281  14.0282  14.0282
    16.3528  16.3529  16.3531  16.3534  16.4055  16.4056  16.4057  16.4060
    16.7117  16.7118  16.7119  16.7119  16.7664  16.7665  16.7666  16.7666
    16.8751  16.8755  16.8757  16.8758  17.0557  17.0558  17.0558  17.0558
    17.1169  17.1170  17.1170  17.1170  17.3608  17.3608  17.3608  17.3609
    17.4139  17.4140  17.4140  17.4140  17.4367  17.4368  17.4368  17.4368
    20.0200  20.0200  20.0203  20.0206  20.0720  20.0722  20.0727  20.0732
    20.3162  20.3163  20.3164  20.3164  20.3183  20.3183  20.3184  20.3184
    20.3456  20.3459  20.3461  20.3462  20.3896  20.3897  20.3897  20.3898
    20.4377  20.4377  20.4377  20.4378  20.5132  20.5133  20.5133  20.5134
    20.8050  20.8053  20.8054  20.8065  20.8139

          k = 0.2500 0.0025 0.0000 (  6198 PWs)   bands (ev):

   -66.9105 -66.8993 -66.8961 -66.8960 -66.8918 -66.8918 -66.8900 -66.8858
   -66.6074 -66.6031 -66.6017 -66.5990 -53.1787 -53.1773 -53.1656 -53.1654
   -33.1071 -33.1045 -33.0922 -33.0919 -33.0647 -33.0647 -33.0624 -33.0617
   -33.0420 -33.0284 -33.0182 -32.9959 -32.9955 -32.9879 -32.9761 -32.9637
   -32.9617 -32.9532 -32.9524 -32.9291 -32.9166 -32.9147 -32.8639 -32.8599
   -32.7213 -32.7212 -32.6998 -32.6984 -32.6605 -32.6604 -32.6155 -32.6102
   -32.6098 -32.5491 -32.5405 -32.5081 -24.5835 -24.5834 -24.5688 -24.5685
   -24.5671 -24.5666 -24.5635 -24.5634 -24.4329 -24.4170 -24.3055 -24.3040
    10.8600  13.2065  14.5250  14.7356  14.7954  14.7955  14.8462  14.8469
    14.9140  15.0226  15.0295  15.1332  15.4221  15.6247  15.6695  16.1659
    16.5096  16.5134  16.6108  16.6268  16.6379  16.7147  16.7155  17.0066
    17.0095  17.0865  17.1574  17.1619  17.2234  17.5070  17.5112  17.6842
    17.7038  18.1281  18.1392  18.1441  18.2076  18.3025  18.3261  18.3303
    18.3475  18.5038  18.5889  18.6215  18.6516  18.7600  18.8167  18.8183
    18.9639  18.9883  18.9996  19.0394  19.0408  19.1808  19.1835  19.7663
    19.9293  19.9405  20.0474  20.0826  20.0919  20.1030  20.1110  20.1196
    20.1472  20.1482  20.2884  20.4722  20.5476  20.5514  20.5757  20.5997
    20.6236  20.6846  20.7107  20.7372  20.9571  20.9906  21.0847  21.0852
    21.1325  21.1533  21.1615  21.2089  21.2265

          k = 0.2500 0.0025-0.2500 (  6210 PWs)   bands (ev):

   -66.9084 -66.8982 -66.8982 -66.8952 -66.8929 -66.8909 -66.8909 -66.8867
   -66.6061 -66.6029 -66.6019 -66.6002 -53.1785 -53.1776 -53.1656 -53.1654
   -33.0995 -33.0987 -33.0950 -33.0820 -33.0712 -33.0629 -33.0615 -33.0502
   -33.0347 -33.0250 -33.0146 -33.0137 -33.0030 -32.9906 -32.9888 -32.9847
   -32.9553 -32.9541 -32.9362 -32.9303 -32.9285 -32.9047 -32.8895 -32.8660
   -32.7096 -32.7067 -32.6936 -32.6922 -32.6700 -32.6632 -32.6343 -32.6238
   -32.5882 -32.5463 -32.5396 -32.5161 -24.5817 -24.5809 -24.5721 -24.5716
   -24.5673 -24.5666 -24.5640 -24.5637 -24.4305 -24.4188 -24.3058 -24.3048
    11.1819  13.4222  13.4310  14.4665  14.9135  14.9798  14.9856  15.0195
    15.0788  15.1127  15.3746  15.5376  15.7050  15.7112  15.7823  16.0828
    16.3746  16.5217  16.6379  16.6387  16.6555  16.8251  16.8652  16.9054
    16.9094  16.9203  17.1081  17.1739  17.2287  17.3054  17.3452  17.6131
    17.7258  17.8888  17.9530  17.9642  17.9727  18.0689  18.0933  18.1639
    18.1659  18.2448  18.3071  18.3359  18.3748  18.5873  18.5987  18.6289
    19.0647  19.0965  19.1741  19.1907  19.2442  19.2677  19.5002  19.5807
    19.6342  19.9179  19.9625  20.0148  20.0811  20.1183  20.1576  20.1581
    20.3170  20.3848  20.3910  20.3922  20.4419  20.5122  20.5153  20.5526
    20.5958  20.6193  20.6376  20.6740  20.6771  20.7150  20.7819  20.7931
    20.8297  20.9398  21.1194  21.3296  21.4676

          k = 0.2500 0.0025 0.5000 (  6214 PWs)   bands (ev):

   -66.9034 -66.9034 -66.8955 -66.8955 -66.8930 -66.8930 -66.8888 -66.8888
   -66.6032 -66.6030 -66.6025 -66.6022 -53.1781 -53.1781 -53.1656 -53.1654
   -33.0943 -33.0943 -33.0856 -33.0856 -33.0553 -33.0552 -33.0524 -33.0524
   -33.0364 -33.0364 -33.0202 -33.0202 -33.0076 -33.0076 -32.9688 -32.9688
   -32.9674 -32.9674 -32.9419 -32.9419 -32.9203 -32.9203 -32.8847 -32.8847
   -32.6937 -32.6936 -32.6760 -32.6758 -32.6747 -32.6745 -32.6533 -32.6532
   -32.5462 -32.5460 -32.5400 -32.5398 -24.5775 -24.5775 -24.5764 -24.5764
   -24.5665 -24.5664 -24.5649 -24.5648 -24.4246 -24.4244 -24.3054 -24.3051
    12.0973  12.0973  13.9625  13.9625  15.0884  15.0885  15.1918  15.1918
    15.5539  15.5539  15.5959  15.5960  15.7627  15.7628  15.8890  15.8891
    16.1226  16.1227  16.5779  16.5780  16.7241  16.7241  17.0763  17.0763
    17.1453  17.1453  17.1645  17.1646  17.3713  17.3713  17.4484  17.4484
    17.4964  17.4964  17.5888  17.5889  17.5969  17.5969  17.8858  17.8858
    17.8942  17.8942  17.9217  17.9218  18.1505  18.1506  18.9869  18.9870
    19.3156  19.3156  19.3430  19.3430  19.5120  19.5121  19.6892  19.6892
    19.7417  19.7417  19.7522  19.7522  19.7963  19.7963  20.1557  20.1558
    20.2032  20.2034  20.3653  20.3654  20.4815  20.4816  20.5071  20.5073
    20.6288  20.6288  20.6470  20.6470  20.6814  20.6815  20.8185  20.8186
    20.9938  20.9939  21.1077  21.1078  21.8654

          k =-0.5001-0.0050 0.0000 (  6216 PWs)   bands (ev):

   -66.9049 -66.9049 -66.8939 -66.8939 -66.8939 -66.8939 -66.8879 -66.8879
   -66.6053 -66.6052 -66.6004 -66.6003 -53.1727 -53.1723 -53.1714 -53.1707
   -33.1060 -33.1060 -33.0766 -33.0766 -33.0759 -33.0759 -33.0315 -33.0315
   -33.0162 -33.0161 -33.0059 -33.0059 -33.0033 -33.0033 -32.9906 -32.9906
   -32.9624 -32.9624 -32.9586 -32.9586 -32.9546 -32.9546 -32.8603 -32.8603
   -32.6856 -32.6855 -32.6851 -32.6850 -32.6491 -32.6491 -32.6484 -32.6483
   -32.5787 -32.5786 -32.5276 -32.5276 -24.5736 -24.5736 -24.5731 -24.5730
   -24.5683 -24.5683 -24.5678 -24.5677 -24.3696 -24.3691 -24.3622 -24.3615
    11.8072  11.8073  14.7031  14.7032  14.9236  14.9237  14.9240  14.9240
    15.2321  15.2321  15.5060  15.5062  15.5730  15.5731  15.8998  15.8999
    16.0279  16.0279  16.5887  16.5889  16.5903  16.5905  17.0731  17.0735
    17.3575  17.3577  17.3621  17.3622  17.3628  17.3630  17.6641  17.6642
    17.7974  17.7975  17.8057  17.8058  17.8081  17.8082  17.8144  17.8144
    17.8926  17.8926  18.2468  18.2468  18.2563  18.2564  18.5660  18.5662
    19.3999  19.4000  19.4384  19.4385  19.6107  19.6107  19.6808  19.6809
    19.6840  19.6842  19.9399  19.9400  19.9428  19.9429  20.2499  20.2502
    20.4316  20.4317  20.5489  20.5490  20.5903  20.5905  20.6291  20.6294
    20.6490  20.6490  20.7405  20.7405  20.7642  20.7643  20.7855  20.7856
    20.7963  20.7965  21.2994  21.2999  21.3419

          k =-0.5001-0.0050-0.2500 (  6212 PWs)   bands (ev):

   -66.9034 -66.9034 -66.8955 -66.8955 -66.8931 -66.8931 -66.8888 -66.8888
   -66.6045 -66.6045 -66.6011 -66.6010 -53.1727 -53.1722 -53.1715 -53.1708
   -33.0984 -33.0984 -33.0828 -33.0828 -33.0721 -33.0721 -33.0386 -33.0386
   -33.0254 -33.0254 -33.0076 -33.0076 -33.0032 -33.0032 -32.9758 -32.9758
   -32.9708 -32.9708 -32.9500 -32.9500 -32.9347 -32.9346 -32.8753 -32.8752
   -32.6902 -32.6901 -32.6773 -32.6772 -32.6744 -32.6743 -32.6527 -32.6526
   -32.5602 -32.5602 -32.5284 -32.5284 -24.5731 -24.5729 -24.5724 -24.5722
   -24.5705 -24.5701 -24.5689 -24.5686 -24.3685 -24.3680 -24.3627 -24.3620
    12.0975  12.0976  13.9516  13.9516  15.1065  15.1065  15.1507  15.1507
    15.5599  15.5601  15.6815  15.6817  15.7068  15.7068  15.9777  15.9778
    16.0945  16.0945  16.6460  16.6461  16.7325  16.7327  16.9186  16.9187
    16.9523  16.9526  17.2736  17.2737  17.3348  17.3349  17.4522  17.4523
    17.5217  17.5217  17.5704  17.5704  17.7469  17.7469  17.8573  17.8573
    17.9137  17.9137  17.9676  17.9676  18.1270  18.1271  18.9954  18.9954
    19.3441  19.3441  19.3447  19.3447  19.5833  19.5835  19.6007  19.6009
    19.6968  19.6969  19.7436  19.7436  19.7726  19.7726  20.1438  20.1441
    20.2211  20.2211  20.3261  20.3262  20.5294  20.5295  20.6277  20.6277
    20.6279  20.6279  20.6621  20.6621  20.6700  20.6700  20.6928  20.6928
    20.9755  20.9756  21.1182  21.1182  21.8680

          k =-0.5001-0.0050 0.5000 (  6200 PWs)   bands (ev):

   -66.8995 -66.8995 -66.8995 -66.8995 -66.8910 -66.8910 -66.8909 -66.8909
   -66.6029 -66.6028 -66.6028 -66.6025 -53.1727 -53.1722 -53.1715 -53.1708
   -33.0906 -33.0906 -33.0906 -33.0906 -33.0522 -33.0522 -33.0522 -33.0522
   -33.0261 -33.0261 -33.0261 -33.0261 -32.9916 -32.9916 -32.9916 -32.9915
   -32.9454 -32.9454 -32.9453 -32.9453 -32.9060 -32.9060 -32.9060 -32.9060
   -32.6947 -32.6946 -32.6946 -32.6944 -32.6622 -32.6621 -32.6621 -32.6619
   -32.5375 -32.5373 -32.5373 -32.5371 -24.5729 -24.5726 -24.5717 -24.5714
   -24.5713 -24.5710 -24.5701 -24.5697 -24.3657 -24.3654 -24.3645 -24.3636
    12.8940  12.8940  12.8941  12.8941  15.4975  15.4975  15.4978  15.4978
    15.6168  15.6168  15.6170  15.6171  16.0412  16.0412  16.0413  16.0414
    16.3818  16.3819  16.3822  16.3825  16.7271  16.7272  16.7276  16.7277
    17.0129  17.0129  17.0129  17.0130  17.1672  17.1674  17.1677  17.1679
    17.3410  17.3411  17.3412  17.3412  17.5904  17.5904  17.5905  17.5905
    17.9734  17.9734  17.9735  17.9736  18.5306  18.5307  18.5309  18.5309
    19.3379  19.3379  19.3381  19.3382  19.5778  19.5779  19.5782  19.5782
    19.8522  19.8522  19.8525  19.8529  19.8692  19.8692  19.8696  19.8699
    20.0700  20.0700  20.0701  20.0701  20.4871  20.4872  20.4873  20.4875
    20.5975  20.5975  20.5977  20.5978  20.6483  20.6483  20.6485  20.6486
    21.2212  21.2213  21.2215  21.2216  22.7973

          k =-0.4976 0.2450 0.0000 (  6200 PWs)   bands (ev):

   -66.9036 -66.9031 -66.8959 -66.8953 -66.8930 -66.8930 -66.8888 -66.8888
   -66.6048 -66.6042 -66.6013 -66.6007 -53.1727 -53.1722 -53.1715 -53.1707
   -33.0989 -33.0981 -33.0825 -33.0822 -33.0741 -33.0682 -33.0421 -33.0389
   -33.0290 -33.0203 -33.0169 -33.0035 -33.0005 -32.9908 -32.9771 -32.9760
   -32.9751 -32.9698 -32.9534 -32.9422 -32.9358 -32.9341 -32.8790 -32.8706
   -32.6928 -32.6853 -32.6826 -32.6751 -32.6734 -32.6690 -32.6577 -32.6487
   -32.5627 -32.5552 -32.5304 -32.5256 -24.5730 -24.5729 -24.5725 -24.5719
   -24.5701 -24.5698 -24.5688 -24.5685 -24.3681 -24.3672 -24.3630 -24.3618
    12.0733  12.1230  13.9052  13.9991  15.1216  15.1306  15.1310  15.1342
    15.5592  15.5660  15.6708  15.6858  15.6899  15.7235  15.9657  15.9897
    16.0912  16.1021  16.6232  16.6820  16.7105  16.7454  16.9138  16.9173
    16.9203  16.9870  17.2279  17.3258  17.3328  17.3424  17.4497  17.4574
    17.5235  17.5332  17.5667  17.5795  17.7271  17.7537  17.7837  17.9027
    17.9081  17.9247  17.9532  18.0119  18.0859  18.1763  18.9194  19.0697
    19.3276  19.3349  19.3551  19.3618  19.5318  19.5674  19.6318  19.6505
    19.6906  19.7020  19.7195  19.7256  19.7709  19.8290  20.1161  20.1770
    20.2027  20.2377  20.2959  20.3545  20.5273  20.5428  20.6147  20.6248
    20.6269  20.6410  20.6478  20.6481  20.6738  20.6752  20.6970  20.7210
    20.9177  21.0374  21.0767  21.1615  21.8683

          k =-0.4976 0.2450-0.2500 (  6207 PWs)   bands (ev):

   -66.9021 -66.9016 -66.8954 -66.8950 -66.8940 -66.8940 -66.8898 -66.8897
   -66.6042 -66.6038 -66.6017 -66.6013 -53.1727 -53.1722 -53.1715 -53.1708
   -33.0915 -33.0914 -33.0786 -33.0751 -33.0723 -33.0712 -33.0446 -33.0391
   -33.0309 -33.0180 -33.0158 -33.0094 -33.0031 -33.0005 -32.9706 -32.9704
   -32.9638 -32.9630 -32.9587 -32.9573 -32.9284 -32.9252 -32.8957 -32.8952
   -32.6878 -32.6853 -32.6843 -32.6811 -32.6782 -32.6678 -32.6509 -32.6503
   -32.5566 -32.5525 -32.5337 -32.5291 -24.5738 -24.5733 -24.5727 -24.5715
   -24.5714 -24.5699 -24.5689 -24.5684 -24.3674 -24.3668 -24.3636 -24.3624
    12.3623  12.4115  14.1260  14.1584  14.2933  14.3256  15.4113  15.4749
    15.6308  15.6478  15.8411  15.8553  16.0064  16.0227  16.0272  16.0594
    16.2125  16.2296  16.7170  16.7232  16.7315  16.7375  16.7484  16.8209
    17.0038  17.0388  17.1439  17.1479  17.1774  17.1867  17.2734  17.2922
    17.2971  17.3570  17.3630  17.3835  17.6017  17.6232  17.6706  17.7497
    17.7615  17.7949  17.7987  17.8102  17.8615  17.9062  18.6584  18.6626
    19.3367  19.4027  19.5560  19.5914  19.6035  19.6418  19.6867  19.7471
    19.7670  19.8342  19.8691  19.9532  20.0676  20.0706  20.0711  20.1206
    20.2904  20.3195  20.4882  20.4900  20.5043  20.5123  20.5351  20.5543
    20.5809  20.5895  20.5946  20.6179  20.7856  20.7937  20.8043  20.8171
    20.8251  20.8342  20.8464  20.8601  20.8812

          k =-0.4976 0.2450 0.5000 (  6194 PWs)   bands (ev):

   -66.8985 -66.8985 -66.8982 -66.8982 -66.8922 -66.8922 -66.8919 -66.8919
   -66.6029 -66.6028 -66.6028 -66.6025 -53.1727 -53.1722 -53.1715 -53.1708
   -33.0818 -33.0818 -33.0807 -33.0806 -33.0558 -33.0558 -33.0531 -33.0531
   -33.0183 -33.0182 -33.0152 -33.0152 -32.9971 -32.9970 -32.9899 -32.9899
   -32.9490 -32.9490 -32.9472 -32.9472 -32.9239 -32.9239 -32.9206 -32.9206
   -32.6902 -32.6902 -32.6846 -32.6845 -32.6608 -32.6607 -32.6545 -32.6545
   -32.5420 -32.5418 -32.5418 -32.5416 -24.5734 -24.5734 -24.5726 -24.5726
   -24.5701 -24.5701 -24.5691 -24.5691 -24.3658 -24.3655 -24.3646 -24.3637
    13.1569  13.1569  13.2005  13.2005  14.8406  14.8406  14.9382  14.9382
    15.9658  15.9659  15.9717  15.9718  16.2985  16.2986  16.3573  16.3573
    16.3982  16.3983  16.4252  16.4253  16.7580  16.7580  16.7603  16.7603
    16.9851  16.9852  17.0159  17.0159  17.0386  17.0387  17.0478  17.0478
    17.1952  17.1953  17.2340  17.2341  17.4779  17.4780  17.4974  17.4975
    17.6921  17.6921  17.7294  17.7295  17.9494  17.9494  17.9714  17.9714
    19.7896  19.7897  19.8035  19.8036  19.8830  19.8831  19.9197  19.9199
    19.9602  19.9603  19.9774  19.9775  19.9832  19.9832  20.0084  20.0085
    20.1606  20.1606  20.1724  20.1724  20.4616  20.4618  20.4777  20.4779
    20.5418  20.5419  20.5490  20.5490  20.5885  20.5886  20.5897  20.5897
    20.8848  20.8849  20.8865  20.8866  21.6192

     the Fermi energy is    19.2280 ev

!    total energy              =   -4943.23510338 Ry
     total all-electron energy =    -38952.924214 Ry
     estimated scf accuracy    <       0.00000045 Ry
     smearing contrib. (-TS)   =      -0.00887055 Ry
     internal energy E=F+TS    =   -4943.22623283 Ry

     The total energy is F=E-TS. E is the sum of the following terms:
     one-electron contribution =   -1529.74998438 Ry
     hartree contribution      =     922.95561708 Ry
     xc contribution           =    -422.00313894 Ry
     ewald contribution        =   -2624.09369826 Ry
     one-center paw contrib.   =   -1290.33502834 Ry

     total magnetization       =    20.86 Bohr mag/cell
     absolute magnetization    =    29.05 Bohr mag/cell

     convergence has been achieved in  71 iterations


     Computing stress (Cartesian axis) and pressure


     negative rho (up, down):  0.000E+00 1.715E-03
          total   stress  (Ry/bohr**3)                   (kbar)     P=     -663.76
  -0.00442434   0.00019261   0.00000000         -650.84       28.33        0.00
   0.00019261  -0.00455643   0.00000000           28.33     -670.27        0.00
   0.00000000   0.00000000  -0.00455567            0.00        0.00     -670.16


     Writing all to output data dir ./tmp/fe12cr04_shear_-0.01.save/ :
     XML data file, charge density, pseudopotentials, collected wavefunctions

     init_run     :    103.72s CPU    107.41s WALL (       1 calls)
     electrons    :  23068.14s CPU  23426.62s WALL (       1 calls)
     stress       :    225.08s CPU    225.68s WALL (       1 calls)

     Called by init_run:
     wfcinit      :     98.59s CPU    100.66s WALL (       1 calls)
     potinit      :      3.48s CPU      4.51s WALL (       1 calls)
     hinit0       :      0.71s CPU      0.81s WALL (       1 calls)

     Called by electrons:
     c_bands      :  21066.30s CPU  21300.54s WALL (      71 calls)
     sum_band     :   1697.15s CPU   1748.82s WALL (      71 calls)
     v_of_rho     :     15.87s CPU     11.26s WALL (      72 calls)
     newd         :     66.54s CPU     94.81s WALL (      72 calls)
     PAW_pot      :    221.76s CPU    271.27s WALL (      72 calls)
     mix_rho      :      3.03s CPU      3.47s WALL (      71 calls)

     Called by c_bands:
     init_us_2    :     59.58s CPU     57.87s WALL (    8640 calls)
     cegterg      :  20810.77s CPU  21036.95s WALL (    4260 calls)

     Called by *egterg:
     cdiaghg      :   1994.42s CPU   2019.94s WALL (   19951 calls)
     h_psi        :   6640.51s CPU   6787.25s WALL (   20011 calls)
     s_psi        :   2444.96s CPU   2463.47s WALL (   20011 calls)
     g_psi        :      7.23s CPU      7.92s WALL (   15691 calls)

     Called by h_psi:
     h_psi:calbec :   2550.64s CPU   2568.04s WALL (   20011 calls)
     vloc_psi     :   1635.25s CPU   1753.92s WALL (   20011 calls)
                                        0.00s GPU  (   20011 calls)
     add_vuspsi   :   2438.59s CPU   2419.44s WALL (   20011 calls)

     General routines
     calbec       :   3919.66s CPU   3937.89s WALL (   25051 calls)
     fft          :      9.57s CPU      6.62s WALL (    1819 calls)
     ffts         :      0.37s CPU      0.43s WALL (     286 calls)
     fftw         :   1872.23s CPU   1999.65s WALL ( 3431492 calls)
     interpolate  :      1.04s CPU      1.25s WALL (     144 calls)

     Parallel routines

     PWSCF        :      6h29m CPU      6h36m WALL


   This run was terminated on:  16:15: 7  27Apr2026            

=------------------------------------------------------------------------------=
   JOB DONE.
=------------------------------------------------------------------------------=
