
     Program PWSCF v.7.5 starts on 26Apr2026 at 16:12:28 

     This program is part of the open-source Quantum ESPRESSO suite
     for quantum simulation of materials; please cite
         "P. Giannozzi et al., J. Phys.:Condens. Matter 21 395502 (2009);
         "P. Giannozzi et al., J. Phys.:Condens. Matter 29 465901 (2017);
         "P. Giannozzi et al., J. Chem. Phys. 152 154105 (2020);
          URL http://www.quantum-espresso.org", 
     in publications or presentations arising from this work. More details at
     http://www.quantum-espresso.org/quote

     Parallel version (MPI), running on     4 processors

     MPI processes distributed on     1 nodes
     780 MiB available memory on the printing compute node when the environment starts

     Waiting for input...
     Reading input from standard input

     Current dimensions of program PWSCF are:
     Max number of different atomic species (ntypx) = 10
     Max number of k-points (npk) =  40000
     Max angular momentum in pseudopotentials (lmaxx) =  4
     file Fe.pbe-spn-kjpaw_psl.1.0.0.UPF: wavefunction(s)  3P 3D renormalized
     file Cr.pbe-spn-kjpaw_psl.1.0.0.UPF: wavefunction(s)  3S 3P 3D renormalized
     Found identity + (  0.0000 -0.5000 -0.5000) symmetry
     This is a supercell, fractional translations are disabled
     Message from routine setup:
     using ibrav=0 with symmetry is DISCOURAGED, use correct ibrav instead

     R & G space division:  proc/nbgrp/npool/nimage =       4
     Subspace diagonalization in iterative solution of the eigenvalue problem:
     a serial algorithm will be used


     Parallelization info
     --------------------
     sticks:   dense  smooth     PW     G-vecs:    dense   smooth      PW
     Min         816     404    120                35058    12376    1952
     Max         817     405    121                35059    12381    1953
     Sum        3265    1617    481               140233    49509    7809

     Using Slab Decomposition



     bravais-lattice index     =            0
     lattice parameter (alat)  =      10.6773  a.u.
     unit-cell volume          =    1217.2571 (a.u.)^3
     number of atoms/cell      =           16
     number of atomic types    =            2
     number of electrons       =       248.00
     number of Kohn-Sham states=          149
     kinetic-energy cutoff     =      45.0000  Ry
     charge density cutoff     =     360.0000  Ry
     scf convergence threshold =      1.0E-06
     mixing beta               =       0.3000
     number of iterations used =            8  plain     mixing
     Exchange-correlation= SLA  PW   PBX  PBC
                           (   1   4   3   4   0   0   0)

     celldm(1)=  10.677283  celldm(2)=   0.000000  celldm(3)=   0.000000
     celldm(4)=   0.000000  celldm(5)=   0.000000  celldm(6)=   0.000000

     crystal axes: (cart. coord. in units of alat)
               a(1) = (   1.000000   0.000000   0.000000 )  
               a(2) = (   0.000000   1.000000   0.000000 )  
               a(3) = (   0.000000   0.000000   1.000000 )  

     reciprocal axes: (cart. coord. in units 2 pi/alat)
               b(1) = (  1.000000  0.000000  0.000000 )  
               b(2) = (  0.000000  1.000000  0.000000 )  
               b(3) = (  0.000000  0.000000  1.000000 )  


     PseudoPot. # 1 for Fe read from file:
     ./pseudo/Fe.pbe-spn-kjpaw_psl.1.0.0.UPF
     MD5 check sum: fc81f059e5c5069939230b1155715ae8
     Pseudo is Projector augmented-wave + core cor, Zval = 16.0
     Generated using &quot;atomic&quot; code by A. Dal Corso  v.6.3
     Shape of augmentation charge: PSQ
     Using radial grid of 1191 points,  6 beta functions with: 
                l(1) =   0
                l(2) =   0
                l(3) =   1
                l(4) =   1
                l(5) =   2
                l(6) =   2
     Q(r) pseudized with 0 coefficients 


     PseudoPot. # 2 for Cr read from file:
     ./pseudo/Cr.pbe-spn-kjpaw_psl.1.0.0.UPF
     MD5 check sum: 198f1a2427a48552563eee314eba32ba
     Pseudo is Projector augmented-wave + core cor, Zval = 14.0
     Generated using &quot;atomic&quot; code by A. Dal Corso  v.6.3
     Shape of augmentation charge: PSQ
     Using radial grid of 1183 points,  6 beta functions with: 
                l(1) =   0
                l(2) =   0
                l(3) =   1
                l(4) =   1
                l(5) =   2
                l(6) =   2
     Q(r) pseudized with 0 coefficients 


     atomic species   valence    mass     pseudopotential
     Fe               16.00    55.84500     Fe( 1.00)
     Cr               14.00    51.99600     Cr( 1.00)

     Starting magnetic structure 
     atomic species   magnetization
     Fe              0.500
     Cr              0.300

     16 Sym. Ops., with inversion, found



   Cartesian axes

     site n.     atom                  positions (alat units)
         1        Cr     tau(   1) = (   0.0000000   0.0000000   0.0000000  )
         2        Fe     tau(   2) = (   0.2500000   0.2500000   0.2500000  )
         3        Fe     tau(   3) = (   0.0000000   0.0000000   0.5000000  )
         4        Fe     tau(   4) = (   0.2500000   0.2500000   0.7500000  )
         5        Fe     tau(   5) = (   0.0000000   0.5000000   0.0000000  )
         6        Fe     tau(   6) = (   0.2500000   0.7500000   0.2500000  )
         7        Cr     tau(   7) = (   0.0000000   0.5000000   0.5000000  )
         8        Fe     tau(   8) = (   0.2500000   0.7500000   0.7500000  )
         9        Cr     tau(   9) = (   0.5000000   0.0000000   0.0000000  )
        10        Fe     tau(  10) = (   0.7500000   0.2500000   0.2500000  )
        11        Fe     tau(  11) = (   0.5000000   0.0000000   0.5000000  )
        12        Fe     tau(  12) = (   0.7500000   0.2500000   0.7500000  )
        13        Fe     tau(  13) = (   0.5000000   0.5000000   0.0000000  )
        14        Fe     tau(  14) = (   0.7500000   0.7500000   0.2500000  )
        15        Cr     tau(  15) = (   0.5000000   0.5000000   0.5000000  )
        16        Fe     tau(  16) = (   0.7500000   0.7500000   0.7500000  )

     number of k points=    18  Marzari-Vanderbilt smearing, width (Ry)=  0.0200
                       cart. coord. in units 2pi/alat
        k(    1) = (   0.0000000   0.0000000   0.0000000), wk =   0.0156250
        k(    2) = (   0.0000000   0.0000000   0.2500000), wk =   0.0625000
        k(    3) = (   0.0000000   0.0000000  -0.5000000), wk =   0.0312500
        k(    4) = (   0.0000000   0.2500000   0.2500000), wk =   0.0625000
        k(    5) = (   0.0000000   0.2500000  -0.5000000), wk =   0.0625000
        k(    6) = (   0.0000000  -0.5000000  -0.5000000), wk =   0.0156250
        k(    7) = (   0.2500000   0.2500000   0.2500000), wk =   0.1250000
        k(    8) = (   0.2500000   0.2500000  -0.5000000), wk =   0.1250000
        k(    9) = (   0.2500000  -0.5000000  -0.5000000), wk =   0.0312500
        k(   10) = (  -0.5000000  -0.5000000  -0.5000000), wk =   0.0156250
        k(   11) = (   0.2500000   0.0000000   0.0000000), wk =   0.0312500
        k(   12) = (  -0.5000000   0.0000000   0.0000000), wk =   0.0156250
        k(   13) = (   0.2500000   0.2500000   0.0000000), wk =   0.1250000
        k(   14) = (   0.2500000  -0.5000000   0.0000000), wk =   0.0625000
        k(   15) = (  -0.5000000   0.0000000   0.2500000), wk =   0.0625000
        k(   16) = (  -0.5000000  -0.5000000   0.0000000), wk =   0.0312500
        k(   17) = (  -0.5000000   0.2500000   0.2500000), wk =   0.0625000
        k(   18) = (  -0.5000000  -0.5000000   0.2500000), wk =   0.0625000

     Dense  grid:   140233 G-vectors     FFT dimensions: (  72,  72,  72)

     Smooth grid:    49509 G-vectors     FFT dimensions: (  45,  45,  45)

     Estimated max dynamical RAM per process >     284.80 MB

     Estimated total dynamical RAM >       1.11 GB

     Check: negative core charge=   -0.000004
     Generating pointlists ...
     new r_m :   0.1786 (alat units)  1.9072 (a.u.) for type    1
     new r_m :   0.1786 (alat units)  1.9072 (a.u.) for type    2

     Initial potential from superposition of free atoms

     starting charge     247.9917, renormalised to     248.0000
     Starting wfcs are  160 randomized atomic wfcs
     Checking if some PAW data can be deallocated... 

     total cpu time spent up to now is       66.8 secs

     Self-consistent Calculation

     iteration #  1     ecut=    45.00 Ry     beta= 0.30
     Davidson diagonalization with overlap
     ethr =  1.00E-02,  avg # of iterations =  2.8

     total cpu time spent up to now is      287.8 secs

     total energy              =   -4937.18334035 Ry
     estimated scf accuracy    <      11.99903082 Ry

     total magnetization       =    49.94 Bohr mag/cell
     absolute magnetization    =    50.60 Bohr mag/cell

     iteration #  2     ecut=    45.00 Ry     beta= 0.30
     Davidson diagonalization with overlap
     ethr =  4.84E-03,  avg # of iterations =  5.6

     total cpu time spent up to now is      506.8 secs

     total energy              =   -4938.41805836 Ry
     estimated scf accuracy    <      50.07165509 Ry

     total magnetization       =    28.01 Bohr mag/cell
     absolute magnetization    =    29.41 Bohr mag/cell

     iteration #  3     ecut=    45.00 Ry     beta= 0.30
     Davidson diagonalization with overlap
     ethr =  4.84E-03,  avg # of iterations =  2.9

     negative rho (up, down):  0.000E+00 1.682E-03

     total cpu time spent up to now is      695.4 secs

     total energy              =   -4940.16432544 Ry
     estimated scf accuracy    <       9.09006544 Ry

     total magnetization       =    39.94 Bohr mag/cell
     absolute magnetization    =    40.68 Bohr mag/cell

     iteration #  4     ecut=    45.00 Ry     beta= 0.30
     Davidson diagonalization with overlap
     ethr =  3.67E-03,  avg # of iterations =  4.6

     negative rho (up, down):  0.000E+00 6.052E-03

     total cpu time spent up to now is      909.9 secs

     total energy              =   -4942.73579447 Ry
     estimated scf accuracy    <       8.82957309 Ry

     total magnetization       =    45.94 Bohr mag/cell
     absolute magnetization    =    46.46 Bohr mag/cell

     iteration #  5     ecut=    45.00 Ry     beta= 0.30
     Davidson diagonalization with overlap
     ethr =  3.56E-03,  avg # of iterations =  4.2

     negative rho (up, down):  0.000E+00 6.720E-03

     total cpu time spent up to now is     1112.6 secs

     total energy              =   -4943.26285648 Ry
     estimated scf accuracy    <      25.56446270 Ry

     total magnetization       =    41.66 Bohr mag/cell
     absolute magnetization    =    42.35 Bohr mag/cell

     iteration #  6     ecut=    45.00 Ry     beta= 0.30
     Davidson diagonalization with overlap
     ethr =  3.56E-03,  avg # of iterations =  1.4

     negative rho (up, down):  0.000E+00 6.789E-03

     total cpu time spent up to now is     1275.0 secs

     total energy              =   -4943.16512779 Ry
     estimated scf accuracy    <      16.77301473 Ry

     total magnetization       =    35.29 Bohr mag/cell
     absolute magnetization    =    36.51 Bohr mag/cell

     iteration #  7     ecut=    45.00 Ry     beta= 0.30
     Davidson diagonalization with overlap
     ethr =  3.56E-03,  avg # of iterations =  1.1

     negative rho (up, down):  0.000E+00 6.711E-03

     total cpu time spent up to now is     1436.3 secs

     total energy              =   -4943.24497578 Ry
     estimated scf accuracy    <       7.33866644 Ry

     total magnetization       =    32.79 Bohr mag/cell
     absolute magnetization    =    34.22 Bohr mag/cell

     iteration #  8     ecut=    45.00 Ry     beta= 0.30
     Davidson diagonalization with overlap
     ethr =  2.96E-03,  avg # of iterations =  1.0

     negative rho (up, down):  0.000E+00 6.541E-03

     total cpu time spent up to now is     1593.9 secs

     total energy              =   -4943.20417557 Ry
     estimated scf accuracy    <       4.82580097 Ry

     total magnetization       =    30.67 Bohr mag/cell
     absolute magnetization    =    32.36 Bohr mag/cell

     iteration #  9     ecut=    45.00 Ry     beta= 0.30
     Davidson diagonalization with overlap
     ethr =  1.95E-03,  avg # of iterations =  1.1

     negative rho (up, down):  0.000E+00 6.252E-03

     total cpu time spent up to now is     1749.2 secs

     total energy              =   -4943.20511128 Ry
     estimated scf accuracy    <       2.90435172 Ry

     total magnetization       =    28.60 Bohr mag/cell
     absolute magnetization    =    30.56 Bohr mag/cell

     iteration # 10     ecut=    45.00 Ry     beta= 0.30
     Davidson diagonalization with overlap
     ethr =  1.17E-03,  avg # of iterations =  1.4

     negative rho (up, down):  0.000E+00 4.655E-03

     total cpu time spent up to now is     1911.8 secs

     total energy              =   -4943.15771513 Ry
     estimated scf accuracy    <       1.82753672 Ry

     total magnetization       =    27.20 Bohr mag/cell
     absolute magnetization    =    29.27 Bohr mag/cell

     iteration # 11     ecut=    45.00 Ry     beta= 0.30
     Davidson diagonalization with overlap
     ethr =  7.37E-04,  avg # of iterations =  1.4

     negative rho (up, down):  0.000E+00 3.997E-03

     total cpu time spent up to now is     2076.8 secs

     total energy              =   -4943.17165352 Ry
     estimated scf accuracy    <       0.71885506 Ry

     total magnetization       =    24.45 Bohr mag/cell
     absolute magnetization    =    26.81 Bohr mag/cell

     iteration # 12     ecut=    45.00 Ry     beta= 0.30
     Davidson diagonalization with overlap
     ethr =  2.90E-04,  avg # of iterations =  2.4

     negative rho (up, down):  0.000E+00 2.953E-03

     total cpu time spent up to now is     2252.6 secs

     total energy              =   -4943.17772702 Ry
     estimated scf accuracy    <       0.89745571 Ry

     total magnetization       =    23.98 Bohr mag/cell
     absolute magnetization    =    26.59 Bohr mag/cell

     iteration # 13     ecut=    45.00 Ry     beta= 0.30
     Davidson diagonalization with overlap
     ethr =  2.90E-04,  avg # of iterations =  1.9

     negative rho (up, down):  0.000E+00 2.527E-03

     total cpu time spent up to now is     2420.5 secs

     total energy              =   -4943.20986413 Ry
     estimated scf accuracy    <       0.04815917 Ry

     total magnetization       =    23.58 Bohr mag/cell
     absolute magnetization    =    26.10 Bohr mag/cell

     iteration # 14     ecut=    45.00 Ry     beta= 0.30
     Davidson diagonalization with overlap
     ethr =  1.94E-05,  avg # of iterations =  7.9

     negative rho (up, down):  0.000E+00 1.920E-03

     total cpu time spent up to now is     2645.8 secs

     total energy              =   -4943.22105055 Ry
     estimated scf accuracy    <       0.06471380 Ry

     total magnetization       =    22.81 Bohr mag/cell
     absolute magnetization    =    25.43 Bohr mag/cell

     iteration # 15     ecut=    45.00 Ry     beta= 0.30
     Davidson diagonalization with overlap
     ethr =  1.94E-05,  avg # of iterations =  1.0

     negative rho (up, down):  0.000E+00 1.923E-03

     total cpu time spent up to now is     2803.3 secs

     total energy              =   -4943.22338196 Ry
     estimated scf accuracy    <       0.01441389 Ry

     total magnetization       =    23.21 Bohr mag/cell
     absolute magnetization    =    25.86 Bohr mag/cell

     iteration # 16     ecut=    45.00 Ry     beta= 0.30
     Davidson diagonalization with overlap
     ethr =  5.81E-06,  avg # of iterations =  3.7

     negative rho (up, down):  0.000E+00 1.724E-03

     total cpu time spent up to now is     2987.9 secs

     total energy              =   -4943.22563720 Ry
     estimated scf accuracy    <       0.00540411 Ry

     total magnetization       =    23.24 Bohr mag/cell
     absolute magnetization    =    26.00 Bohr mag/cell

     iteration # 17     ecut=    45.00 Ry     beta= 0.30
     Davidson diagonalization with overlap
     ethr =  2.18E-06,  avg # of iterations =  5.3

     negative rho (up, down):  0.000E+00 1.484E-03

     total cpu time spent up to now is     3193.4 secs

     total energy              =   -4943.22795698 Ry
     estimated scf accuracy    <       0.00952609 Ry

     total magnetization       =    23.11 Bohr mag/cell
     absolute magnetization    =    26.08 Bohr mag/cell

     iteration # 18     ecut=    45.00 Ry     beta= 0.30
     Davidson diagonalization with overlap
     ethr =  2.18E-06,  avg # of iterations =  4.2

     negative rho (up, down):  0.000E+00 1.539E-03

     total cpu time spent up to now is     3398.4 secs

     total energy              =   -4943.22864880 Ry
     estimated scf accuracy    <       0.00640799 Ry

     total magnetization       =    22.81 Bohr mag/cell
     absolute magnetization    =    26.26 Bohr mag/cell

     iteration # 19     ecut=    45.00 Ry     beta= 0.30
     Davidson diagonalization with overlap
     ethr =  2.18E-06,  avg # of iterations =  4.3

     negative rho (up, down):  0.000E+00 1.566E-03

     total cpu time spent up to now is     3592.7 secs

     total energy              =   -4943.22908425 Ry
     estimated scf accuracy    <       0.02063347 Ry

     total magnetization       =    22.84 Bohr mag/cell
     absolute magnetization    =    26.23 Bohr mag/cell

     iteration # 20     ecut=    45.00 Ry     beta= 0.30
     Davidson diagonalization with overlap
     ethr =  2.18E-06,  avg # of iterations =  4.1

     negative rho (up, down):  0.000E+00 1.422E-03

     total cpu time spent up to now is     3783.6 secs

     total energy              =   -4943.23031131 Ry
     estimated scf accuracy    <       0.00907524 Ry

     total magnetization       =    22.66 Bohr mag/cell
     absolute magnetization    =    26.26 Bohr mag/cell

     iteration # 21     ecut=    45.00 Ry     beta= 0.30
     Davidson diagonalization with overlap
     ethr =  2.18E-06,  avg # of iterations =  3.9

     negative rho (up, down):  0.000E+00 1.391E-03

     total cpu time spent up to now is     3983.3 secs

     total energy              =   -4943.23213985 Ry
     estimated scf accuracy    <       0.00210385 Ry

     total magnetization       =    22.16 Bohr mag/cell
     absolute magnetization    =    26.48 Bohr mag/cell

     iteration # 22     ecut=    45.00 Ry     beta= 0.30
     Davidson diagonalization with overlap
     ethr =  8.48E-07,  avg # of iterations =  5.6

     negative rho (up, down):  0.000E+00 1.514E-03

     total cpu time spent up to now is     4202.5 secs

     total energy              =   -4943.23297024 Ry
     estimated scf accuracy    <       0.00112646 Ry

     total magnetization       =    22.06 Bohr mag/cell
     absolute magnetization    =    26.74 Bohr mag/cell

     iteration # 23     ecut=    45.00 Ry     beta= 0.30
     Davidson diagonalization with overlap
     ethr =  4.54E-07,  avg # of iterations =  4.0

     negative rho (up, down):  0.000E+00 1.524E-03

     total cpu time spent up to now is     4400.3 secs

     total energy              =   -4943.23325892 Ry
     estimated scf accuracy    <       0.00202129 Ry

     total magnetization       =    21.88 Bohr mag/cell
     absolute magnetization    =    26.88 Bohr mag/cell

     iteration # 24     ecut=    45.00 Ry     beta= 0.30
     Davidson diagonalization with overlap
     ethr =  4.54E-07,  avg # of iterations =  2.5

     negative rho (up, down):  0.000E+00 1.573E-03

     total cpu time spent up to now is     4584.0 secs

     total energy              =   -4943.23360395 Ry
     estimated scf accuracy    <       0.00052014 Ry

     total magnetization       =    21.82 Bohr mag/cell
     absolute magnetization    =    26.96 Bohr mag/cell

     iteration # 25     ecut=    45.00 Ry     beta= 0.30
     Davidson diagonalization with overlap
     ethr =  2.10E-07,  avg # of iterations =  5.5

     negative rho (up, down):  0.000E+00 1.674E-03

     total cpu time spent up to now is     4794.8 secs

     total energy              =   -4943.23387417 Ry
     estimated scf accuracy    <       0.00034586 Ry

     total magnetization       =    21.70 Bohr mag/cell
     absolute magnetization    =    27.15 Bohr mag/cell

     iteration # 26     ecut=    45.00 Ry     beta= 0.30
     Davidson diagonalization with overlap
     ethr =  1.39E-07,  avg # of iterations =  6.0

     negative rho (up, down):  0.000E+00 1.670E-03

     total cpu time spent up to now is     5046.4 secs

     total energy              =   -4943.23436963 Ry
     estimated scf accuracy    <       0.00031030 Ry

     total magnetization       =    21.51 Bohr mag/cell
     absolute magnetization    =    27.57 Bohr mag/cell

     iteration # 27     ecut=    45.00 Ry     beta= 0.30
     Davidson diagonalization with overlap
     ethr =  1.25E-07,  avg # of iterations =  5.3

     negative rho (up, down):  0.000E+00 1.688E-03

     total cpu time spent up to now is     5293.8 secs

     total energy              =   -4943.23496555 Ry
     estimated scf accuracy    <       0.00047152 Ry

     total magnetization       =    21.34 Bohr mag/cell
     absolute magnetization    =    28.00 Bohr mag/cell

     iteration # 28     ecut=    45.00 Ry     beta= 0.30
     Davidson diagonalization with overlap
     ethr =  1.25E-07,  avg # of iterations =  2.8

     negative rho (up, down):  0.000E+00 1.690E-03

     total cpu time spent up to now is     5483.7 secs

     total energy              =   -4943.23504476 Ry
     estimated scf accuracy    <       0.00028799 Ry

     total magnetization       =    21.32 Bohr mag/cell
     absolute magnetization    =    28.09 Bohr mag/cell

     iteration # 29     ecut=    45.00 Ry     beta= 0.30
     Davidson diagonalization with overlap
     ethr =  1.16E-07,  avg # of iterations =  5.5

     negative rho (up, down):  0.000E+00 1.686E-03

     total cpu time spent up to now is     5696.3 secs

     total energy              =   -4943.23515161 Ry
     estimated scf accuracy    <       0.00126745 Ry

     total magnetization       =    21.25 Bohr mag/cell
     absolute magnetization    =    28.25 Bohr mag/cell

     iteration # 30     ecut=    45.00 Ry     beta= 0.30
     Davidson diagonalization with overlap
     ethr =  1.16E-07,  avg # of iterations =  4.7

     negative rho (up, down):  0.000E+00 1.686E-03

     total cpu time spent up to now is     5893.3 secs

     total energy              =   -4943.23513992 Ry
     estimated scf accuracy    <       0.00019745 Ry

     total magnetization       =    21.23 Bohr mag/cell
     absolute magnetization    =    28.35 Bohr mag/cell

     iteration # 31     ecut=    45.00 Ry     beta= 0.30
     Davidson diagonalization with overlap
     ethr =  7.96E-08,  avg # of iterations =  5.5

     negative rho (up, down):  0.000E+00 1.673E-03

     total cpu time spent up to now is     6129.1 secs

     total energy              =   -4943.23531726 Ry
     estimated scf accuracy    <       0.00032586 Ry

     total magnetization       =    21.06 Bohr mag/cell
     absolute magnetization    =    28.58 Bohr mag/cell

     iteration # 32     ecut=    45.00 Ry     beta= 0.30
     Davidson diagonalization with overlap
     ethr =  7.96E-08,  avg # of iterations =  2.6

     negative rho (up, down):  0.000E+00 1.672E-03

     total cpu time spent up to now is     6316.0 secs

     total energy              =   -4943.23524299 Ry
     estimated scf accuracy    <       0.00009372 Ry

     total magnetization       =    21.12 Bohr mag/cell
     absolute magnetization    =    28.54 Bohr mag/cell

     iteration # 33     ecut=    45.00 Ry     beta= 0.30
     Davidson diagonalization with overlap
     ethr =  3.78E-08,  avg # of iterations =  5.8

     negative rho (up, down):  0.000E+00 1.685E-03

     total cpu time spent up to now is     6564.8 secs

     total energy              =   -4943.23544038 Ry
     estimated scf accuracy    <       0.00003740 Ry

     total magnetization       =    20.98 Bohr mag/cell
     absolute magnetization    =    28.77 Bohr mag/cell

     iteration # 34     ecut=    45.00 Ry     beta= 0.30
     Davidson diagonalization with overlap
     ethr =  1.51E-08,  avg # of iterations =  5.2

     negative rho (up, down):  0.000E+00 1.678E-03

     total cpu time spent up to now is     6798.5 secs

     total energy              =   -4943.23548809 Ry
     estimated scf accuracy    <       0.00004687 Ry

     total magnetization       =    20.91 Bohr mag/cell
     absolute magnetization    =    28.86 Bohr mag/cell

     iteration # 35     ecut=    45.00 Ry     beta= 0.30
     Davidson diagonalization with overlap
     ethr =  1.51E-08,  avg # of iterations =  2.0

     negative rho (up, down):  0.000E+00 1.689E-03

     total cpu time spent up to now is     6982.3 secs

     total energy              =   -4943.23547776 Ry
     estimated scf accuracy    <       0.00004470 Ry

     total magnetization       =    20.89 Bohr mag/cell
     absolute magnetization    =    28.88 Bohr mag/cell

     iteration # 36     ecut=    45.00 Ry     beta= 0.30
     Davidson diagonalization with overlap
     ethr =  1.51E-08,  avg # of iterations =  5.3

     negative rho (up, down):  0.000E+00 1.691E-03

     total cpu time spent up to now is     7205.7 secs

     total energy              =   -4943.23551149 Ry
     estimated scf accuracy    <       0.00002029 Ry

     total magnetization       =    20.84 Bohr mag/cell
     absolute magnetization    =    28.95 Bohr mag/cell

     iteration # 37     ecut=    45.00 Ry     beta= 0.30
     Davidson diagonalization with overlap
     ethr =  8.18E-09,  avg # of iterations =  2.9

     negative rho (up, down):  0.000E+00 1.690E-03

     total cpu time spent up to now is     7398.4 secs

     total energy              =   -4943.23551569 Ry
     estimated scf accuracy    <       0.00001347 Ry

     total magnetization       =    20.85 Bohr mag/cell
     absolute magnetization    =    28.94 Bohr mag/cell

     iteration # 38     ecut=    45.00 Ry     beta= 0.30
     Davidson diagonalization with overlap
     ethr =  5.43E-09,  avg # of iterations =  2.9

     negative rho (up, down):  0.000E+00 1.691E-03

     total cpu time spent up to now is     7587.6 secs

     total energy              =   -4943.23551039 Ry
     estimated scf accuracy    <       0.00002965 Ry

     total magnetization       =    20.85 Bohr mag/cell
     absolute magnetization    =    28.95 Bohr mag/cell

     iteration # 39     ecut=    45.00 Ry     beta= 0.30
     Davidson diagonalization with overlap
     ethr =  5.43E-09,  avg # of iterations =  5.0

     negative rho (up, down):  0.000E+00 1.691E-03

     total cpu time spent up to now is     7823.2 secs

     total energy              =   -4943.23548948 Ry
     estimated scf accuracy    <       0.00001574 Ry

     total magnetization       =    20.83 Bohr mag/cell
     absolute magnetization    =    29.00 Bohr mag/cell

     iteration # 40     ecut=    45.00 Ry     beta= 0.30
     Davidson diagonalization with overlap
     ethr =  5.43E-09,  avg # of iterations =  5.5

     negative rho (up, down):  0.000E+00 1.695E-03

     total cpu time spent up to now is     8064.6 secs

     total energy              =   -4943.23549123 Ry
     estimated scf accuracy    <       0.00001724 Ry

     total magnetization       =    20.90 Bohr mag/cell
     absolute magnetization    =    28.93 Bohr mag/cell

     iteration # 41     ecut=    45.00 Ry     beta= 0.30
     Davidson diagonalization with overlap
     ethr =  5.43E-09,  avg # of iterations =  5.5

     negative rho (up, down):  0.000E+00 1.698E-03

     total cpu time spent up to now is     8316.3 secs

     total energy              =   -4943.23552281 Ry
     estimated scf accuracy    <       0.00000302 Ry

     total magnetization       =    20.85 Bohr mag/cell
     absolute magnetization    =    29.03 Bohr mag/cell

     iteration # 42     ecut=    45.00 Ry     beta= 0.30
     Davidson diagonalization with overlap
     ethr =  1.22E-09,  avg # of iterations =  5.2

     negative rho (up, down):  0.000E+00 1.709E-03

     Magnetic moment per site  (integrated on atomic sphere of radius R)
     atom   1 (R=0.179)  charge= 12.1074  magn= -0.7622
     atom   2 (R=0.179)  charge= 14.4253  magn=  1.9504
     atom   3 (R=0.179)  charge= 14.3944  magn=  2.2752
     atom   4 (R=0.179)  charge= 14.4253  magn=  1.9504
     atom   5 (R=0.179)  charge= 14.3944  magn=  2.2752
     atom   6 (R=0.179)  charge= 14.4253  magn=  1.9504
     atom   7 (R=0.179)  charge= 12.1080  magn= -0.7605
     atom   8 (R=0.179)  charge= 14.4253  magn=  1.9504
     atom   9 (R=0.179)  charge= 12.1074  magn= -0.7634
     atom  10 (R=0.179)  charge= 14.4253  magn=  1.9504
     atom  11 (R=0.179)  charge= 14.3945  magn=  2.2752
     atom  12 (R=0.179)  charge= 14.4253  magn=  1.9504
     atom  13 (R=0.179)  charge= 14.3945  magn=  2.2752
     atom  14 (R=0.179)  charge= 14.4253  magn=  1.9504
     atom  15 (R=0.179)  charge= 12.1076  magn= -0.7643
     atom  16 (R=0.179)  charge= 14.4253  magn=  1.9504

     total cpu time spent up to now is     8541.5 secs

     End of self-consistent calculation

 ------ SPIN UP ------------


          k = 0.0000 0.0000 0.0000 (  6187 PWs)   bands (ev):

   -69.3110 -69.2878 -69.2819 -69.2818 -69.1990 -69.1990 -69.1990 -69.1930
   -69.1930 -69.1930 -69.1869 -69.1807 -52.3998 -52.3979 -52.3807 -52.3801
   -35.4614 -35.4406 -35.4406 -35.4318 -35.4318 -35.3223 -35.3223 -35.3142
   -35.3030 -35.3022 -35.3022 -35.2931 -35.2919 -35.2582 -35.2533 -35.2533
   -35.2494 -35.2494 -35.2441 -35.2366 -35.2268 -35.2193 -35.2095 -35.1904
   -35.1904 -35.1808 -35.1526 -35.1526 -35.1406 -35.1310 -35.1187 -35.1187
   -35.1030 -35.0393 -35.0393 -35.0197 -23.8310 -23.8160 -23.7415 -23.7415
   -23.7243 -23.7243 -23.7170 -23.7170 -23.7126 -23.7126 -23.6547 -23.6478
    10.4717  13.9611  13.9733  13.9733  14.0419  14.0655  14.1094  14.1614
    14.2153  14.2153  14.2309  14.2315  14.2599  14.4290  14.5671  15.4747
    15.6736  15.6736  15.7497  15.7497  15.7717  15.7717  15.7767  15.7798
    15.7798  15.7968  15.8977  15.8977  15.9124  15.9429  16.1212  16.3129
    16.9054  16.9118  16.9290  16.9290  16.9365  17.0208  17.0450  17.0450
    17.0685  17.0685  17.0729  17.2613  17.2613  17.7247  17.8086  17.8229
    17.8629  17.8683  17.9176  17.9985  18.0363  18.0441  18.0441  18.1502
    18.1547  18.1633  18.1633  18.1655  18.1656  18.1656  18.6245  18.9299
    19.0857  19.1654  19.1654  19.1705  19.2322  19.2322  19.2405  19.3276
    19.4946  19.4946  19.4976  19.5028  19.5028  19.6356  19.6356  19.8216
    19.8844  20.0535  20.0848  20.1513  20.2391

          k = 0.0000 0.0000 0.2500 (  6179 PWs)   bands (ev):

   -69.3079 -69.2915 -69.2820 -69.2819 -69.1979 -69.1979 -69.1956 -69.1939
   -69.1939 -69.1922 -69.1882 -69.1830 -52.3994 -52.3981 -52.3807 -52.3802
   -35.4462 -35.4335 -35.4281 -35.4222 -35.4204 -35.3478 -35.3420 -35.3412
   -35.3378 -35.3339 -35.3087 -35.2892 -35.2884 -35.2616 -35.2613 -35.2592
   -35.2590 -35.2483 -35.2339 -35.2305 -35.2145 -35.2000 -35.1819 -35.1797
   -35.1655 -35.1636 -35.1507 -35.1349 -35.1342 -35.1274 -35.1189 -35.1144
   -35.1083 -35.0565 -35.0498 -35.0339 -23.8294 -23.8189 -23.7379 -23.7372
   -23.7274 -23.7271 -23.7180 -23.7169 -23.7140 -23.7131 -23.6525 -23.6482
    10.8024  13.0595  14.0531  14.0668  14.1451  14.1810  14.2202  14.2486
    14.3063  14.3234  14.3525  14.3542  14.4900  14.4975  14.8004  15.2923
    15.4876  15.5241  15.5638  15.5939  15.6197  15.7175  15.8077  15.8090
    15.8153  15.8254  15.9142  16.0036  16.2394  16.2511  16.2944  16.3140
    16.6558  16.8127  16.8639  16.8862  16.8995  16.9274  16.9341  16.9775
    17.0204  17.1058  17.3263  17.3268  17.3656  17.3680  17.5557  17.5690
    17.5862  17.6937  17.7483  17.7683  17.9022  17.9063  18.0494  18.0516
    18.0894  18.1282  18.1740  18.1975  18.1987  18.2922  18.5423  18.6505
    18.7554  18.8710  18.9081  18.9766  18.9870  19.0723  19.1210  19.3230
    19.3493  19.3796  19.3855  19.5055  19.8458  19.8499  19.8540  19.8963
    19.9713  20.0356  20.0767  20.1294  20.6705

          k = 0.0000 0.0000-0.5000 (  6174 PWs)   bands (ev):

   -69.3001 -69.3001 -69.2820 -69.2820 -69.1960 -69.1960 -69.1960 -69.1960
   -69.1901 -69.1901 -69.1888 -69.1888 -52.3990 -52.3986 -52.3806 -52.3803
   -35.4000 -35.4000 -35.3978 -35.3978 -35.3914 -35.3914 -35.3912 -35.3912
   -35.3833 -35.3833 -35.2905 -35.2905 -35.2743 -35.2743 -35.2734 -35.2734
   -35.2417 -35.2417 -35.2416 -35.2416 -35.1818 -35.1818 -35.1685 -35.1685
   -35.1561 -35.1561 -35.1425 -35.1425 -35.1293 -35.1293 -35.0999 -35.0998
   -35.0768 -35.0768 -35.0698 -35.0698 -23.8245 -23.8241 -23.7329 -23.7325
   -23.7324 -23.7320 -23.7162 -23.7159 -23.7149 -23.7146 -23.6504 -23.6500
    11.7352  11.7352  14.2585  14.2585  14.2750  14.2750  14.3919  14.3919
    14.4069  14.4069  14.5941  14.5941  14.7199  14.7200  14.8484  14.8484
    14.8977  14.8977  15.5559  15.5559  15.6529  15.6529  16.1715  16.1715
    16.2348  16.2348  16.2655  16.2656  16.2816  16.2816  16.2833  16.2833
    16.3782  16.3782  16.6955  16.6955  16.7335  16.7335  16.8782  16.8782
    16.9278  16.9278  17.0676  17.0676  17.1735  17.1735  17.2626  17.2626
    17.4116  17.4116  17.7208  17.7208  17.7961  17.7961  18.0795  18.0795
    18.1751  18.1751  18.2804  18.2804  18.2840  18.2841  18.4154  18.4154
    18.7314  18.7314  18.7796  18.7796  19.0281  19.0282  19.0895  19.0898
    19.6064  19.6065  19.7273  19.7273  19.7395  19.7397  19.8771  19.8772
    19.9578  19.9580  20.3152  20.3154  20.4038

          k = 0.0000 0.2500 0.2500 (  6202 PWs)   bands (ev):

   -69.3057 -69.2941 -69.2820 -69.2820 -69.1988 -69.1972 -69.1951 -69.1931
   -69.1931 -69.1921 -69.1891 -69.1842 -52.3992 -52.3983 -52.3808 -52.3803
   -35.4390 -35.4339 -35.4320 -35.3998 -35.3909 -35.3898 -35.3885 -35.3569
   -35.3226 -35.3078 -35.3072 -35.2856 -35.2823 -35.2697 -35.2602 -35.2594
   -35.2586 -35.2558 -35.2464 -35.2365 -35.2341 -35.1834 -35.1806 -35.1727
   -35.1651 -35.1634 -35.1569 -35.1500 -35.1393 -35.1226 -35.1136 -35.0999
   -35.0933 -35.0833 -35.0455 -35.0388 -23.8289 -23.8213 -23.7397 -23.7332
   -23.7325 -23.7253 -23.7187 -23.7163 -23.7157 -23.7134 -23.6515 -23.6491
    11.1203  13.1326  13.4204  13.9355  14.2912  14.2993  14.3261  14.3544
    14.4005  14.4617  14.4783  14.5140  14.6024  14.7650  14.9085  15.3657
    15.3803  15.4294  15.4358  15.5851  15.5912  15.6627  15.8205  15.8389
    15.8529  15.9612  15.9836  16.0458  16.0734  16.1475  16.1892  16.3955
    16.4081  16.7137  16.7692  16.7761  16.7965  16.8142  16.8882  16.9942
    17.0622  17.0997  17.2310  17.2326  17.2602  17.3185  17.3788  17.4444
    17.4463  17.5429  17.5430  17.7376  17.7510  17.7837  17.8036  17.8761
    17.9736  18.0819  18.1500  18.1784  18.3052  18.3178  18.5017  18.5786
    18.6290  18.6362  18.6545  18.6671  18.8323  19.1952  19.2150  19.2294
    19.2440  19.3543  19.3968  19.6619  19.6893  19.6998  19.7817  19.8318
    19.9060  20.3524  20.3566  20.6712  20.8804

          k = 0.0000 0.2500-0.5000 (  6212 PWs)   bands (ev):

   -69.3000 -69.3000 -69.2821 -69.2821 -69.1976 -69.1976 -69.1951 -69.1951
   -69.1912 -69.1912 -69.1874 -69.1874 -52.3990 -52.3986 -52.3807 -52.3804
   -35.4241 -35.4241 -35.4226 -35.4226 -35.3996 -35.3996 -35.3528 -35.3528
   -35.3438 -35.3438 -35.2900 -35.2900 -35.2727 -35.2727 -35.2720 -35.2720
   -35.2480 -35.2480 -35.2474 -35.2474 -35.2129 -35.2129 -35.1828 -35.1828
   -35.1523 -35.1523 -35.1410 -35.1410 -35.1325 -35.1325 -35.1293 -35.1293
   -35.0679 -35.0679 -35.0520 -35.0520 -23.8256 -23.8251 -23.7382 -23.7382
   -23.7277 -23.7277 -23.7182 -23.7181 -23.7147 -23.7147 -23.6505 -23.6500
    12.0128  12.0128  13.6878  13.6878  14.5042  14.5042  14.5645  14.5645
    14.5957  14.5957  14.7715  14.7715  14.8677  14.8678  14.9295  14.9295
    14.9686  14.9686  15.6354  15.6354  15.7082  15.7082  15.9524  15.9524
    15.9703  15.9703  15.9815  15.9815  16.0591  16.0591  16.4502  16.4502
    16.5539  16.5539  16.5597  16.5598  16.5881  16.5881  16.6699  16.6700
    16.6895  16.6895  16.8570  16.8570  17.1426  17.1427  17.4707  17.4707
    17.5658  17.5658  17.6607  17.6607  17.7669  17.7669  17.8499  17.8499
    17.9537  17.9538  17.9879  17.9879  18.1903  18.1903  18.3959  18.3959
    18.5250  18.5251  19.0003  19.0006  19.0132  19.0132  19.0722  19.0722
    19.2262  19.2262  19.4785  19.4785  19.7392  19.7394  19.8831  19.8831
    20.2589  20.2589  20.6779  20.6779  20.7829

          k = 0.0000-0.5000-0.5000 (  6216 PWs)   bands (ev):

   -69.2999 -69.2999 -69.2821 -69.2821 -69.1988 -69.1988 -69.1932 -69.1932
   -69.1932 -69.1932 -69.1863 -69.1863 -52.3990 -52.3986 -52.3808 -52.3804
   -35.4361 -35.4361 -35.4334 -35.4334 -35.4001 -35.4001 -35.3272 -35.3271
   -35.3079 -35.3078 -35.2902 -35.2902 -35.2655 -35.2655 -35.2635 -35.2635
   -35.2570 -35.2570 -35.2520 -35.2520 -35.2497 -35.2497 -35.1830 -35.1830
   -35.1677 -35.1677 -35.1606 -35.1606 -35.1278 -35.1278 -35.1223 -35.1223
   -35.0642 -35.0642 -35.0418 -35.0418 -23.8264 -23.8259 -23.7397 -23.7397
   -23.7261 -23.7261 -23.7191 -23.7191 -23.7144 -23.7144 -23.6504 -23.6499
    12.6237  12.6237  12.9304  12.9305  14.6211  14.6211  14.8242  14.8242
    14.8304  14.8304  14.9468  14.9470  15.1465  15.1465  15.1515  15.1515
    15.1554  15.1554  15.4696  15.4696  15.5086  15.5086  15.5822  15.5822
    15.8991  15.8991  15.9363  15.9363  16.0491  16.0491  16.1415  16.1415
    16.3016  16.3016  16.3166  16.3166  16.4293  16.4293  16.5205  16.5205
    16.8376  16.8376  16.9357  16.9357  17.2000  17.2002  17.3477  17.3477
    17.5530  17.5530  17.6748  17.6748  17.7446  17.7446  17.7699  17.7699
    17.8133  17.8133  17.8629  17.8629  18.2292  18.2292  18.2697  18.2697
    18.5172  18.5172  18.8918  18.8918  18.9941  18.9942  19.1493  19.1494
    19.2249  19.2249  19.3594  19.3595  19.6459  19.6459  19.6654  19.6656
    20.6107  20.6109  20.9453  20.9453  21.3341

          k = 0.2500 0.2500 0.2500 (  6217 PWs)   bands (ev):

   -69.3026 -69.2924 -69.2860 -69.2838 -69.1980 -69.1950 -69.1943 -69.1939
   -69.1929 -69.1923 -69.1899 -69.1856 -52.3966 -52.3958 -52.3834 -52.3830
   -35.4250 -35.4235 -35.4184 -35.4049 -35.4006 -35.3992 -35.3704 -35.3411
   -35.3388 -35.3286 -35.3039 -35.2917 -35.2879 -35.2841 -35.2633 -35.2591
   -35.2567 -35.2544 -35.2404 -35.2358 -35.2328 -35.1931 -35.1879 -35.1837
   -35.1800 -35.1711 -35.1504 -35.1329 -35.1299 -35.1268 -35.1242 -35.0877
   -35.0794 -35.0781 -35.0525 -35.0499 -23.8032 -23.7961 -23.7364 -23.7312
   -23.7306 -23.7243 -23.7201 -23.7189 -23.7179 -23.7173 -23.6770 -23.6758
    11.4314  13.3555  13.4912  13.6302  14.1562  14.2036  14.2464  14.4734
    14.5244  14.6082  14.6183  14.7054  14.9642  14.9852  15.0084  15.2894
    15.3129  15.3158  15.4613  15.6522  15.6585  15.6811  15.7779  15.7795
    15.9052  15.9391  15.9395  15.9966  16.0200  16.1205  16.1323  16.3302
    16.3914  16.4220  16.5665  16.5762  16.6973  16.7046  16.7175  16.8083
    16.8232  16.9050  16.9750  16.9811  17.0170  17.0398  17.2827  17.4343
    17.4465  17.4888  17.7382  17.7840  17.7890  17.8237  17.8288  17.8325
    17.9097  17.9118  18.0063  18.0833  18.0861  18.1895  18.5285  18.5294
    18.6843  18.8102  18.8580  18.9277  18.9325  18.9760  19.2233  19.3448
    19.4331  19.4463  19.5352  19.5764  19.6130  19.8089  19.8276  19.8688
    20.0646  20.0972  20.1468  20.3756  20.5825

          k = 0.2500 0.2500-0.5000 (  6238 PWs)   bands (ev):

   -69.2976 -69.2976 -69.2849 -69.2849 -69.1968 -69.1968 -69.1944 -69.1944
   -69.1916 -69.1916 -69.1882 -69.1882 -52.3964 -52.3960 -52.3834 -52.3831
   -35.4198 -35.4198 -35.4176 -35.4176 -35.3865 -35.3865 -35.3657 -35.3657
   -35.3409 -35.3409 -35.2956 -35.2956 -35.2740 -35.2740 -35.2732 -35.2732
   -35.2495 -35.2495 -35.2481 -35.2481 -35.2219 -35.2219 -35.1869 -35.1869
   -35.1708 -35.1708 -35.1469 -35.1469 -35.1280 -35.1279 -35.1054 -35.1054
   -35.0697 -35.0697 -35.0609 -35.0609 -23.8005 -23.8000 -23.7348 -23.7348
   -23.7269 -23.7269 -23.7200 -23.7199 -23.7184 -23.7184 -23.6768 -23.6764
    12.2949  12.2949  13.9324  13.9324  13.9528  13.9528  14.7568  14.7568
    14.8594  14.8595  14.8709  14.8709  14.9326  14.9326  15.0472  15.0473
    15.0999  15.0999  15.6664  15.6664  15.7407  15.7407  15.8178  15.8178
    15.8337  15.8337  15.9821  15.9821  16.0771  16.0771  16.2502  16.2502
    16.2599  16.2599  16.3196  16.3196  16.3911  16.3911  16.5902  16.5902
    16.6328  16.6329  16.6651  16.6651  16.7022  16.7023  17.2794  17.2794
    17.6548  17.6548  17.7053  17.7053  17.7366  17.7366  17.8887  17.8887
    17.8922  17.8922  18.0915  18.0915  18.2969  18.2969  18.4489  18.4489
    18.6896  18.6896  18.7381  18.7382  19.0893  19.0895  19.2507  19.2508
    19.3752  19.3752  19.6085  19.6086  19.7480  19.7481  19.8895  19.8896
    20.2009  20.2011  20.2164  20.2167  20.3916

          k = 0.2500-0.5000-0.5000 (  6156 PWs)   bands (ev):

   -69.2974 -69.2974 -69.2848 -69.2848 -69.1980 -69.1980 -69.1939 -69.1939
   -69.1918 -69.1918 -69.1871 -69.1871 -52.3964 -52.3959 -52.3833 -52.3830
   -35.4204 -35.4204 -35.4151 -35.4150 -35.3803 -35.3803 -35.3428 -35.3428
   -35.3311 -35.3311 -35.3107 -35.3107 -35.2633 -35.2633 -35.2586 -35.2586
   -35.2551 -35.2551 -35.2542 -35.2542 -35.2348 -35.2348 -35.1787 -35.1787
   -35.1684 -35.1684 -35.1303 -35.1303 -35.1253 -35.1253 -35.1148 -35.1148
   -35.0679 -35.0679 -35.0518 -35.0518 -23.7994 -23.7990 -23.7356 -23.7356
   -23.7247 -23.7247 -23.7189 -23.7189 -23.7168 -23.7168 -23.6766 -23.6761
    12.9074  12.9074  13.2180  13.2181  14.4937  14.4937  14.6288  14.6289
    14.8150  14.8150  15.1600  15.1601  15.2045  15.2045  15.3737  15.3737
    15.3862  15.3862  15.5050  15.5050  15.5118  15.5118  15.5305  15.5305
    15.8900  15.8900  15.9145  15.9145  16.0129  16.0129  16.0268  16.0268
    16.1521  16.1521  16.1674  16.1675  16.1920  16.1920  16.3828  16.3828
    16.4254  16.4254  16.5910  16.5911  16.7455  16.7455  16.8485  16.8485
    17.7271  17.7271  17.7997  17.7997  17.8788  17.8788  17.8886  17.8886
    18.0339  18.0339  18.1015  18.1015  18.1637  18.1637  18.6055  18.6055
    18.6188  18.6188  18.7640  18.7640  19.0835  19.0835  19.1096  19.1098
    19.5066  19.5067  19.5951  19.5952  19.6808  19.6810  19.8477  19.8477
    20.2400  20.2404  20.4555  20.4555  20.7520

          k =-0.5000-0.5000-0.5000 (  6152 PWs)   bands (ev):

   -69.2914 -69.2914 -69.2912 -69.2912 -69.1959 -69.1959 -69.1959 -69.1959
   -69.1893 -69.1893 -69.1892 -69.1892 -52.3909 -52.3898 -52.3890 -52.3887
   -35.3808 -35.3808 -35.3806 -35.3805 -35.3791 -35.3791 -35.3789 -35.3788
   -35.3450 -35.3450 -35.3447 -35.3447 -35.2597 -35.2597 -35.2597 -35.2597
   -35.2585 -35.2585 -35.2584 -35.2584 -35.2061 -35.2061 -35.2061 -35.2061
   -35.1442 -35.1442 -35.1441 -35.1441 -35.0903 -35.0903 -35.0902 -35.0902
   -35.0882 -35.0882 -35.0881 -35.0881 -23.7391 -23.7379 -23.7370 -23.7368
   -23.7271 -23.7271 -23.7256 -23.7256 -23.7228 -23.7228 -23.7214 -23.7214
    13.6592  13.6592  13.6594  13.6594  13.9511  13.9512  13.9512  13.9512
    15.3265  15.3265  15.3267  15.3267  15.3572  15.3572  15.3573  15.3573
    15.5439  15.5439  15.5440  15.5441  15.6563  15.6565  15.6565  15.6566
    15.7961  15.7961  15.7963  15.7963  15.9150  15.9150  15.9152  15.9152
    15.9413  15.9413  15.9414  15.9414  16.2156  16.2156  16.2158  16.2158
    16.2762  16.2762  16.2765  16.2765  16.2919  16.2920  16.2922  16.2922
    17.8547  17.8547  17.8549  17.8549  17.8839  17.8839  17.8841  17.8841
    18.2267  18.2267  18.2268  18.2269  18.4881  18.4881  18.4883  18.4883
    18.6241  18.6241  18.6243  18.6244  19.5117  19.5122  19.5128  19.5129
    19.6471  19.6471  19.6480  19.6480  19.6846  19.6851  19.6857  19.6858
    20.1463  20.1467  20.1474  20.1475  20.2591

          k = 0.2500 0.0000 0.0000 (  6179 PWs)   bands (ev):

   -69.3072 -69.2870 -69.2867 -69.2828 -69.1979 -69.1979 -69.1954 -69.1939
   -69.1939 -69.1922 -69.1882 -69.1829 -52.3967 -52.3954 -52.3834 -52.3830
   -35.4432 -35.4289 -35.4289 -35.4188 -35.4188 -35.3408 -35.3408 -35.3357
   -35.3357 -35.3239 -35.3146 -35.3040 -35.2979 -35.2949 -35.2543 -35.2543
   -35.2494 -35.2494 -35.2316 -35.2280 -35.2258 -35.2177 -35.1887 -35.1663
   -35.1663 -35.1376 -35.1321 -35.1301 -35.1301 -35.1300 -35.1277 -35.1277
   -35.1169 -35.0490 -35.0490 -35.0384 -23.8065 -23.7930 -23.7353 -23.7353
   -23.7234 -23.7234 -23.7195 -23.7195 -23.7170 -23.7170 -23.6759 -23.6753
    10.8033  13.0778  14.0677  14.0677  14.1558  14.2087  14.2087  14.2392
    14.2483  14.3118  14.3118  14.3864  14.4314  14.5849  14.8074  15.2609
    15.5272  15.5632  15.5988  15.5988  15.6188  15.6500  15.6500  15.8136
    15.8136  15.8828  15.8828  15.9469  16.1143  16.2534  16.2534  16.5609
    16.7220  16.7220  16.8116  16.8307  16.9036  16.9036  17.0066  17.0321
    17.0321  17.2601  17.2926  17.3301  17.3301  17.4118  17.5568  17.6207
    17.6207  17.6272  17.7195  17.8076  17.9177  18.0439  18.0811  18.0811
    18.0819  18.0887  18.1570  18.1854  18.1854  18.2799  18.2918  18.4335
    18.4335  18.8531  18.8836  19.1807  19.1807  19.2025  19.3251  19.4688
    19.5360  19.5360  19.5859  19.6757  19.6757  19.7977  19.9025  19.9025
    19.9134  19.9612  20.1034  20.3374  20.3374

          k =-0.5000 0.0000 0.0000 (  6174 PWs)   bands (ev):

   -69.2977 -69.2975 -69.2850 -69.2847 -69.1960 -69.1960 -69.1960 -69.1960
   -69.1901 -69.1901 -69.1885 -69.1885 -52.3910 -52.3897 -52.3892 -52.3885
   -35.3899 -35.3897 -35.3889 -35.3889 -35.3887 -35.3887 -35.3843 -35.3843
   -35.3841 -35.3841 -35.3216 -35.3214 -35.3002 -35.3002 -35.2494 -35.2494
   -35.2494 -35.2494 -35.2280 -35.2280 -35.2059 -35.2059 -35.1559 -35.1558
   -35.1454 -35.1454 -35.1453 -35.1453 -35.1321 -35.1321 -35.0816 -35.0816
   -35.0815 -35.0815 -35.0783 -35.0782 -23.7406 -23.7389 -23.7362 -23.7347
   -23.7276 -23.7276 -23.7261 -23.7261 -23.7214 -23.7214 -23.7200 -23.7200
    11.7403  11.7404  14.2716  14.2716  14.2716  14.2716  14.3768  14.3768
    14.4483  14.4484  14.5845  14.5845  14.6496  14.6496  14.8416  14.8417
    14.9588  14.9589  15.5973  15.5973  15.5973  15.5973  16.0093  16.0095
    16.2450  16.2450  16.2451  16.2451  16.2639  16.2641  16.2863  16.2863
    16.2863  16.2863  16.5764  16.5767  16.7794  16.7794  16.7795  16.7795
    17.2610  17.2610  17.2612  17.2612  17.2743  17.2744  17.3504  17.3507
    17.3833  17.3834  17.8516  17.8519  17.9139  17.9139  17.9139  17.9139
    18.0721  18.0723  18.0725  18.0725  18.1397  18.1397  18.2684  18.2685
    18.8121  18.8122  19.0723  19.0723  19.0729  19.0729  19.3374  19.3374
    19.3375  19.3375  19.6974  19.6981  19.8045  19.8056  19.9992  20.0002
    20.2437  20.2446  20.2620  20.2620  20.2628

          k = 0.2500 0.2500 0.0000 (  6202 PWs)   bands (ev):

   -69.3046 -69.2902 -69.2864 -69.2834 -69.1972 -69.1953 -69.1952 -69.1941
   -69.1931 -69.1931 -69.1891 -69.1849 -52.3967 -52.3957 -52.3834 -52.3830
   -35.4394 -35.4262 -35.4197 -35.4105 -35.3957 -35.3790 -35.3737 -35.3550
   -35.3545 -35.3122 -35.2983 -35.2923 -35.2909 -35.2757 -35.2643 -35.2609
   -35.2541 -35.2512 -35.2334 -35.2304 -35.2197 -35.2097 -35.1928 -35.1872
   -35.1798 -35.1510 -35.1432 -35.1373 -35.1264 -35.1191 -35.1120 -35.1073
   -35.1013 -35.0598 -35.0587 -35.0431 -23.8040 -23.7951 -23.7344 -23.7344
   -23.7267 -23.7262 -23.7193 -23.7189 -23.7173 -23.7171 -23.6766 -23.6756
    11.1214  13.2615  13.2765  13.9307  14.2981  14.3121  14.3205  14.3772
    14.3901  14.4319  14.4495  14.5376  14.6269  14.8510  14.8593  15.3077
    15.3461  15.3923  15.4070  15.6268  15.7085  15.7384  15.7571  15.7633
    15.7865  15.8227  15.9966  16.0561  16.1321  16.1914  16.2086  16.4570
    16.5011  16.6656  16.7295  16.7304  16.7571  16.8121  16.8686  16.8935
    17.1144  17.1314  17.1722  17.2641  17.3238  17.3419  17.3784  17.4119
    17.4491  17.5956  17.6021  17.6849  17.8058  17.8710  17.9552  17.9694
    18.0127  18.0626  18.0931  18.1164  18.1269  18.2260  18.3801  18.4436
    18.4705  18.5502  18.6963  18.8715  19.1340  19.1589  19.2310  19.4123
    19.4526  19.5585  19.5736  19.6521  19.8028  19.8098  19.8192  19.9017
    19.9155  19.9737  20.1232  20.1878  20.4148

          k = 0.2500-0.5000 0.0000 (  6212 PWs)   bands (ev):

   -69.2977 -69.2977 -69.2849 -69.2849 -69.1952 -69.1952 -69.1947 -69.1947
   -69.1912 -69.1912 -69.1897 -69.1897 -52.3964 -52.3959 -52.3834 -52.3830
   -35.4201 -35.4201 -35.4077 -35.4077 -35.3887 -35.3886 -35.3868 -35.3868
   -35.3446 -35.3446 -35.2880 -35.2880 -35.2777 -35.2777 -35.2744 -35.2744
   -35.2446 -35.2446 -35.2415 -35.2415 -35.1859 -35.1859 -35.1827 -35.1827
   -35.1813 -35.1813 -35.1755 -35.1755 -35.1211 -35.1211 -35.0812 -35.0812
   -35.0763 -35.0763 -35.0656 -35.0656 -23.8000 -23.7996 -23.7313 -23.7309
   -23.7305 -23.7300 -23.7190 -23.7187 -23.7185 -23.7182 -23.6762 -23.6758
    12.0169  12.0169  13.6715  13.6715  14.4932  14.4932  14.5868  14.5869
    14.6887  14.6887  14.6907  14.6907  14.8710  14.8711  14.9221  14.9221
    14.9534  14.9534  15.6239  15.6239  15.6870  15.6870  15.8910  15.8910
    15.9411  15.9411  15.9807  15.9808  16.2236  16.2237  16.3747  16.3747
    16.5316  16.5316  16.5616  16.5616  16.5971  16.5971  16.6950  16.6950
    16.7722  16.7723  16.9019  16.9020  16.9407  16.9407  17.4564  17.4564
    17.5822  17.5822  17.6139  17.6139  17.7144  17.7144  17.9596  17.9596
    18.0780  18.0780  18.0897  18.0897  18.1976  18.1976  18.4312  18.4313
    18.5003  18.5003  18.5716  18.5716  19.1939  19.1943  19.3263  19.3265
    19.4164  19.4165  19.6516  19.6517  19.6967  19.6969  19.8895  19.8896
    20.0153  20.0156  20.0649  20.0650  21.1345

          k =-0.5000 0.0000 0.2500 (  6212 PWs)   bands (ev):

   -69.2961 -69.2959 -69.2870 -69.2867 -69.1952 -69.1952 -69.1947 -69.1947
   -69.1912 -69.1912 -69.1896 -69.1895 -52.3910 -52.3899 -52.3891 -52.3887
   -35.4138 -35.4138 -35.4064 -35.4063 -35.3905 -35.3903 -35.3841 -35.3839
   -35.3365 -35.3365 -35.3065 -35.3064 -35.2920 -35.2920 -35.2599 -35.2599
   -35.2514 -35.2514 -35.2323 -35.2323 -35.2051 -35.2051 -35.1895 -35.1894
   -35.1689 -35.1688 -35.1674 -35.1673 -35.1126 -35.1126 -35.0878 -35.0878
   -35.0727 -35.0727 -35.0669 -35.0668 -23.7423 -23.7407 -23.7377 -23.7364
   -23.7269 -23.7255 -23.7254 -23.7241 -23.7232 -23.7230 -23.7218 -23.7218
    12.0207  12.0207  13.6653  13.6653  14.5060  14.5060  14.6233  14.6234
    14.6644  14.6644  14.7048  14.7048  14.7950  14.7950  14.9152  14.9153
    15.0163  15.0164  15.6631  15.6632  15.6732  15.6732  15.8051  15.8052
    15.8098  15.8100  16.0868  16.0868  16.2029  16.2029  16.4529  16.4529
    16.4591  16.4592  16.5172  16.5173  16.5329  16.5329  16.6647  16.6648
    16.7417  16.7419  17.0571  17.0572  17.0643  17.0644  17.4949  17.4949
    17.5682  17.5683  17.8430  17.8430  17.8459  17.8459  17.8863  17.8864
    17.9012  17.9012  17.9898  17.9899  18.1727  18.1728  18.1932  18.1932
    18.5386  18.5387  18.8111  18.8116  19.1061  19.1064  19.3728  19.3735
    19.5994  19.5998  19.6923  19.6926  19.7046  19.7057  19.8270  19.8273
    19.9556  19.9557  19.9744  19.9753  21.1226

          k =-0.5000-0.5000 0.0000 (  6216 PWs)   bands (ev):

   -69.2917 -69.2917 -69.2914 -69.2914 -69.1932 -69.1932 -69.1932 -69.1932
   -69.1920 -69.1920 -69.1920 -69.1920 -52.3910 -52.3899 -52.3891 -52.3888
   -35.4200 -35.4200 -35.4199 -35.4199 -35.3872 -35.3871 -35.3870 -35.3869
   -35.2926 -35.2926 -35.2926 -35.2926 -35.2781 -35.2781 -35.2781 -35.2781
   -35.2434 -35.2434 -35.2434 -35.2434 -35.2037 -35.2037 -35.2037 -35.2037
   -35.1911 -35.1911 -35.1911 -35.1911 -35.0960 -35.0960 -35.0959 -35.0959
   -35.0632 -35.0632 -35.0632 -35.0632 -23.7410 -23.7399 -23.7393 -23.7389
   -23.7259 -23.7248 -23.7245 -23.7241 -23.7238 -23.7235 -23.7230 -23.7226
    12.7677  12.7677  12.7677  12.7678  14.7488  14.7488  14.7488  14.7488
    14.9454  14.9454  14.9454  14.9455  15.0235  15.0235  15.0236  15.0236
    15.2666  15.2666  15.2666  15.2667  15.6542  15.6542  15.6542  15.6542
    15.8181  15.8183  15.8183  15.8183  16.2297  16.2297  16.2297  16.2297
    16.3055  16.3056  16.3056  16.3057  16.3902  16.3902  16.3902  16.3902
    16.8786  16.8787  16.8787  16.8788  17.1649  17.1649  17.1650  17.1650
    17.7917  17.7917  17.7918  17.7918  17.8151  17.8151  17.8151  17.8151
    17.8598  17.8598  17.8599  17.8600  18.3384  18.3385  18.3385  18.3385
    18.4174  18.4177  18.4178  18.4180  19.2574  19.2575  19.2579  19.2580
    19.4601  19.4609  19.4615  19.4615  19.8791  19.8791  19.8792  19.8793
    19.9706  19.9712  19.9713  19.9716  22.1247

          k =-0.5000 0.2500 0.2500 (  6238 PWs)   bands (ev):

   -69.2948 -69.2946 -69.2883 -69.2880 -69.1960 -69.1960 -69.1928 -69.1928
   -69.1926 -69.1926 -69.1893 -69.1893 -52.3910 -52.3899 -52.3892 -52.3888
   -35.4113 -35.4113 -35.4067 -35.4066 -35.3900 -35.3897 -35.3824 -35.3822
   -35.3294 -35.3294 -35.3097 -35.3096 -35.2866 -35.2866 -35.2623 -35.2623
   -35.2576 -35.2576 -35.2389 -35.2389 -35.2004 -35.2004 -35.2001 -35.2001
   -35.1909 -35.1909 -35.1460 -35.1459 -35.1161 -35.1161 -35.0887 -35.0886
   -35.0777 -35.0777 -35.0670 -35.0669 -23.7418 -23.7403 -23.7383 -23.7370
   -23.7278 -23.7263 -23.7256 -23.7242 -23.7241 -23.7233 -23.7231 -23.7219
    12.3016  12.3016  13.8358  13.8359  14.0413  14.0413  14.8460  14.8461
    14.8463  14.8463  14.8567  14.8567  14.9209  14.9209  14.9645  14.9646
    15.1433  15.1434  15.6390  15.6391  15.6848  15.6848  15.7647  15.7648
    15.8872  15.8874  15.9672  15.9673  16.0924  16.0925  16.2626  16.2626
    16.2709  16.2709  16.2834  16.2835  16.4744  16.4745  16.4957  16.4958
    16.5825  16.5826  16.7043  16.7045  16.7639  16.7639  17.3304  17.3305
    17.6659  17.6660  17.7653  17.7653  17.8631  17.8632  17.8641  17.8642
    17.9226  17.9226  17.9551  17.9553  18.1702  18.1703  18.3841  18.3841
    18.6917  18.6917  18.9399  18.9401  19.1159  19.1165  19.3129  19.3134
    19.5018  19.5025  19.6866  19.6868  19.7494  19.7501  19.7913  19.7922
    19.9051  19.9057  20.2394  20.2402  20.3168

          k =-0.5000-0.5000 0.2500 (  6156 PWs)   bands (ev):

   -69.2915 -69.2915 -69.2912 -69.2912 -69.1949 -69.1949 -69.1949 -69.1949
   -69.1902 -69.1902 -69.1902 -69.1902 -52.3909 -52.3898 -52.3890 -52.3887
   -35.4043 -35.4043 -35.4042 -35.4042 -35.3830 -35.3830 -35.3828 -35.3827
   -35.3137 -35.3136 -35.3136 -35.3136 -35.2714 -35.2714 -35.2714 -35.2714
   -35.2469 -35.2469 -35.2469 -35.2469 -35.2067 -35.2067 -35.2067 -35.2067
   -35.1621 -35.1621 -35.1621 -35.1621 -35.0955 -35.0955 -35.0955 -35.0954
   -35.0686 -35.0686 -35.0686 -35.0686 -23.7395 -23.7384 -23.7377 -23.7374
   -23.7263 -23.7259 -23.7247 -23.7246 -23.7229 -23.7226 -23.7215 -23.7214
    13.0496  13.0496  13.0496  13.0497  14.5854  14.5855  14.5855  14.5855
    14.9512  14.9512  14.9512  14.9512  15.2942  15.2943  15.2943  15.2944
    15.3693  15.3693  15.3693  15.3693  15.6445  15.6446  15.6446  15.6446
    15.8590  15.8591  15.8591  15.8591  16.0095  16.0096  16.0096  16.0096
    16.0962  16.0962  16.0962  16.0962  16.3251  16.3252  16.3252  16.3252
    16.5464  16.5464  16.5464  16.5464  16.7981  16.7981  16.7982  16.7982
    17.8270  17.8270  17.8272  17.8272  17.8713  17.8714  17.8715  17.8715
    18.0154  18.0154  18.0154  18.0154  18.2636  18.2637  18.2637  18.2637
    18.8657  18.8658  18.8659  18.8660  19.3400  19.3403  19.3409  19.3409
    19.4999  19.5002  19.5002  19.5005  19.7292  19.7295  19.7301  19.7302
    19.9407  19.9410  19.9410  19.9412  20.9839

 ------ SPIN DOWN ----------


          k = 0.0000 0.0000 0.0000 (  6187 PWs)   bands (ev):

   -66.9157 -66.8999 -66.8999 -66.8999 -66.8937 -66.8937 -66.8937 -66.8876
   -66.6132 -66.6071 -66.6071 -66.6033 -53.1793 -53.1774 -53.1606 -53.1602
   -33.1082 -33.1019 -33.1019 -33.1013 -33.0801 -33.0801 -33.0598 -33.0540
   -33.0540 -33.0341 -33.0232 -33.0117 -32.9946 -32.9946 -32.9718 -32.9615
   -32.9506 -32.9358 -32.9358 -32.9251 -32.8894 -32.8894 -32.8736 -32.8629
   -32.7510 -32.7510 -32.7302 -32.7302 -32.6530 -32.6530 -32.6306 -32.6027
   -32.6027 -32.5737 -32.5321 -32.5002 -24.5868 -24.5868 -24.5670 -24.5670
   -24.5631 -24.5631 -24.5566 -24.5566 -24.4541 -24.4354 -24.2817 -24.2738
    10.5249  14.4046  14.6094  14.6790  14.7089  14.7089  14.7305  14.7340
    14.7340  14.7801  14.7838  14.8241  15.0666  15.2622  15.5298  16.4658
    16.4719  16.5145  16.5145  16.7709  16.7709  16.8677  16.8677  16.9187
    16.9187  16.9336  17.0584  17.2590  17.3551  17.7870  17.8040  17.8040
    17.8160  18.1328  18.1500  18.2342  18.2342  18.4918  18.4918  18.5817
    18.5907  18.5907  18.5996  18.5996  18.6260  18.6582  18.6582  18.7933
    19.4097  19.4574  19.4871  19.4940  19.4940  19.5153  19.5153  19.5751
    19.5816  19.6813  19.6813  19.7409  19.8590  20.0221  20.0907  20.1044
    20.2249  20.2366  20.2366  20.4714  20.5407  20.5624  20.6013  20.6063
    20.6063  20.6106  20.6108  20.7333  20.7347  20.8273  21.0624  21.1110
    21.1110  21.1725  21.2812  21.2828  21.2828

          k = 0.0000 0.0000 0.2500 (  6179 PWs)   bands (ev):

   -66.9134 -66.9023 -66.8989 -66.8989 -66.8947 -66.8946 -66.8929 -66.8887
   -66.6116 -66.6071 -66.6071 -66.6047 -53.1788 -53.1777 -53.1606 -53.1603
   -33.0998 -33.0973 -33.0957 -33.0886 -33.0739 -33.0691 -33.0639 -33.0578
   -33.0421 -33.0342 -33.0276 -33.0171 -33.0035 -33.0014 -32.9888 -32.9637
   -32.9580 -32.9390 -32.9273 -32.9243 -32.9208 -32.9070 -32.8879 -32.8669
   -32.7211 -32.7170 -32.7149 -32.7090 -32.6654 -32.6608 -32.6191 -32.6168
   -32.6047 -32.5629 -32.5350 -32.5160 -24.5828 -24.5821 -24.5705 -24.5701
   -24.5639 -24.5627 -24.5584 -24.5574 -24.4520 -24.4389 -24.2793 -24.2743
    10.8582  13.1968  14.7533  14.7561  14.7623  14.7859  14.8328  14.8573
    14.8654  14.8754  14.9438  15.2260  15.3885  15.5720  15.6460  16.2109
    16.4602  16.5136  16.5141  16.5402  16.7097  16.8077  16.9316  16.9327
    17.0344  17.1310  17.1370  17.1711  17.2688  17.4405  17.5149  17.6273
    18.0100  18.0170  18.1302  18.1336  18.1481  18.1770  18.2335  18.3394
    18.3696  18.5239  18.5619  18.5936  18.6620  18.6637  18.7735  18.8665
    18.9473  18.9768  19.0511  19.0677  19.0884  19.1439  19.1870  19.8180
    19.8488  19.9928  20.0402  20.0737  20.0756  20.0953  20.1567  20.1749
    20.1875  20.2128  20.2935  20.3899  20.4843  20.6017  20.6041  20.6145
    20.6195  20.6714  20.6750  20.7255  20.8239  20.9852  21.0686  21.0946
    21.1113  21.1885  21.2011  21.2319  21.2485

          k = 0.0000 0.0000-0.5000 (  6174 PWs)   bands (ev):

   -66.9078 -66.9078 -66.8968 -66.8968 -66.8968 -66.8968 -66.8907 -66.8907
   -66.6081 -66.6081 -66.6071 -66.6071 -53.1783 -53.1782 -53.1605 -53.1605
   -33.0949 -33.0949 -33.0789 -33.0789 -33.0579 -33.0579 -33.0515 -33.0515
   -33.0399 -33.0399 -33.0349 -33.0349 -32.9927 -32.9927 -32.9888 -32.9888
   -32.9626 -32.9626 -32.9480 -32.9480 -32.9267 -32.9267 -32.8769 -32.8769
   -32.6903 -32.6903 -32.6858 -32.6858 -32.6597 -32.6597 -32.6538 -32.6538
   -32.5548 -32.5548 -32.5473 -32.5473 -24.5767 -24.5765 -24.5763 -24.5761
   -24.5612 -24.5612 -24.5598 -24.5598 -24.4456 -24.4456 -24.2766 -24.2766
    11.8065  11.8065  14.8852  14.8853  14.9185  14.9185  14.9441  14.9442
    14.9567  14.9567  15.5412  15.5413  15.6184  15.6185  15.8106  15.8106
    16.0385  16.0385  16.5102  16.5102  16.6518  16.6519  17.3765  17.3765
    17.3836  17.3836  17.4465  17.4465  17.4910  17.4910  17.5241  17.5241
    17.6197  17.6197  17.6921  17.6921  17.7691  17.7691  17.8695  17.8695
    17.8869  17.8869  18.1392  18.1392  18.2407  18.2407  18.6349  18.6350
    19.3469  19.3470  19.4671  19.4671  19.6512  19.6512  19.6960  19.6961
    19.7270  19.7270  19.8962  19.8962  19.9357  19.9357  20.3231  20.3231
    20.4306  20.4306  20.5649  20.5650  20.6074  20.6075  20.6083  20.6084
    20.6298  20.6298  20.7284  20.7284  20.7627  20.7627  20.7814  20.7814
    20.7930  20.7930  21.3353  21.3353  21.3459

          k = 0.0000 0.2500 0.2500 (  6202 PWs)   bands (ev):

   -66.9114 -66.9023 -66.8999 -66.8981 -66.8957 -66.8938 -66.8938 -66.8896
   -66.6106 -66.6071 -66.6071 -66.6057 -53.1787 -53.1779 -53.1607 -53.1604
   -33.0927 -33.0917 -33.0894 -33.0838 -33.0804 -33.0639 -33.0595 -33.0486
   -33.0438 -33.0396 -33.0318 -33.0282 -33.0145 -32.9988 -32.9931 -32.9729
   -32.9584 -32.9393 -32.9376 -32.9291 -32.9254 -32.8995 -32.8939 -32.8722
   -32.7424 -32.7350 -32.6904 -32.6898 -32.6608 -32.6564 -32.6556 -32.6023
   -32.5901 -32.5571 -32.5387 -32.5293 -24.5850 -24.5771 -24.5765 -24.5681
   -24.5648 -24.5614 -24.5609 -24.5574 -24.4511 -24.4417 -24.2781 -24.2753
    11.1802  13.3798  13.4730  14.4623  14.9397  14.9466  14.9876  15.0755
    15.0989  15.1244  15.3108  15.5379  15.6134  15.6415  15.7834  16.1642
    16.3558  16.4994  16.5858  16.7300  16.7508  16.8452  16.8529  16.9161
    16.9382  16.9580  17.1040  17.1741  17.1849  17.2277  17.3912  17.6281
    17.6808  17.9730  17.9735  17.9961  18.0249  18.0316  18.0404  18.0625
    18.1569  18.1878  18.2611  18.3397  18.3524  18.4565  18.6218  18.7179
    19.0089  19.0892  19.1112  19.2558  19.2775  19.3150  19.4706  19.6461
    19.6559  19.8051  19.9943  20.1192  20.1299  20.1617  20.1741  20.1753
    20.2866  20.2883  20.3122  20.3251  20.4068  20.5202  20.5502  20.5550
    20.5687  20.6486  20.6515  20.6580  20.6932  20.7070  20.7538  20.8475
    20.8709  20.9087  21.1338  21.3625  21.4662

          k = 0.0000 0.2500-0.5000 (  6212 PWs)   bands (ev):

   -66.9066 -66.9066 -66.8981 -66.8981 -66.8959 -66.8959 -66.8917 -66.8917
   -66.6081 -66.6081 -66.6071 -66.6071 -53.1783 -53.1782 -53.1606 -53.1605
   -33.0855 -33.0855 -33.0771 -33.0771 -33.0710 -33.0710 -33.0607 -33.0607
   -33.0473 -33.0473 -33.0177 -33.0177 -33.0176 -33.0176 -32.9867 -32.9867
   -32.9467 -32.9467 -32.9334 -32.9334 -32.9282 -32.9282 -32.8870 -32.8870
   -32.7211 -32.7211 -32.7118 -32.7118 -32.6651 -32.6651 -32.6176 -32.6176
   -32.5563 -32.5563 -32.5477 -32.5477 -24.5831 -24.5831 -24.5708 -24.5708
   -24.5640 -24.5640 -24.5591 -24.5591 -24.4467 -24.4466 -24.2767 -24.2766
    12.0961  12.0961  13.9590  13.9590  15.0774  15.0774  15.2079  15.2079
    15.4624  15.4625  15.6603  15.6603  15.7934  15.7934  15.8453  15.8453
    16.1839  16.1839  16.6165  16.6166  16.6790  16.6791  17.0300  17.0301
    17.1824  17.1824  17.2055  17.2055  17.2200  17.2200  17.4573  17.4573
    17.6116  17.6116  17.6738  17.6738  17.7062  17.7062  17.7285  17.7285
    17.7988  17.7988  17.9358  17.9358  18.0722  18.0722  19.0367  19.0367
    19.3297  19.3298  19.3410  19.3410  19.5192  19.5192  19.6340  19.6340
    19.6511  19.6511  19.7696  19.7696  19.8588  19.8588  20.2229  20.2229
    20.2490  20.2490  20.3327  20.3327  20.4402  20.4402  20.4491  20.4493
    20.5729  20.5729  20.6774  20.6774  20.6883  20.6883  20.8281  20.8281
    21.0030  21.0030  21.1600  21.1600  21.8992

          k = 0.0000-0.5000-0.5000 (  6216 PWs)   bands (ev):

   -66.9048 -66.9048 -66.9000 -66.9000 -66.8939 -66.8939 -66.8938 -66.8938
   -66.6081 -66.6081 -66.6072 -66.6072 -53.1783 -53.1782 -53.1606 -53.1606
   -33.0826 -33.0826 -33.0696 -33.0696 -33.0673 -33.0673 -33.0658 -33.0658
   -33.0578 -33.0578 -33.0353 -33.0353 -33.0068 -33.0068 -32.9825 -32.9825
   -32.9457 -32.9457 -32.9286 -32.9286 -32.9052 -32.9052 -32.8971 -32.8971
   -32.7403 -32.7403 -32.7357 -32.7357 -32.6561 -32.6560 -32.6053 -32.6053
   -32.5564 -32.5564 -32.5467 -32.5467 -24.5851 -24.5851 -24.5690 -24.5690
   -24.5653 -24.5653 -24.5585 -24.5585 -24.4475 -24.4474 -24.2766 -24.2765
    12.8785  12.8785  12.9083  12.9083  15.2525  15.2525  15.5904  15.5905
    15.6894  15.6894  15.7861  15.7861  15.9088  15.9088  16.1555  16.1555
    16.2729  16.2729  16.4967  16.4967  16.5773  16.5774  16.7960  16.7960
    16.8823  16.8823  17.0712  17.0712  17.1091  17.1091  17.2149  17.2149
    17.3740  17.3740  17.5390  17.5390  17.5582  17.5582  17.6084  17.6084
    17.7292  17.7292  18.0170  18.0170  18.3555  18.3555  18.6388  18.6388
    19.2457  19.2457  19.4155  19.4155  19.5479  19.5479  19.6416  19.6417
    19.7433  19.7433  19.7864  19.7865  20.0078  20.0078  20.1040  20.1040
    20.1121  20.1121  20.1373  20.1373  20.1872  20.1873  20.3810  20.3812
    20.5095  20.5095  20.5528  20.5528  20.6644  20.6644  20.8449  20.8449
    21.2118  21.2118  21.2875  21.2876  22.8333

          k = 0.2500 0.2500 0.2500 (  6217 PWs)   bands (ev):

   -66.9095 -66.9011 -66.9001 -66.8990 -66.8950 -66.8948 -66.8947 -66.8905
   -66.6101 -66.6076 -66.6069 -66.6059 -53.1761 -53.1754 -53.1632 -53.1630
   -33.0946 -33.0906 -33.0830 -33.0816 -33.0705 -33.0634 -33.0615 -33.0434
   -33.0410 -33.0354 -33.0335 -33.0084 -33.0039 -33.0014 -32.9922 -32.9858
   -32.9597 -32.9535 -32.9413 -32.9338 -32.9311 -32.9258 -32.9063 -32.8816
   -32.7251 -32.7068 -32.6933 -32.6865 -32.6703 -32.6673 -32.6639 -32.6172
   -32.5799 -32.5501 -32.5456 -32.5290 -24.5815 -24.5752 -24.5747 -24.5678
   -24.5656 -24.5639 -24.5630 -24.5615 -24.4259 -24.4172 -24.3028 -24.3015
    11.4943  13.6033  13.6619  13.7174  14.6623  14.7345  14.8297  15.3344
    15.3489  15.5966  15.6753  15.6865  15.8218  15.8858  15.9327  16.1178
    16.4620  16.4691  16.5722  16.5863  16.6636  16.6808  16.8733  16.8944
    17.0105  17.0231  17.0284  17.0583  17.0608  17.2423  17.3969  17.4811
    17.5884  17.6694  17.7600  17.7729  17.7738  17.8374  17.8405  17.9108
    17.9422  17.9453  17.9644  18.0134  18.1533  18.2177  18.2960  18.8778
    19.2569  19.2935  19.3906  19.4487  19.4500  19.4806  19.4809  19.7097
    19.8032  19.8835  19.9175  19.9435  19.9838  20.0578  20.0809  20.1229
    20.1460  20.3614  20.3849  20.4203  20.4985  20.5145  20.5307  20.5424
    20.6058  20.6310  20.6400  20.6512  20.7196  20.7536  20.7833  20.8335
    20.8961  20.9063  20.9181  20.9381  21.4180

          k = 0.2500 0.2500-0.5000 (  6238 PWs)   bands (ev):

   -66.9051 -66.9051 -66.8975 -66.8975 -66.8972 -66.8972 -66.8927 -66.8927
   -66.6080 -66.6080 -66.6073 -66.6073 -53.1759 -53.1757 -53.1632 -53.1631
   -33.0853 -33.0853 -33.0803 -33.0803 -33.0584 -33.0584 -33.0580 -33.0580
   -33.0474 -33.0474 -33.0155 -33.0155 -33.0152 -33.0152 -32.9701 -32.9701
   -32.9677 -32.9677 -32.9485 -32.9485 -32.9210 -32.9210 -32.9081 -32.9081
   -32.7068 -32.7068 -32.7035 -32.7035 -32.6744 -32.6743 -32.6333 -32.6333
   -32.5544 -32.5544 -32.5483 -32.5483 -24.5796 -24.5796 -24.5704 -24.5704
   -24.5655 -24.5655 -24.5629 -24.5629 -24.4222 -24.4221 -24.3024 -24.3023
    12.3840  12.3840  14.2193  14.2193  14.2231  14.2231  15.4589  15.4589
    15.6912  15.6912  15.7678  15.7678  15.9115  15.9115  16.0432  16.0432
    16.2972  16.2973  16.6562  16.6562  16.7554  16.7554  16.8940  16.8940
    17.0003  17.0003  17.1474  17.1474  17.2234  17.2234  17.2630  17.2630
    17.3968  17.3969  17.4378  17.4378  17.4890  17.4890  17.6018  17.6018
    17.7227  17.7227  17.8227  17.8227  17.8837  17.8837  18.6469  18.6469
    19.3579  19.3579  19.5600  19.5600  19.5776  19.5777  19.7997  19.7997
    19.8152  19.8152  19.9145  19.9145  20.0373  20.0373  20.1620  20.1621
    20.3189  20.3189  20.4025  20.4026  20.4094  20.4094  20.5359  20.5359
    20.5448  20.5448  20.6568  20.6568  20.7990  20.7990  20.8145  20.8145
    20.8490  20.8490  20.8824  20.8824  20.8996

          k = 0.2500-0.5000-0.5000 (  6156 PWs)   bands (ev):

   -66.9032 -66.9032 -66.8991 -66.8991 -66.8954 -66.8954 -66.8947 -66.8947
   -66.6079 -66.6079 -66.6072 -66.6072 -53.1758 -53.1756 -53.1631 -53.1630
   -33.0668 -33.0668 -33.0657 -33.0657 -33.0653 -33.0653 -33.0554 -33.0554
   -33.0541 -33.0541 -33.0208 -33.0208 -32.9968 -32.9968 -32.9612 -32.9612
   -32.9583 -32.9583 -32.9578 -32.9578 -32.9231 -32.9231 -32.9110 -32.9110
   -32.7203 -32.7203 -32.7028 -32.7028 -32.6615 -32.6615 -32.6163 -32.6163
   -32.5523 -32.5523 -32.5499 -32.5499 -24.5807 -24.5807 -24.5681 -24.5681
   -24.5645 -24.5645 -24.5610 -24.5610 -24.4212 -24.4212 -24.3021 -24.3020
    13.1500  13.1500  13.2070  13.2071  14.7605  14.7605  15.0220  15.0220
    15.8285  15.8286  16.1516  16.1516  16.2145  16.2146  16.3605  16.3606
    16.4749  16.4749  16.5105  16.5105  16.5645  16.5645  16.7893  16.7893
    16.8175  16.8175  17.0911  17.0911  17.1687  17.1687  17.2033  17.2033
    17.2091  17.2091  17.3355  17.3355  17.3389  17.3389  17.5118  17.5118
    17.5603  17.5603  17.6387  17.6387  17.9144  17.9144  18.0744  18.0744
    19.7122  19.7123  19.7624  19.7625  19.8324  19.8324  19.9073  19.9074
    20.0148  20.0148  20.0378  20.0378  20.1108  20.1109  20.1605  20.1606
    20.1879  20.1879  20.2346  20.2346  20.2349  20.2349  20.3157  20.3159
    20.4876  20.4876  20.5147  20.5147  20.6039  20.6039  20.7806  20.7806
    20.8675  20.8675  20.9438  20.9438  21.6413

          k =-0.5000-0.5000-0.5000 (  6152 PWs)   bands (ev):

   -66.8993 -66.8993 -66.8993 -66.8993 -66.8969 -66.8969 -66.8969 -66.8969
   -66.6076 -66.6076 -66.6075 -66.6075 -53.1708 -53.1699 -53.1688 -53.1680
   -33.0649 -33.0649 -33.0649 -33.0649 -33.0620 -33.0620 -33.0620 -33.0620
   -33.0084 -33.0084 -33.0084 -33.0084 -32.9780 -32.9780 -32.9780 -32.9780
   -32.9773 -32.9773 -32.9773 -32.9773 -32.9322 -32.9322 -32.9321 -32.9321
   -32.6882 -32.6882 -32.6881 -32.6881 -32.6561 -32.6561 -32.6561 -32.6561
   -32.5524 -32.5524 -32.5523 -32.5523 -24.5719 -24.5719 -24.5701 -24.5701
   -24.5675 -24.5675 -24.5657 -24.5657 -24.3631 -24.3622 -24.3610 -24.3600
    13.8764  13.8764  13.8764  13.8764  14.0128  14.0129  14.0130  14.0132
    16.3571  16.3575  16.3579  16.3581  16.4131  16.4132  16.4138  16.4140
    16.7080  16.7080  16.7087  16.7087  16.7650  16.7650  16.7656  16.7656
    16.8745  16.8748  16.8753  16.8756  17.0530  17.0530  17.0531  17.0531
    17.1149  17.1149  17.1150  17.1150  17.3684  17.3684  17.3684  17.3684
    17.3940  17.3940  17.3940  17.3940  17.4181  17.4181  17.4181  17.4181
    20.0231  20.0235  20.0240  20.0243  20.0743  20.0747  20.0753  20.0759
    20.3143  20.3143  20.3149  20.3149  20.3168  20.3168  20.3170  20.3171
    20.3440  20.3443  20.3445  20.3448  20.3884  20.3884  20.3884  20.3884
    20.4212  20.4213  20.4213  20.4213  20.5023  20.5023  20.5024  20.5024
    20.8001  20.8001  20.8002  20.8003  20.8033

          k = 0.2500 0.0000 0.0000 (  6179 PWs)   bands (ev):

   -66.9134 -66.9022 -66.8989 -66.8989 -66.8946 -66.8946 -66.8929 -66.8887
   -66.6122 -66.6079 -66.6066 -66.6039 -53.1763 -53.1750 -53.1632 -53.1630
   -33.1056 -33.1009 -33.0941 -33.0941 -33.0649 -33.0649 -33.0635 -33.0635
   -33.0474 -33.0256 -33.0225 -33.0010 -32.9883 -32.9883 -32.9826 -32.9742
   -32.9615 -32.9545 -32.9545 -32.9343 -32.9212 -32.9212 -32.8651 -32.8621
   -32.7231 -32.7231 -32.7047 -32.7047 -32.6643 -32.6643 -32.6216 -32.6139
   -32.6139 -32.5522 -32.5456 -32.5117 -24.5803 -24.5803 -24.5668 -24.5668
   -24.5648 -24.5648 -24.5611 -24.5611 -24.4301 -24.4135 -24.3016 -24.3009
    10.8580  13.2035  14.5236  14.7386  14.7934  14.7934  14.8460  14.8460
    14.9135  15.0213  15.0310  15.1318  15.4258  15.6243  15.6690  16.1657
    16.5071  16.5071  16.6077  16.6340  16.6389  16.7160  16.7160  17.0116
    17.0116  17.0910  17.1510  17.1510  17.2193  17.5170  17.5170  17.6883
    17.7076  18.1478  18.1478  18.2170  18.2170  18.2564  18.3009  18.3317
    18.3317  18.5497  18.5756  18.6488  18.6488  18.6868  18.8115  18.8115
    18.9637  18.9900  18.9920  19.0390  19.0390  19.1728  19.1728  19.7673
    19.9272  19.9419  20.0596  20.0838  20.0899  20.0901  20.0901  20.1284
    20.1542  20.1542  20.2835  20.4760  20.5447  20.5479  20.5735  20.5966
    20.6197  20.6719  20.7296  20.7296  20.9421  20.9873  21.0862  21.0862
    21.1415  21.1508  21.1550  21.2214  21.2335

          k =-0.5000 0.0000 0.0000 (  6174 PWs)   bands (ev):

   -66.9078 -66.9078 -66.8968 -66.8968 -66.8968 -66.8968 -66.8907 -66.8907
   -66.6102 -66.6101 -66.6052 -66.6051 -53.1709 -53.1698 -53.1689 -53.1679
   -33.1072 -33.1072 -33.0742 -33.0742 -33.0742 -33.0742 -33.0249 -33.0249
   -33.0174 -33.0174 -33.0174 -33.0174 -33.0110 -33.0110 -32.9842 -32.9842
   -32.9627 -32.9627 -32.9627 -32.9627 -32.9543 -32.9543 -32.8645 -32.8645
   -32.6905 -32.6905 -32.6904 -32.6904 -32.6503 -32.6503 -32.6502 -32.6502
   -32.5780 -32.5779 -32.5321 -32.5320 -24.5723 -24.5723 -24.5705 -24.5705
   -24.5659 -24.5659 -24.5641 -24.5641 -24.3653 -24.3632 -24.3596 -24.3575
    11.8062  11.8064  14.7029  14.7033  14.9219  14.9219  14.9222  14.9222
    15.2302  15.2305  15.5081  15.5087  15.5776  15.5781  15.9010  15.9015
    16.0311  16.0312  16.5966  16.5966  16.5973  16.5973  17.0760  17.0769
    17.3623  17.3623  17.3628  17.3628  17.3658  17.3669  17.6603  17.6603
    17.8105  17.8105  17.8107  17.8107  17.8121  17.8121  17.8121  17.8121
    17.8751  17.8752  18.2721  18.2721  18.2722  18.2722  18.5550  18.5554
    19.3969  19.3975  19.4335  19.4342  19.6080  19.6083  19.6755  19.6755
    19.6759  19.6759  19.9501  19.9501  19.9505  19.9505  20.2563  20.2575
    20.4330  20.4331  20.5504  20.5509  20.5964  20.5969  20.6285  20.6291
    20.6518  20.6518  20.7567  20.7568  20.7598  20.7598  20.7767  20.7767
    20.7771  20.7771  21.3026  21.3032  21.3375

          k = 0.2500 0.2500 0.0000 (  6202 PWs)   bands (ev):

   -66.9113 -66.9011 -66.9011 -66.8981 -66.8958 -66.8938 -66.8938 -66.8896
   -66.6110 -66.6077 -66.6068 -66.6051 -53.1762 -53.1753 -53.1632 -53.1630
   -33.0996 -33.0984 -33.0954 -33.0840 -33.0706 -33.0624 -33.0600 -33.0557
   -33.0339 -33.0274 -33.0221 -33.0160 -33.0029 -32.9959 -32.9919 -32.9872
   -32.9632 -32.9607 -32.9406 -32.9322 -32.9318 -32.9079 -32.8931 -32.8697
   -32.7122 -32.7093 -32.6989 -32.6972 -32.6734 -32.6692 -32.6388 -32.6276
   -32.5925 -32.5503 -32.5435 -32.5212 -24.5792 -24.5791 -24.5702 -24.5696
   -24.5648 -24.5642 -24.5617 -24.5617 -24.4270 -24.4159 -24.3024 -24.3013
    11.1798  13.4208  13.4287  14.4639  14.9191  14.9705  14.9869  15.0235
    15.0741  15.1111  15.3714  15.5378  15.7056  15.7092  15.7787  16.0829
    16.3699  16.5245  16.6386  16.6424  16.6549  16.8385  16.8587  16.9043
    16.9137  16.9199  17.1045  17.1635  17.2293  17.3039  17.3421  17.6292
    17.7107  17.8932  17.9635  17.9734  17.9873  18.0735  18.1020  18.1307
    18.2458  18.2525  18.2623  18.2917  18.3415  18.5867  18.5945  18.6318
    19.0699  19.0928  19.1774  19.1832  19.2396  19.2637  19.5015  19.5833
    19.6298  19.9172  19.9638  20.0117  20.0870  20.1201  20.1414  20.1564
    20.3120  20.3775  20.3871  20.3993  20.4398  20.5043  20.5214  20.5589
    20.5903  20.6177  20.6404  20.6772  20.6828  20.7090  20.7803  20.7909
    20.8239  20.9371  21.1108  21.3242  21.4593

          k = 0.2500-0.5000 0.0000 (  6212 PWs)   bands (ev):

   -66.9063 -66.9063 -66.8984 -66.8984 -66.8959 -66.8959 -66.8917 -66.8917
   -66.6080 -66.6080 -66.6073 -66.6073 -53.1758 -53.1757 -53.1632 -53.1631
   -33.0951 -33.0951 -33.0853 -33.0853 -33.0556 -33.0556 -33.0475 -33.0475
   -33.0451 -33.0451 -33.0276 -33.0276 -33.0080 -33.0080 -32.9731 -32.9731
   -32.9700 -32.9700 -32.9473 -32.9473 -32.9243 -32.9243 -32.8897 -32.8897
   -32.6974 -32.6974 -32.6824 -32.6824 -32.6783 -32.6783 -32.6571 -32.6571
   -32.5508 -32.5508 -32.5440 -32.5440 -24.5752 -24.5750 -24.5745 -24.5742
   -24.5641 -24.5641 -24.5632 -24.5632 -24.4216 -24.4215 -24.3019 -24.3018
    12.0956  12.0956  13.9597  13.9597  15.0933  15.0933  15.1858  15.1858
    15.5541  15.5541  15.5929  15.5929  15.7642  15.7642  15.8871  15.8871
    16.1221  16.1221  16.5777  16.5777  16.7230  16.7230  17.0782  17.0782
    17.1441  17.1441  17.1616  17.1616  17.3737  17.3737  17.4981  17.4982
    17.5100  17.5101  17.5304  17.5304  17.5858  17.5858  17.8818  17.8818
    17.9078  17.9078  17.9109  17.9109  18.1354  18.1354  18.9895  18.9896
    19.3129  19.3129  19.3406  19.3406  19.5116  19.5117  19.6833  19.6833
    19.7354  19.7354  19.7617  19.7617  19.7820  19.7820  20.1662  20.1662
    20.1914  20.1914  20.3552  20.3552  20.4792  20.4793  20.5129  20.5130
    20.6184  20.6184  20.6477  20.6477  20.6733  20.6733  20.8126  20.8126
    21.0022  21.0022  21.1068  21.1069  21.8849

          k =-0.5000 0.0000 0.2500 (  6212 PWs)   bands (ev):

   -66.9062 -66.9062 -66.8984 -66.8984 -66.8959 -66.8959 -66.8917 -66.8917
   -66.6094 -66.6093 -66.6059 -66.6059 -53.1709 -53.1699 -53.1689 -53.1680
   -33.0993 -33.0993 -33.0835 -33.0835 -33.0721 -33.0721 -33.0345 -33.0345
   -33.0328 -33.0328 -33.0109 -33.0109 -33.0076 -33.0076 -32.9811 -32.9811
   -32.9760 -32.9760 -32.9536 -32.9536 -32.9384 -32.9384 -32.8792 -32.8792
   -32.6943 -32.6943 -32.6823 -32.6823 -32.6781 -32.6781 -32.6575 -32.6575
   -32.5651 -32.5650 -32.5329 -32.5328 -24.5716 -24.5713 -24.5698 -24.5695
   -24.5686 -24.5677 -24.5669 -24.5660 -24.3660 -24.3639 -24.3604 -24.3583
    12.0953  12.0955  13.9503  13.9504  15.1241  15.1243  15.1310  15.1313
    15.5623  15.5628  15.6801  15.6806  15.7034  15.7035  15.9778  15.9783
    16.0921  16.0922  16.6490  16.6497  16.7255  16.7260  16.9185  16.9191
    16.9526  16.9533  17.2788  17.2791  17.3317  17.3318  17.4502  17.4504
    17.5254  17.5255  17.5672  17.5673  17.7413  17.7413  17.8683  17.8684
    17.9030  17.9031  17.9582  17.9582  18.1252  18.1253  18.9909  18.9910
    19.3402  19.3403  19.3422  19.3425  19.5801  19.5807  19.6039  19.6044
    19.6950  19.6953  19.7314  19.7316  19.7687  19.7688  20.1472  20.1484
    20.2206  20.2206  20.3213  20.3213  20.5307  20.5312  20.6198  20.6198
    20.6368  20.6369  20.6476  20.6478  20.6628  20.6629  20.6874  20.6876
    20.9822  20.9823  21.1134  21.1135  21.8757

          k =-0.5000-0.5000 0.0000 (  6216 PWs)   bands (ev):

   -66.9024 -66.9024 -66.9024 -66.9024 -66.8939 -66.8939 -66.8939 -66.8939
   -66.6077 -66.6077 -66.6076 -66.6076 -53.1709 -53.1700 -53.1689 -53.1681
   -33.0922 -33.0922 -33.0922 -33.0922 -33.0519 -33.0519 -33.0519 -33.0519
   -33.0306 -33.0305 -33.0305 -33.0305 -32.9987 -32.9987 -32.9987 -32.9987
   -32.9496 -32.9496 -32.9496 -32.9496 -32.9104 -32.9104 -32.9104 -32.9104
   -32.6978 -32.6977 -32.6977 -32.6977 -32.6681 -32.6681 -32.6680 -32.6680
   -32.5437 -32.5437 -32.5436 -32.5436 -24.5710 -24.5705 -24.5701 -24.5695
   -24.5691 -24.5686 -24.5684 -24.5678 -24.3635 -24.3626 -24.3614 -24.3605
    12.8913  12.8913  12.8914  12.8915  15.5046  15.5047  15.5048  15.5049
    15.6066  15.6068  15.6070  15.6072  16.0357  16.0358  16.0359  16.0360
    16.3826  16.3828  16.3832  16.3835  16.7264  16.7265  16.7268  16.7268
    17.0120  17.0121  17.0121  17.0122  17.1780  17.1784  17.1788  17.1791
    17.3258  17.3259  17.3259  17.3260  17.5899  17.5899  17.5899  17.5900
    17.9673  17.9673  17.9674  17.9674  18.5255  18.5255  18.5257  18.5257
    19.3406  19.3406  19.3407  19.3407  19.5788  19.5789  19.5791  19.5791
    19.8521  19.8525  19.8527  19.8530  19.8681  19.8683  19.8686  19.8690
    20.0629  20.0629  20.0630  20.0630  20.4798  20.4798  20.4800  20.4800
    20.6118  20.6119  20.6119  20.6119  20.6140  20.6142  20.6143  20.6144
    21.2161  21.2162  21.2164  21.2164  22.8398

          k =-0.5000 0.2500 0.2500 (  6238 PWs)   bands (ev):

   -66.9048 -66.9048 -66.8981 -66.8981 -66.8969 -66.8969 -66.8927 -66.8927
   -66.6089 -66.6088 -66.6064 -66.6064 -53.1709 -53.1700 -53.1689 -53.1681
   -33.0928 -33.0928 -33.0783 -33.0783 -33.0742 -33.0742 -33.0395 -33.0395
   -33.0290 -33.0290 -33.0146 -33.0146 -33.0127 -33.0127 -32.9724 -32.9724
   -32.9719 -32.9719 -32.9633 -32.9633 -32.9318 -32.9318 -32.8998 -32.8998
   -32.6908 -32.6908 -32.6891 -32.6890 -32.6799 -32.6799 -32.6571 -32.6571
   -32.5617 -32.5616 -32.5376 -32.5375 -24.5726 -24.5712 -24.5708 -24.5700
   -24.5693 -24.5683 -24.5679 -24.5661 -24.3655 -24.3634 -24.3612 -24.3590
    12.3836  12.3837  14.1449  14.1450  14.2998  14.2999  15.4405  15.4409
    15.6383  15.6385  15.8479  15.8484  16.0125  16.0125  16.0417  16.0422
    16.2160  16.2162  16.7173  16.7180  16.7361  16.7368  16.7809  16.7815
    17.0201  17.0207  17.1453  17.1457  17.1768  17.1770  17.2739  17.2739
    17.3262  17.3267  17.3655  17.3655  17.6077  17.6078  17.7335  17.7335
    17.7609  17.7610  17.7830  17.7830  17.8717  17.8719  18.6493  18.6494
    19.3691  19.3691  19.5758  19.5762  19.6137  19.6139  19.7219  19.7225
    19.7876  19.7878  19.9032  19.9032  20.0651  20.0656  20.0934  20.0945
    20.3005  20.3007  20.4935  20.4938  20.5158  20.5161  20.5229  20.5230
    20.5744  20.5745  20.5942  20.5942  20.7865  20.7869  20.8161  20.8164
    20.8260  20.8261  20.8355  20.8355  20.8791

          k =-0.5000-0.5000 0.2500 (  6156 PWs)   bands (ev):

   -66.9012 -66.9012 -66.9012 -66.9012 -66.8949 -66.8949 -66.8949 -66.8949
   -66.6076 -66.6076 -66.6075 -66.6075 -53.1708 -53.1699 -53.1688 -53.1680
   -33.0797 -33.0797 -33.0797 -33.0797 -33.0522 -33.0522 -33.0522 -33.0522
   -33.0196 -33.0196 -33.0196 -33.0196 -32.9969 -32.9969 -32.9969 -32.9969
   -32.9503 -32.9503 -32.9503 -32.9503 -32.9242 -32.9242 -32.9242 -32.9242
   -32.6902 -32.6901 -32.6901 -32.6901 -32.6614 -32.6614 -32.6614 -32.6613
   -32.5454 -32.5454 -32.5453 -32.5453 -24.5713 -24.5712 -24.5695 -24.5694
   -24.5680 -24.5680 -24.5662 -24.5662 -24.3627 -24.3618 -24.3607 -24.3597
    13.1761  13.1762  13.1763  13.1764  14.8875  14.8876  14.8877  14.8877
    15.9705  15.9708  15.9709  15.9711  16.3288  16.3289  16.3290  16.3291
    16.4146  16.4148  16.4151  16.4153  16.7592  16.7594  16.7596  16.7596
    17.0057  17.0060  17.0063  17.0066  17.0442  17.0443  17.0443  17.0444
    17.2099  17.2100  17.2100  17.2100  17.4919  17.4919  17.4919  17.4919
    17.7099  17.7100  17.7100  17.7100  17.9635  17.9635  17.9635  17.9635
    19.7949  19.7951  19.7952  19.7954  19.9074  19.9075  19.9079  19.9080
    19.9736  19.9737  19.9739  19.9741  19.9914  19.9915  19.9915  19.9915
    20.1679  20.1679  20.1679  20.1680  20.4685  20.4685  20.4687  20.4687
    20.5652  20.5653  20.5654  20.5655  20.5740  20.5741  20.5741  20.5742
    20.8839  20.8840  20.8841  20.8841  21.6633

     the Fermi energy is    19.2251 ev

!    total energy              =   -4943.23552617 Ry
     total all-electron energy =    -38952.924637 Ry
     estimated scf accuracy    <       0.00000089 Ry
     smearing contrib. (-TS)   =      -0.00898930 Ry
     internal energy E=F+TS    =   -4943.22653687 Ry

     The total energy is F=E-TS. E is the sum of the following terms:
     one-electron contribution =   -1529.68198215 Ry
     hartree contribution      =     922.89977485 Ry
     xc contribution           =    -421.99646210 Ry
     ewald contribution        =   -2624.11280897 Ry
     one-center paw contrib.   =   -1290.33505850 Ry

     total magnetization       =    20.87 Bohr mag/cell
     absolute magnetization    =    29.00 Bohr mag/cell

     convergence has been achieved in  42 iterations


     Computing stress (Cartesian axis) and pressure


     negative rho (up, down):  0.000E+00 1.709E-03
          total   stress  (Ry/bohr**3)                   (kbar)     P=     -665.48
  -0.00443617   0.00000000   0.00000000         -652.58        0.00        0.00
   0.00000000  -0.00456767   0.00000000            0.00     -671.93        0.00
   0.00000000   0.00000000  -0.00456767            0.00        0.00     -671.93


     Writing all to output data dir ./tmp/fe12cr04_hydro_0.00.save/ :
     XML data file, charge density, pseudopotentials, collected wavefunctions

     init_run     :     63.73s CPU     66.33s WALL (       1 calls)
     electrons    :   8327.19s CPU   8474.76s WALL (       1 calls)
     stress       :    136.14s CPU    139.00s WALL (       1 calls)

     Called by init_run:
     wfcinit      :     58.83s CPU     59.87s WALL (       1 calls)
     potinit      :      3.08s CPU      4.06s WALL (       1 calls)
     hinit0       :      0.78s CPU      0.88s WALL (       1 calls)

     Called by electrons:
     c_bands      :   7535.64s CPU   7623.04s WALL (      42 calls)
     sum_band     :    618.16s CPU    640.82s WALL (      42 calls)
     v_of_rho     :      9.43s CPU      8.63s WALL (      43 calls)
     newd         :     38.84s CPU     60.62s WALL (      43 calls)
     PAW_pot      :    126.24s CPU    143.75s WALL (      43 calls)
     mix_rho      :      1.73s CPU      1.96s WALL (      42 calls)

     Called by c_bands:
     init_us_2    :     21.32s CPU     23.46s WALL (    3096 calls)
     cegterg      :   7453.20s CPU   7539.75s WALL (    1512 calls)

     Called by *egterg:
     cdiaghg      :    739.80s CPU    749.69s WALL (    7340 calls)
     h_psi        :   2389.17s CPU   2462.82s WALL (    7376 calls)
     s_psi        :    872.53s CPU    873.05s WALL (    7376 calls)
     g_psi        :      2.61s CPU      2.87s WALL (    5828 calls)

     Called by h_psi:
     h_psi:calbec :    916.16s CPU    920.76s WALL (    7376 calls)
     vloc_psi     :    590.70s CPU    644.80s WALL (    7376 calls)
                                        0.00s GPU  (    7376 calls)
     add_vuspsi   :    876.71s CPU    883.14s WALL (    7376 calls)

     General routines
     calbec       :   1448.75s CPU   1456.93s WALL (    9356 calls)
     fft          :      6.25s CPU      4.90s WALL (    1094 calls)
     ffts         :      0.27s CPU      0.31s WALL (     170 calls)
     fftw         :    671.27s CPU    729.72s WALL ( 1245062 calls)
     interpolate  :      0.69s CPU      0.80s WALL (      86 calls)

     Parallel routines

     PWSCF        :      2h22m CPU      2h24m WALL


   This run was terminated on:  18:37:12  26Apr2026            

=------------------------------------------------------------------------------=
   JOB DONE.
=------------------------------------------------------------------------------=
