
     Program PWSCF v.7.5 starts on 26Apr2026 at 13:57:43 

     This program is part of the open-source Quantum ESPRESSO suite
     for quantum simulation of materials; please cite
         "P. Giannozzi et al., J. Phys.:Condens. Matter 21 395502 (2009);
         "P. Giannozzi et al., J. Phys.:Condens. Matter 29 465901 (2017);
         "P. Giannozzi et al., J. Chem. Phys. 152 154105 (2020);
          URL http://www.quantum-espresso.org", 
     in publications or presentations arising from this work. More details at
     http://www.quantum-espresso.org/quote

     Parallel version (MPI), running on     4 processors

     MPI processes distributed on     1 nodes
     1174 MiB available memory on the printing compute node when the environment starts

     Waiting for input...
     Reading input from standard input

     Current dimensions of program PWSCF are:
     Max number of different atomic species (ntypx) = 10
     Max number of k-points (npk) =  40000
     Max angular momentum in pseudopotentials (lmaxx) =  4
     file Fe.pbe-spn-kjpaw_psl.1.0.0.UPF: wavefunction(s)  3P 3D renormalized
     file Cr.pbe-spn-kjpaw_psl.1.0.0.UPF: wavefunction(s)  3S 3P 3D renormalized
     Found identity + (  0.0000 -0.5000 -0.5000) symmetry
     This is a supercell, fractional translations are disabled
     Message from routine setup:
     using ibrav=0 with symmetry is DISCOURAGED, use correct ibrav instead

     R & G space division:  proc/nbgrp/npool/nimage =       4
     Subspace diagonalization in iterative solution of the eigenvalue problem:
     a serial algorithm will be used


     Parallelization info
     --------------------
     sticks:   dense  smooth     PW     G-vecs:    dense   smooth      PW
     Min         799     400    115                34024    12073    1873
     Max         800     402    117                34025    12076    1875
     Sum        3197    1605    465               136099    48297    7497

     Using Slab Decomposition



     bravais-lattice index     =            0
     lattice parameter (alat)  =      10.5705  a.u.
     unit-cell volume          =    1181.1031 (a.u.)^3
     number of atoms/cell      =           16
     number of atomic types    =            2
     number of electrons       =       248.00
     number of Kohn-Sham states=          149
     kinetic-energy cutoff     =      45.0000  Ry
     charge density cutoff     =     360.0000  Ry
     scf convergence threshold =      1.0E-06
     mixing beta               =       0.3000
     number of iterations used =            8  plain     mixing
     Exchange-correlation= SLA  PW   PBX  PBC
                           (   1   4   3   4   0   0   0)

     celldm(1)=  10.570510  celldm(2)=   0.000000  celldm(3)=   0.000000
     celldm(4)=   0.000000  celldm(5)=   0.000000  celldm(6)=   0.000000

     crystal axes: (cart. coord. in units of alat)
               a(1) = (   1.000000   0.000000   0.000000 )  
               a(2) = (   0.000000   1.000000   0.000000 )  
               a(3) = (   0.000000   0.000000   1.000000 )  

     reciprocal axes: (cart. coord. in units 2 pi/alat)
               b(1) = (  1.000000  0.000000  0.000000 )  
               b(2) = (  0.000000  1.000000  0.000000 )  
               b(3) = (  0.000000  0.000000  1.000000 )  


     PseudoPot. # 1 for Fe read from file:
     ./pseudo/Fe.pbe-spn-kjpaw_psl.1.0.0.UPF
     MD5 check sum: fc81f059e5c5069939230b1155715ae8
     Pseudo is Projector augmented-wave + core cor, Zval = 16.0
     Generated using &quot;atomic&quot; code by A. Dal Corso  v.6.3
     Shape of augmentation charge: PSQ
     Using radial grid of 1191 points,  6 beta functions with: 
                l(1) =   0
                l(2) =   0
                l(3) =   1
                l(4) =   1
                l(5) =   2
                l(6) =   2
     Q(r) pseudized with 0 coefficients 


     PseudoPot. # 2 for Cr read from file:
     ./pseudo/Cr.pbe-spn-kjpaw_psl.1.0.0.UPF
     MD5 check sum: 198f1a2427a48552563eee314eba32ba
     Pseudo is Projector augmented-wave + core cor, Zval = 14.0
     Generated using &quot;atomic&quot; code by A. Dal Corso  v.6.3
     Shape of augmentation charge: PSQ
     Using radial grid of 1183 points,  6 beta functions with: 
                l(1) =   0
                l(2) =   0
                l(3) =   1
                l(4) =   1
                l(5) =   2
                l(6) =   2
     Q(r) pseudized with 0 coefficients 


     atomic species   valence    mass     pseudopotential
     Fe               16.00    55.84500     Fe( 1.00)
     Cr               14.00    51.99600     Cr( 1.00)

     Starting magnetic structure 
     atomic species   magnetization
     Fe              0.500
     Cr              0.300

     16 Sym. Ops., with inversion, found



   Cartesian axes

     site n.     atom                  positions (alat units)
         1        Cr     tau(   1) = (   0.0000000   0.0000000   0.0000000  )
         2        Fe     tau(   2) = (   0.2500000   0.2500000   0.2500000  )
         3        Fe     tau(   3) = (   0.0000000   0.0000000   0.5000000  )
         4        Fe     tau(   4) = (   0.2500000   0.2500000   0.7500000  )
         5        Fe     tau(   5) = (   0.0000000   0.5000000   0.0000000  )
         6        Fe     tau(   6) = (   0.2500000   0.7500000   0.2500000  )
         7        Cr     tau(   7) = (   0.0000000   0.5000000   0.5000000  )
         8        Fe     tau(   8) = (   0.2500000   0.7500000   0.7500000  )
         9        Cr     tau(   9) = (   0.5000000   0.0000000   0.0000000  )
        10        Fe     tau(  10) = (   0.7500000   0.2500000   0.2500000  )
        11        Fe     tau(  11) = (   0.5000000   0.0000000   0.5000000  )
        12        Fe     tau(  12) = (   0.7500000   0.2500000   0.7500000  )
        13        Fe     tau(  13) = (   0.5000000   0.5000000   0.0000000  )
        14        Fe     tau(  14) = (   0.7500000   0.7500000   0.2500000  )
        15        Cr     tau(  15) = (   0.5000000   0.5000000   0.5000000  )
        16        Fe     tau(  16) = (   0.7500000   0.7500000   0.7500000  )

     number of k points=    18  Marzari-Vanderbilt smearing, width (Ry)=  0.0200
                       cart. coord. in units 2pi/alat
        k(    1) = (   0.0000000   0.0000000   0.0000000), wk =   0.0156250
        k(    2) = (   0.0000000   0.0000000   0.2500000), wk =   0.0625000
        k(    3) = (   0.0000000   0.0000000  -0.5000000), wk =   0.0312500
        k(    4) = (   0.0000000   0.2500000   0.2500000), wk =   0.0625000
        k(    5) = (   0.0000000   0.2500000  -0.5000000), wk =   0.0625000
        k(    6) = (   0.0000000  -0.5000000  -0.5000000), wk =   0.0156250
        k(    7) = (   0.2500000   0.2500000   0.2500000), wk =   0.1250000
        k(    8) = (   0.2500000   0.2500000  -0.5000000), wk =   0.1250000
        k(    9) = (   0.2500000  -0.5000000  -0.5000000), wk =   0.0312500
        k(   10) = (  -0.5000000  -0.5000000  -0.5000000), wk =   0.0156250
        k(   11) = (   0.2500000   0.0000000   0.0000000), wk =   0.0312500
        k(   12) = (  -0.5000000   0.0000000   0.0000000), wk =   0.0156250
        k(   13) = (   0.2500000   0.2500000   0.0000000), wk =   0.1250000
        k(   14) = (   0.2500000  -0.5000000   0.0000000), wk =   0.0625000
        k(   15) = (  -0.5000000   0.0000000   0.2500000), wk =   0.0625000
        k(   16) = (  -0.5000000  -0.5000000   0.0000000), wk =   0.0312500
        k(   17) = (  -0.5000000   0.2500000   0.2500000), wk =   0.0625000
        k(   18) = (  -0.5000000  -0.5000000   0.2500000), wk =   0.0625000

     Dense  grid:   136099 G-vectors     FFT dimensions: (  64,  64,  64)

     Smooth grid:    48297 G-vectors     FFT dimensions: (  45,  45,  45)

     Estimated max dynamical RAM per process >     273.80 MB

     Estimated total dynamical RAM >       1.07 GB

     Check: negative core charge=   -0.000005
     Generating pointlists ...
     new r_m :   0.1786 (alat units)  1.8881 (a.u.) for type    1
     new r_m :   0.1786 (alat units)  1.8881 (a.u.) for type    2

     Initial potential from superposition of free atoms

     starting charge     247.9917, renormalised to     248.0000
     Starting wfcs are  160 randomized atomic wfcs
     Checking if some PAW data can be deallocated... 

     total cpu time spent up to now is       65.6 secs

     Self-consistent Calculation

     iteration #  1     ecut=    45.00 Ry     beta= 0.30
     Davidson diagonalization with overlap
     ethr =  1.00E-02,  avg # of iterations =  2.9

     total cpu time spent up to now is      277.5 secs

     total energy              =   -4937.13365222 Ry
     estimated scf accuracy    <      11.93956582 Ry

     total magnetization       =    49.96 Bohr mag/cell
     absolute magnetization    =    50.45 Bohr mag/cell

     iteration #  2     ecut=    45.00 Ry     beta= 0.30
     Davidson diagonalization with overlap
     ethr =  4.81E-03,  avg # of iterations =  5.4

     total cpu time spent up to now is      488.6 secs

     total energy              =   -4938.38164111 Ry
     estimated scf accuracy    <      48.04234261 Ry

     total magnetization       =    27.97 Bohr mag/cell
     absolute magnetization    =    29.32 Bohr mag/cell

     iteration #  3     ecut=    45.00 Ry     beta= 0.30
     Davidson diagonalization with overlap
     ethr =  4.81E-03,  avg # of iterations =  2.8

     negative rho (up, down):  0.000E+00 2.690E-03

     total cpu time spent up to now is      671.1 secs

     total energy              =   -4940.19958389 Ry
     estimated scf accuracy    <       8.86251607 Ry

     total magnetization       =    39.34 Bohr mag/cell
     absolute magnetization    =    40.04 Bohr mag/cell

     iteration #  4     ecut=    45.00 Ry     beta= 0.30
     Davidson diagonalization with overlap
     ethr =  3.57E-03,  avg # of iterations =  4.9

     negative rho (up, down):  0.000E+00 8.602E-03

     total cpu time spent up to now is      883.6 secs

     total energy              =   -4942.87211806 Ry
     estimated scf accuracy    <      10.33060512 Ry

     total magnetization       =    45.50 Bohr mag/cell
     absolute magnetization    =    45.95 Bohr mag/cell

     iteration #  5     ecut=    45.00 Ry     beta= 0.30
     Davidson diagonalization with overlap
     ethr =  3.57E-03,  avg # of iterations =  3.9

     negative rho (up, down):  0.000E+00 9.370E-03

     total cpu time spent up to now is     1077.0 secs

     total energy              =   -4943.23811694 Ry
     estimated scf accuracy    <      24.42497433 Ry

     total magnetization       =    39.26 Bohr mag/cell
     absolute magnetization    =    40.02 Bohr mag/cell

     iteration #  6     ecut=    45.00 Ry     beta= 0.30
     Davidson diagonalization with overlap
     ethr =  3.57E-03,  avg # of iterations =  1.3

     negative rho (up, down):  0.000E+00 9.389E-03

     total cpu time spent up to now is     1235.9 secs

     total energy              =   -4943.21892467 Ry
     estimated scf accuracy    <      13.01030121 Ry

     total magnetization       =    32.72 Bohr mag/cell
     absolute magnetization    =    34.06 Bohr mag/cell

     iteration #  7     ecut=    45.00 Ry     beta= 0.30
     Davidson diagonalization with overlap
     ethr =  3.57E-03,  avg # of iterations =  1.0

     negative rho (up, down):  0.000E+00 9.210E-03

     total cpu time spent up to now is     1388.2 secs

     total energy              =   -4943.26661847 Ry
     estimated scf accuracy    <       6.33338913 Ry

     total magnetization       =    30.36 Bohr mag/cell
     absolute magnetization    =    31.90 Bohr mag/cell

     iteration #  8     ecut=    45.00 Ry     beta= 0.30
     Davidson diagonalization with overlap
     ethr =  2.55E-03,  avg # of iterations =  1.1

     negative rho (up, down):  0.000E+00 8.840E-03

     total cpu time spent up to now is     1542.8 secs

     total energy              =   -4943.21077320 Ry
     estimated scf accuracy    <       4.46218068 Ry

     total magnetization       =    28.78 Bohr mag/cell
     absolute magnetization    =    30.52 Bohr mag/cell

     iteration #  9     ecut=    45.00 Ry     beta= 0.30
     Davidson diagonalization with overlap
     ethr =  1.80E-03,  avg # of iterations =  1.1

     negative rho (up, down):  0.000E+00 8.207E-03

     total cpu time spent up to now is     1697.5 secs

     total energy              =   -4943.21590493 Ry
     estimated scf accuracy    <       2.43669110 Ry

     total magnetization       =    27.13 Bohr mag/cell
     absolute magnetization    =    29.06 Bohr mag/cell

     iteration # 10     ecut=    45.00 Ry     beta= 0.30
     Davidson diagonalization with overlap
     ethr =  9.83E-04,  avg # of iterations =  1.3

     negative rho (up, down):  0.000E+00 6.153E-03

     total cpu time spent up to now is     1853.4 secs

     total energy              =   -4943.13147947 Ry
     estimated scf accuracy    <       1.86387884 Ry

     total magnetization       =    26.05 Bohr mag/cell
     absolute magnetization    =    28.02 Bohr mag/cell

     iteration # 11     ecut=    45.00 Ry     beta= 0.30
     Davidson diagonalization with overlap
     ethr =  7.52E-04,  avg # of iterations =  1.6

     negative rho (up, down):  0.000E+00 4.944E-03

     total cpu time spent up to now is     2010.8 secs

     total energy              =   -4943.16013018 Ry
     estimated scf accuracy    <       0.51859789 Ry

     total magnetization       =    23.75 Bohr mag/cell
     absolute magnetization    =    25.99 Bohr mag/cell

     iteration # 12     ecut=    45.00 Ry     beta= 0.30
     Davidson diagonalization with overlap
     ethr =  2.09E-04,  avg # of iterations =  3.1

     negative rho (up, down):  0.000E+00 3.986E-03

     total cpu time spent up to now is     2194.9 secs

     total energy              =   -4943.18461673 Ry
     estimated scf accuracy    <       0.57496982 Ry

     total magnetization       =    23.67 Bohr mag/cell
     absolute magnetization    =    25.92 Bohr mag/cell

     iteration # 13     ecut=    45.00 Ry     beta= 0.30
     Davidson diagonalization with overlap
     ethr =  2.09E-04,  avg # of iterations =  1.5

     negative rho (up, down):  0.000E+00 3.374E-03

     total cpu time spent up to now is     2355.5 secs

     total energy              =   -4943.20403694 Ry
     estimated scf accuracy    <       0.04463131 Ry

     total magnetization       =    23.34 Bohr mag/cell
     absolute magnetization    =    25.60 Bohr mag/cell

     iteration # 14     ecut=    45.00 Ry     beta= 0.30
     Davidson diagonalization with overlap
     c_bands:  1 eigenvalues not converged
     ethr =  1.80E-05,  avg # of iterations =  7.7

     negative rho (up, down):  0.000E+00 2.695E-03

     total cpu time spent up to now is     2579.9 secs

     total energy              =   -4943.21074899 Ry
     estimated scf accuracy    <       0.02141310 Ry

     total magnetization       =    22.79 Bohr mag/cell
     absolute magnetization    =    25.11 Bohr mag/cell

     iteration # 15     ecut=    45.00 Ry     beta= 0.30
     Davidson diagonalization with overlap
     ethr =  8.63E-06,  avg # of iterations =  2.6

     negative rho (up, down):  0.000E+00 2.178E-03

     total cpu time spent up to now is     2751.5 secs

     total energy              =   -4943.21495392 Ry
     estimated scf accuracy    <       0.00545589 Ry

     total magnetization       =    22.96 Bohr mag/cell
     absolute magnetization    =    25.32 Bohr mag/cell

     iteration # 16     ecut=    45.00 Ry     beta= 0.30
     Davidson diagonalization with overlap
     ethr =  2.20E-06,  avg # of iterations =  6.4

     negative rho (up, down):  0.000E+00 1.832E-03

     total cpu time spent up to now is     2965.9 secs

     total energy              =   -4943.21735523 Ry
     estimated scf accuracy    <       0.00473239 Ry

     total magnetization       =    22.62 Bohr mag/cell
     absolute magnetization    =    25.25 Bohr mag/cell

     iteration # 17     ecut=    45.00 Ry     beta= 0.30
     Davidson diagonalization with overlap
     ethr =  1.91E-06,  avg # of iterations =  6.2

     negative rho (up, down):  0.000E+00 1.793E-03

     total cpu time spent up to now is     3182.1 secs

     total energy              =   -4943.21784254 Ry
     estimated scf accuracy    <       0.01772504 Ry

     total magnetization       =    22.35 Bohr mag/cell
     absolute magnetization    =    25.26 Bohr mag/cell

     iteration # 18     ecut=    45.00 Ry     beta= 0.30
     Davidson diagonalization with overlap
     ethr =  1.91E-06,  avg # of iterations =  3.9

     negative rho (up, down):  0.000E+00 1.807E-03

     total cpu time spent up to now is     3368.9 secs

     total energy              =   -4943.21937191 Ry
     estimated scf accuracy    <       0.00561074 Ry

     total magnetization       =    22.30 Bohr mag/cell
     absolute magnetization    =    25.27 Bohr mag/cell

     iteration # 19     ecut=    45.00 Ry     beta= 0.30
     Davidson diagonalization with overlap
     ethr =  1.91E-06,  avg # of iterations =  3.1

     negative rho (up, down):  0.000E+00 2.007E-03

     total cpu time spent up to now is     3551.6 secs

     total energy              =   -4943.21989961 Ry
     estimated scf accuracy    <       0.00615039 Ry

     total magnetization       =    21.99 Bohr mag/cell
     absolute magnetization    =    25.25 Bohr mag/cell

     iteration # 20     ecut=    45.00 Ry     beta= 0.30
     Davidson diagonalization with overlap
     ethr =  1.91E-06,  avg # of iterations =  3.2

     negative rho (up, down):  0.000E+00 1.709E-03

     total cpu time spent up to now is     3729.3 secs

     total energy              =   -4943.22027670 Ry
     estimated scf accuracy    <       0.01020774 Ry

     total magnetization       =    21.82 Bohr mag/cell
     absolute magnetization    =    25.23 Bohr mag/cell

     iteration # 21     ecut=    45.00 Ry     beta= 0.30
     Davidson diagonalization with overlap
     ethr =  1.91E-06,  avg # of iterations =  3.8

     negative rho (up, down):  0.000E+00 1.793E-03

     total cpu time spent up to now is     3918.5 secs

     total energy              =   -4943.22148746 Ry
     estimated scf accuracy    <       0.00045584 Ry

     total magnetization       =    21.52 Bohr mag/cell
     absolute magnetization    =    25.38 Bohr mag/cell

     iteration # 22     ecut=    45.00 Ry     beta= 0.30
     Davidson diagonalization with overlap
     ethr =  1.84E-07,  avg # of iterations =  5.8

     negative rho (up, down):  0.000E+00 1.849E-03

     total cpu time spent up to now is     4142.2 secs

     total energy              =   -4943.22181785 Ry
     estimated scf accuracy    <       0.00030322 Ry

     total magnetization       =    21.43 Bohr mag/cell
     absolute magnetization    =    25.48 Bohr mag/cell

     iteration # 23     ecut=    45.00 Ry     beta= 0.30
     Davidson diagonalization with overlap
     ethr =  1.22E-07,  avg # of iterations =  4.5

     negative rho (up, down):  0.000E+00 1.884E-03

     total cpu time spent up to now is     4340.2 secs

     total energy              =   -4943.22179717 Ry
     estimated scf accuracy    <       0.00022515 Ry

     total magnetization       =    21.31 Bohr mag/cell
     absolute magnetization    =    25.61 Bohr mag/cell

     iteration # 24     ecut=    45.00 Ry     beta= 0.30
     Davidson diagonalization with overlap
     ethr =  9.08E-08,  avg # of iterations =  5.9

     negative rho (up, down):  0.000E+00 1.942E-03

     total cpu time spent up to now is     4621.0 secs

     total energy              =   -4943.22254748 Ry
     estimated scf accuracy    <       0.00025707 Ry

     total magnetization       =    21.10 Bohr mag/cell
     absolute magnetization    =    26.04 Bohr mag/cell

     iteration # 25     ecut=    45.00 Ry     beta= 0.30
     Davidson diagonalization with overlap
     ethr =  9.08E-08,  avg # of iterations =  3.5

     negative rho (up, down):  0.000E+00 1.900E-03

     total cpu time spent up to now is     4805.6 secs

     total energy              =   -4943.22259589 Ry
     estimated scf accuracy    <       0.00045586 Ry

     total magnetization       =    21.07 Bohr mag/cell
     absolute magnetization    =    26.16 Bohr mag/cell

     iteration # 26     ecut=    45.00 Ry     beta= 0.30
     Davidson diagonalization with overlap
     ethr =  9.08E-08,  avg # of iterations =  3.9

     negative rho (up, down):  0.000E+00 1.935E-03

     total cpu time spent up to now is     4996.1 secs

     total energy              =   -4943.22260812 Ry
     estimated scf accuracy    <       0.00067416 Ry

     total magnetization       =    21.07 Bohr mag/cell
     absolute magnetization    =    26.17 Bohr mag/cell

     iteration # 27     ecut=    45.00 Ry     beta= 0.30
     Davidson diagonalization with overlap
     ethr =  9.08E-08,  avg # of iterations =  3.6

     negative rho (up, down):  0.000E+00 1.913E-03

     total cpu time spent up to now is     5189.4 secs

     total energy              =   -4943.22270906 Ry
     estimated scf accuracy    <       0.00012397 Ry

     total magnetization       =    20.98 Bohr mag/cell
     absolute magnetization    =    26.25 Bohr mag/cell

     iteration # 28     ecut=    45.00 Ry     beta= 0.30
     Davidson diagonalization with overlap
     ethr =  5.00E-08,  avg # of iterations =  4.6

     negative rho (up, down):  0.000E+00 1.944E-03

     total cpu time spent up to now is     5388.3 secs

     total energy              =   -4943.22272105 Ry
     estimated scf accuracy    <       0.00008556 Ry

     total magnetization       =    20.96 Bohr mag/cell
     absolute magnetization    =    26.34 Bohr mag/cell

     iteration # 29     ecut=    45.00 Ry     beta= 0.30
     Davidson diagonalization with overlap
     ethr =  3.45E-08,  avg # of iterations =  5.7

     negative rho (up, down):  0.000E+00 1.932E-03

     total cpu time spent up to now is     5636.2 secs

     total energy              =   -4943.22279562 Ry
     estimated scf accuracy    <       0.00017059 Ry

     total magnetization       =    20.88 Bohr mag/cell
     absolute magnetization    =    26.54 Bohr mag/cell

     iteration # 30     ecut=    45.00 Ry     beta= 0.30
     Davidson diagonalization with overlap
     ethr =  3.45E-08,  avg # of iterations =  4.1

     negative rho (up, down):  0.000E+00 1.933E-03

     total cpu time spent up to now is     5825.5 secs

     total energy              =   -4943.22282246 Ry
     estimated scf accuracy    <       0.00012157 Ry

     total magnetization       =    20.89 Bohr mag/cell
     absolute magnetization    =    26.48 Bohr mag/cell

     iteration # 31     ecut=    45.00 Ry     beta= 0.30
     Davidson diagonalization with overlap
     ethr =  3.45E-08,  avg # of iterations =  5.0

     negative rho (up, down):  0.000E+00 1.946E-03

     total cpu time spent up to now is     6030.7 secs

     total energy              =   -4943.22287281 Ry
     estimated scf accuracy    <       0.00011496 Ry

     total magnetization       =    20.85 Bohr mag/cell
     absolute magnetization    =    26.60 Bohr mag/cell

     iteration # 32     ecut=    45.00 Ry     beta= 0.30
     Davidson diagonalization with overlap
     ethr =  3.45E-08,  avg # of iterations =  4.9

     negative rho (up, down):  0.000E+00 1.969E-03

     total cpu time spent up to now is     6240.8 secs

     total energy              =   -4943.22292396 Ry
     estimated scf accuracy    <       0.00003273 Ry

     total magnetization       =    20.80 Bohr mag/cell
     absolute magnetization    =    26.71 Bohr mag/cell

     iteration # 33     ecut=    45.00 Ry     beta= 0.30
     Davidson diagonalization with overlap
     ethr =  1.32E-08,  avg # of iterations =  5.1

     negative rho (up, down):  0.000E+00 1.987E-03

     total cpu time spent up to now is     6464.7 secs

     total energy              =   -4943.22294113 Ry
     estimated scf accuracy    <       0.00001146 Ry

     total magnetization       =    20.78 Bohr mag/cell
     absolute magnetization    =    26.77 Bohr mag/cell

     iteration # 34     ecut=    45.00 Ry     beta= 0.30
     Davidson diagonalization with overlap
     ethr =  4.62E-09,  avg # of iterations =  5.2

     negative rho (up, down):  0.000E+00 2.019E-03

     total cpu time spent up to now is     6707.0 secs

     total energy              =   -4943.22289593 Ry
     estimated scf accuracy    <       0.00000704 Ry

     total magnetization       =    20.75 Bohr mag/cell
     absolute magnetization    =    26.83 Bohr mag/cell

     iteration # 35     ecut=    45.00 Ry     beta= 0.30
     Davidson diagonalization with overlap
     ethr =  2.84E-09,  avg # of iterations =  6.7

     negative rho (up, down):  0.000E+00 2.005E-03

     total cpu time spent up to now is     7028.1 secs

     total energy              =   -4943.22294904 Ry
     estimated scf accuracy    <       0.00004104 Ry

     total magnetization       =    20.68 Bohr mag/cell
     absolute magnetization    =    26.97 Bohr mag/cell

     iteration # 36     ecut=    45.00 Ry     beta= 0.30
     Davidson diagonalization with overlap
     ethr =  2.84E-09,  avg # of iterations =  6.1

     negative rho (up, down):  0.000E+00 2.011E-03

     total cpu time spent up to now is     7292.8 secs

     total energy              =   -4943.22296449 Ry
     estimated scf accuracy    <       0.00002250 Ry

     total magnetization       =    20.71 Bohr mag/cell
     absolute magnetization    =    26.90 Bohr mag/cell

     iteration # 37     ecut=    45.00 Ry     beta= 0.30
     Davidson diagonalization with overlap
     ethr =  2.84E-09,  avg # of iterations =  5.2

     negative rho (up, down):  0.000E+00 2.014E-03

     total cpu time spent up to now is     7514.1 secs

     total energy              =   -4943.22296492 Ry
     estimated scf accuracy    <       0.00001816 Ry

     total magnetization       =    20.70 Bohr mag/cell
     absolute magnetization    =    26.94 Bohr mag/cell

     iteration # 38     ecut=    45.00 Ry     beta= 0.30
     Davidson diagonalization with overlap
     ethr =  2.84E-09,  avg # of iterations =  4.4

     negative rho (up, down):  0.000E+00 2.013E-03

     total cpu time spent up to now is     7719.2 secs

     total energy              =   -4943.22296096 Ry
     estimated scf accuracy    <       0.00000915 Ry

     total magnetization       =    20.71 Bohr mag/cell
     absolute magnetization    =    26.91 Bohr mag/cell

     iteration # 39     ecut=    45.00 Ry     beta= 0.30
     Davidson diagonalization with overlap
     ethr =  2.84E-09,  avg # of iterations =  5.2

     negative rho (up, down):  0.000E+00 2.009E-03

     Magnetic moment per site  (integrated on atomic sphere of radius R)
     atom   1 (R=0.179)  charge= 12.0841  magn= -0.5566
     atom   2 (R=0.179)  charge= 14.4028  magn=  1.8389
     atom   3 (R=0.179)  charge= 14.3685  magn=  2.2207
     atom   4 (R=0.179)  charge= 14.4028  magn=  1.8389
     atom   5 (R=0.179)  charge= 14.3685  magn=  2.2207
     atom   6 (R=0.179)  charge= 14.4028  magn=  1.8389
     atom   7 (R=0.179)  charge= 12.0835  magn= -0.5539
     atom   8 (R=0.179)  charge= 14.4028  magn=  1.8389
     atom   9 (R=0.179)  charge= 12.0833  magn= -0.5576
     atom  10 (R=0.179)  charge= 14.4028  magn=  1.8389
     atom  11 (R=0.179)  charge= 14.3686  magn=  2.2207
     atom  12 (R=0.179)  charge= 14.4028  magn=  1.8389
     atom  13 (R=0.179)  charge= 14.3686  magn=  2.2207
     atom  14 (R=0.179)  charge= 14.4028  magn=  1.8389
     atom  15 (R=0.179)  charge= 12.0830  magn= -0.5565
     atom  16 (R=0.179)  charge= 14.4028  magn=  1.8389

     total cpu time spent up to now is     7948.5 secs

     End of self-consistent calculation

 ------ SPIN UP ------------


          k = 0.0000 0.0000 0.0000 (  6031 PWs)   bands (ev):

   -68.6439 -68.6250 -68.6187 -68.6186 -68.4665 -68.4665 -68.4665 -68.4601
   -68.4601 -68.4601 -68.4543 -68.4534 -51.8229 -51.8210 -51.8016 -51.8008
   -34.8173 -34.7862 -34.7862 -34.7696 -34.7696 -34.6521 -34.6521 -34.6508
   -34.6426 -34.6414 -34.6414 -34.5769 -34.5687 -34.5607 -34.5262 -34.5239
   -34.5239 -34.5217 -34.5217 -34.5066 -34.4892 -34.4887 -34.4858 -34.4528
   -34.4498 -34.4498 -34.4301 -34.4301 -34.4147 -34.4115 -34.4098 -34.4098
   -34.3851 -34.3249 -34.3249 -34.3163 -23.2628 -23.2464 -23.1688 -23.1688
   -23.1533 -23.1533 -23.1453 -23.1453 -23.1405 -23.1405 -23.0635 -23.0595
    11.0062  14.4774  14.4890  14.4890  14.5522  14.5902  14.6176  14.7024
    14.7562  14.8328  14.8328  14.8337  14.8447  15.0080  15.1638  16.0503
    16.2560  16.2560  16.3260  16.3260  16.3886  16.3886  16.4130  16.4336
    16.4363  16.4363  16.4751  16.4751  16.4839  16.5232  16.7224  16.9029
    17.4789  17.5598  17.5885  17.5885  17.6065  17.7655  17.7799  17.7799
    17.7972  17.7992  17.7992  17.9349  17.9349  18.5040  18.5330  18.5680
    18.5782  18.6151  18.6278  18.6763  18.7476  18.7476  18.7724  18.7789
    18.7789  18.8619  18.8681  18.8681  18.8744  18.8867  19.3351  19.4765
    19.6914  19.9276  19.9821  19.9821  19.9882  19.9882  19.9924  20.0947
    20.1637  20.2089  20.2089  20.2147  20.2147  20.2346  20.2346  20.5384
    20.5580  20.7501  20.7514  20.8140  20.9735

          k = 0.0000 0.0000 0.2500 (  6023 PWs)   bands (ev):

   -68.6412 -68.6279 -68.6186 -68.6186 -68.4656 -68.4656 -68.4646 -68.4609
   -68.4609 -68.4591 -68.4559 -68.4544 -51.8227 -51.8212 -51.8015 -51.8008
   -34.7943 -34.7703 -34.7666 -34.7525 -34.7510 -34.6849 -34.6791 -34.6784
   -34.6741 -34.6679 -34.6405 -34.5937 -34.5573 -34.5563 -34.5289 -34.5268
   -34.5222 -34.5147 -34.4996 -34.4925 -34.4882 -34.4845 -34.4550 -34.4500
   -34.4484 -34.4360 -34.4299 -34.4208 -34.4176 -34.4137 -34.4074 -34.3939
   -34.3926 -34.3448 -34.3343 -34.3271 -23.2605 -23.2484 -23.1672 -23.1668
   -23.1556 -23.1555 -23.1458 -23.1445 -23.1404 -23.1401 -23.0630 -23.0595
    11.3429  13.6494  14.5879  14.6035  14.6789  14.7287  14.7473  14.7728
    14.8885  14.9068  14.9071  14.9204  15.0724  15.0751  15.3793  15.8675
    16.1056  16.1064  16.1331  16.1950  16.2218  16.3018  16.4037  16.4203
    16.4299  16.4380  16.5045  16.6040  16.8352  16.8879  16.8892  16.9387
    17.3239  17.4734  17.5242  17.5350  17.5509  17.5772  17.5785  17.6762
    17.6880  17.7510  18.0411  18.0439  18.0613  18.0636  18.2450  18.2698
    18.3126  18.3636  18.4397  18.4564  18.6002  18.6209  18.7745  18.7959
    18.8174  18.8549  18.8820  18.8935  18.9041  19.0268  19.2385  19.3697
    19.4489  19.5121  19.5897  19.6749  19.7501  19.7925  19.8758  19.9636
    20.0119  20.1366  20.1634  20.2364  20.4784  20.5008  20.5280  20.5951
    20.7110  20.7111  20.8155  20.8256  21.3800

          k = 0.0000 0.0000-0.5000 (  6062 PWs)   bands (ev):

   -68.6348 -68.6348 -68.6187 -68.6187 -68.4634 -68.4634 -68.4634 -68.4634
   -68.4601 -68.4601 -68.4567 -68.4567 -51.8223 -51.8217 -51.8015 -51.8010
   -34.7464 -34.7464 -34.7385 -34.7385 -34.7289 -34.7289 -34.7215 -34.7215
   -34.7162 -34.7161 -34.6198 -34.6198 -34.5457 -34.5457 -34.5423 -34.5423
   -34.5059 -34.5058 -34.5040 -34.5040 -34.4596 -34.4596 -34.4499 -34.4499
   -34.4435 -34.4435 -34.4237 -34.4237 -34.4107 -34.4107 -34.3933 -34.3933
   -34.3636 -34.3636 -34.3625 -34.3625 -23.2553 -23.2548 -23.1627 -23.1622
   -23.1620 -23.1615 -23.1443 -23.1437 -23.1426 -23.1420 -23.0615 -23.0610
    12.2981  12.2981  14.8195  14.8196  14.8348  14.8349  14.9470  14.9470
    14.9690  14.9690  15.1444  15.1444  15.2714  15.2715  15.3962  15.3963
    15.4789  15.4789  16.1438  16.1439  16.2426  16.2426  16.7863  16.7863
    16.8472  16.8472  16.8912  16.8913  16.9244  16.9244  16.9294  16.9295
    16.9851  16.9851  17.3153  17.3154  17.3514  17.3515  17.5243  17.5243
    17.5934  17.5934  17.7192  17.7192  17.8178  17.8179  17.9592  17.9592
    18.0826  18.0826  18.4239  18.4239  18.4989  18.4990  18.8392  18.8392
    18.9089  18.9089  18.9521  18.9521  18.9836  18.9838  19.1420  19.1420
    19.4394  19.4396  19.5421  19.5421  19.7333  19.7336  19.7544  19.7549
    20.3294  20.3295  20.4390  20.4394  20.4858  20.4858  20.5381  20.5384
    20.6588  20.6592  20.9842  20.9843  21.0769

          k = 0.0000 0.2500 0.2500 (  6016 PWs)   bands (ev):

   -68.6393 -68.6299 -68.6187 -68.6185 -68.4666 -68.4647 -68.4626 -68.4615
   -68.4599 -68.4599 -68.4562 -68.4554 -51.8225 -51.8214 -51.8015 -51.8008
   -34.7789 -34.7758 -34.7605 -34.7364 -34.7272 -34.7165 -34.7137 -34.7012
   -34.6571 -34.6451 -34.6353 -34.6016 -34.5504 -34.5476 -34.5245 -34.5241
   -34.5238 -34.5236 -34.5223 -34.4974 -34.4914 -34.4585 -34.4511 -34.4508
   -34.4494 -34.4471 -34.4379 -34.4260 -34.4184 -34.4049 -34.3984 -34.3873
   -34.3783 -34.3693 -34.3331 -34.3240 -23.2595 -23.2495 -23.1693 -23.1621
   -23.1615 -23.1532 -23.1465 -23.1433 -23.1416 -23.1391 -23.0623 -23.0600
    11.6690  13.7145  14.0113  14.4892  14.8284  14.8468  14.8674  14.9192
    14.9375  15.0541  15.0559  15.0598  15.1891  15.3389  15.4948  15.9653
    15.9709  16.0078  16.0147  16.1779  16.1887  16.2917  16.4164  16.4355
    16.4453  16.5537  16.5920  16.6501  16.6897  16.7854  16.8086  17.0287
    17.0465  17.3647  17.4101  17.4372  17.4634  17.4755  17.5442  17.6207
    17.7266  17.7869  17.9197  17.9328  17.9522  17.9965  18.0779  18.1435
    18.1619  18.2221  18.2448  18.4416  18.4677  18.4719  18.5048  18.5873
    18.7111  18.7886  18.9026  18.9148  18.9998  19.0404  19.2040  19.2978
    19.3143  19.3896  19.3915  19.4182  19.4892  19.8177  19.9057  19.9252
    19.9983  20.0805  20.0839  20.2696  20.3558  20.3765  20.4371  20.5062
    20.6856  21.0201  21.0290  21.3435  21.6679

          k = 0.0000 0.2500-0.5000 (  6042 PWs)   bands (ev):

   -68.6346 -68.6346 -68.6187 -68.6187 -68.4653 -68.4653 -68.4624 -68.4624
   -68.4581 -68.4581 -68.4577 -68.4577 -51.8223 -51.8217 -51.8015 -51.8010
   -34.7605 -34.7605 -34.7513 -34.7513 -34.7421 -34.7421 -34.6882 -34.6882
   -34.6730 -34.6730 -34.6203 -34.6203 -34.5369 -34.5369 -34.5365 -34.5365
   -34.5105 -34.5105 -34.5103 -34.5103 -34.4982 -34.4982 -34.4479 -34.4479
   -34.4359 -34.4359 -34.4274 -34.4274 -34.4185 -34.4185 -34.4123 -34.4123
   -34.3585 -34.3585 -34.3362 -34.3362 -23.2550 -23.2545 -23.1678 -23.1678
   -23.1554 -23.1554 -23.1459 -23.1457 -23.1416 -23.1415 -23.0615 -23.0610
    12.5795  12.5796  14.2628  14.2629  15.0688  15.0688  15.1195  15.1195
    15.1733  15.1733  15.3378  15.3378  15.4257  15.4258  15.4857  15.4858
    15.5620  15.5620  16.2381  16.2381  16.3045  16.3045  16.5793  16.5793
    16.5875  16.5875  16.5926  16.5927  16.6661  16.6661  17.0842  17.0842
    17.1897  17.1898  17.2137  17.2137  17.2268  17.2268  17.3298  17.3298
    17.3384  17.3385  17.5166  17.5166  17.7517  17.7519  18.1804  18.1804
    18.2616  18.2616  18.3697  18.3697  18.4750  18.4750  18.5647  18.5647
    18.6777  18.6777  18.6950  18.6950  18.9427  18.9427  19.1056  19.1056
    19.2564  19.2564  19.6679  19.6682  19.7089  19.7090  19.8381  19.8382
    19.8696  19.8698  20.1507  20.1508  20.3975  20.3978  20.5207  20.5207
    20.9622  20.9622  21.4656  21.4802  21.4803

          k = 0.0000-0.5000-0.5000 (  6024 PWs)   bands (ev):

   -68.6346 -68.6346 -68.6186 -68.6186 -68.4667 -68.4667 -68.4600 -68.4600
   -68.4600 -68.4600 -68.4569 -68.4569 -51.8223 -51.8217 -51.8015 -51.8009
   -34.7778 -34.7778 -34.7573 -34.7573 -34.7356 -34.7356 -34.6613 -34.6613
   -34.6445 -34.6444 -34.6214 -34.6214 -34.5311 -34.5311 -34.5233 -34.5233
   -34.5230 -34.5230 -34.5176 -34.5176 -34.5159 -34.5159 -34.4543 -34.4543
   -34.4517 -34.4517 -34.4428 -34.4428 -34.4122 -34.4122 -34.4065 -34.4065
   -34.3529 -34.3529 -34.3238 -34.3238 -23.2544 -23.2539 -23.1696 -23.1696
   -23.1540 -23.1540 -23.1464 -23.1464 -23.1400 -23.1400 -23.0623 -23.0618
    13.1958  13.1958  13.5090  13.5091  15.1617  15.1617  15.4033  15.4033
    15.4155  15.4155  15.4986  15.4987  15.7142  15.7142  15.7380  15.7380
    15.7655  15.7655  16.0653  16.0654  16.0931  16.0931  16.2054  16.2054
    16.5088  16.5088  16.5264  16.5264  16.6531  16.6531  16.7655  16.7655
    16.9566  16.9566  16.9980  16.9981  17.0717  17.0717  17.1457  17.1457
    17.4905  17.4906  17.6248  17.6248  17.7731  17.7734  18.0475  18.0475
    18.2501  18.2501  18.3826  18.3826  18.4587  18.4587  18.4780  18.4780
    18.5220  18.5220  18.5883  18.5883  18.9659  18.9659  19.0445  19.0446
    19.2902  19.2902  19.5446  19.5446  19.6428  19.6428  19.7525  19.7526
    19.9908  19.9908  20.0421  20.0423  20.2531  20.2531  20.3185  20.3188
    21.2833  21.2837  21.6506  21.6506  22.2022

          k = 0.2500 0.2500 0.2500 (  6007 PWs)   bands (ev):

   -68.6364 -68.6283 -68.6218 -68.6203 -68.4656 -68.4633 -68.4618 -68.4612
   -68.4610 -68.4602 -68.4570 -68.4562 -51.8194 -51.8184 -51.8045 -51.8039
   -34.7702 -34.7657 -34.7500 -34.7391 -34.7312 -34.7275 -34.7056 -34.6741
   -34.6723 -34.6702 -34.6371 -34.6217 -34.5519 -34.5495 -34.5260 -34.5239
   -34.5214 -34.5176 -34.5061 -34.4954 -34.4937 -34.4657 -34.4653 -34.4571
   -34.4558 -34.4400 -34.4277 -34.4129 -34.4126 -34.4098 -34.4066 -34.3753
   -34.3663 -34.3605 -34.3393 -34.3350 -23.2300 -23.2229 -23.1646 -23.1592
   -23.1585 -23.1522 -23.1467 -23.1457 -23.1451 -23.1440 -23.0899 -23.0892
    11.9902  13.9388  14.0792  14.2244  14.7145  14.7594  14.8055  15.0096
    15.0612  15.1620  15.1831  15.2628  15.5807  15.5825  15.6124  15.8876
    15.8880  15.8996  16.0517  16.2456  16.2658  16.2843  16.3733  16.4109
    16.5049  16.5530  16.5536  16.6011  16.6368  16.7364  16.7432  16.9593
    17.0222  17.0597  17.2115  17.2395  17.3271  17.3497  17.3844  17.4679
    17.4735  17.5890  17.6359  17.6650  17.6910  17.7105  17.9698  18.1238
    18.1498  18.1960  18.4276  18.5082  18.5266  18.5413  18.5523  18.5569
    18.6287  18.6689  18.7197  18.8116  18.8196  18.9316  19.2198  19.2978
    19.4240  19.4762  19.6049  19.6083  19.6201  19.6962  19.9156  20.0099
    20.0729  20.1173  20.2497  20.2676  20.3066  20.4700  20.5070  20.5127
    20.7742  20.7848  20.8629  21.0662  21.3284

          k = 0.2500 0.2500-0.5000 (  6004 PWs)   bands (ev):

   -68.6323 -68.6323 -68.6210 -68.6210 -68.4645 -68.4645 -68.4621 -68.4621
   -68.4583 -68.4583 -68.4583 -68.4583 -51.8192 -51.8186 -51.8045 -51.8039
   -34.7527 -34.7527 -34.7523 -34.7523 -34.7203 -34.7203 -34.7005 -34.7005
   -34.6761 -34.6761 -34.6256 -34.6256 -34.5360 -34.5360 -34.5354 -34.5354
   -34.5095 -34.5095 -34.5088 -34.5088 -34.4983 -34.4983 -34.4564 -34.4564
   -34.4467 -34.4467 -34.4255 -34.4255 -34.4094 -34.4094 -34.3875 -34.3875
   -34.3558 -34.3558 -34.3428 -34.3428 -23.2264 -23.2259 -23.1632 -23.1632
   -23.1540 -23.1539 -23.1468 -23.1466 -23.1450 -23.1448 -23.0900 -23.0895
    12.8707  12.8708  14.5137  14.5137  14.5343  14.5343  15.3255  15.3255
    15.4299  15.4299  15.4572  15.4573  15.5191  15.5191  15.6201  15.6202
    15.6782  15.6782  16.2725  16.2725  16.3488  16.3488  16.4320  16.4320
    16.4466  16.4466  16.6028  16.6028  16.7075  16.7076  16.8869  16.8869
    16.9005  16.9005  16.9550  16.9550  17.0192  17.0193  17.2458  17.2458
    17.2875  17.2875  17.3158  17.3159  17.3239  17.3241  18.0073  18.0073
    18.3566  18.3566  18.4189  18.4189  18.4616  18.4616  18.6183  18.6184
    18.6240  18.6240  18.8149  18.8149  19.0472  19.0472  19.1712  19.1712
    19.4365  19.4365  19.4373  19.4373  19.7541  19.7543  19.9635  19.9637
    20.0052  20.0052  20.3111  20.3113  20.4179  20.4182  20.5976  20.5977
    20.8816  20.8818  20.9096  20.9100  21.0863

          k = 0.2500-0.5000-0.5000 (  6000 PWs)   bands (ev):

   -68.6322 -68.6322 -68.6210 -68.6210 -68.4657 -68.4657 -68.4610 -68.4610
   -68.4595 -68.4595 -68.4572 -68.4572 -51.8192 -51.8186 -51.8045 -51.8040
   -34.7592 -34.7591 -34.7478 -34.7478 -34.7239 -34.7239 -34.6769 -34.6768
   -34.6735 -34.6735 -34.6403 -34.6403 -34.5259 -34.5259 -34.5250 -34.5250
   -34.5206 -34.5206 -34.5200 -34.5200 -34.5112 -34.5112 -34.4548 -34.4548
   -34.4394 -34.4394 -34.4179 -34.4179 -34.4091 -34.4091 -34.4019 -34.4019
   -34.3591 -34.3591 -34.3338 -34.3338 -23.2264 -23.2259 -23.1653 -23.1653
   -23.1520 -23.1520 -23.1478 -23.1478 -23.1448 -23.1448 -23.0897 -23.0892
    13.4888  13.4888  13.8067  13.8068  15.0851  15.0851  15.2223  15.2224
    15.3833  15.3833  15.7337  15.7338  15.7989  15.7989  15.9550  15.9550
    15.9743  15.9743  16.0882  16.0883  16.1094  16.1094  16.1156  16.1156
    16.4961  16.4961  16.5183  16.5184  16.6224  16.6224  16.6227  16.6228
    16.7639  16.7639  16.8113  16.8113  16.8146  16.8146  17.0102  17.0102
    17.0587  17.0587  17.1918  17.1920  17.4095  17.4096  17.5046  17.5046
    18.4474  18.4474  18.5068  18.5068  18.5910  18.5910  18.6001  18.6001
    18.7681  18.7681  18.8142  18.8142  18.8883  18.8883  19.3315  19.3315
    19.3754  19.3754  19.5205  19.5205  19.7367  19.7367  19.7759  19.7762
    20.1407  20.1410  20.2941  20.2944  20.3368  20.3372  20.4900  20.4900
    20.9329  20.9336  21.1567  21.1567  21.4961

          k =-0.5000-0.5000-0.5000 (  6008 PWs)   bands (ev):

   -68.6268 -68.6268 -68.6266 -68.6266 -68.4634 -68.4634 -68.4634 -68.4634
   -68.4584 -68.4584 -68.4584 -68.4584 -51.8127 -51.8119 -51.8111 -51.8107
   -34.7241 -34.7240 -34.7239 -34.7239 -34.7152 -34.7152 -34.7151 -34.7150
   -34.6894 -34.6894 -34.6893 -34.6893 -34.5244 -34.5244 -34.5244 -34.5244
   -34.5229 -34.5229 -34.5229 -34.5229 -34.4840 -34.4840 -34.4840 -34.4840
   -34.4232 -34.4232 -34.4232 -34.4232 -34.3766 -34.3766 -34.3766 -34.3766
   -34.3673 -34.3673 -34.3672 -34.3672 -23.1596 -23.1588 -23.1580 -23.1577
   -23.1561 -23.1561 -23.1547 -23.1547 -23.1503 -23.1503 -23.1490 -23.1490
    14.2598  14.2598  14.2598  14.2598  14.5592  14.5593  14.5593  14.5594
    15.8951  15.8951  15.8952  15.8952  15.9405  15.9405  15.9406  15.9406
    16.1284  16.1285  16.1286  16.1286  16.2439  16.2440  16.2441  16.2441
    16.4111  16.4111  16.4112  16.4112  16.5281  16.5281  16.5282  16.5282
    16.5715  16.5715  16.5717  16.5717  16.8331  16.8331  16.8333  16.8333
    16.8830  16.8830  16.8833  16.8833  16.9061  16.9063  16.9064  16.9066
    18.5908  18.5908  18.5909  18.5909  18.6101  18.6101  18.6102  18.6102
    18.9475  18.9475  18.9476  18.9476  19.2129  19.2129  19.2130  19.2130
    19.3432  19.3433  19.3435  19.3435  20.1948  20.1954  20.1958  20.1961
    20.3211  20.3211  20.3218  20.3218  20.3569  20.3573  20.3579  20.3581
    20.8216  20.8220  20.8226  20.8228  20.9594

          k = 0.2500 0.0000 0.0000 (  6023 PWs)   bands (ev):

   -68.6404 -68.6241 -68.6226 -68.6195 -68.4656 -68.4656 -68.4645 -68.4609
   -68.4609 -68.4591 -68.4558 -68.4544 -51.8197 -51.8181 -51.8045 -51.8039
   -34.7877 -34.7687 -34.7687 -34.7494 -34.7494 -34.6726 -34.6726 -34.6726
   -34.6726 -34.6525 -34.6523 -34.6423 -34.5666 -34.5630 -34.5201 -34.5201
   -34.5195 -34.5195 -34.5045 -34.5029 -34.4860 -34.4843 -34.4558 -34.4419
   -34.4419 -34.4355 -34.4117 -34.4111 -34.4111 -34.4102 -34.4099 -34.4099
   -34.4053 -34.3369 -34.3369 -34.3301 -23.2344 -23.2184 -23.1648 -23.1648
   -23.1520 -23.1520 -23.1465 -23.1465 -23.1439 -23.1439 -23.0908 -23.0892
    11.3437  13.6679  14.6037  14.6037  14.6950  14.7284  14.7349  14.7706
    14.8078  14.9123  14.9123  14.9561  14.9725  15.1763  15.3811  15.8382
    16.1359  16.1435  16.2033  16.2033  16.2086  16.2334  16.2334  16.4355
    16.4355  16.4776  16.4776  16.5249  16.7095  16.8888  16.8888  17.2071
    17.3932  17.3932  17.4379  17.4703  17.5581  17.5581  17.6619  17.7246
    17.7246  17.9272  17.9593  18.0465  18.0465  18.0804  18.2463  18.2823
    18.2823  18.3591  18.4149  18.5149  18.6221  18.7894  18.7984  18.7984
    18.8355  18.8659  18.8775  18.8972  18.8972  18.9956  19.0168  19.0503
    19.0503  19.5210  19.5978  19.9517  19.9517  19.9737  19.9781  20.0943
    20.2552  20.3020  20.3020  20.3892  20.3892  20.5244  20.5582  20.5582
    20.5681  20.6533  20.7652  21.0629  21.0629

          k =-0.5000 0.0000 0.0000 (  6062 PWs)   bands (ev):

   -68.6318 -68.6316 -68.6221 -68.6218 -68.4634 -68.4634 -68.4634 -68.4634
   -68.4599 -68.4599 -68.4567 -68.4567 -51.8129 -51.8118 -51.8114 -51.8105
   -34.7317 -34.7315 -34.7268 -34.7268 -34.7267 -34.7267 -34.7169 -34.7169
   -34.7167 -34.7167 -34.6581 -34.6579 -34.5707 -34.5707 -34.5164 -34.5164
   -34.5164 -34.5164 -34.4859 -34.4859 -34.4801 -34.4801 -34.4473 -34.4472
   -34.4294 -34.4294 -34.4294 -34.4294 -34.4117 -34.4117 -34.3775 -34.3774
   -34.3675 -34.3675 -34.3675 -34.3675 -23.1626 -23.1613 -23.1571 -23.1560
   -23.1560 -23.1558 -23.1546 -23.1546 -23.1495 -23.1495 -23.1482 -23.1482
    12.3032  12.3032  14.8334  14.8334  14.8334  14.8334  14.9289  14.9290
    15.0197  15.0197  15.1295  15.1295  15.2016  15.2016  15.3906  15.3906
    15.5378  15.5379  16.1871  16.1871  16.1871  16.1871  16.6090  16.6092
    16.8624  16.8625  16.8640  16.8640  16.8640  16.8640  16.9317  16.9317
    16.9318  16.9318  17.2003  17.2006  17.4368  17.4368  17.4369  17.4369
    17.9140  17.9140  17.9142  17.9142  17.9520  17.9521  18.0069  18.0072
    18.0614  18.0615  18.5128  18.5130  18.6147  18.6147  18.6147  18.6147
    18.7776  18.7777  18.8335  18.8335  18.8779  18.8779  18.9707  18.9708
    19.5872  19.5872  19.7312  19.7312  19.7317  19.7317  20.1084  20.1084
    20.1084  20.1084  20.3768  20.3774  20.4813  20.4823  20.6577  20.6587
    20.9181  20.9190  20.9602  20.9608  20.9608

          k = 0.2500 0.2500 0.0000 (  6016 PWs)   bands (ev):

   -68.6381 -68.6266 -68.6221 -68.6199 -68.4647 -68.4640 -68.4639 -68.4615
   -68.4599 -68.4599 -68.4572 -68.4554 -51.8196 -51.8183 -51.8045 -51.8039
   -34.7813 -34.7601 -34.7537 -34.7373 -34.7277 -34.7149 -34.7068 -34.6885
   -34.6877 -34.6420 -34.6418 -34.6150 -34.5584 -34.5576 -34.5316 -34.5269
   -34.5191 -34.5144 -34.4966 -34.4917 -34.4876 -34.4872 -34.4685 -34.4548
   -34.4511 -34.4301 -34.4290 -34.4196 -34.4081 -34.3992 -34.3983 -34.3924
   -34.3889 -34.3443 -34.3431 -34.3334 -23.2320 -23.2208 -23.1634 -23.1633
   -23.1539 -23.1538 -23.1469 -23.1463 -23.1440 -23.1436 -23.0905 -23.0891
    11.6701  13.8467  13.8621  14.4851  14.8408  14.8564  14.8615  14.9147
    14.9364  15.0056  15.0510  15.0947  15.2138  15.4314  15.4372  15.9045
    15.9289  15.9635  16.0043  16.2198  16.3204  16.3571  16.3574  16.3667
    16.3677  16.4198  16.5953  16.6610  16.7768  16.8042  16.8272  17.0968
    17.1390  17.3123  17.3687  17.3873  17.3910  17.4881  17.5352  17.5581
    17.7996  17.8086  17.8762  17.9577  17.9953  18.0337  18.0816  18.0977
    18.1245  18.3038  18.3086  18.3649  18.5072  18.5858  18.6392  18.7050
    18.7469  18.7792  18.8206  18.8420  18.8840  18.9286  19.0145  19.1994
    19.2342  19.3159  19.3613  19.5205  19.7859  19.8707  19.9367  20.1201
    20.1258  20.2447  20.2543  20.3079  20.4728  20.4909  20.5575  20.6065
    20.6236  20.7224  20.8078  20.8624  21.1146

          k = 0.2500-0.5000 0.0000 (  6042 PWs)   bands (ev):

   -68.6325 -68.6325 -68.6210 -68.6210 -68.4627 -68.4627 -68.4624 -68.4624
   -68.4605 -68.4605 -68.4577 -68.4577 -51.8193 -51.8187 -51.8045 -51.8039
   -34.7539 -34.7539 -34.7440 -34.7439 -34.7264 -34.7263 -34.7124 -34.7124
   -34.6809 -34.6808 -34.6207 -34.6207 -34.5445 -34.5445 -34.5415 -34.5415
   -34.5073 -34.5073 -34.5046 -34.5046 -34.4659 -34.4659 -34.4592 -34.4591
   -34.4585 -34.4585 -34.4573 -34.4573 -34.4017 -34.4017 -34.3681 -34.3681
   -34.3632 -34.3632 -34.3550 -34.3550 -23.2266 -23.2261 -23.1602 -23.1598
   -23.1595 -23.1592 -23.1463 -23.1457 -23.1448 -23.1442 -23.0908 -23.0902
    12.5835  12.5835  14.2460  14.2460  15.0581  15.0582  15.1498  15.1498
    15.2420  15.2420  15.2644  15.2644  15.4347  15.4348  15.4804  15.4804
    15.5478  15.5479  16.2220  16.2220  16.2935  16.2935  16.4948  16.4948
    16.5664  16.5664  16.5973  16.5973  16.8425  16.8426  17.0128  17.0128
    17.1531  17.1532  17.2251  17.2251  17.2306  17.2306  17.3245  17.3245
    17.4325  17.4327  17.5612  17.5612  17.6052  17.6052  18.1453  18.1453
    18.2642  18.2642  18.3161  18.3161  18.4365  18.4365  18.6847  18.6848
    18.7999  18.7999  18.8113  18.8113  18.9705  18.9705  19.0824  19.0825
    19.2444  19.2445  19.2639  19.2640  19.8589  19.8594  19.9571  19.9576
    20.0922  20.0924  20.3742  20.3746  20.3883  20.3883  20.6373  20.6375
    20.6991  20.6996  20.7378  20.7379  21.8664

          k =-0.5000 0.0000 0.2500 (  6042 PWs)   bands (ev):

   -68.6304 -68.6302 -68.6234 -68.6232 -68.4627 -68.4627 -68.4624 -68.4624
   -68.4604 -68.4604 -68.4577 -68.4577 -51.8128 -51.8119 -51.8112 -51.8107
   -34.7482 -34.7482 -34.7409 -34.7408 -34.7241 -34.7240 -34.7140 -34.7138
   -34.6739 -34.6739 -34.6404 -34.6403 -34.5587 -34.5587 -34.5269 -34.5269
   -34.5164 -34.5164 -34.4906 -34.4906 -34.4789 -34.4789 -34.4707 -34.4707
   -34.4499 -34.4498 -34.4468 -34.4468 -34.3927 -34.3927 -34.3746 -34.3745
   -34.3589 -34.3589 -34.3587 -34.3587 -23.1635 -23.1624 -23.1597 -23.1593
   -23.1541 -23.1527 -23.1512 -23.1511 -23.1507 -23.1499 -23.1498 -23.1487
    12.5875  12.5875  14.2392  14.2392  15.0729  15.0730  15.2066  15.2067
    15.2145  15.2146  15.2719  15.2720  15.3539  15.3539  15.4667  15.4667
    15.6066  15.6067  16.2573  16.2573  16.2790  16.2790  16.4165  16.4166
    16.4188  16.4189  16.7110  16.7110  16.8186  16.8186  17.0766  17.0767
    17.1033  17.1033  17.1696  17.1697  17.1907  17.1907  17.3259  17.3260
    17.3774  17.3775  17.7120  17.7121  17.7286  17.7287  18.1949  18.1949
    18.2705  18.2706  18.5484  18.5484  18.5566  18.5566  18.6025  18.6025
    18.6068  18.6068  18.7083  18.7084  18.8282  18.8283  18.9595  18.9595
    19.3030  19.3031  19.4690  19.4694  19.7387  19.7388  20.0642  20.0649
    20.2762  20.2765  20.3793  20.3803  20.4464  20.4466  20.5439  20.5441
    20.6396  20.6404  20.6423  20.6423  21.8571

          k =-0.5000-0.5000 0.0000 (  6024 PWs)   bands (ev):

   -68.6269 -68.6269 -68.6267 -68.6267 -68.4616 -68.4616 -68.4616 -68.4616
   -68.4600 -68.4600 -68.4600 -68.4600 -51.8127 -51.8119 -51.8111 -51.8107
   -34.7549 -34.7549 -34.7549 -34.7549 -34.7157 -34.7157 -34.7155 -34.7155
   -34.6322 -34.6322 -34.6322 -34.6322 -34.5437 -34.5437 -34.5437 -34.5437
   -34.5051 -34.5051 -34.5051 -34.5051 -34.4792 -34.4792 -34.4792 -34.4792
   -34.4657 -34.4657 -34.4657 -34.4656 -34.3807 -34.3807 -34.3806 -34.3806
   -34.3497 -34.3497 -34.3497 -34.3497 -23.1624 -23.1619 -23.1616 -23.1615
   -23.1532 -23.1523 -23.1516 -23.1512 -23.1497 -23.1492 -23.1489 -23.1488
    13.3434  13.3434  13.3434  13.3434  15.3025  15.3025  15.3026  15.3026
    15.5122  15.5122  15.5123  15.5123  15.6210  15.6210  15.6210  15.6210
    15.8519  15.8519  15.8519  15.8519  16.2481  16.2481  16.2481  16.2482
    16.4340  16.4341  16.4342  16.4342  16.8712  16.8712  16.8712  16.8712
    16.9269  16.9269  16.9270  16.9270  17.0305  17.0305  17.0306  17.0306
    17.5330  17.5330  17.5331  17.5331  17.8618  17.8618  17.8618  17.8619
    18.5152  18.5152  18.5153  18.5153  18.5206  18.5206  18.5206  18.5206
    18.5681  18.5681  18.5681  18.5682  19.0636  19.0637  19.0639  19.0640
    19.1138  19.1138  19.1138  19.1139  19.8756  19.8758  19.8759  19.8760
    20.1259  20.1267  20.1271  20.1275  20.6440  20.6441  20.6441  20.6442
    20.6481  20.6485  20.6488  20.6489  22.9419

          k =-0.5000 0.2500 0.2500 (  6004 PWs)   bands (ev):

   -68.6293 -68.6291 -68.6245 -68.6242 -68.4633 -68.4633 -68.4611 -68.4611
   -68.4608 -68.4608 -68.4578 -68.4578 -51.8127 -51.8118 -51.8111 -51.8106
   -34.7469 -34.7468 -34.7385 -34.7384 -34.7228 -34.7226 -34.7138 -34.7136
   -34.6695 -34.6695 -34.6401 -34.6400 -34.5517 -34.5517 -34.5225 -34.5225
   -34.5177 -34.5177 -34.4978 -34.4978 -34.4778 -34.4778 -34.4703 -34.4703
   -34.4643 -34.4643 -34.4255 -34.4255 -34.3999 -34.3999 -34.3662 -34.3662
   -34.3581 -34.3581 -34.3568 -34.3568 -23.1616 -23.1605 -23.1601 -23.1595
   -23.1553 -23.1539 -23.1510 -23.1504 -23.1500 -23.1497 -23.1494 -23.1480
    12.8779  12.8779  14.4127  14.4127  14.6266  14.6266  15.4127  15.4127
    15.4156  15.4156  15.4457  15.4457  15.5033  15.5034  15.5349  15.5349
    15.7329  15.7330  16.2447  16.2447  16.2961  16.2961  16.3735  16.3735
    16.4979  16.4980  16.5846  16.5847  16.7109  16.7110  16.9045  16.9046
    16.9156  16.9156  16.9280  16.9280  17.1071  17.1073  17.1389  17.1390
    17.2240  17.2240  17.3594  17.3595  17.4170  17.4170  18.0617  18.0618
    18.3875  18.3875  18.4569  18.4570  18.5764  18.5764  18.5887  18.5888
    18.6365  18.6365  18.6977  18.6978  18.9385  18.9386  19.0752  19.0752
    19.4466  19.4466  19.5964  19.5965  19.8064  19.8070  19.9945  19.9949
    20.2002  20.2008  20.3698  20.3699  20.4513  20.4520  20.4866  20.4874
    20.5778  20.5785  20.9352  20.9359  21.0060

          k =-0.5000-0.5000 0.2500 (  6000 PWs)   bands (ev):

   -68.6269 -68.6269 -68.6267 -68.6267 -68.4626 -68.4626 -68.4626 -68.4626
   -68.4589 -68.4589 -68.4589 -68.4589 -51.8127 -51.8119 -51.8110 -51.8107
   -34.7418 -34.7418 -34.7417 -34.7417 -34.7160 -34.7160 -34.7158 -34.7158
   -34.6554 -34.6554 -34.6554 -34.6554 -34.5364 -34.5364 -34.5364 -34.5364
   -34.5096 -34.5096 -34.5096 -34.5096 -34.4833 -34.4833 -34.4833 -34.4833
   -34.4421 -34.4421 -34.4421 -34.4421 -34.3803 -34.3803 -34.3803 -34.3803
   -34.3556 -34.3556 -34.3556 -34.3556 -23.1613 -23.1608 -23.1603 -23.1603
   -23.1535 -23.1530 -23.1522 -23.1520 -23.1500 -23.1498 -23.1489 -23.1489
    13.6338  13.6338  13.6338  13.6338  15.1801  15.1801  15.1801  15.1801
    15.5253  15.5253  15.5253  15.5253  15.8757  15.8757  15.8757  15.8757
    15.9542  15.9543  15.9543  15.9543  16.2307  16.2307  16.2308  16.2308
    16.4683  16.4684  16.4684  16.4684  16.6229  16.6230  16.6230  16.6230
    16.7174  16.7174  16.7174  16.7174  16.9455  16.9455  16.9455  16.9456
    17.1821  17.1821  17.1822  17.1822  17.4506  17.4506  17.4507  17.4507
    18.5505  18.5505  18.5506  18.5506  18.5741  18.5741  18.5742  18.5743
    18.7294  18.7294  18.7294  18.7294  19.0043  19.0043  19.0043  19.0043
    19.5846  19.5847  19.5848  19.5848  20.0099  20.0102  20.0107  20.0108
    20.1600  20.1602  20.1602  20.1603  20.4234  20.4237  20.4242  20.4243
    20.6275  20.6277  20.6279  20.6279  21.7225

 ------ SPIN DOWN ----------


          k = 0.0000 0.0000 0.0000 (  6031 PWs)   bands (ev):

   -66.3092 -66.2897 -66.2897 -66.2897 -66.2828 -66.2828 -66.2828 -66.2759
   -66.0067 -65.9999 -65.9998 -65.9943 -52.3851 -52.3824 -52.3645 -52.3624
   -32.5136 -32.5136 -32.5023 -32.4968 -32.4968 -32.4918 -32.4900 -32.4466
   -32.4466 -32.4098 -32.4082 -32.4007 -32.4007 -32.4001 -32.3786 -32.3631
   -32.3455 -32.3163 -32.3145 -32.3145 -32.2838 -32.2838 -32.2605 -32.2585
   -32.1363 -32.1363 -32.1244 -32.1244 -32.0398 -32.0398 -32.0373 -31.9827
   -31.9827 -31.9614 -31.9234 -31.8924 -23.7866 -23.7866 -23.7680 -23.7680
   -23.7640 -23.7640 -23.7566 -23.7566 -23.6984 -23.6777 -23.5017 -23.4963
    11.0714  14.9984  15.2230  15.2248  15.2379  15.2419  15.2419  15.3065
    15.3434  15.3434  15.3831  15.4599  15.5854  15.7564  16.0012  17.0875
    17.1065  17.1427  17.1427  17.3375  17.3375  17.4037  17.4037  17.4603
    17.4603  17.4752  17.5666  17.8971  17.9839  18.3732  18.3732  18.3806
    18.3819  18.7746  18.8360  18.8360  18.9228  19.2119  19.2119  19.2136
    19.2175  19.2175  19.2254  19.2254  19.2443  19.3072  19.3072  19.4249
    20.0969  20.1137  20.1437  20.2257  20.2257  20.2264  20.2422  20.2422
    20.3039  20.3844  20.3844  20.5003  20.6116  20.7436  20.8284  20.8311
    20.8834  20.8929  20.8929  21.1048  21.2395  21.2491  21.2491  21.2494
    21.2649  21.2805  21.3605  21.3665  21.3875  21.4676  21.7891  21.8334
    21.8334  21.9877  22.0209  22.0209  22.0233

          k = 0.0000 0.0000 0.2500 (  6023 PWs)   bands (ev):

   -66.3065 -66.2926 -66.2887 -66.2887 -66.2837 -66.2837 -66.2817 -66.2769
   -66.0048 -65.9999 -65.9998 -65.9960 -52.3849 -52.3825 -52.3645 -52.3624
   -32.5025 -32.4911 -32.4900 -32.4889 -32.4817 -32.4801 -32.4621 -32.4546
   -32.4446 -32.4186 -32.4183 -32.4100 -32.4058 -32.3992 -32.3924 -32.3702
   -32.3562 -32.3258 -32.3242 -32.3146 -32.3122 -32.3079 -32.2830 -32.2603
   -32.1121 -32.1081 -32.1065 -32.0935 -32.0472 -32.0470 -32.0052 -32.0012
   -31.9969 -31.9550 -31.9272 -31.9065 -23.7847 -23.7841 -23.7708 -23.7706
   -23.7642 -23.7629 -23.7567 -23.7566 -23.6955 -23.6803 -23.5011 -23.4964
    11.4111  13.7979  15.3151  15.3364  15.3607  15.3726  15.3928  15.3971
    15.4351  15.4709  15.4908  15.7575  15.8981  16.1371  16.1564  16.8209
    17.0746  17.0969  17.1090  17.1351  17.2611  17.3534  17.5126  17.5131
    17.5827  17.6537  17.7417  17.7782  17.8773  18.0199  18.1064  18.1730
    18.6564  18.6781  18.7352  18.7474  18.7604  18.8184  18.8321  18.9460
    18.9683  19.2188  19.2212  19.2458  19.3114  19.3305  19.4710  19.5719
    19.5751  19.6570  19.6629  19.7245  19.7347  19.8151  19.8184  20.5511
    20.5659  20.6989  20.7051  20.7467  20.7647  20.7908  20.8383  20.8489
    20.8761  20.8807  20.9612  21.0503  21.1956  21.2667  21.2686  21.3374
    21.3569  21.3698  21.4077  21.4540  21.5348  21.7126  21.8074  21.8119
    21.8278  21.9278  21.9419  21.9635  21.9744

          k = 0.0000 0.0000-0.5000 (  6062 PWs)   bands (ev):

   -66.2996 -66.2996 -66.2862 -66.2862 -66.2862 -66.2862 -66.2793 -66.2793
   -66.0003 -66.0003 -65.9998 -65.9998 -52.3848 -52.3828 -52.3646 -52.3625
   -32.4930 -32.4930 -32.4741 -32.4741 -32.4580 -32.4580 -32.4520 -32.4520
   -32.4429 -32.4429 -32.4264 -32.4264 -32.4051 -32.4051 -32.4038 -32.4038
   -32.3656 -32.3656 -32.3402 -32.3402 -32.3139 -32.3139 -32.2729 -32.2729
   -32.0800 -32.0799 -32.0728 -32.0728 -32.0485 -32.0485 -32.0384 -32.0384
   -31.9500 -31.9500 -31.9402 -31.9402 -23.7797 -23.7790 -23.7778 -23.7771
   -23.7625 -23.7607 -23.7605 -23.7587 -23.6895 -23.6875 -23.4998 -23.4977
    12.3817  12.3819  15.4672  15.4674  15.4929  15.4931  15.5155  15.5161
    15.5256  15.5260  16.1182  16.1188  16.1626  16.1631  16.3553  16.3556
    16.5569  16.5572  17.1176  17.1184  17.2130  17.2133  17.9828  17.9834
    17.9837  17.9842  18.0163  18.0166  18.0567  18.0570  18.1571  18.1575
    18.2321  18.2324  18.3122  18.3124  18.3630  18.3630  18.4967  18.4968
    18.5185  18.5185  18.7520  18.7525  18.8292  18.8294  19.2562  19.2565
    20.0233  20.0242  20.1462  20.1468  20.3214  20.3218  20.3490  20.3492
    20.3517  20.3520  20.5798  20.5802  20.6254  20.6258  21.0164  21.0169
    21.1055  21.1057  21.2500  21.2503  21.3024  21.3025  21.3496  21.3508
    21.3546  21.3552  21.4664  21.4666  21.4709  21.4710  21.4724  21.4730
    21.5199  21.5203  22.0478  22.0478  22.0618

          k = 0.0000 0.2500 0.2500 (  6016 PWs)   bands (ev):

   -66.3041 -66.2929 -66.2898 -66.2877 -66.2849 -66.2827 -66.2827 -66.2779
   -66.0035 -65.9999 -65.9998 -65.9973 -52.3848 -52.3826 -52.3645 -52.3624
   -32.4938 -32.4868 -32.4842 -32.4796 -32.4791 -32.4532 -32.4489 -32.4475
   -32.4467 -32.4413 -32.4249 -32.4165 -32.4141 -32.4032 -32.3961 -32.3774
   -32.3531 -32.3435 -32.3267 -32.3157 -32.3110 -32.2973 -32.2905 -32.2653
   -32.1347 -32.1280 -32.0764 -32.0736 -32.0432 -32.0414 -32.0350 -31.9871
   -31.9815 -31.9498 -31.9307 -31.9159 -23.7871 -23.7791 -23.7772 -23.7680
   -23.7652 -23.7611 -23.7586 -23.7552 -23.6940 -23.6818 -23.5004 -23.4969
    11.7413  13.9644  14.0904  15.0330  15.5044  15.5546  15.5885  15.6136
    15.6559  15.6739  15.8674  16.0603  16.1974  16.2299  16.2842  16.7546
    16.9282  17.1246  17.2179  17.3080  17.3081  17.3881  17.4782  17.4973
    17.5113  17.5267  17.6332  17.7532  17.7650  17.8250  17.9352  18.2747
    18.3599  18.5683  18.6011  18.6086  18.6134  18.6134  18.6288  18.6836
    18.8340  18.8651  18.8900  19.0150  19.0232  19.1465  19.2389  19.3237
    19.6639  19.7275  19.8147  19.8912  19.9204  19.9365  20.1597  20.2749
    20.3403  20.5452  20.6882  20.8083  20.8159  20.8435  20.8677  20.8868
    20.9268  21.0114  21.0378  21.0453  21.1094  21.1956  21.2134  21.3067
    21.3191  21.3373  21.3561  21.3657  21.3754  21.4259  21.4450  21.5410
    21.5635  21.5838  21.8812  22.1071  22.2146

          k = 0.0000 0.2500-0.5000 (  6042 PWs)   bands (ev):

   -66.2982 -66.2982 -66.2877 -66.2877 -66.2852 -66.2852 -66.2803 -66.2803
   -66.0003 -66.0003 -65.9998 -65.9998 -52.3847 -52.3827 -52.3646 -52.3625
   -32.4773 -32.4773 -32.4765 -32.4765 -32.4662 -32.4662 -32.4513 -32.4513
   -32.4347 -32.4347 -32.4255 -32.4255 -32.4156 -32.4156 -32.3977 -32.3977
   -32.3428 -32.3428 -32.3353 -32.3353 -32.3114 -32.3114 -32.2850 -32.2850
   -32.1123 -32.1123 -32.1002 -32.1002 -32.0494 -32.0493 -31.9968 -31.9968
   -31.9486 -31.9486 -31.9404 -31.9404 -23.7852 -23.7852 -23.7707 -23.7707
   -23.7644 -23.7641 -23.7582 -23.7579 -23.6893 -23.6872 -23.4998 -23.4978
    12.6760  12.6762  14.5534  14.5536  15.6648  15.6650  15.7856  15.7859
    16.0341  16.0346  16.2346  16.2351  16.3475  16.3480  16.4029  16.4031
    16.7013  16.7015  17.2286  17.2292  17.2642  17.2646  17.6271  17.6271
    17.7710  17.7711  17.7738  17.7741  17.8308  17.8309  18.0934  18.0935
    18.2198  18.2199  18.2677  18.2678  18.3182  18.3183  18.3720  18.3724
    18.4343  18.4344  18.4964  18.4965  18.6637  18.6638  19.6593  19.6594
    19.9952  19.9956  20.0216  20.0217  20.2128  20.2134  20.3026  20.3029
    20.3459  20.3464  20.4261  20.4262  20.5185  20.5187  20.9022  20.9027
    20.9462  20.9462  21.0001  21.0003  21.1468  21.1473  21.2377  21.2389
    21.2791  21.2791  21.3453  21.3455  21.3671  21.3671  21.5049  21.5050
    21.7406  21.7407  21.8888  21.8888  22.6569

          k = 0.0000-0.5000-0.5000 (  6024 PWs)   bands (ev):

   -66.2961 -66.2961 -66.2899 -66.2899 -66.2827 -66.2827 -66.2827 -66.2827
   -66.0003 -66.0003 -65.9998 -65.9998 -52.3848 -52.3828 -52.3645 -52.3624
   -32.4817 -32.4817 -32.4605 -32.4605 -32.4556 -32.4556 -32.4551 -32.4551
   -32.4507 -32.4507 -32.4433 -32.4433 -32.3982 -32.3982 -32.3872 -32.3872
   -32.3399 -32.3399 -32.3195 -32.3195 -32.3034 -32.3034 -32.2933 -32.2933
   -32.1323 -32.1323 -32.1272 -32.1272 -32.0375 -32.0374 -31.9810 -31.9810
   -31.9461 -31.9461 -31.9430 -31.9430 -23.7875 -23.7875 -23.7689 -23.7689
   -23.7652 -23.7652 -23.7561 -23.7561 -23.6886 -23.6866 -23.5006 -23.4985
    13.4524  13.4524  13.5165  13.5169  15.8631  15.8631  16.1546  16.1553
    16.2900  16.2905  16.3465  16.3465  16.4741  16.4743  16.7468  16.7475
    16.7696  16.7696  17.1259  17.1259  17.1640  17.1645  17.3394  17.3394
    17.5795  17.5806  17.6320  17.6320  17.6479  17.6480  17.8400  17.8400
    17.9700  17.9700  18.1309  18.1311  18.1381  18.1381  18.2603  18.2603
    18.2869  18.2876  18.5990  18.5990  19.0435  19.0435  19.2520  19.2520
    19.9366  19.9367  20.0382  20.0382  20.2541  20.2541  20.3645  20.3646
    20.3742  20.3752  20.4888  20.4892  20.6947  20.6947  20.7275  20.7275
    20.7435  20.7435  20.7701  20.7701  20.9109  20.9116  21.1562  21.1562
    21.1932  21.1947  21.2680  21.2680  21.3533  21.3533  21.5253  21.5253
    21.9692  21.9692  21.9999  21.9999  23.6527

          k = 0.2500 0.2500 0.2500 (  6007 PWs)   bands (ev):

   -66.3017 -66.2914 -66.2901 -66.2887 -66.2842 -66.2839 -66.2838 -66.2789
   -66.0029 -66.0003 -65.9994 -65.9976 -52.3818 -52.3797 -52.3675 -52.3654
   -32.4842 -32.4837 -32.4831 -32.4772 -32.4696 -32.4597 -32.4563 -32.4499
   -32.4317 -32.4227 -32.4162 -32.4156 -32.4103 -32.4098 -32.3914 -32.3857
   -32.3485 -32.3481 -32.3345 -32.3284 -32.3221 -32.3207 -32.3014 -32.2750
   -32.1096 -32.0907 -32.0780 -32.0730 -32.0526 -32.0523 -32.0450 -31.9944
   -31.9728 -31.9402 -31.9343 -31.9172 -23.7822 -23.7762 -23.7743 -23.7675
   -23.7650 -23.7639 -23.7618 -23.7602 -23.6649 -23.6557 -23.5276 -23.5255
    12.0651  14.1898  14.2642  14.3369  15.2301  15.3133  15.4063  15.8859
    15.9076  16.1467  16.2001  16.2801  16.4231  16.4372  16.4892  16.7219
    17.0549  17.0589  17.1616  17.1843  17.2675  17.3095  17.4392  17.4573
    17.5681  17.6028  17.6052  17.6354  17.6563  17.7877  18.0469  18.1339
    18.1862  18.2318  18.3473  18.4013  18.4309  18.4740  18.4888  18.4975
    18.5515  18.5608  18.5632  18.6047  18.7702  18.8342  18.9003  19.5283
    19.9282  19.9620  20.1078  20.1158  20.1179  20.1548  20.1662  20.4252
    20.5026  20.5642  20.6160  20.6420  20.6459  20.7718  20.7748  20.8019
    20.8431  21.0148  21.1219  21.1561  21.1891  21.2083  21.2105  21.2281
    21.3082  21.3609  21.3620  21.3648  21.4229  21.4724  21.5033  21.5093
    21.5787  21.6290  21.6385  21.6428  22.1936

          k = 0.2500 0.2500-0.5000 (  6004 PWs)   bands (ev):

   -66.2962 -66.2962 -66.2871 -66.2871 -66.2867 -66.2867 -66.2814 -66.2814
   -66.0002 -66.0002 -65.9999 -65.9999 -52.3818 -52.3798 -52.3675 -52.3654
   -32.4753 -32.4753 -32.4711 -32.4710 -32.4563 -32.4563 -32.4486 -32.4486
   -32.4344 -32.4344 -32.4203 -32.4203 -32.4132 -32.4132 -32.3761 -32.3761
   -32.3660 -32.3660 -32.3375 -32.3375 -32.3128 -32.3128 -32.3048 -32.3048
   -32.0923 -32.0923 -32.0890 -32.0890 -32.0550 -32.0550 -32.0111 -32.0111
   -31.9414 -31.9414 -31.9372 -31.9372 -23.7805 -23.7804 -23.7696 -23.7696
   -23.7653 -23.7647 -23.7617 -23.7612 -23.6610 -23.6590 -23.5278 -23.5257
    12.9723  12.9725  14.8167  14.8168  14.8241  14.8242  16.0659  16.0663
    16.2702  16.2708  16.3397  16.3398  16.4750  16.4755  16.6114  16.6117
    16.8297  16.8299  17.2794  17.2801  17.3453  17.3455  17.5110  17.5113
    17.5955  17.5958  17.7415  17.7415  17.8031  17.8032  17.8430  17.8431
    18.0175  18.0177  18.0773  18.0778  18.1199  18.1201  18.1808  18.1808
    18.3041  18.3042  18.3926  18.3927  18.4659  18.4660  19.3073  19.3074
    20.0467  20.0468  20.2518  20.2522  20.2621  20.2627  20.4726  20.4728
    20.4997  20.4998  20.5811  20.5813  20.7482  20.7486  20.8586  20.8591
    21.0147  21.0150  21.1076  21.1079  21.1380  21.1388  21.2135  21.2136
    21.2542  21.2543  21.3421  21.3423  21.5361  21.5364  21.5490  21.5494
    21.5780  21.5781  21.5861  21.5867  21.6001

          k = 0.2500-0.5000-0.5000 (  6000 PWs)   bands (ev):

   -66.2941 -66.2941 -66.2888 -66.2888 -66.2847 -66.2847 -66.2838 -66.2838
   -66.0002 -66.0002 -65.9999 -65.9999 -52.3817 -52.3798 -52.3675 -52.3654
   -32.4672 -32.4672 -32.4551 -32.4551 -32.4548 -32.4548 -32.4504 -32.4504
   -32.4469 -32.4469 -32.4345 -32.4345 -32.3975 -32.3975 -32.3694 -32.3694
   -32.3510 -32.3510 -32.3486 -32.3486 -32.3318 -32.3318 -32.3092 -32.3092
   -32.1095 -32.1095 -32.0933 -32.0932 -32.0462 -32.0462 -31.9931 -31.9931
   -31.9442 -31.9442 -31.9405 -31.9405 -23.7830 -23.7830 -23.7675 -23.7675
   -23.7661 -23.7661 -23.7611 -23.7611 -23.6612 -23.6591 -23.5274 -23.5253
    13.7327  13.7327  13.8233  13.8236  15.3641  15.3641  15.6412  15.6416
    16.4087  16.4095  16.7326  16.7326  16.8053  16.8060  16.9324  16.9326
    16.9959  16.9959  17.0937  17.0943  17.1855  17.1855  17.3498  17.3498
    17.4745  17.4754  17.6421  17.6421  17.7411  17.7411  17.7594  17.7594
    17.7851  17.7851  17.9108  17.9112  17.9972  17.9978  18.0765  18.0765
    18.1771  18.1772  18.1802  18.1802  18.5022  18.5022  18.6496  18.6496
    20.4305  20.4310  20.4876  20.4885  20.5241  20.5241  20.6315  20.6317
    20.7162  20.7162  20.7176  20.7176  20.7644  20.7644  20.8156  20.8157
    20.8614  20.8614  20.8831  20.8838  20.8839  20.8839  21.0923  21.0938
    21.1310  21.1310  21.2171  21.2171  21.2997  21.2999  21.4329  21.4329
    21.6409  21.6409  21.6415  21.6416  22.4136

          k =-0.5000-0.5000-0.5000 (  6008 PWs)   bands (ev):

   -66.2895 -66.2895 -66.2895 -66.2895 -66.2863 -66.2863 -66.2863 -66.2863
   -66.0001 -66.0001 -66.0000 -66.0000 -52.3748 -52.3745 -52.3735 -52.3717
   -32.4568 -32.4568 -32.4568 -32.4568 -32.4504 -32.4504 -32.4504 -32.4504
   -32.4120 -32.4120 -32.4120 -32.4120 -32.3930 -32.3930 -32.3930 -32.3930
   -32.3807 -32.3807 -32.3807 -32.3807 -32.3371 -32.3371 -32.3371 -32.3371
   -32.0734 -32.0734 -32.0733 -32.0733 -32.0322 -32.0322 -32.0321 -32.0321
   -31.9425 -31.9425 -31.9425 -31.9425 -23.7729 -23.7729 -23.7722 -23.7722
   -23.7669 -23.7669 -23.7657 -23.7657 -23.5952 -23.5949 -23.5939 -23.5920
    14.4780  14.4780  14.4780  14.4780  14.6443  14.6443  14.6445  14.6447
    16.9463  16.9464  16.9468  16.9473  17.0168  17.0170  17.0173  17.0179
    17.3024  17.3024  17.3026  17.3026  17.3530  17.3530  17.3532  17.3532
    17.5112  17.5114  17.5117  17.5124  17.6073  17.6073  17.6074  17.6074
    17.6868  17.6868  17.6869  17.6869  17.9200  17.9200  17.9201  17.9201
    17.9347  17.9347  17.9348  17.9348  17.9735  17.9735  17.9736  17.9736
    20.7546  20.7547  20.7551  20.7558  20.8081  20.8083  20.8089  20.8099
    20.9989  20.9989  20.9990  20.9990  21.0339  21.0339  21.0340  21.0340
    21.0460  21.0460  21.0461  21.0461  21.0588  21.0588  21.0591  21.0596
    21.0678  21.0678  21.0678  21.0679  21.1526  21.1526  21.1526  21.1526
    21.5072  21.5073  21.5074  21.5076  21.5385

          k = 0.2500 0.0000 0.0000 (  6023 PWs)   bands (ev):

   -66.3064 -66.2926 -66.2887 -66.2887 -66.2837 -66.2837 -66.2817 -66.2769
   -66.0057 -66.0008 -65.9990 -65.9951 -52.3820 -52.3795 -52.3675 -52.3654
   -32.4997 -32.4997 -32.4997 -32.4946 -32.4696 -32.4696 -32.4673 -32.4533
   -32.4533 -32.4082 -32.4057 -32.3972 -32.3921 -32.3921 -32.3756 -32.3718
   -32.3709 -32.3517 -32.3517 -32.3206 -32.3184 -32.3184 -32.2586 -32.2563
   -32.1129 -32.1129 -32.0906 -32.0906 -32.0471 -32.0471 -32.0242 -31.9968
   -31.9968 -31.9488 -31.9392 -31.8982 -23.7824 -23.7824 -23.7672 -23.7672
   -23.7647 -23.7647 -23.7601 -23.7601 -23.6703 -23.6507 -23.5283 -23.5256
    11.4108  13.8061  15.1108  15.2659  15.3416  15.3416  15.4457  15.4457
    15.4706  15.5621  15.6484  15.6783  15.9309  16.1527  16.2032  16.7918
    17.1075  17.1075  17.1559  17.1964  17.2645  17.2901  17.2901  17.5671
    17.5671  17.7190  17.7422  17.7559  17.7559  18.0971  18.0971  18.2421
    18.4252  18.7448  18.7448  18.8082  18.8082  18.8843  18.8912  18.9440
    18.9440  19.1988  19.2843  19.3211  19.3211  19.3272  19.4989  19.4989
    19.5895  19.6058  19.6657  19.7083  19.7083  19.8333  19.8333  20.5087
    20.6399  20.6406  20.7175  20.7592  20.7627  20.7627  20.8033  20.8127
    20.8424  20.8424  20.9518  21.1836  21.2444  21.2512  21.2676  21.2702
    21.2705  21.3509  21.4539  21.4539  21.6546  21.6677  21.8045  21.8045
    21.8776  21.9164  21.9280  21.9426  21.9783

          k =-0.5000 0.0000 0.0000 (  6062 PWs)   bands (ev):

   -66.2996 -66.2996 -66.2862 -66.2862 -66.2862 -66.2862 -66.2793 -66.2793
   -66.0034 -66.0032 -65.9970 -65.9969 -52.3749 -52.3746 -52.3734 -52.3717
   -32.5030 -32.5030 -32.4731 -32.4731 -32.4731 -32.4731 -32.4273 -32.4273
   -32.4213 -32.4213 -32.4213 -32.4213 -32.4075 -32.4075 -32.3861 -32.3861
   -32.3651 -32.3651 -32.3651 -32.3651 -32.3479 -32.3479 -32.2580 -32.2580
   -32.0779 -32.0779 -32.0778 -32.0778 -32.0343 -32.0343 -32.0342 -32.0342
   -31.9789 -31.9788 -31.9265 -31.9265 -23.7728 -23.7728 -23.7721 -23.7721
   -23.7659 -23.7659 -23.7648 -23.7648 -23.5988 -23.5979 -23.5917 -23.5904
    12.3815  12.3816  15.2627  15.2629  15.4964  15.4964  15.4965  15.4965
    15.8061  15.8063  16.0972  16.0975  16.1313  16.1316  16.4315  16.4318
    16.5462  16.5463  17.1764  17.1764  17.1767  17.1767  17.7396  17.7401
    17.9585  17.9585  17.9587  17.9587  18.0394  18.0400  18.1962  18.1962
    18.3899  18.3899  18.3899  18.3899  18.4469  18.4469  18.4553  18.4553
    18.4554  18.4554  18.8583  18.8583  18.8584  18.8584  19.1984  19.1986
    20.0631  20.0634  20.1163  20.1166  20.2502  20.2504  20.3421  20.3421
    20.3423  20.3423  20.6299  20.6299  20.6301  20.6301  21.0013  21.0020
    21.0991  21.0991  21.2569  21.2573  21.3149  21.3149  21.3261  21.3264
    21.3942  21.3946  21.4012  21.4013  21.4502  21.4503  21.5068  21.5068
    21.5070  21.5070  22.0501  22.0501  22.0501

          k = 0.2500 0.2500 0.0000 (  6016 PWs)   bands (ev):

   -66.3039 -66.2914 -66.2913 -66.2877 -66.2851 -66.2827 -66.2827 -66.2779
   -66.0041 -66.0005 -65.9993 -65.9965 -52.3819 -52.3796 -52.3675 -52.3654
   -32.4923 -32.4917 -32.4907 -32.4789 -32.4745 -32.4624 -32.4570 -32.4495
   -32.4339 -32.4170 -32.4167 -32.4090 -32.4050 -32.3984 -32.3938 -32.3879
   -32.3593 -32.3541 -32.3336 -32.3321 -32.3193 -32.3055 -32.2879 -32.2622
   -32.1026 -32.1010 -32.0852 -32.0834 -32.0575 -32.0504 -32.0199 -32.0082
   -31.9892 -31.9433 -31.9331 -31.9081 -23.7807 -23.7805 -23.7695 -23.7694
   -23.7652 -23.7643 -23.7607 -23.7600 -23.6672 -23.6534 -23.5280 -23.5255
    11.7409  14.0189  14.0287  15.0267  15.5233  15.5572  15.5750  15.5832
    15.6156  15.6604  15.9210  16.0583  16.2830  16.2865  16.2955  16.6924
    16.9331  17.1487  17.2073  17.2277  17.2717  17.4245  17.4401  17.4584
    17.4798  17.5534  17.6535  17.7426  17.8246  17.8609  17.8992  18.2908
    18.3619  18.4835  18.5570  18.5767  18.6249  18.6815  18.7064  18.7161
    18.9122  18.9172  18.9221  18.9288  19.0132  19.2196  19.2291  19.2585
    19.7140  19.7397  19.8276  19.8583  19.9006  19.9144  20.1776  20.2203
    20.3206  20.6383  20.6705  20.7205  20.7837  20.8124  20.8244  20.8504
    21.0195  21.0751  21.0890  21.1004  21.1435  21.1854  21.2365  21.2542
    21.2874  21.3183  21.3264  21.3852  21.3902  21.4049  21.4775  21.4859
    21.5439  21.5997  21.8574  22.0790  22.2052

          k = 0.2500-0.5000 0.0000 (  6042 PWs)   bands (ev):

   -66.2978 -66.2978 -66.2882 -66.2882 -66.2852 -66.2852 -66.2803 -66.2803
   -66.0003 -66.0003 -65.9999 -65.9999 -52.3819 -52.3799 -52.3674 -52.3654
   -32.4894 -32.4894 -32.4764 -32.4764 -32.4486 -32.4486 -32.4474 -32.4474
   -32.4383 -32.4383 -32.4192 -32.4192 -32.4156 -32.4156 -32.3786 -32.3786
   -32.3738 -32.3738 -32.3408 -32.3408 -32.3192 -32.3192 -32.2821 -32.2821
   -32.0855 -32.0854 -32.0679 -32.0679 -32.0649 -32.0649 -32.0430 -32.0430
   -31.9409 -31.9409 -31.9358 -31.9358 -23.7772 -23.7769 -23.7753 -23.7750
   -23.7648 -23.7628 -23.7627 -23.7607 -23.6610 -23.6589 -23.5286 -23.5265
    12.6751  12.6753  14.5509  14.5510  15.6826  15.6829  15.7640  15.7646
    16.1162  16.1163  16.1791  16.1795  16.3130  16.3135  16.4486  16.4489
    16.6483  16.6488  17.1975  17.1982  17.2968  17.2970  17.6780  17.6784
    17.7369  17.7370  17.7492  17.7495  17.9346  17.9346  18.1396  18.1399
    18.1564  18.1564  18.1579  18.1579  18.2125  18.2128  18.4750  18.4750
    18.4771  18.4771  18.5160  18.5161  18.7149  18.7150  19.6277  19.6278
    19.9904  19.9906  20.0028  20.0031  20.1982  20.1991  20.3648  20.3650
    20.4068  20.4070  20.4278  20.4279  20.4360  20.4361  20.8996  20.8997
    20.9056  20.9064  21.0127  21.0128  21.1727  21.1730  21.2443  21.2452
    21.3090  21.3090  21.3405  21.3407  21.3792  21.3793  21.4774  21.4775
    21.7202  21.7203  21.8598  21.8600  22.6433

          k =-0.5000 0.0000 0.2500 (  6042 PWs)   bands (ev):

   -66.2977 -66.2977 -66.2882 -66.2882 -66.2852 -66.2852 -66.2803 -66.2803
   -66.0024 -66.0023 -65.9979 -65.9978 -52.3748 -52.3746 -52.3735 -52.3717
   -32.4923 -32.4923 -32.4766 -32.4766 -32.4636 -32.4636 -32.4408 -32.4408
   -32.4218 -32.4218 -32.4100 -32.4100 -32.4063 -32.4063 -32.3805 -32.3805
   -32.3793 -32.3793 -32.3499 -32.3499 -32.3357 -32.3357 -32.2731 -32.2731
   -32.0829 -32.0828 -32.0670 -32.0669 -32.0653 -32.0652 -32.0428 -32.0427
   -31.9566 -31.9565 -31.9233 -31.9232 -23.7718 -23.7712 -23.7709 -23.7703
   -23.7680 -23.7676 -23.7667 -23.7663 -23.5980 -23.5971 -23.5916 -23.5902
    12.6752  12.6753  14.5390  14.5390  15.7069  15.7071  15.7079  15.7080
    16.1551  16.1553  16.2387  16.2390  16.2683  16.2684  16.5178  16.5181
    16.6219  16.6219  17.2442  17.2445  17.3099  17.3101  17.5343  17.5346
    17.5905  17.5909  17.8698  17.8700  17.9179  17.9179  18.0957  18.0958
    18.1581  18.1581  18.1903  18.1903  18.3135  18.3135  18.4482  18.4482
    18.5068  18.5068  18.5356  18.5356  18.7140  18.7141  19.6253  19.6254
    20.0015  20.0016  20.0105  20.0105  20.2570  20.2572  20.2760  20.2763
    20.3815  20.3817  20.4079  20.4080  20.4622  20.4623  20.8846  20.8853
    20.9232  20.9232  20.9897  20.9898  21.2350  21.2353  21.3093  21.3093
    21.3272  21.3273  21.3305  21.3306  21.3401  21.3403  21.3904  21.3905
    21.7083  21.7084  21.8643  21.8644  22.6370

          k =-0.5000-0.5000 0.0000 (  6024 PWs)   bands (ev):

   -66.2930 -66.2930 -66.2930 -66.2930 -66.2827 -66.2827 -66.2827 -66.2827
   -66.0001 -66.0001 -66.0000 -66.0000 -52.3748 -52.3745 -52.3735 -52.3717
   -32.4811 -32.4811 -32.4811 -32.4811 -32.4396 -32.4396 -32.4396 -32.4395
   -32.4395 -32.4395 -32.4395 -32.4395 -32.3936 -32.3936 -32.3936 -32.3936
   -32.3453 -32.3453 -32.3453 -32.3453 -32.3069 -32.3069 -32.3069 -32.3069
   -32.0880 -32.0880 -32.0879 -32.0879 -32.0529 -32.0528 -32.0528 -32.0527
   -31.9315 -31.9315 -31.9314 -31.9314 -23.7708 -23.7706 -23.7700 -23.7697
   -23.7695 -23.7687 -23.7679 -23.7671 -23.5949 -23.5946 -23.5937 -23.5917
    13.4812  13.4813  13.4814  13.4815  16.1062  16.1062  16.1063  16.1064
    16.1802  16.1802  16.1804  16.1807  16.5777  16.5777  16.5778  16.5779
    16.9698  16.9699  16.9703  16.9709  17.3347  17.3348  17.3350  17.3350
    17.5599  17.5599  17.5599  17.5599  17.8322  17.8322  17.8324  17.8330
    17.9457  17.9458  17.9458  17.9459  18.1460  18.1461  18.1461  18.1461
    18.5522  18.5522  18.5523  18.5523  19.1615  19.1615  19.1616  19.1616
    20.0009  20.0010  20.0011  20.0011  20.2672  20.2673  20.2674  20.2675
    20.5558  20.5558  20.5559  20.5563  20.5681  20.5683  20.5687  20.5695
    20.7141  20.7141  20.7142  20.7142  21.1393  21.1394  21.1395  21.1397
    21.3098  21.3098  21.3098  21.3098  21.3184  21.3185  21.3186  21.3190
    21.9595  21.9595  21.9596  21.9597  23.6782

          k =-0.5000 0.2500 0.2500 (  6004 PWs)   bands (ev):

   -66.2959 -66.2959 -66.2879 -66.2879 -66.2863 -66.2863 -66.2814 -66.2814
   -66.0017 -66.0016 -65.9985 -65.9984 -52.3748 -52.3745 -52.3734 -52.3717
   -32.4838 -32.4838 -32.4682 -32.4682 -32.4608 -32.4608 -32.4375 -32.4375
   -32.4278 -32.4278 -32.4113 -32.4113 -32.4106 -32.4105 -32.3756 -32.3755
   -32.3658 -32.3658 -32.3620 -32.3620 -32.3220 -32.3220 -32.2958 -32.2958
   -32.0737 -32.0736 -32.0720 -32.0719 -32.0688 -32.0688 -32.0321 -32.0320
   -31.9480 -31.9479 -31.9274 -31.9273 -23.7721 -23.7714 -23.7706 -23.7702
   -23.7688 -23.7673 -23.7658 -23.7647 -23.5960 -23.5953 -23.5927 -23.5911
    12.9722  12.9722  14.7296  14.7297  14.9100  14.9100  16.0532  16.0534
    16.2118  16.2119  16.4264  16.4267  16.5809  16.5810  16.5932  16.5935
    16.7552  16.7553  17.3160  17.3163  17.3625  17.3629  17.3871  17.3874
    17.6444  17.6448  17.7414  17.7415  17.7832  17.7833  17.8355  17.8355
    17.9738  17.9740  17.9913  17.9913  18.1793  18.1794  18.3216  18.3216
    18.3275  18.3275  18.3548  18.3548  18.4665  18.4666  19.3108  19.3109
    20.0492  20.0492  20.2621  20.2623  20.2887  20.2889  20.4151  20.4154
    20.4833  20.4834  20.5720  20.5720  20.7720  20.7722  20.8303  20.8309
    20.9948  20.9950  21.1962  21.1963  21.1989  21.1992  21.2023  21.2023
    21.2716  21.2716  21.2802  21.2802  21.5252  21.5253  21.5354  21.5357
    21.5572  21.5574  21.5642  21.5643  21.5854

          k =-0.5000-0.5000 0.2500 (  6000 PWs)   bands (ev):

   -66.2916 -66.2916 -66.2916 -66.2916 -66.2841 -66.2841 -66.2841 -66.2841
   -66.0001 -66.0001 -66.0000 -66.0000 -52.3747 -52.3745 -52.3735 -52.3717
   -32.4713 -32.4713 -32.4713 -32.4713 -32.4428 -32.4428 -32.4428 -32.4428
   -32.4253 -32.4253 -32.4253 -32.4253 -32.3993 -32.3993 -32.3993 -32.3993
   -32.3479 -32.3479 -32.3479 -32.3479 -32.3260 -32.3260 -32.3260 -32.3260
   -32.0774 -32.0774 -32.0773 -32.0773 -32.0458 -32.0457 -32.0457 -32.0457
   -31.9362 -31.9361 -31.9361 -31.9361 -23.7715 -23.7712 -23.7710 -23.7705
   -23.7679 -23.7676 -23.7668 -23.7662 -23.5950 -23.5947 -23.5938 -23.5918
    13.7737  13.7737  13.7738  13.7739  15.5012  15.5012  15.5013  15.5014
    16.5432  16.5432  16.5434  16.5438  16.9053  16.9054  16.9054  16.9055
    16.9986  16.9987  16.9991  16.9996  17.3549  17.3549  17.3551  17.3551
    17.5985  17.5986  17.5986  17.5987  17.6253  17.6253  17.6255  17.6260
    17.8203  17.8203  17.8204  17.8204  18.0451  18.0451  18.0451  18.0452
    18.2719  18.2719  18.2719  18.2719  18.5558  18.5558  18.5559  18.5559
    20.4908  20.4908  20.4909  20.4912  20.6271  20.6273  20.6276  20.6280
    20.6696  20.6697  20.6698  20.6701  20.7058  20.7059  20.7059  20.7059
    20.8157  20.8158  20.8158  20.8159  21.1199  21.1200  21.1200  21.1202
    21.2327  21.2328  21.2329  21.2331  21.2771  21.2771  21.2771  21.2772
    21.6229  21.6229  21.6231  21.6231  22.4328

     the Fermi energy is    19.8985 ev

!    total energy              =   -4943.22297103 Ry
     total all-electron energy =    -38952.912082 Ry
     estimated scf accuracy    <       0.00000091 Ry
     smearing contrib. (-TS)   =      -0.00703007 Ry
     internal energy E=F+TS    =   -4943.21594095 Ry

     The total energy is F=E-TS. E is the sum of the following terms:
     one-electron contribution =   -1488.18592744 Ry
     hartree contribution      =     908.21122968 Ry
     xc contribution           =    -422.27470302 Ry
     ewald contribution        =   -2650.61911742 Ry
     one-center paw contrib.   =   -1290.34742275 Ry

     total magnetization       =    20.68 Bohr mag/cell
     absolute magnetization    =    26.96 Bohr mag/cell

     convergence has been achieved in  39 iterations


     Computing stress (Cartesian axis) and pressure


     negative rho (up, down):  0.000E+00 2.009E-03
          total   stress  (Ry/bohr**3)                   (kbar)     P=     -621.51
  -0.00412602   0.00000000   0.00000000         -606.96        0.00        0.00
   0.00000000  -0.00427440   0.00000000            0.00     -628.79        0.00
   0.00000000   0.00000000  -0.00427440            0.00        0.00     -628.79


     Writing all to output data dir ./tmp/fe12cr04_hydro_-0.01.save/ :
     XML data file, charge density, pseudopotentials, collected wavefunctions

     init_run     :     62.94s CPU     65.17s WALL (       1 calls)
     electrons    :   7750.70s CPU   7883.02s WALL (       1 calls)
     stress       :    131.65s CPU    131.45s WALL (       1 calls)

     Called by init_run:
     wfcinit      :     58.17s CPU     58.73s WALL (       1 calls)
     potinit      :      3.32s CPU      4.43s WALL (       1 calls)
     hinit0       :      0.56s CPU      0.65s WALL (       1 calls)

     Called by electrons:
     c_bands      :   7039.04s CPU   7108.34s WALL (      39 calls)
     sum_band     :    554.55s CPU    581.36s WALL (      39 calls)
     v_of_rho     :      5.98s CPU      6.83s WALL (      40 calls)
     newd         :     35.18s CPU     50.08s WALL (      40 calls)
     PAW_pot      :    117.93s CPU    139.55s WALL (      40 calls)
     mix_rho      :      1.25s CPU      1.42s WALL (      39 calls)

     Called by c_bands:
     init_us_2    :     18.75s CPU     20.73s WALL (    2880 calls)
     cegterg      :   6961.42s CPU   7025.34s WALL (    1404 calls)

     Called by *egterg:
     cdiaghg      :    707.84s CPU    702.60s WALL (    7104 calls)
     h_psi        :   2212.96s CPU   2236.19s WALL (    7140 calls)
     s_psi        :    805.82s CPU    812.81s WALL (    7140 calls)
     g_psi        :      2.45s CPU      2.68s WALL (    5700 calls)

     Called by h_psi:
     h_psi:calbec :    841.48s CPU    847.24s WALL (    7140 calls)
     vloc_psi     :    562.22s CPU    585.18s WALL (    7140 calls)
                                        0.00s GPU  (    7140 calls)
     add_vuspsi   :    803.80s CPU    786.78s WALL (    7140 calls)

     General routines
     calbec       :   1327.17s CPU   1327.44s WALL (    9012 calls)
     fft          :      3.63s CPU      4.34s WALL (    1019 calls)
     ffts         :      0.25s CPU      0.28s WALL (     158 calls)
     fftw         :    636.14s CPU    665.84s WALL ( 1174674 calls)
     interpolate  :      0.48s CPU      0.57s WALL (      80 calls)

     Parallel routines

     PWSCF        :      2h12m CPU      2h14m WALL


   This run was terminated on:  16:12:27  26Apr2026            

=------------------------------------------------------------------------------=
   JOB DONE.
=------------------------------------------------------------------------------=
