
     Program PWSCF v.7.5 starts on 25Apr2026 at  5:53:29 

     This program is part of the open-source Quantum ESPRESSO suite
     for quantum simulation of materials; please cite
         "P. Giannozzi et al., J. Phys.:Condens. Matter 21 395502 (2009);
         "P. Giannozzi et al., J. Phys.:Condens. Matter 29 465901 (2017);
         "P. Giannozzi et al., J. Chem. Phys. 152 154105 (2020);
          URL http://www.quantum-espresso.org", 
     in publications or presentations arising from this work. More details at
     http://www.quantum-espresso.org/quote

     Parallel version (MPI), running on     4 processors

     MPI processes distributed on     1 nodes
     919 MiB available memory on the printing compute node when the environment starts

     Waiting for input...
     Reading input from standard input

     Current dimensions of program PWSCF are:
     Max number of different atomic species (ntypx) = 10
     Max number of k-points (npk) =  40000
     Max angular momentum in pseudopotentials (lmaxx) =  4
     file Fe.pbe-spn-kjpaw_psl.1.0.0.UPF: wavefunction(s)  3P 3D renormalized
     file Cr.pbe-spn-kjpaw_psl.1.0.0.UPF: wavefunction(s)  3S 3P 3D renormalized
     Message from routine setup:
     using ibrav=0 with symmetry is DISCOURAGED, use correct ibrav instead

     R & G space division:  proc/nbgrp/npool/nimage =       4
     Subspace diagonalization in iterative solution of the eigenvalue problem:
     one sub-group per band group will be used
     custom distributed-memory algorithm (size of sub-group:  2*  2 procs)


     Parallelization info
     --------------------
     sticks:   dense  smooth     PW     G-vecs:    dense   smooth      PW
     Min         799     400    115                34024    12073    1873
     Max         800     402    117                34025    12076    1875
     Sum        3197    1605    465               136099    48297    7497

     Using Slab Decomposition



     bravais-lattice index     =            0
     lattice parameter (alat)  =      10.5690  a.u.
     unit-cell volume          =    1180.5895 (a.u.)^3
     number of atoms/cell      =           16
     number of atomic types    =            2
     number of electrons       =       250.00
     number of Kohn-Sham states=          150
     kinetic-energy cutoff     =      45.0000  Ry
     charge density cutoff     =     360.0000  Ry
     scf convergence threshold =      1.0E-06
     mixing beta               =       0.3000
     number of iterations used =            8  plain     mixing
     Exchange-correlation= SLA  PW   PBX  PBC
                           (   1   4   3   4   0   0   0)

     celldm(1)=  10.568977  celldm(2)=   0.000000  celldm(3)=   0.000000
     celldm(4)=   0.000000  celldm(5)=   0.000000  celldm(6)=   0.000000

     crystal axes: (cart. coord. in units of alat)
               a(1) = (   1.000000   0.000000   0.000000 )  
               a(2) = (   0.000000   1.000000   0.000000 )  
               a(3) = (   0.000000   0.000000   1.000000 )  

     reciprocal axes: (cart. coord. in units 2 pi/alat)
               b(1) = (  1.000000  0.000000  0.000000 )  
               b(2) = (  0.000000  1.000000  0.000000 )  
               b(3) = (  0.000000  0.000000  1.000000 )  


     PseudoPot. # 1 for Fe read from file:
     ./pseudo/Fe.pbe-spn-kjpaw_psl.1.0.0.UPF
     MD5 check sum: fc81f059e5c5069939230b1155715ae8
     Pseudo is Projector augmented-wave + core cor, Zval = 16.0
     Generated using &quot;atomic&quot; code by A. Dal Corso  v.6.3
     Shape of augmentation charge: PSQ
     Using radial grid of 1191 points,  6 beta functions with: 
                l(1) =   0
                l(2) =   0
                l(3) =   1
                l(4) =   1
                l(5) =   2
                l(6) =   2
     Q(r) pseudized with 0 coefficients 


     PseudoPot. # 2 for Cr read from file:
     ./pseudo/Cr.pbe-spn-kjpaw_psl.1.0.0.UPF
     MD5 check sum: 198f1a2427a48552563eee314eba32ba
     Pseudo is Projector augmented-wave + core cor, Zval = 14.0
     Generated using &quot;atomic&quot; code by A. Dal Corso  v.6.3
     Shape of augmentation charge: PSQ
     Using radial grid of 1183 points,  6 beta functions with: 
                l(1) =   0
                l(2) =   0
                l(3) =   1
                l(4) =   1
                l(5) =   2
                l(6) =   2
     Q(r) pseudized with 0 coefficients 


     atomic species   valence    mass     pseudopotential
     Fe               16.00    55.84500     Fe( 1.00)
     Cr               14.00    51.99600     Cr( 1.00)

     Starting magnetic structure 
     atomic species   magnetization
     Fe              0.500
     Cr              0.300

     16 Sym. Ops., with inversion, found



   Cartesian axes

     site n.     atom                  positions (alat units)
         1        Cr     tau(   1) = (   0.0000000   0.0000000   0.0000000  )
         2        Fe     tau(   2) = (   0.2500000   0.2500000   0.2500000  )
         3        Fe     tau(   3) = (   0.0000000   0.0000000   0.5000000  )
         4        Fe     tau(   4) = (   0.2500000   0.2500000   0.7500000  )
         5        Fe     tau(   5) = (   0.0000000   0.5000000   0.0000000  )
         6        Fe     tau(   6) = (   0.2500000   0.7500000   0.2500000  )
         7        Cr     tau(   7) = (   0.0000000   0.5000000   0.5000000  )
         8        Fe     tau(   8) = (   0.2500000   0.7500000   0.7500000  )
         9        Fe     tau(   9) = (   0.5000000   0.0000000   0.0000000  )
        10        Fe     tau(  10) = (   0.7500000   0.2500000   0.2500000  )
        11        Fe     tau(  11) = (   0.5000000   0.0000000   0.5000000  )
        12        Fe     tau(  12) = (   0.7500000   0.2500000   0.7500000  )
        13        Fe     tau(  13) = (   0.5000000   0.5000000   0.0000000  )
        14        Fe     tau(  14) = (   0.7500000   0.7500000   0.2500000  )
        15        Cr     tau(  15) = (   0.5000000   0.5000000   0.5000000  )
        16        Fe     tau(  16) = (   0.7500000   0.7500000   0.7500000  )

     number of k points=    18  Marzari-Vanderbilt smearing, width (Ry)=  0.0200
                       cart. coord. in units 2pi/alat
        k(    1) = (   0.0000000   0.0000000   0.0000000), wk =   0.0156250
        k(    2) = (   0.0000000   0.0000000   0.2500000), wk =   0.0625000
        k(    3) = (   0.0000000   0.0000000  -0.5000000), wk =   0.0312500
        k(    4) = (   0.0000000   0.2500000   0.2500000), wk =   0.0625000
        k(    5) = (   0.0000000   0.2500000  -0.5000000), wk =   0.0625000
        k(    6) = (   0.0000000  -0.5000000  -0.5000000), wk =   0.0156250
        k(    7) = (   0.2500000   0.2500000   0.2500000), wk =   0.1250000
        k(    8) = (   0.2500000   0.2500000  -0.5000000), wk =   0.1250000
        k(    9) = (   0.2500000  -0.5000000  -0.5000000), wk =   0.0312500
        k(   10) = (  -0.5000000  -0.5000000  -0.5000000), wk =   0.0156250
        k(   11) = (   0.2500000   0.0000000   0.0000000), wk =   0.0312500
        k(   12) = (  -0.5000000   0.0000000   0.0000000), wk =   0.0156250
        k(   13) = (   0.2500000   0.2500000   0.0000000), wk =   0.1250000
        k(   14) = (   0.2500000  -0.5000000   0.0000000), wk =   0.0625000
        k(   15) = (  -0.5000000   0.0000000   0.2500000), wk =   0.0625000
        k(   16) = (  -0.5000000  -0.5000000   0.0000000), wk =   0.0312500
        k(   17) = (  -0.5000000   0.2500000   0.2500000), wk =   0.0625000
        k(   18) = (  -0.5000000  -0.5000000   0.2500000), wk =   0.0625000

     Dense  grid:   136099 G-vectors     FFT dimensions: (  64,  64,  64)

     Smooth grid:    48297 G-vectors     FFT dimensions: (  45,  45,  45)

     Estimated max dynamical RAM per process >     274.56 MB

     Estimated total dynamical RAM >       1.07 GB

     Check: negative core charge=   -0.000005
     Generating pointlists ...
     new r_m :   0.1786 (alat units)  1.8878 (a.u.) for type    1
     new r_m :   0.1786 (alat units)  1.8878 (a.u.) for type    2

     Initial potential from superposition of free atoms

     starting charge     249.9920, renormalised to     250.0000
     Starting wfcs are  160 randomized atomic wfcs
     Checking if some PAW data can be deallocated... 

     total cpu time spent up to now is       60.7 secs

     Self-consistent Calculation

     iteration #  1     ecut=    45.00 Ry     beta= 0.30
     Davidson diagonalization with overlap
     ethr =  1.00E-02,  avg # of iterations =  2.9

     total cpu time spent up to now is      282.6 secs

     total energy              =   -5018.02279850 Ry
     estimated scf accuracy    <      12.65047111 Ry

     total magnetization       =    49.98 Bohr mag/cell
     absolute magnetization    =    50.82 Bohr mag/cell

     iteration #  2     ecut=    45.00 Ry     beta= 0.30
     Davidson diagonalization with overlap
     ethr =  5.06E-03,  avg # of iterations =  6.4

     total cpu time spent up to now is      505.1 secs

     total energy              =   -5019.45512399 Ry
     estimated scf accuracy    <      47.57179239 Ry

     total magnetization       =    32.88 Bohr mag/cell
     absolute magnetization    =    34.21 Bohr mag/cell

     iteration #  3     ecut=    45.00 Ry     beta= 0.30
     Davidson diagonalization with overlap
     ethr =  5.06E-03,  avg # of iterations =  3.3

     negative rho (up, down):  0.000E+00 6.426E-04

     total cpu time spent up to now is      693.3 secs

     total energy              =   -5020.68982026 Ry
     estimated scf accuracy    <      11.08314096 Ry

     total magnetization       =    39.84 Bohr mag/cell
     absolute magnetization    =    40.88 Bohr mag/cell

     iteration #  4     ecut=    45.00 Ry     beta= 0.30
     Davidson diagonalization with overlap
     ethr =  4.43E-03,  avg # of iterations =  4.0

     negative rho (up, down):  0.000E+00 8.048E-03

     total cpu time spent up to now is      893.0 secs

     total energy              =   -5023.17141910 Ry
     estimated scf accuracy    <       6.24813392 Ry

     total magnetization       =    44.58 Bohr mag/cell
     absolute magnetization    =    45.39 Bohr mag/cell

     iteration #  5     ecut=    45.00 Ry     beta= 0.30
     Davidson diagonalization with overlap
     ethr =  2.50E-03,  avg # of iterations =  6.2

     negative rho (up, down):  0.000E+00 9.756E-03

     total cpu time spent up to now is     1172.7 secs

     total energy              =   -5024.97472453 Ry
     estimated scf accuracy    <      52.60841878 Ry

     total magnetization       =    40.89 Bohr mag/cell
     absolute magnetization    =    41.61 Bohr mag/cell

     iteration #  6     ecut=    45.00 Ry     beta= 0.30
     Davidson diagonalization with overlap
     ethr =  2.50E-03,  avg # of iterations =  1.8

     negative rho (up, down):  0.000E+00 9.935E-03

     total cpu time spent up to now is     1342.7 secs

     total energy              =   -5024.44185758 Ry
     estimated scf accuracy    <      33.65940466 Ry

     total magnetization       =    37.49 Bohr mag/cell
     absolute magnetization    =    38.51 Bohr mag/cell

     iteration #  7     ecut=    45.00 Ry     beta= 0.30
     Davidson diagonalization with overlap
     ethr =  2.50E-03,  avg # of iterations =  1.1

     negative rho (up, down):  0.000E+00 9.783E-03

     total cpu time spent up to now is     1499.7 secs

     total energy              =   -5024.42963092 Ry
     estimated scf accuracy    <      15.78975184 Ry

     total magnetization       =    33.56 Bohr mag/cell
     absolute magnetization    =    35.02 Bohr mag/cell

     iteration #  8     ecut=    45.00 Ry     beta= 0.30
     Davidson diagonalization with overlap
     ethr =  2.50E-03,  avg # of iterations =  1.0

     negative rho (up, down):  0.000E+00 9.307E-03

     total cpu time spent up to now is     1654.4 secs

     total energy              =   -5024.06017359 Ry
     estimated scf accuracy    <       9.39744137 Ry

     total magnetization       =    31.91 Bohr mag/cell
     absolute magnetization    =    33.56 Bohr mag/cell

     iteration #  9     ecut=    45.00 Ry     beta= 0.30
     Davidson diagonalization with overlap
     ethr =  2.50E-03,  avg # of iterations =  1.3

     negative rho (up, down):  0.000E+00 8.906E-03

     total cpu time spent up to now is     1816.8 secs

     total energy              =   -5024.22345411 Ry
     estimated scf accuracy    <       2.55759036 Ry

     total magnetization       =    28.56 Bohr mag/cell
     absolute magnetization    =    30.78 Bohr mag/cell

     iteration # 10     ecut=    45.00 Ry     beta= 0.30
     Davidson diagonalization with overlap
     ethr =  1.02E-03,  avg # of iterations =  1.7

     negative rho (up, down):  0.000E+00 7.193E-03

     total cpu time spent up to now is     1984.5 secs

     total energy              =   -5024.11620552 Ry
     estimated scf accuracy    <       1.60385811 Ry

     total magnetization       =    28.14 Bohr mag/cell
     absolute magnetization    =    30.37 Bohr mag/cell

     iteration # 11     ecut=    45.00 Ry     beta= 0.30
     Davidson diagonalization with overlap
     ethr =  6.42E-04,  avg # of iterations =  3.1

     negative rho (up, down):  0.000E+00 6.836E-03

     total cpu time spent up to now is     2161.2 secs

     total energy              =   -5024.18903139 Ry
     estimated scf accuracy    <       0.36165780 Ry

     total magnetization       =    26.11 Bohr mag/cell
     absolute magnetization    =    28.67 Bohr mag/cell

     iteration # 12     ecut=    45.00 Ry     beta= 0.30
     Davidson diagonalization with overlap
     ethr =  1.45E-04,  avg # of iterations =  5.2

     negative rho (up, down):  0.000E+00 5.710E-03

     total cpu time spent up to now is     2359.3 secs

     total energy              =   -5024.22441872 Ry
     estimated scf accuracy    <       0.15939391 Ry

     total magnetization       =    25.96 Bohr mag/cell
     absolute magnetization    =    28.62 Bohr mag/cell

     iteration # 13     ecut=    45.00 Ry     beta= 0.30
     Davidson diagonalization with overlap
     ethr =  6.38E-05,  avg # of iterations =  3.0

     negative rho (up, down):  0.000E+00 4.701E-03

     total cpu time spent up to now is     2540.9 secs

     total energy              =   -5024.23660578 Ry
     estimated scf accuracy    <       0.08565125 Ry

     total magnetization       =    25.64 Bohr mag/cell
     absolute magnetization    =    28.28 Bohr mag/cell

     iteration # 14     ecut=    45.00 Ry     beta= 0.30
     Davidson diagonalization with overlap
     ethr =  3.43E-05,  avg # of iterations =  3.4

     negative rho (up, down):  0.000E+00 4.081E-03

     total cpu time spent up to now is     2728.0 secs

     total energy              =   -5024.23866207 Ry
     estimated scf accuracy    <       0.09267760 Ry

     total magnetization       =    25.49 Bohr mag/cell
     absolute magnetization    =    28.29 Bohr mag/cell

     iteration # 15     ecut=    45.00 Ry     beta= 0.30
     Davidson diagonalization with overlap
     ethr =  3.43E-05,  avg # of iterations =  1.1

     negative rho (up, down):  0.000E+00 3.134E-03

     total cpu time spent up to now is     2885.0 secs

     total energy              =   -5024.24571388 Ry
     estimated scf accuracy    <       0.02148486 Ry

     total magnetization       =    25.49 Bohr mag/cell
     absolute magnetization    =    28.28 Bohr mag/cell

     iteration # 16     ecut=    45.00 Ry     beta= 0.30
     Davidson diagonalization with overlap
     ethr =  8.59E-06,  avg # of iterations =  6.0

     negative rho (up, down):  0.000E+00 2.550E-03

     total cpu time spent up to now is     3086.8 secs

     total energy              =   -5024.24908499 Ry
     estimated scf accuracy    <       0.01318659 Ry

     total magnetization       =    25.31 Bohr mag/cell
     absolute magnetization    =    28.42 Bohr mag/cell

     iteration # 17     ecut=    45.00 Ry     beta= 0.30
     Davidson diagonalization with overlap
     c_bands:  1 eigenvalues not converged
     ethr =  5.27E-06,  avg # of iterations =  4.5

     negative rho (up, down):  0.000E+00 2.358E-03

     total cpu time spent up to now is     3279.4 secs

     total energy              =   -5024.25199326 Ry
     estimated scf accuracy    <       0.00409513 Ry

     total magnetization       =    25.12 Bohr mag/cell
     absolute magnetization    =    28.60 Bohr mag/cell

     iteration # 18     ecut=    45.00 Ry     beta= 0.30
     Davidson diagonalization with overlap
     ethr =  1.64E-06,  avg # of iterations =  6.6

     negative rho (up, down):  0.000E+00 2.504E-03

     total cpu time spent up to now is     3499.3 secs

     total energy              =   -5024.25376431 Ry
     estimated scf accuracy    <       0.00229440 Ry

     total magnetization       =    24.86 Bohr mag/cell
     absolute magnetization    =    28.80 Bohr mag/cell

     iteration # 19     ecut=    45.00 Ry     beta= 0.30
     Davidson diagonalization with overlap
     ethr =  9.18E-07,  avg # of iterations =  6.2

     negative rho (up, down):  0.000E+00 2.404E-03

     total cpu time spent up to now is     3734.2 secs

     total energy              =   -5024.25587847 Ry
     estimated scf accuracy    <       0.00141456 Ry

     total magnetization       =    24.41 Bohr mag/cell
     absolute magnetization    =    29.15 Bohr mag/cell

     iteration # 20     ecut=    45.00 Ry     beta= 0.30
     Davidson diagonalization with overlap
     ethr =  5.66E-07,  avg # of iterations =  3.7

     negative rho (up, down):  0.000E+00 2.534E-03

     total cpu time spent up to now is     3934.9 secs

     total energy              =   -5024.25640380 Ry
     estimated scf accuracy    <       0.00140910 Ry

     total magnetization       =    24.28 Bohr mag/cell
     absolute magnetization    =    29.32 Bohr mag/cell

     iteration # 21     ecut=    45.00 Ry     beta= 0.30
     Davidson diagonalization with overlap
     ethr =  5.64E-07,  avg # of iterations =  2.0

     negative rho (up, down):  0.000E+00 2.708E-03

     total cpu time spent up to now is     4105.8 secs

     total energy              =   -5024.25678490 Ry
     estimated scf accuracy    <       0.00062474 Ry

     total magnetization       =    24.22 Bohr mag/cell
     absolute magnetization    =    29.38 Bohr mag/cell

     iteration # 22     ecut=    45.00 Ry     beta= 0.30
     Davidson diagonalization with overlap
     ethr =  2.50E-07,  avg # of iterations =  5.2

     negative rho (up, down):  0.000E+00 2.806E-03

     total cpu time spent up to now is     4324.2 secs

     total energy              =   -5024.25729459 Ry
     estimated scf accuracy    <       0.00086616 Ry

     total magnetization       =    24.08 Bohr mag/cell
     absolute magnetization    =    29.63 Bohr mag/cell

     iteration # 23     ecut=    45.00 Ry     beta= 0.30
     Davidson diagonalization with overlap
     ethr =  2.50E-07,  avg # of iterations =  4.9

     negative rho (up, down):  0.000E+00 2.801E-03

     total cpu time spent up to now is     4532.6 secs

     total energy              =   -5024.25763473 Ry
     estimated scf accuracy    <       0.00048407 Ry

     total magnetization       =    23.98 Bohr mag/cell
     absolute magnetization    =    29.85 Bohr mag/cell

     iteration # 24     ecut=    45.00 Ry     beta= 0.30
     Davidson diagonalization with overlap
     ethr =  1.94E-07,  avg # of iterations =  2.8

     negative rho (up, down):  0.000E+00 2.740E-03

     total cpu time spent up to now is     4720.9 secs

     total energy              =   -5024.25757652 Ry
     estimated scf accuracy    <       0.00025322 Ry

     total magnetization       =    23.95 Bohr mag/cell
     absolute magnetization    =    29.92 Bohr mag/cell

     iteration # 25     ecut=    45.00 Ry     beta= 0.30
     Davidson diagonalization with overlap
     ethr =  1.01E-07,  avg # of iterations =  6.2

     negative rho (up, down):  0.000E+00 2.823E-03

     total cpu time spent up to now is     4984.1 secs

     total energy              =   -5024.25812233 Ry
     estimated scf accuracy    <       0.00022896 Ry

     total magnetization       =    23.82 Bohr mag/cell
     absolute magnetization    =    30.26 Bohr mag/cell

     iteration # 26     ecut=    45.00 Ry     beta= 0.30
     Davidson diagonalization with overlap
     ethr =  9.16E-08,  avg # of iterations =  2.8

     negative rho (up, down):  0.000E+00 2.779E-03

     total cpu time spent up to now is     5163.3 secs

     total energy              =   -5024.25799149 Ry
     estimated scf accuracy    <       0.00018294 Ry

     total magnetization       =    23.79 Bohr mag/cell
     absolute magnetization    =    30.31 Bohr mag/cell

     iteration # 27     ecut=    45.00 Ry     beta= 0.30
     Davidson diagonalization with overlap
     ethr =  7.32E-08,  avg # of iterations =  5.8

     negative rho (up, down):  0.000E+00 2.789E-03

     total cpu time spent up to now is     5416.8 secs

     total energy              =   -5024.25834117 Ry
     estimated scf accuracy    <       0.00006197 Ry

     total magnetization       =    23.69 Bohr mag/cell
     absolute magnetization    =    30.58 Bohr mag/cell

     iteration # 28     ecut=    45.00 Ry     beta= 0.30
     Davidson diagonalization with overlap
     ethr =  2.48E-08,  avg # of iterations =  2.8

     negative rho (up, down):  0.000E+00 2.809E-03

     total cpu time spent up to now is     5611.6 secs

     total energy              =   -5024.25836055 Ry
     estimated scf accuracy    <       0.00013956 Ry

     total magnetization       =    23.70 Bohr mag/cell
     absolute magnetization    =    30.59 Bohr mag/cell

     iteration # 29     ecut=    45.00 Ry     beta= 0.30
     Davidson diagonalization with overlap
     ethr =  2.48E-08,  avg # of iterations =  3.3

     negative rho (up, down):  0.000E+00 2.839E-03

     total cpu time spent up to now is     5810.6 secs

     total energy              =   -5024.25835266 Ry
     estimated scf accuracy    <       0.00002931 Ry

     total magnetization       =    23.70 Bohr mag/cell
     absolute magnetization    =    30.63 Bohr mag/cell

     iteration # 30     ecut=    45.00 Ry     beta= 0.30
     Davidson diagonalization with overlap
     ethr =  1.17E-08,  avg # of iterations =  5.9

     negative rho (up, down):  0.000E+00 2.838E-03

     total cpu time spent up to now is     6081.0 secs

     total energy              =   -5024.25841302 Ry
     estimated scf accuracy    <       0.00000881 Ry

     total magnetization       =    23.66 Bohr mag/cell
     absolute magnetization    =    30.73 Bohr mag/cell

     iteration # 31     ecut=    45.00 Ry     beta= 0.30
     Davidson diagonalization with overlap
     ethr =  3.53E-09,  avg # of iterations =  4.8

     negative rho (up, down):  0.000E+00 2.835E-03

     total cpu time spent up to now is     6309.5 secs

     total energy              =   -5024.25842103 Ry
     estimated scf accuracy    <       0.00000877 Ry

     total magnetization       =    23.66 Bohr mag/cell
     absolute magnetization    =    30.75 Bohr mag/cell

     iteration # 32     ecut=    45.00 Ry     beta= 0.30
     Davidson diagonalization with overlap
     ethr =  3.51E-09,  avg # of iterations =  3.3

     negative rho (up, down):  0.000E+00 2.835E-03

     total cpu time spent up to now is     6503.9 secs

     total energy              =   -5024.25841948 Ry
     estimated scf accuracy    <       0.00001253 Ry

     total magnetization       =    23.65 Bohr mag/cell
     absolute magnetization    =    30.76 Bohr mag/cell

     iteration # 33     ecut=    45.00 Ry     beta= 0.30
     Davidson diagonalization with overlap
     ethr =  3.51E-09,  avg # of iterations =  5.1

     negative rho (up, down):  0.000E+00 2.836E-03

     total cpu time spent up to now is     6736.1 secs

     total energy              =   -5024.25842590 Ry
     estimated scf accuracy    <       0.00002312 Ry

     total magnetization       =    23.64 Bohr mag/cell
     absolute magnetization    =    30.78 Bohr mag/cell

     iteration # 34     ecut=    45.00 Ry     beta= 0.30
     Davidson diagonalization with overlap
     ethr =  3.51E-09,  avg # of iterations =  3.6

     negative rho (up, down):  0.000E+00 2.833E-03

     total cpu time spent up to now is     6919.2 secs

     total energy              =   -5024.25842730 Ry
     estimated scf accuracy    <       0.00000495 Ry

     total magnetization       =    23.64 Bohr mag/cell
     absolute magnetization    =    30.78 Bohr mag/cell

     iteration # 35     ecut=    45.00 Ry     beta= 0.30
     Davidson diagonalization with overlap
     ethr =  1.98E-09,  avg # of iterations =  2.2

     negative rho (up, down):  0.000E+00 2.833E-03

     total cpu time spent up to now is     7104.6 secs

     total energy              =   -5024.25842738 Ry
     estimated scf accuracy    <       0.00000359 Ry

     total magnetization       =    23.64 Bohr mag/cell
     absolute magnetization    =    30.77 Bohr mag/cell

     iteration # 36     ecut=    45.00 Ry     beta= 0.30
     Davidson diagonalization with overlap
     ethr =  1.44E-09,  avg # of iterations =  2.8

     negative rho (up, down):  0.000E+00 2.828E-03

     total cpu time spent up to now is     7281.9 secs

     total energy              =   -5024.25842843 Ry
     estimated scf accuracy    <       0.00000213 Ry

     total magnetization       =    23.63 Bohr mag/cell
     absolute magnetization    =    30.78 Bohr mag/cell

     iteration # 37     ecut=    45.00 Ry     beta= 0.30
     Davidson diagonalization with overlap
     ethr =  8.53E-10,  avg # of iterations =  4.0

     negative rho (up, down):  0.000E+00 2.828E-03

     Magnetic moment per site  (integrated on atomic sphere of radius R)
     atom   1 (R=0.179)  charge= 12.0699  magn= -1.0417
     atom   2 (R=0.179)  charge= 14.3934  magn=  1.9417
     atom   3 (R=0.179)  charge= 14.3718  magn=  2.1872
     atom   4 (R=0.179)  charge= 14.3934  magn=  1.9417
     atom   5 (R=0.179)  charge= 14.3718  magn=  2.1872
     atom   6 (R=0.179)  charge= 14.3934  magn=  1.9417
     atom   7 (R=0.179)  charge= 12.0796  magn= -0.6851
     atom   8 (R=0.179)  charge= 14.3934  magn=  1.9417
     atom   9 (R=0.179)  charge= 14.3674  magn=  2.4363
     atom  10 (R=0.179)  charge= 14.3934  magn=  1.9417
     atom  11 (R=0.179)  charge= 14.3639  magn=  2.3062
     atom  12 (R=0.179)  charge= 14.3934  magn=  1.9417
     atom  13 (R=0.179)  charge= 14.3639  magn=  2.3062
     atom  14 (R=0.179)  charge= 14.3934  magn=  1.9417
     atom  15 (R=0.179)  charge= 12.0797  magn= -0.8677
     atom  16 (R=0.179)  charge= 14.3934  magn=  1.9417

     total cpu time spent up to now is     7480.1 secs

     End of self-consistent calculation

 ------ SPIN UP ------------


          k = 0.0000 0.0000 0.0000 (  6031 PWs)   bands (ev):

   -68.7246 -68.6947 -68.6881 -68.6596 -68.6505 -68.5800 -68.5800 -68.5800
   -68.5736 -68.5736 -68.5736 -68.5669 -68.5538 -51.8395 -51.7968 -51.7693
   -34.8903 -34.8791 -34.8791 -34.8671 -34.8671 -34.8520 -34.7416 -34.7416
   -34.7348 -34.7113 -34.7113 -34.6960 -34.6877 -34.6755 -34.6755 -34.6510
   -34.6510 -34.6440 -34.6265 -34.6236 -34.6197 -34.6030 -34.5988 -34.5867
   -34.5867 -34.5763 -34.5556 -34.5556 -34.5460 -34.5348 -34.5348 -34.5243
   -34.5211 -34.4644 -34.4644 -34.4567 -34.4149 -34.4149 -34.4032 -23.2703
   -23.1737 -23.1737 -23.1407 -23.1407 -23.1167 -23.1105 -23.1105 -23.0704
    10.8764  14.3902  14.3951  14.3951  14.4440  14.4578  14.5120  14.5263
    14.5660  14.7200  14.7200  14.7269  14.7411  14.8664  15.0011  15.9763
    16.0434  16.0434  16.2030  16.2030  16.2144  16.2608  16.2608  16.2721
    16.3544  16.3570  16.3570  16.3850  16.3850  16.4385  16.5307  16.7639
    17.0017  17.3663  17.3663  17.3849  17.5619  17.6435  17.6540  17.6540
    17.6881  17.6881  17.6894  17.8370  17.8370  18.2020  18.2020  18.3792
    18.4183  18.4607  18.4788  18.4837  18.5109  18.5428  18.6114  18.6815
    18.6861  18.6861  18.7844  18.7858  18.7858  18.7935  18.8529  18.8605
    18.9731  19.4121  19.6272  19.6791  19.6791  19.8701  19.8701  19.8744
    19.8809  19.9027  19.9027  20.0127  20.0324  20.0324  20.1369  20.1369
    20.3158  20.5278  20.5355  20.5883  20.7516  20.7570

          k = 0.0000 0.0000 0.2500 (  6023 PWs)   bands (ev):

   -68.7219 -68.6954 -68.6902 -68.6589 -68.6529 -68.5791 -68.5790 -68.5752
   -68.5744 -68.5744 -68.5726 -68.5679 -68.5567 -51.8395 -51.7968 -51.7693
   -34.8664 -34.8620 -34.8571 -34.8504 -34.8480 -34.8460 -34.7570 -34.7509
   -34.7468 -34.7462 -34.7443 -34.7261 -34.7117 -34.7069 -34.6740 -34.6655
   -34.6496 -34.6395 -34.6278 -34.6223 -34.6127 -34.5990 -34.5924 -34.5689
   -34.5553 -34.5527 -34.5526 -34.5425 -34.5348 -34.5282 -34.5232 -34.5055
   -34.4970 -34.4748 -34.4716 -34.4646 -34.4344 -34.4255 -34.4150 -23.2701
   -23.1738 -23.1735 -23.1407 -23.1401 -23.1165 -23.1110 -23.1107 -23.0702
    11.2117  13.5207  14.4980  14.5050  14.5635  14.5961  14.6483  14.6592
    14.6947  14.7376  14.7979  14.8052  14.9419  14.9602  15.2550  15.7393
    15.9732  15.9811  16.0186  16.0301  16.0654  16.1507  16.2669  16.2984
    16.3325  16.3542  16.3772  16.3938  16.5675  16.7625  16.7791  16.8034
    17.2331  17.2771  17.2854  17.3534  17.3728  17.4366  17.4613  17.4656
    17.5476  17.6347  17.9129  17.9438  17.9446  17.9674  17.9860  18.1349
    18.1707  18.1790  18.2001  18.3573  18.4568  18.4960  18.5278  18.5399
    18.6706  18.7011  18.7097  18.7518  18.7656  18.7931  18.9345  18.9363
    18.9625  19.0634  19.1279  19.3586  19.5811  19.6540  19.6566  19.7218
    19.7915  19.8318  19.8674  19.9905  20.0394  20.1078  20.1302  20.4402
    20.4752  20.5495  20.6871  20.7180  20.9776  21.1471

          k = 0.0000 0.0000-0.5000 (  6062 PWs)   bands (ev):

   -68.7184 -68.6975 -68.6918 -68.6570 -68.6564 -68.5769 -68.5769 -68.5769
   -68.5769 -68.5702 -68.5702 -68.5674 -68.5627 -51.8396 -51.7968 -51.7693
   -34.8458 -34.8444 -34.8321 -34.8263 -34.8191 -34.8160 -34.8158 -34.8042
   -34.7911 -34.7894 -34.7657 -34.7473 -34.7195 -34.6961 -34.6925 -34.6629
   -34.6516 -34.6349 -34.6347 -34.6289 -34.6198 -34.5946 -34.5886 -34.5489
   -34.5486 -34.5427 -34.5317 -34.5317 -34.5277 -34.5045 -34.5027 -34.4852
   -34.4850 -34.4786 -34.4780 -34.4578 -34.4574 -34.4545 -34.4542 -23.2706
   -23.1747 -23.1739 -23.1413 -23.1398 -23.1169 -23.1126 -23.1115 -23.0703
    12.1233  12.2089  14.7099  14.7171  14.7294  14.7334  14.7372  14.7921
    14.8606  14.8933  14.9893  15.0573  15.0580  15.1947  15.2464  15.3116
    15.3274  15.3667  16.0064  16.0157  16.0634  16.1358  16.5332  16.6415
    16.6488  16.6984  16.7693  16.7704  16.8164  16.8178  16.8286  16.8364
    16.8442  16.8484  16.8999  17.2411  17.2434  17.2742  17.2895  17.2983
    17.4333  17.4946  17.6057  17.6150  17.6273  17.7234  17.7263  17.8708
    17.8885  18.0022  18.2238  18.3397  18.3636  18.3729  18.4109  18.4256
    18.6828  18.7238  18.7461  18.7479  18.8284  18.8856  18.9025  19.0355
    19.0587  19.0649  19.3647  19.4191  19.4274  19.4528  19.4585  19.4837
    19.6742  19.7031  19.9881  20.0059  20.2689  20.3181  20.3811  20.4935
    20.5329  20.5527  20.5547  20.6423  20.9530  21.0503

          k = 0.0000 0.2500 0.2500 (  6016 PWs)   bands (ev):

   -68.7194 -68.6956 -68.6925 -68.6584 -68.6542 -68.5789 -68.5781 -68.5749
   -68.5734 -68.5734 -68.5716 -68.5689 -68.5588 -51.8395 -51.7968 -51.7693
   -34.8599 -34.8539 -34.8470 -34.8422 -34.8294 -34.8280 -34.7876 -34.7868
   -34.7681 -34.7526 -34.7402 -34.7089 -34.7052 -34.6907 -34.6785 -34.6726
   -34.6519 -34.6363 -34.6361 -34.6275 -34.6238 -34.6073 -34.6029 -34.5658
   -34.5493 -34.5460 -34.5455 -34.5319 -34.5314 -34.5279 -34.5178 -34.4913
   -34.4846 -34.4777 -34.4713 -34.4643 -34.4637 -34.4221 -34.4139 -23.2701
   -23.1739 -23.1738 -23.1409 -23.1399 -23.1165 -23.1115 -23.1103 -23.0701
    11.5367  13.6238  13.8258  14.3770  14.7381  14.7474  14.7607  14.7855
    14.8312  14.8669  14.8831  14.9449  15.0734  15.2480  15.3624  15.8057
    15.8482  15.8574  15.8626  16.0999  16.1090  16.1671  16.1713  16.2581
    16.3462  16.3556  16.4425  16.4740  16.5699  16.6671  16.7152  16.9367
    16.9504  17.1466  17.1813  17.2124  17.2858  17.3035  17.3934  17.4461
    17.6414  17.7048  17.7774  17.8285  17.8307  17.8753  17.9006  17.9252
    18.0230  18.0815  18.1412  18.1859  18.2821  18.3331  18.3806  18.5044
    18.5891  18.5957  18.6716  18.7144  18.7622  18.7866  18.8161  18.8164
    19.0111  19.0665  19.1247  19.2548  19.2559  19.2996  19.3036  19.5490
    19.7203  19.8657  19.9213  20.0128  20.0209  20.1891  20.2587  20.3279
    20.4291  20.6697  20.8829  20.9953  21.2871  21.5607

          k = 0.0000 0.2500-0.5000 (  6042 PWs)   bands (ev):

   -68.7164 -68.6973 -68.6942 -68.6569 -68.6566 -68.5786 -68.5759 -68.5759
   -68.5754 -68.5712 -68.5712 -68.5657 -68.5635 -51.8396 -51.7968 -51.7693
   -34.8409 -34.8391 -34.8384 -34.8375 -34.8227 -34.8111 -34.8111 -34.8047
   -34.7945 -34.7412 -34.7389 -34.7279 -34.7203 -34.6945 -34.6928 -34.6528
   -34.6504 -34.6390 -34.6359 -34.6355 -34.6336 -34.6212 -34.6092 -34.5489
   -34.5459 -34.5436 -34.5328 -34.5314 -34.5242 -34.5229 -34.5215 -34.5030
   -34.4886 -34.4878 -34.4877 -34.4503 -34.4501 -34.4278 -34.4267 -23.2703
   -23.1743 -23.1740 -23.1416 -23.1409 -23.1168 -23.1117 -23.1113 -23.0703
    12.4064  12.4912  14.0825  14.1728  14.9506  14.9714  14.9796  15.0379
    15.0399  15.0890  15.1391  15.2205  15.2506  15.3329  15.3338  15.3841
    15.4024  15.4498  16.0753  16.1036  16.1225  16.2045  16.3321  16.3438
    16.4462  16.4662  16.4941  16.4942  16.5714  16.5897  16.9222  16.9705
    17.0158  17.0283  17.0911  17.0995  17.1080  17.1149  17.1532  17.1753
    17.1959  17.2235  17.2543  17.3467  17.4941  17.5853  18.0348  18.0745
    18.1106  18.1567  18.2065  18.2743  18.3287  18.3438  18.3746  18.4723
    18.4906  18.5303  18.5709  18.6025  18.6149  18.7769  18.7943  18.8377
    18.8654  18.8795  19.0956  19.0997  19.1918  19.2012  19.5106  19.6733
    19.7514  19.7525  19.8043  20.0369  20.0907  20.1338  20.1992  20.3461
    20.6632  20.7401  21.0605  21.1563  21.3646  21.4067

          k = 0.0000-0.5000-0.5000 (  6024 PWs)   bands (ev):

   -68.7136 -68.6972 -68.6972 -68.6568 -68.6568 -68.5802 -68.5740 -68.5735
   -68.5735 -68.5735 -68.5734 -68.5645 -68.5645 -51.8396 -51.7968 -51.7693
   -34.8529 -34.8418 -34.8399 -34.8360 -34.8281 -34.8041 -34.8041 -34.7988
   -34.7988 -34.7125 -34.7118 -34.6933 -34.6918 -34.6918 -34.6881 -34.6721
   -34.6721 -34.6524 -34.6335 -34.6335 -34.6333 -34.6275 -34.6231 -34.5626
   -34.5626 -34.5532 -34.5525 -34.5523 -34.5152 -34.5152 -34.5055 -34.5027
   -34.5027 -34.4890 -34.4886 -34.4451 -34.4451 -34.4144 -34.4128 -23.2697
   -23.1743 -23.1743 -23.1412 -23.1412 -23.1168 -23.1109 -23.1109 -23.0710
    13.1074  13.1074  13.2274  13.4253  15.0862  15.0862  15.2214  15.3150
    15.3241  15.3241  15.3317  15.3963  15.5040  15.5040  15.5086  15.6414
    15.6509  15.6509  15.7585  15.9923  16.0097  16.0163  16.0946  16.0946
    16.3023  16.3202  16.3202  16.4160  16.5744  16.5794  16.7028  16.7028
    16.8012  16.8228  16.8228  16.8889  16.9529  16.9529  16.9855  16.9855
    17.0252  17.3034  17.4547  17.5439  17.5471  17.5601  17.8948  17.8948
    18.1721  18.1721  18.2932  18.2932  18.3835  18.3835  18.4059  18.4059
    18.4323  18.4470  18.4875  18.5163  18.5163  18.5714  18.7353  18.7353
    18.9007  18.9007  18.9479  18.9582  18.9752  19.2649  19.2649  19.6430
    19.6510  19.9061  19.9099  19.9180  19.9180  19.9890  20.1292  20.2715
    20.7500  21.0694  21.2928  21.2928  22.0927  22.0989

          k = 0.2500 0.2500 0.2500 (  6007 PWs)   bands (ev):

   -68.7184 -68.6947 -68.6920 -68.6617 -68.6551 -68.5783 -68.5750 -68.5746
   -68.5733 -68.5732 -68.5715 -68.5697 -68.5610 -51.8382 -51.7981 -51.7693
   -34.8481 -34.8464 -34.8447 -34.8437 -34.8284 -34.8187 -34.8011 -34.7862
   -34.7586 -34.7424 -34.7398 -34.7238 -34.7221 -34.7051 -34.6817 -34.6775
   -34.6485 -34.6414 -34.6352 -34.6252 -34.6229 -34.6163 -34.5989 -34.5649
   -34.5579 -34.5493 -34.5422 -34.5252 -34.5178 -34.5155 -34.5098 -34.5080
   -34.4871 -34.4737 -34.4666 -34.4583 -34.4472 -34.4276 -34.4243 -23.2429
   -23.1723 -23.1722 -23.1417 -23.1416 -23.1165 -23.1118 -23.1107 -23.0973
    11.8567  13.8464  13.9242  14.0616  14.6068  14.6420  14.6824  14.9150
    14.9342  15.0427  15.0470  15.0825  15.4696  15.4782  15.4914  15.7479
    15.7521  15.8079  15.8839  16.0988  16.1177  16.1658  16.2516  16.2522
    16.3221  16.4277  16.4482  16.4730  16.4869  16.5603  16.6375  16.8622
    16.8648  16.8766  17.0401  17.1091  17.1242  17.1339  17.2370  17.2878
    17.3173  17.4396  17.5123  17.5219  17.5375  17.5992  17.7940  18.0080
    18.0307  18.0753  18.1538  18.3692  18.4016  18.4507  18.4692  18.4742
    18.4843  18.5681  18.5705  18.6299  18.7052  18.7241  18.7435  18.7968
    18.8380  18.9435  19.0658  19.2317  19.3409  19.3919  19.5674  19.5962
    19.7307  19.8748  20.0067  20.0334  20.0950  20.2254  20.3340  20.4457
    20.4714  20.4949  20.7599  20.8075  21.1870  21.2006

          k = 0.2500 0.2500-0.5000 (  6004 PWs)   bands (ev):

   -68.7158 -68.6961 -68.6934 -68.6587 -68.6585 -68.5777 -68.5760 -68.5749
   -68.5729 -68.5715 -68.5715 -68.5666 -68.5647 -51.8382 -51.7981 -51.7693
   -34.8402 -34.8357 -34.8343 -34.8297 -34.8188 -34.8083 -34.8041 -34.7946
   -34.7769 -34.7519 -34.7517 -34.7299 -34.7231 -34.6904 -34.6899 -34.6617
   -34.6581 -34.6468 -34.6343 -34.6315 -34.6311 -34.6281 -34.6027 -34.5635
   -34.5539 -34.5452 -34.5335 -34.5320 -34.5204 -34.5173 -34.5057 -34.4978
   -34.4836 -34.4780 -34.4704 -34.4457 -34.4441 -34.4340 -34.4326 -23.2426
   -23.1726 -23.1722 -23.1424 -23.1415 -23.1164 -23.1119 -23.1111 -23.0975
    12.6961  12.7827  14.3047  14.4057  14.4179  14.4414  15.2197  15.2494
    15.2609  15.3204  15.3395  15.3484  15.3672  15.3962  15.4251  15.5158
    15.5202  15.5733  16.1144  16.1617  16.1743  16.1786  16.2496  16.3432
    16.3435  16.3547  16.4011  16.4989  16.5355  16.5530  16.7436  16.7666
    16.7865  16.8125  16.8151  16.8590  16.9014  16.9052  16.9411  16.9587
    17.0430  17.1232  17.1720  17.1875  17.2081  17.2251  17.8649  17.8862
    18.2239  18.2686  18.3160  18.3218  18.3344  18.3681  18.3833  18.4380
    18.5440  18.5446  18.5992  18.6952  18.7010  18.7195  18.7643  18.7993
    18.9085  19.0450  19.1244  19.1812  19.2143  19.3930  19.4201  19.5444
    19.7813  19.8409  19.8455  20.1289  20.2549  20.2641  20.3588  20.3663
    20.5477  20.5846  20.7453  20.8153  20.8404  20.9951

          k = 0.2500-0.5000-0.5000 (  6000 PWs)   bands (ev):

   -68.7135 -68.6959 -68.6959 -68.6586 -68.6586 -68.5791 -68.5759 -68.5745
   -68.5720 -68.5720 -68.5716 -68.5653 -68.5653 -51.8382 -51.7981 -51.7693
   -34.8369 -34.8354 -34.8308 -34.8223 -34.8169 -34.7988 -34.7988 -34.7916
   -34.7916 -34.7322 -34.7305 -34.7280 -34.7261 -34.7086 -34.7086 -34.6632
   -34.6632 -34.6537 -34.6490 -34.6400 -34.6400 -34.6350 -34.5914 -34.5652
   -34.5652 -34.5383 -34.5203 -34.5185 -34.5113 -34.5113 -34.5041 -34.4909
   -34.4891 -34.4891 -34.4891 -34.4501 -34.4501 -34.4249 -34.4238 -23.2426
   -23.1727 -23.1727 -23.1424 -23.1424 -23.1165 -23.1113 -23.1113 -23.0975
    13.3998  13.3998  13.5189  13.7212  14.9746  14.9746  15.0284  15.1438
    15.3082  15.3082  15.4442  15.6242  15.7083  15.7083  15.7783  15.7951
    15.7951  15.7966  15.8737  16.0025  16.0025  16.0133  16.0333  16.0416
    16.3138  16.3439  16.3439  16.4277  16.4494  16.4494  16.5368  16.5428
    16.5827  16.5933  16.6380  16.6380  16.7318  16.7318  16.7853  16.8780
    16.8780  16.9157  16.9446  17.0585  17.2738  17.2759  17.3507  17.3507
    18.3595  18.3595  18.4256  18.4256  18.4596  18.4735  18.5186  18.5197
    18.5197  18.5725  18.6622  18.6622  18.7240  18.7240  18.7594  18.8167
    18.9490  18.9490  18.9503  19.2982  19.3604  19.3604  19.4383  19.4486
    19.5281  19.8329  19.9869  20.1185  20.1185  20.2328  20.2689  20.2908
    20.5416  20.8606  20.8802  20.8802  21.1847  21.3743

          k =-0.5000-0.5000-0.5000 (  6008 PWs)   bands (ev):

   -68.7135 -68.6946 -68.6946 -68.6604 -68.6604 -68.5769 -68.5769 -68.5768
   -68.5708 -68.5699 -68.5699 -68.5671 -68.5671 -51.8369 -51.7995 -51.7693
   -34.8400 -34.8158 -34.8126 -34.7978 -34.7978 -34.7849 -34.7844 -34.7836
   -34.7739 -34.7722 -34.7722 -34.7670 -34.7578 -34.7434 -34.7434 -34.6541
   -34.6541 -34.6531 -34.6523 -34.6420 -34.6420 -34.6386 -34.5828 -34.5800
   -34.5800 -34.5259 -34.5075 -34.5040 -34.5040 -34.4993 -34.4865 -34.4756
   -34.4756 -34.4716 -34.4601 -34.4601 -34.4568 -34.4568 -34.4522 -23.1942
   -23.1714 -23.1714 -23.1474 -23.1434 -23.1434 -23.1173 -23.1118 -23.1118
    14.1478  14.1608  14.1608  14.1728  14.1728  14.4308  14.4629  14.4832
    15.7959  15.8132  15.8132  15.8151  15.8151  15.8210  15.8343  15.8343
    15.8459  15.8459  16.0464  16.0524  16.0772  16.0947  16.1279  16.1619
    16.3325  16.3325  16.3376  16.3376  16.3387  16.3387  16.3503  16.3654
    16.3949  16.4371  16.4393  16.4850  16.4863  16.4885  16.5082  16.7447
    16.7447  16.7565  16.7565  16.7707  16.7967  16.7967  16.8089  16.8137
    18.4819  18.4949  18.4949  18.4996  18.4996  18.5022  18.5260  18.5260
    18.5391  18.5391  18.8524  18.8779  18.8929  18.8979  18.9805  18.9805
    18.9967  19.1233  19.1233  19.2629  19.2785  19.3549  19.3549  19.3552
    19.6959  20.1443  20.1644  20.2400  20.2708  20.2708  20.2916  20.3174
    20.3179  20.6536  20.6744  20.6744  20.7822  20.8184

          k = 0.2500 0.0000 0.0000 (  6023 PWs)   bands (ev):

   -68.7229 -68.6938 -68.6879 -68.6644 -68.6506 -68.5791 -68.5791 -68.5748
   -68.5744 -68.5744 -68.5726 -68.5679 -68.5567 -51.8382 -51.7981 -51.7693
   -34.8624 -34.8624 -34.8613 -34.8502 -34.8477 -34.8477 -34.7460 -34.7460
   -34.7439 -34.7439 -34.7387 -34.7140 -34.7110 -34.7041 -34.7041 -34.6783
   -34.6428 -34.6404 -34.6404 -34.6219 -34.6211 -34.5928 -34.5928 -34.5776
   -34.5756 -34.5471 -34.5299 -34.5299 -34.5259 -34.5214 -34.5198 -34.5112
   -34.5112 -34.4774 -34.4684 -34.4684 -34.4278 -34.4278 -34.4165 -23.2431
   -23.1722 -23.1722 -23.1415 -23.1415 -23.1169 -23.1107 -23.1107 -23.0980
    11.2121  13.5291  14.5048  14.5048  14.5621  14.6152  14.6429  14.6536
    14.6586  14.7728  14.8002  14.8002  14.8535  15.0291  15.2575  15.7245
    15.9906  15.9955  16.0226  16.0226  16.1304  16.1304  16.1354  16.3128
    16.3128  16.3635  16.3635  16.4233  16.4899  16.7754  16.7754  16.9838
    17.1454  17.2575  17.2575  17.3273  17.3562  17.3562  17.4485  17.5807
    17.5807  17.7420  17.8777  17.8975  17.9472  17.9472  18.0406  18.0969
    18.0969  18.1955  18.3418  18.4209  18.4763  18.4763  18.5478  18.6983
    18.7116  18.7492  18.7525  18.7525  18.7727  18.8040  18.8258  18.8258
    18.8509  18.9208  18.9356  19.1653  19.6610  19.6727  19.7127  19.7127
    19.8947  20.0059  20.0059  20.0202  20.1915  20.1915  20.3808  20.3871
    20.3871  20.4889  20.6441  20.8352  20.8865  20.8865

          k =-0.5000 0.0000 0.0000 (  6062 PWs)   bands (ev):

   -68.7210 -68.6925 -68.6879 -68.6695 -68.6509 -68.5769 -68.5769 -68.5769
   -68.5769 -68.5702 -68.5702 -68.5650 -68.5645 -51.8369 -51.7995 -51.7693
   -34.8539 -34.8463 -34.8463 -34.8190 -34.8190 -34.8164 -34.7913 -34.7913
   -34.7912 -34.7628 -34.7628 -34.7453 -34.7241 -34.7190 -34.7190 -34.6794
   -34.6334 -34.6334 -34.6304 -34.6303 -34.6241 -34.5967 -34.5967 -34.5638
   -34.5633 -34.5297 -34.5213 -34.5213 -34.5132 -34.5120 -34.5120 -34.4821
   -34.4821 -34.4736 -34.4665 -34.4665 -34.4575 -34.4575 -34.4558 -23.1950
   -23.1710 -23.1710 -23.1480 -23.1429 -23.1429 -23.1179 -23.1113 -23.1113
    12.1278  12.2092  14.7114  14.7114  14.7400  14.7400  14.7405  14.7801
    14.8462  14.9386  14.9868  15.0530  15.0543  15.1347  15.2398  15.3185
    15.3297  15.4087  16.0079  16.0079  16.1012  16.1012  16.5355  16.5424
    16.6412  16.6412  16.7671  16.7671  16.7830  16.7915  16.8178  16.8351
    16.8351  16.8480  16.8480  17.1228  17.2884  17.3037  17.3037  17.3266
    17.3266  17.5934  17.5934  17.7332  17.8335  17.8335  17.8568  17.8691
    17.8777  18.0016  18.2122  18.3662  18.3662  18.3988  18.4584  18.5530
    18.5530  18.6882  18.7165  18.7184  18.7419  18.7424  18.7969  18.9036
    19.0417  19.0417  19.3878  19.3953  19.4635  19.4887  19.5102  19.6697
    19.6697  19.9960  19.9960  20.0125  20.0125  20.3522  20.4580  20.5233
    20.5233  20.6242  20.6418  20.8842  20.8842  20.9091

          k = 0.2500 0.2500 0.0000 (  6016 PWs)   bands (ev):

   -68.7206 -68.6944 -68.6898 -68.6629 -68.6534 -68.5781 -68.5757 -68.5745
   -68.5741 -68.5734 -68.5734 -68.5689 -68.5592 -51.8382 -51.7981 -51.7693
   -34.8604 -34.8503 -34.8462 -34.8440 -34.8339 -34.8261 -34.7888 -34.7656
   -34.7626 -34.7512 -34.7505 -34.7188 -34.7134 -34.6900 -34.6850 -34.6656
   -34.6527 -34.6459 -34.6277 -34.6231 -34.6225 -34.6026 -34.5971 -34.5801
   -34.5686 -34.5549 -34.5478 -34.5411 -34.5186 -34.5091 -34.4979 -34.4923
   -34.4892 -34.4831 -34.4769 -34.4718 -34.4359 -34.4315 -34.4193 -23.2430
   -23.1723 -23.1721 -23.1420 -23.1413 -23.1165 -23.1115 -23.1108 -23.0975
    11.5372  13.6899  13.7545  14.3718  14.7456  14.7544  14.7604  14.7788
    14.8270  14.8512  14.8927  14.9395  15.0895  15.3004  15.3250  15.7875
    15.8167  15.8353  15.8654  16.1265  16.1414  16.1782  16.2053  16.2493
    16.2807  16.2956  16.4417  16.4841  16.5956  16.6715  16.7081  17.0068
    17.0126  17.0908  17.1401  17.2059  17.2650  17.3342  17.3618  17.3968
    17.6853  17.7229  17.7623  17.8064  17.8186  17.8659  17.8878  17.9821
    18.0117  18.0897  18.1753  18.1908  18.2768  18.4143  18.4676  18.5307
    18.5474  18.6362  18.6406  18.6463  18.7587  18.7864  18.8287  18.8517
    18.9120  18.9809  19.0732  19.1497  19.1940  19.3094  19.3540  19.7195
    19.7711  19.8879  19.9867  20.1517  20.2021  20.2163  20.3777  20.4189
    20.4920  20.5806  20.6138  20.7811  20.9222  21.4622

          k = 0.2500-0.5000 0.0000 (  6042 PWs)   bands (ev):

   -68.7177 -68.6962 -68.6913 -68.6588 -68.6585 -68.5759 -68.5759 -68.5752
   -68.5742 -68.5712 -68.5712 -68.5684 -68.5644 -51.8383 -51.7981 -51.7693
   -34.8425 -34.8413 -34.8382 -34.8268 -34.8219 -34.8156 -34.8070 -34.7974
   -34.7871 -34.7613 -34.7465 -34.7348 -34.7193 -34.6886 -34.6862 -34.6601
   -34.6575 -34.6399 -34.6333 -34.6281 -34.6207 -34.6086 -34.6044 -34.5618
   -34.5609 -34.5553 -34.5542 -34.5478 -34.5270 -34.5148 -34.5060 -34.5012
   -34.4825 -34.4626 -34.4621 -34.4519 -34.4475 -34.4428 -34.4408 -23.2427
   -23.1731 -23.1726 -23.1428 -23.1409 -23.1165 -23.1131 -23.1114 -23.0979
    12.4063  12.4951  14.0863  14.1529  14.9442  14.9659  14.9862  15.0352
    15.0697  15.1474  15.1514  15.1709  15.2123  15.3259  15.3511  15.3869
    15.4058  15.4311  16.0797  16.0998  16.1353  16.1748  16.3266  16.3291
    16.4137  16.4627  16.4715  16.4957  16.6240  16.6639  16.9002  16.9197
    16.9980  17.0213  17.0676  17.0781  17.1295  17.1322  17.1409  17.1754
    17.2071  17.2987  17.3305  17.3464  17.4651  17.5155  18.0164  18.0555
    18.1025  18.1486  18.2306  18.2337  18.2515  18.2969  18.3808  18.3944
    18.6123  18.6142  18.6364  18.7093  18.7340  18.7624  18.7806  18.7883
    18.8618  18.9279  19.0633  19.1280  19.1634  19.1662  19.3140  19.4898
    19.7994  19.9849  20.0330  20.1798  20.2244  20.2401  20.3244  20.3910
    20.4819  20.5202  20.6563  20.6831  21.5028  21.6778

          k =-0.5000 0.0000 0.2500 (  6042 PWs)   bands (ev):

   -68.7192 -68.6932 -68.6895 -68.6671 -68.6539 -68.5759 -68.5759 -68.5751
   -68.5745 -68.5712 -68.5712 -68.5661 -68.5661 -51.8369 -51.7995 -51.7693
   -34.8477 -34.8416 -34.8352 -34.8295 -34.8248 -34.8155 -34.8045 -34.7870
   -34.7784 -34.7597 -34.7370 -34.7280 -34.7191 -34.7109 -34.7010 -34.6630
   -34.6538 -34.6406 -34.6303 -34.6264 -34.6182 -34.6112 -34.6104 -34.5672
   -34.5649 -34.5616 -34.5442 -34.5430 -34.5307 -34.5146 -34.5006 -34.4873
   -34.4795 -34.4710 -34.4648 -34.4497 -34.4494 -34.4459 -34.4380 -23.1947
   -23.1712 -23.1707 -23.1482 -23.1439 -23.1428 -23.1169 -23.1113 -23.1113
    12.4104  12.4945  14.0888  14.1441  14.9446  14.9788  14.9834  15.0300
    15.1214  15.1398  15.1431  15.1717  15.2137  15.2834  15.3211  15.3933
    15.3984  15.4729  16.0758  16.1143  16.1478  16.1760  16.3186  16.3257
    16.3359  16.3369  16.5148  16.5463  16.6150  16.6747  16.9171  16.9448
    16.9832  16.9950  17.0384  17.0692  17.0844  17.0895  17.1373  17.1725
    17.2537  17.2790  17.3106  17.3739  17.5746  17.5942  18.0521  18.0845
    18.1000  18.1856  18.2202  18.3023  18.3162  18.3916  18.4729  18.4828
    18.5051  18.5190  18.5600  18.5831  18.6223  18.6469  18.7799  18.7887
    18.8558  18.9822  19.0522  19.0849  19.2313  19.2524  19.2787  19.4666
    19.9410  20.0173  20.0786  20.1626  20.2919  20.3192  20.3584  20.3669
    20.3944  20.4817  20.5812  20.6213  21.5595  21.6256

          k =-0.5000-0.5000 0.0000 (  6024 PWs)   bands (ev):

   -68.7170 -68.6948 -68.6905 -68.6608 -68.6608 -68.5735 -68.5735 -68.5735
   -68.5734 -68.5730 -68.5700 -68.5700 -68.5677 -51.8369 -51.7995 -51.7693
   -34.8454 -34.8431 -34.8344 -34.8295 -34.8194 -34.8162 -34.8106 -34.7996
   -34.7810 -34.7562 -34.7189 -34.6947 -34.6860 -34.6817 -34.6793 -34.6770
   -34.6689 -34.6424 -34.6359 -34.6271 -34.6255 -34.6239 -34.6206 -34.5718
   -34.5711 -34.5688 -34.5685 -34.5551 -34.5445 -34.5198 -34.5076 -34.4844
   -34.4754 -34.4696 -34.4665 -34.4378 -34.4369 -34.4332 -34.4331 -23.1942
   -23.1712 -23.1708 -23.1482 -23.1445 -23.1429 -23.1162 -23.1114 -23.1110
    13.0960  13.2424  13.2499  13.2619  15.0892  15.2084  15.2219  15.2223
    15.3368  15.3587  15.3659  15.4239  15.4396  15.4855  15.5054  15.5199
    15.6392  15.7625  15.7708  15.7857  16.0701  16.0715  16.1034  16.1744
    16.2021  16.3068  16.3336  16.3346  16.6755  16.6997  16.7437  16.7604
    16.7906  16.8211  16.8282  16.8551  16.8582  16.8812  16.9133  16.9262
    17.0928  17.2698  17.4192  17.4701  17.6885  17.7017  17.7732  17.7799
    18.1874  18.2497  18.3848  18.4265  18.4284  18.4306  18.4405  18.4473
    18.4493  18.4556  18.4953  18.5079  18.5097  18.5107  18.6397  18.7418
    18.7520  19.0092  19.0200  19.0334  19.0342  19.1004  19.1191  19.3543
    19.8752  19.8809  20.0745  20.0806  20.1221  20.3584  20.4510  20.4539
    20.5668  20.5853  20.6020  20.6295  22.5001  22.5123

          k =-0.5000 0.2500 0.2500 (  6004 PWs)   bands (ev):

   -68.7174 -68.6934 -68.6914 -68.6651 -68.6560 -68.5768 -68.5761 -68.5732
   -68.5727 -68.5716 -68.5716 -68.5668 -68.5662 -51.8368 -51.7995 -51.7693
   -34.8436 -34.8353 -34.8287 -34.8211 -34.8201 -34.8197 -34.8075 -34.7769
   -34.7676 -34.7635 -34.7531 -34.7288 -34.7151 -34.7087 -34.6960 -34.6671
   -34.6619 -34.6445 -34.6312 -34.6310 -34.6247 -34.6094 -34.6021 -34.5727
   -34.5675 -34.5554 -34.5441 -34.5400 -34.5161 -34.5018 -34.5010 -34.4928
   -34.4848 -34.4650 -34.4563 -34.4473 -34.4471 -34.4455 -34.4370 -23.1942
   -23.1709 -23.1705 -23.1477 -23.1436 -23.1425 -23.1166 -23.1112 -23.1109
    12.6998  12.7854  14.3061  14.3221  14.4124  14.5190  15.2215  15.2531
    15.3230  15.3347  15.3377  15.3450  15.3581  15.4000  15.4217  15.4220
    15.5228  15.6070  16.1096  16.1600  16.1759  16.2026  16.2065  16.2287
    16.3601  16.3919  16.4117  16.4740  16.5377  16.5739  16.7817  16.7841
    16.7912  16.7961  16.8277  16.8319  16.8327  16.8953  16.9578  17.0133
    17.0341  17.0967  17.1704  17.2039  17.2247  17.2331  17.8710  17.9410
    18.2223  18.2882  18.3037  18.3394  18.3577  18.4187  18.4953  18.5042
    18.5054  18.5083  18.6097  18.6229  18.6818  18.6845  18.7225  18.7603
    18.8515  18.9171  19.1582  19.2021  19.2292  19.3741  19.4327  19.7487
    19.7544  19.9839  20.0347  20.0913  20.1680  20.3611  20.3698  20.4199
    20.4445  20.4624  20.6263  20.6553  20.8736  20.9411

          k =-0.5000-0.5000 0.2500 (  6000 PWs)   bands (ev):

   -68.7154 -68.6947 -68.6924 -68.6606 -68.6606 -68.5758 -68.5755 -68.5755
   -68.5725 -68.5708 -68.5684 -68.5681 -68.5681 -51.8368 -51.7995 -51.7693
   -34.8408 -34.8301 -34.8240 -34.8164 -34.8113 -34.8043 -34.8009 -34.7975
   -34.7820 -34.7578 -34.7381 -34.7247 -34.7143 -34.7130 -34.7048 -34.6691
   -34.6683 -34.6461 -34.6422 -34.6406 -34.6281 -34.6279 -34.5951 -34.5781
   -34.5673 -34.5456 -34.5430 -34.5256 -34.5235 -34.5108 -34.4962 -34.4829
   -34.4731 -34.4713 -34.4701 -34.4449 -34.4441 -34.4404 -34.4397 -23.1942
   -23.1712 -23.1705 -23.1478 -23.1440 -23.1426 -23.1166 -23.1114 -23.1111
    13.3889  13.5332  13.5397  13.5511  14.9482  15.0540  15.0646  15.1021
    15.3116  15.4334  15.4392  15.4420  15.6941  15.7667  15.7818  15.7968
    15.8005  15.8176  15.8285  15.8363  15.9695  16.0953  16.0977  16.1523
    16.2906  16.3129  16.3660  16.3708  16.4190  16.4808  16.5474  16.5496
    16.5862  16.6007  16.6287  16.6420  16.6555  16.6712  16.8163  16.8355
    16.8654  16.9999  17.0555  17.0653  17.2622  17.3031  17.3180  17.3239
    18.3595  18.4232  18.4489  18.4556  18.4684  18.4857  18.4901  18.5069
    18.5135  18.6196  18.6329  18.6335  18.6561  18.7005  18.7685  18.8183
    18.9269  18.9470  19.0510  19.0574  19.1515  19.5284  19.5307  19.6062
    19.9083  19.9867  20.0402  20.1127  20.1157  20.2794  20.3217  20.3542
    20.3831  20.3834  20.5149  20.5983  21.4006  21.4044

 ------ SPIN DOWN ----------


          k = 0.0000 0.0000 0.0000 (  6031 PWs)   bands (ev):

   -66.3022 -66.2791 -66.2791 -66.2791 -66.2722 -66.2722 -66.2722 -66.2653
   -66.0714 -66.0633 -65.9615 -65.9558 -65.8247 -52.8592 -52.6985 -52.5489
   -32.5433 -32.5433 -32.5276 -32.5038 -32.4985 -32.4921 -32.4921 -32.4517
   -32.4517 -32.4371 -32.4207 -32.4007 -32.4007 -32.3697 -32.3662 -32.3421
   -32.3293 -32.2963 -32.2963 -32.2848 -32.2727 -32.2727 -32.2565 -32.2545
   -32.1777 -32.1777 -32.1488 -32.1488 -32.0800 -32.0361 -32.0361 -32.0031
   -31.9805 -31.9334 -31.9312 -31.9312 -31.9126 -31.8362 -31.8362 -24.1914
   -24.1914 -24.1824 -24.0834 -24.0834 -23.9639 -23.9527 -23.9527 -23.7000
    10.9537  14.9500  15.0596  15.2049  15.2117  15.2117  15.2347  15.2441
    15.2441  15.2612  15.2760  15.3049  15.5548  15.8197  15.9735  16.9664
    17.0418  17.0418  17.2093  17.2776  17.2776  17.4154  17.4160  17.4160
    17.4751  17.4751  17.5525  17.8836  17.9754  18.3534  18.3534  18.3543
    18.4402  18.7128  18.8069  18.8069  18.9799  19.0635  19.0635  19.2028
    19.2028  19.2031  19.2354  19.2354  19.2492  19.3534  19.3534  19.4039
    20.0337  20.1013  20.1013  20.1138  20.1295  20.1295  20.1830  20.2333
    20.2538  20.2782  20.3258  20.3258  20.4927  20.5378  20.8530  20.8568
    20.8595  20.8595  20.8982  21.0876  21.1709  21.1789  21.2334  21.2364
    21.2364  21.3454  21.3469  21.3548  21.3715  21.4692  21.7385  21.7666
    21.7666  21.9923  21.9923  21.9981  22.0537  22.0555

          k = 0.0000 0.0000 0.2500 (  6023 PWs)   bands (ev):

   -66.2990 -66.2827 -66.2782 -66.2782 -66.2732 -66.2732 -66.2711 -66.2663
   -66.0701 -66.0643 -65.9606 -65.9567 -65.8247 -52.8592 -52.6985 -52.5489
   -32.5318 -32.5232 -32.5144 -32.5065 -32.4757 -32.4708 -32.4695 -32.4618
   -32.4503 -32.4499 -32.4201 -32.4041 -32.3940 -32.3870 -32.3688 -32.3571
   -32.3517 -32.3302 -32.3093 -32.3000 -32.2955 -32.2816 -32.2725 -32.2563
   -32.1495 -32.1409 -32.1385 -32.1291 -32.0452 -32.0441 -32.0418 -31.9977
   -31.9752 -31.9385 -31.9383 -31.9360 -31.9255 -31.8374 -31.8359 -24.1915
   -24.1910 -24.1821 -24.0839 -24.0835 -23.9639 -23.9530 -23.9525 -23.6997
    11.2919  13.6846  15.1715  15.2655  15.2703  15.2751  15.3519  15.3653
    15.3828  15.4505  15.4556  15.6888  15.9098  16.0975  16.1545  16.7613
    16.9778  17.0430  17.0705  17.2053  17.2522  17.2835  17.4404  17.5467
    17.6273  17.6390  17.6883  17.7064  17.8341  18.0720  18.0950  18.1326
    18.5825  18.6414  18.6814  18.7219  18.7735  18.8143  18.9196  18.9523
    18.9641  19.0970  19.1763  19.2414  19.2420  19.2455  19.3788  19.4162
    19.5688  19.6428  19.6581  19.6632  19.7138  19.8033  19.8107  20.3909
    20.5702  20.6101  20.7094  20.7195  20.7336  20.7658  20.8002  20.8305
    20.8544  20.8684  20.9306  21.0448  21.1831  21.2253  21.2516  21.2540
    21.3450  21.3631  21.3770  21.3998  21.5362  21.6405  21.7615  21.7733
    21.7919  21.8999  21.9011  21.9165  21.9345  21.9541

          k = 0.0000 0.0000-0.5000 (  6062 PWs)   bands (ev):

   -66.2919 -66.2900 -66.2757 -66.2757 -66.2757 -66.2757 -66.2687 -66.2687
   -66.0671 -66.0670 -65.9587 -65.9587 -65.8247 -52.8593 -52.6985 -52.5489
   -32.5200 -32.5185 -32.5001 -32.4910 -32.4861 -32.4792 -32.4624 -32.4342
   -32.4340 -32.4211 -32.4197 -32.4130 -32.4124 -32.4112 -32.4034 -32.3996
   -32.3632 -32.3559 -32.3428 -32.3184 -32.2877 -32.2876 -32.2671 -32.2671
   -32.1314 -32.1168 -32.1148 -32.1069 -32.0645 -32.0538 -32.0039 -31.9965
   -31.9635 -31.9545 -31.9480 -31.9449 -31.9427 -31.8407 -31.8361 -24.1923
   -24.1911 -24.1822 -24.0852 -24.0840 -23.9646 -23.9541 -23.9528 -23.6998
    12.2375  12.2852  15.3045  15.3553  15.3564  15.4133  15.4458  15.4691
    15.4865  15.6316  15.9909  16.0561  16.1143  16.1676  16.2874  16.4839
    16.4852  16.6192  17.0049  17.1438  17.1845  17.2120  17.8744  17.8956
    17.9111  17.9711  17.9913  17.9990  18.0333  18.0386  18.0669  18.1303
    18.2152  18.2164  18.2412  18.3127  18.3276  18.4013  18.4142  18.4446
    18.4838  18.4844  18.7008  18.7979  18.8539  18.8549  19.2012  19.2879
    19.9125  19.9327  20.0732  20.2425  20.2484  20.2899  20.2955  20.3124
    20.3200  20.4044  20.5305  20.5601  20.5764  20.6111  20.9473  20.9990
    21.0623  21.0634  21.2073  21.2193  21.2582  21.2589  21.2874  21.2976
    21.3451  21.3874  21.4072  21.4166  21.4618  21.4619  21.4682  21.4717
    21.4826  21.4939  21.9971  22.0034  22.0200  22.0205

          k = 0.0000 0.2500 0.2500 (  6016 PWs)   bands (ev):

   -66.2962 -66.2829 -66.2797 -66.2771 -66.2745 -66.2721 -66.2721 -66.2673
   -66.0691 -66.0651 -65.9600 -65.9573 -65.8247 -52.8592 -52.6985 -52.5489
   -32.5242 -32.5157 -32.5071 -32.5021 -32.4690 -32.4613 -32.4590 -32.4538
   -32.4508 -32.4488 -32.4239 -32.4112 -32.4028 -32.3966 -32.3794 -32.3606
   -32.3515 -32.3477 -32.3054 -32.2952 -32.2949 -32.2832 -32.2820 -32.2615
   -32.1703 -32.1572 -32.1158 -32.1126 -32.0591 -32.0300 -32.0256 -31.9930
   -31.9712 -31.9473 -31.9434 -31.9335 -31.9272 -31.8373 -31.8370 -24.1916
   -24.1912 -24.1820 -24.0841 -24.0835 -23.9640 -23.9529 -23.9529 -23.6996
    11.6211  13.8859  13.9386  14.9646  15.4332  15.4678  15.4692  15.5740
    15.6265  15.6388  15.8103  16.0206  16.1551  16.2369  16.2931  16.6990
    16.8850  17.0425  17.1923  17.2642  17.2834  17.4068  17.4142  17.4172
    17.4586  17.6126  17.6189  17.6927  17.7765  17.8198  17.8973  18.2641
    18.3285  18.5389  18.5433  18.5847  18.5934  18.5940  18.6126  18.7044
    18.8225  18.8417  18.8459  18.8841  18.9384  19.1264  19.2301  19.3094
    19.6298  19.7113  19.7818  19.8453  19.8813  19.9361  20.1491  20.2579
    20.2705  20.4915  20.6038  20.7495  20.8102  20.8130  20.8225  20.9087
    20.9092  20.9446  20.9790  21.0765  21.0859  21.1713  21.2186  21.2326
    21.2384  21.3059  21.3340  21.3525  21.3537  21.4126  21.4785  21.5315
    21.5684  21.6111  21.8195  22.0515  22.1733  22.3050

          k = 0.0000 0.2500-0.5000 (  6042 PWs)   bands (ev):

   -66.2899 -66.2886 -66.2778 -66.2772 -66.2747 -66.2747 -66.2697 -66.2697
   -66.0670 -66.0669 -65.9587 -65.9587 -65.8247 -52.8593 -52.6985 -52.5489
   -32.5152 -32.5151 -32.4917 -32.4873 -32.4869 -32.4721 -32.4496 -32.4429
   -32.4414 -32.4327 -32.4263 -32.4121 -32.4046 -32.4040 -32.3995 -32.3903
   -32.3391 -32.3358 -32.3322 -32.3192 -32.2923 -32.2873 -32.2800 -32.2789
   -32.1568 -32.1417 -32.1336 -32.1194 -32.0699 -32.0177 -31.9978 -31.9957
   -31.9612 -31.9539 -31.9528 -31.9500 -31.9257 -31.8398 -31.8388 -24.1923
   -24.1918 -24.1821 -24.0846 -24.0841 -23.9643 -23.9538 -23.9532 -23.6998
    12.5286  12.5831  14.4137  14.4942  15.5533  15.6490  15.6621  15.7088
    15.9518  16.0839  16.1208  16.2396  16.2421  16.2781  16.3444  16.5443
    16.6442  16.7130  17.1383  17.1841  17.2193  17.2729  17.5697  17.5963
    17.6900  17.6965  17.6997  17.8239  17.8542  17.8677  18.0140  18.0209
    18.1079  18.1704  18.2174  18.2201  18.2548  18.2678  18.3288  18.4220
    18.4321  18.4827  18.5201  18.5408  18.6385  18.7201  19.6263  19.6509
    19.9410  19.9513  19.9674  19.9680  20.1288  20.1815  20.2649  20.2781
    20.3027  20.3434  20.3759  20.3874  20.4799  20.5729  20.8518  20.8934
    20.8946  20.8955  20.9715  21.0023  21.0875  21.1099  21.1884  21.2549
    21.2554  21.3145  21.3209  21.3462  21.3516  21.4060  21.4932  21.5317
    21.6678  21.6810  21.8345  21.8599  22.5732  22.6061

          k = 0.0000-0.5000-0.5000 (  6024 PWs)   bands (ev):

   -66.2865 -66.2865 -66.2813 -66.2794 -66.2722 -66.2722 -66.2722 -66.2722
   -66.0669 -66.0669 -65.9586 -65.9586 -65.8247 -52.8593 -52.6985 -52.5489
   -32.5147 -32.5127 -32.4834 -32.4834 -32.4778 -32.4692 -32.4564 -32.4522
   -32.4520 -32.4520 -32.4188 -32.4057 -32.3937 -32.3937 -32.3911 -32.3911
   -32.3210 -32.3139 -32.3139 -32.3002 -32.3002 -32.2938 -32.2897 -32.2896
   -32.1768 -32.1718 -32.1552 -32.1276 -32.0602 -32.0021 -31.9957 -31.9957
   -31.9589 -31.9538 -31.9538 -31.9509 -31.9159 -31.8392 -31.8392 -24.1921
   -24.1921 -24.1822 -24.0841 -24.0841 -23.9639 -23.9534 -23.9534 -23.7004
    13.3011  13.3667  13.3667  13.4416  15.8191  15.8191  15.9929  16.0506
    16.2294  16.2950  16.2950  16.3542  16.3971  16.4283  16.6208  16.7242
    16.7242  16.7291  17.0541  17.0541  17.0739  17.2800  17.2800  17.4170
    17.5316  17.5705  17.5849  17.5849  17.5852  17.6265  17.8045  17.8045
    17.9975  17.9975  18.0150  18.0993  18.0993  18.0996  18.1902  18.2259
    18.2604  18.5240  18.5756  18.5756  19.0374  19.0374  19.2312  19.2402
    19.8577  19.9311  20.0277  20.0277  20.1790  20.1790  20.2542  20.3300
    20.3635  20.3731  20.3850  20.4266  20.6620  20.6620  20.7080  20.7133
    20.7133  20.7300  20.7732  20.7732  20.8120  21.0497  21.1544  21.1544
    21.1947  21.2416  21.2416  21.2639  21.3364  21.3426  21.5114  21.5114
    21.8903  21.8903  21.9420  21.9789  23.5532  23.6144

          k = 0.2500 0.2500 0.2500 (  6007 PWs)   bands (ev):

   -66.2934 -66.2813 -66.2800 -66.2785 -66.2737 -66.2734 -66.2733 -66.2684
   -66.0691 -66.0649 -65.9601 -65.9572 -65.8247 -52.8592 -52.6981 -52.5492
   -32.5170 -32.5073 -32.5072 -32.4995 -32.4686 -32.4637 -32.4585 -32.4560
   -32.4412 -32.4308 -32.4291 -32.4042 -32.4037 -32.4007 -32.3863 -32.3604
   -32.3417 -32.3338 -32.3270 -32.3207 -32.3078 -32.2957 -32.2937 -32.2713
   -32.1466 -32.1238 -32.1191 -32.1110 -32.0703 -32.0439 -32.0184 -31.9856
   -31.9725 -31.9500 -31.9383 -31.9356 -31.9264 -31.8366 -31.8354 -24.1912
   -24.1911 -24.1824 -24.0837 -24.0833 -23.9532 -23.9529 -23.9461 -23.7179
    11.9446  14.1139  14.1502  14.1877  15.1828  15.2376  15.3287  15.8345
    15.8389  16.0950  16.1434  16.3254  16.3320  16.3600  16.4687  16.6950
    16.9821  17.0354  17.0974  17.1433  17.2331  17.3282  17.4082  17.4252
    17.5294  17.5455  17.5456  17.6153  17.6941  17.7836  18.0691  18.1024
    18.1459  18.2387  18.3066  18.3397  18.3816  18.4343  18.4607  18.4774
    18.5175  18.5240  18.5506  18.5881  18.7822  18.8237  18.8992  19.5177
    19.8835  19.9129  20.0510  20.0749  20.0815  20.1222  20.1575  20.3917
    20.3970  20.5415  20.5933  20.6013  20.6316  20.7222  20.7224  20.8233
    20.8648  20.9967  21.0788  21.0831  21.1852  21.1962  21.2074  21.2115
    21.2617  21.2817  21.3665  21.3721  21.4214  21.4370  21.4693  21.5055
    21.5548  21.5991  21.6211  21.6759  22.1226  22.1365

          k = 0.2500 0.2500-0.5000 (  6004 PWs)   bands (ev):

   -66.2876 -66.2865 -66.2773 -66.2767 -66.2763 -66.2762 -66.2709 -66.2709
   -66.0669 -66.0669 -65.9586 -65.9586 -65.8247 -52.8592 -52.6981 -52.5492
   -32.5108 -32.5063 -32.4862 -32.4815 -32.4812 -32.4744 -32.4482 -32.4457
   -32.4408 -32.4276 -32.4198 -32.4152 -32.4006 -32.3969 -32.3777 -32.3763
   -32.3592 -32.3496 -32.3161 -32.3139 -32.3085 -32.3025 -32.2991 -32.2971
   -32.1371 -32.1334 -32.1259 -32.1040 -32.0759 -32.0328 -32.0075 -31.9867
   -31.9621 -31.9497 -31.9462 -31.9444 -31.9242 -31.8375 -31.8359 -24.1917
   -24.1911 -24.1822 -24.0839 -24.0835 -23.9536 -23.9531 -23.9460 -23.7179
    12.8245  12.8815  14.6601  14.7105  14.7529  14.7650  15.9644  16.0079
    16.1468  16.1844  16.2785  16.3250  16.3825  16.5441  16.5450  16.6794
    16.7761  16.8283  17.1689  17.2776  17.2963  17.3202  17.4100  17.4132
    17.5153  17.6743  17.7256  17.7487  17.7489  17.7818  17.7887  17.8014
    17.9413  17.9552  18.0095  18.0743  18.1211  18.1923  18.1970  18.2481
    18.2769  18.2865  18.3834  18.4032  18.4610  18.4991  19.2800  19.3093
    20.0014  20.0058  20.1760  20.1850  20.1972  20.2697  20.4186  20.4311
    20.4329  20.4330  20.5363  20.6639  20.7125  20.7126  20.8058  20.8675
    20.9603  20.9831  21.0330  21.0831  21.1119  21.1782  21.1947  21.2375
    21.2497  21.2591  21.3102  21.3667  21.4586  21.4807  21.4934  21.5089
    21.5211  21.5406  21.5725  21.5860  21.5976  21.6222

          k = 0.2500-0.5000-0.5000 (  6000 PWs)   bands (ev):

   -66.2844 -66.2844 -66.2800 -66.2783 -66.2743 -66.2743 -66.2735 -66.2733
   -66.0669 -66.0669 -65.9586 -65.9586 -65.8247 -52.8592 -52.6981 -52.5492
   -32.5052 -32.5034 -32.4768 -32.4768 -32.4759 -32.4610 -32.4572 -32.4572
   -32.4485 -32.4339 -32.4141 -32.4065 -32.3936 -32.3936 -32.3702 -32.3702
   -32.3408 -32.3362 -32.3323 -32.3323 -32.3258 -32.3234 -32.3017 -32.3017
   -32.1491 -32.1429 -32.1307 -32.1035 -32.0672 -32.0136 -31.9938 -31.9938
   -31.9565 -31.9520 -31.9516 -31.9516 -31.9206 -31.8376 -31.8376 -24.1919
   -24.1919 -24.1819 -24.0840 -24.0840 -23.9537 -23.9537 -23.9460 -23.7176
    13.6033  13.6481  13.6481  13.7480  15.3009  15.3009  15.4541  15.5573
    16.3065  16.3709  16.6740  16.6740  16.6800  16.7497  16.8790  16.9360
    16.9504  16.9504  16.9958  17.0898  17.0898  17.3132  17.3132  17.3404
    17.4375  17.4779  17.5905  17.5905  17.6843  17.6843  17.6860  17.7460
    17.8028  17.8268  17.8268  17.8603  17.9795  18.0314  18.0314  18.1403
    18.1804  18.2305  18.2305  18.2679  18.5101  18.5101  18.6279  18.6289
    20.3402  20.3638  20.3706  20.4579  20.4644  20.4644  20.5124  20.5916
    20.6060  20.6060  20.7303  20.7387  20.7387  20.7600  20.7761  20.7871
    20.7985  20.8468  20.8468  20.8831  20.8831  20.9653  21.1270  21.1270
    21.1906  21.1906  21.1935  21.2113  21.2615  21.2944  21.4193  21.4193
    21.5539  21.5539  21.6095  21.6572  22.3342  22.3658

          k =-0.5000-0.5000-0.5000 (  6008 PWs)   bands (ev):

   -66.2802 -66.2802 -66.2786 -66.2786 -66.2777 -66.2758 -66.2758 -66.2758
   -66.0668 -66.0668 -65.9586 -65.9586 -65.8247 -52.8592 -52.6978 -52.5496
   -32.4993 -32.4857 -32.4711 -32.4711 -32.4696 -32.4658 -32.4644 -32.4644
   -32.4147 -32.4125 -32.4088 -32.4031 -32.3933 -32.3803 -32.3803 -32.3699
   -32.3649 -32.3627 -32.3607 -32.3607 -32.3425 -32.3425 -32.3224 -32.3224
   -32.1353 -32.1246 -32.0818 -32.0800 -32.0780 -32.0368 -31.9945 -31.9945
   -31.9550 -31.9542 -31.9516 -31.9516 -31.9259 -31.8355 -31.8355 -24.1917
   -24.1917 -24.1828 -24.0840 -24.0840 -23.9539 -23.9539 -23.9253 -23.7398
    14.3735  14.3735  14.3842  14.4253  14.4253  14.4657  14.5623  14.5701
    16.7268  16.7715  16.7972  16.8666  16.8955  16.9192  17.1079  17.1079
    17.1491  17.1710  17.1710  17.2815  17.2815  17.3214  17.4141  17.4392
    17.4392  17.4492  17.5327  17.5327  17.5484  17.5484  17.5549  17.6139
    17.6139  17.8543  17.8661  17.8661  17.8888  17.9057  17.9171  17.9314
    17.9359  17.9359  17.9416  17.9582  17.9647  17.9647  18.0050  18.0252
    20.5424  20.5619  20.6028  20.6646  20.6868  20.7296  20.8966  20.8966
    20.9179  20.9325  20.9325  20.9388  20.9764  20.9764  21.0015  21.0015
    21.0116  21.0146  21.0159  21.0218  21.0218  21.0539  21.0623  21.0623
    21.1081  21.1089  21.1158  21.1158  21.1327  21.1823  21.1823  21.2337
    21.4590  21.4680  21.4682  21.4682  21.4830  21.5215

          k = 0.2500 0.0000 0.0000 (  6023 PWs)   bands (ev):

   -66.2989 -66.2826 -66.2782 -66.2782 -66.2732 -66.2732 -66.2711 -66.2663
   -66.0714 -66.0630 -65.9615 -65.9558 -65.8247 -52.8592 -52.6981 -52.5492
   -32.5255 -32.5255 -32.5245 -32.5056 -32.4746 -32.4694 -32.4694 -32.4605
   -32.4605 -32.4359 -32.4182 -32.3919 -32.3919 -32.3792 -32.3703 -32.3644
   -32.3367 -32.3367 -32.3274 -32.3124 -32.3124 -32.2875 -32.2546 -32.2523
   -32.1481 -32.1481 -32.1193 -32.1193 -32.0661 -32.0438 -32.0438 -31.9892
   -31.9824 -31.9472 -31.9358 -31.9358 -31.9181 -31.8358 -31.8358 -24.1910
   -24.1910 -24.1826 -24.0832 -24.0832 -23.9528 -23.9528 -23.9462 -23.7182
    11.2919  13.6878  15.0548  15.2758  15.2758  15.2820  15.3768  15.3768
    15.4171  15.4469  15.5084  15.6376  15.9800  16.0825  16.1700  16.7489
    17.0212  17.0212  17.0922  17.2319  17.2806  17.2806  17.2849  17.5662
    17.5662  17.6972  17.6972  17.7008  17.7276  18.0962  18.0962  18.2285
    18.4412  18.7072  18.7072  18.7767  18.7767  18.8775  18.9007  18.9514
    18.9514  19.1307  19.1706  19.2412  19.2412  19.2744  19.4001  19.4001
    19.5886  19.6088  19.6483  19.6483  19.6792  19.8149  19.8149  20.3851
    20.5967  20.6279  20.7150  20.7150  20.7466  20.7584  20.7757  20.7958
    20.7958  20.8062  20.9262  21.1466  21.1645  21.2038  21.2513  21.2558
    21.3381  21.3713  21.3978  21.3978  21.6139  21.6306  21.7627  21.7627
    21.8087  21.8141  21.9029  21.9207  21.9304  21.9304

          k =-0.5000 0.0000 0.0000 (  6062 PWs)   bands (ev):

   -66.2913 -66.2905 -66.2757 -66.2757 -66.2757 -66.2757 -66.2687 -66.2687
   -66.0714 -66.0628 -65.9616 -65.9558 -65.8247 -52.8593 -52.6978 -52.5496
   -32.5283 -32.5108 -32.4944 -32.4944 -32.4931 -32.4931 -32.4358 -32.4269
   -32.4262 -32.4262 -32.4220 -32.4220 -32.4106 -32.4106 -32.3862 -32.3651
   -32.3627 -32.3627 -32.3534 -32.3534 -32.3088 -32.3085 -32.2540 -32.2540
   -32.1307 -32.1307 -32.0823 -32.0823 -32.0643 -32.0643 -32.0355 -31.9963
   -31.9763 -31.9586 -31.9415 -31.9415 -31.9354 -31.8364 -31.8364 -24.1911
   -24.1911 -24.1835 -24.0834 -24.0834 -23.9534 -23.9534 -23.9260 -23.7405
    12.2488  12.2737  15.1610  15.3365  15.3604  15.3604  15.4932  15.4932
    15.6283  15.7168  15.9445  15.9590  16.1885  16.2075  16.3241  16.4826
    16.4945  16.6282  17.0448  17.0448  17.2408  17.2408  17.5781  17.7496
    17.8719  17.8719  17.9440  18.0070  18.0070  18.1469  18.1852  18.2186
    18.3079  18.3079  18.3430  18.3430  18.3432  18.3432  18.3897  18.4240
    18.4851  18.4851  18.7918  18.7918  18.8826  18.8826  19.1210  19.2889
    19.9213  19.9628  20.0492  20.1721  20.2449  20.2449  20.2796  20.3378
    20.3378  20.4189  20.5433  20.5433  20.6228  20.6228  20.7992  21.0562
    21.0839  21.0876  21.1324  21.2107  21.2638  21.2909  21.2947  21.3315
    21.3573  21.3775  21.4059  21.4119  21.4119  21.4273  21.4903  21.4993
    21.4993  21.5083  21.9401  22.0011  22.0011  22.0198

          k = 0.2500 0.2500 0.0000 (  6016 PWs)   bands (ev):

   -66.2960 -66.2816 -66.2810 -66.2771 -66.2746 -66.2721 -66.2721 -66.2673
   -66.0700 -66.0641 -65.9607 -65.9566 -65.8247 -52.8592 -52.6981 -52.5492
   -32.5230 -32.5134 -32.5083 -32.5047 -32.4732 -32.4684 -32.4619 -32.4522
   -32.4412 -32.4406 -32.4226 -32.4049 -32.3945 -32.3939 -32.3878 -32.3558
   -32.3556 -32.3344 -32.3323 -32.3107 -32.3033 -32.2884 -32.2774 -32.2581
   -32.1454 -32.1340 -32.1240 -32.1133 -32.0614 -32.0472 -32.0346 -31.9895
   -31.9746 -31.9506 -31.9383 -31.9331 -31.9236 -31.8368 -31.8356 -24.1913
   -24.1909 -24.1825 -24.0835 -24.0833 -23.9532 -23.9528 -23.9461 -23.7180
    11.6211  13.9097  13.9135  14.9625  15.4254  15.4478  15.5403  15.5653
    15.5769  15.5860  15.8592  16.0675  16.1872  16.2459  16.2902  16.6539
    16.8983  17.0570  17.1931  17.2423  17.2886  17.3346  17.3981  17.4204
    17.4349  17.5697  17.6465  17.6902  17.8440  17.8455  17.8878  18.2608
    18.3394  18.5071  18.5277  18.5727  18.5757  18.6551  18.6793  18.6877
    18.8301  18.8374  18.8722  18.8861  18.9333  19.1700  19.2170  19.2785
    19.6688  19.7055  19.8106  19.8117  19.8494  19.9235  20.1596  20.2244
    20.2877  20.5161  20.5794  20.7538  20.7654  20.7990  20.8079  20.8121
    20.9846  21.0083  21.0563  21.0617  21.1128  21.1697  21.1893  21.2262
    21.2460  21.2963  21.3164  21.3556  21.3621  21.3960  21.4650  21.5295
    21.5721  21.6030  21.8010  22.0442  22.1662  22.2653

          k = 0.2500-0.5000 0.0000 (  6042 PWs)   bands (ev):

   -66.2896 -66.2880 -66.2781 -66.2778 -66.2747 -66.2747 -66.2697 -66.2697
   -66.0670 -66.0669 -65.9587 -65.9587 -65.8247 -52.8593 -52.6982 -52.5492
   -32.5180 -32.5131 -32.4920 -32.4842 -32.4815 -32.4791 -32.4556 -32.4420
   -32.4390 -32.4261 -32.4148 -32.4145 -32.4124 -32.4070 -32.3821 -32.3727
   -32.3625 -32.3546 -32.3347 -32.3213 -32.2995 -32.2982 -32.2753 -32.2751
   -32.1373 -32.1293 -32.1081 -32.1028 -32.0892 -32.0558 -32.0218 -31.9840
   -31.9682 -31.9497 -31.9436 -31.9424 -31.9289 -31.8390 -31.8364 -24.1921
   -24.1910 -24.1829 -24.0844 -24.0837 -23.9541 -23.9529 -23.9462 -23.7187
    12.5296  12.5815  14.4189  14.4880  15.5685  15.6605  15.6675  15.6717
    16.0620  16.0801  16.0868  16.2000  16.2177  16.2795  16.3789  16.5385
    16.5759  16.7055  17.0830  17.2458  17.2612  17.2630  17.5964  17.6062
    17.6302  17.6973  17.7390  17.8210  17.8854  17.9237  17.9968  18.0183
    18.0759  18.0870  18.1247  18.1863  18.2686  18.3015  18.4232  18.4357
    18.4392  18.4796  18.5334  18.5501  18.6986  18.7135  19.6148  19.6198
    19.9362  19.9480  19.9587  19.9690  20.1169  20.1851  20.2938  20.2949
    20.3337  20.3451  20.3682  20.3844  20.4492  20.5746  20.8191  20.8515
    20.8818  20.9154  20.9889  20.9970  21.1069  21.1675  21.1975  21.2679
    21.2711  21.2792  21.3298  21.3328  21.3386  21.4132  21.4509  21.5574
    21.6531  21.6636  21.8269  21.8516  22.5680  22.5964

          k =-0.5000 0.0000 0.2500 (  6042 PWs)   bands (ev):

   -66.2892 -66.2884 -66.2780 -66.2778 -66.2747 -66.2747 -66.2697 -66.2697
   -66.0700 -66.0640 -65.9607 -65.9566 -65.8247 -52.8593 -52.6978 -52.5496
   -32.5203 -32.5078 -32.4917 -32.4897 -32.4864 -32.4842 -32.4435 -32.4357
   -32.4355 -32.4340 -32.4169 -32.4139 -32.4025 -32.3956 -32.3803 -32.3742
   -32.3627 -32.3518 -32.3414 -32.3332 -32.3119 -32.3105 -32.2694 -32.2669
   -32.1370 -32.1159 -32.1157 -32.0912 -32.0908 -32.0599 -32.0316 -31.9814
   -31.9775 -31.9529 -31.9422 -31.9328 -31.9291 -31.8380 -31.8363 -24.1916
   -24.1910 -24.1835 -24.0836 -24.0833 -23.9538 -23.9533 -23.9256 -23.7402
    12.5400  12.5709  14.4247  14.4709  15.5744  15.6111  15.6836  15.6908
    16.0399  16.0659  16.1191  16.2163  16.2254  16.3347  16.4083  16.5550
    16.5674  16.7080  17.1076  17.1944  17.2865  17.3205  17.3612  17.4636
    17.6096  17.7150  17.8314  17.8800  17.8838  17.8950  17.9882  18.0054
    18.1029  18.1069  18.1477  18.2624  18.2717  18.3080  18.4115  18.4326
    18.4929  18.5043  18.5194  18.5339  18.6593  18.7384  19.5954  19.6375
    19.9399  19.9607  19.9697  19.9749  20.1443  20.1839  20.2208  20.2905
    20.3394  20.3479  20.3494  20.3909  20.4425  20.5898  20.7056  20.8804
    20.8852  20.9611  20.9745  21.0028  21.1260  21.2241  21.2615  21.2687
    21.2687  21.2789  21.3194  21.3239  21.3268  21.3421  21.4116  21.5679
    21.6328  21.6697  21.8351  21.8485  22.5769  22.5816

          k =-0.5000-0.5000 0.0000 (  6024 PWs)   bands (ev):

   -66.2841 -66.2837 -66.2837 -66.2822 -66.2722 -66.2722 -66.2722 -66.2722
   -66.0669 -66.0669 -65.9586 -65.9586 -65.8247 -52.8593 -52.6978 -52.5496
   -32.5158 -32.5067 -32.4884 -32.4876 -32.4730 -32.4675 -32.4513 -32.4498
   -32.4459 -32.4377 -32.4268 -32.4254 -32.4048 -32.3909 -32.3594 -32.3546
   -32.3485 -32.3480 -32.3227 -32.3218 -32.3053 -32.3035 -32.2907 -32.2906
   -32.1433 -32.1430 -32.1083 -32.1025 -32.1000 -32.0577 -32.0354 -31.9744
   -31.9681 -31.9441 -31.9423 -31.9369 -31.9199 -31.8378 -31.8371 -24.1918
   -24.1910 -24.1833 -24.0835 -24.0834 -23.9539 -23.9534 -23.9251 -23.7398
    13.3248  13.3495  13.3653  13.4315  15.9213  15.9532  16.0023  16.0535
    16.1512  16.1550  16.1894  16.2742  16.4909  16.4923  16.5376  16.6620
    16.7136  16.8387  16.8845  17.1589  17.1618  17.2991  17.4479  17.4516
    17.4964  17.5186  17.5271  17.5700  17.5894  17.6227  17.8000  17.8124
    17.8510  17.9987  18.0161  18.1118  18.1190  18.1292  18.1367  18.1804
    18.4892  18.5266  18.5493  18.5645  19.0882  19.0944  19.1914  19.2073
    19.9301  19.9404  19.9938  20.0024  20.1599  20.1677  20.2916  20.3268
    20.3482  20.4048  20.4123  20.4642  20.4920  20.5539  20.6641  20.6856
    20.7031  20.7127  20.7342  20.8573  21.0795  21.0853  21.1610  21.2025
    21.2114  21.2431  21.2534  21.2543  21.2633  21.3200  21.3257  21.5679
    21.8541  21.8636  21.9521  21.9805  23.5679  23.5892

          k =-0.5000 0.2500 0.2500 (  6004 PWs)   bands (ev):

   -66.2871 -66.2864 -66.2780 -66.2772 -66.2762 -66.2758 -66.2709 -66.2709
   -66.0691 -66.0647 -65.9601 -65.9572 -65.8247 -52.8592 -52.6978 -52.5495
   -32.5131 -32.5008 -32.4847 -32.4837 -32.4834 -32.4819 -32.4438 -32.4429
   -32.4342 -32.4279 -32.4234 -32.3992 -32.3963 -32.3944 -32.3888 -32.3732
   -32.3607 -32.3468 -32.3324 -32.3293 -32.3125 -32.3096 -32.2938 -32.2885
   -32.1284 -32.1235 -32.1180 -32.0863 -32.0800 -32.0631 -32.0144 -31.9848
   -31.9730 -31.9473 -31.9387 -31.9378 -31.9273 -31.8369 -31.8345 -24.1914
   -24.1907 -24.1830 -24.0834 -24.0830 -23.9536 -23.9530 -23.9251 -23.7397
    12.8348  12.8706  14.6538  14.6744  14.7358  14.8235  15.9312  16.0370
    16.1399  16.1675  16.2537  16.3844  16.4968  16.5455  16.5565  16.6895
    16.7110  16.8117  17.1706  17.1747  17.2572  17.3412  17.3780  17.4602
    17.5115  17.6854  17.6880  17.7193  17.7303  17.7846  17.8152  17.8266
    17.9421  17.9479  17.9834  18.0586  18.1853  18.1999  18.2864  18.2868
    18.2880  18.3198  18.3311  18.4005  18.4131  18.5128  19.2844  19.3100
    20.0015  20.0127  20.1758  20.2073  20.2178  20.2883  20.3204  20.4179
    20.4299  20.4428  20.5361  20.6677  20.6710  20.7276  20.7531  20.9028
    20.9362  21.0209  21.0977  21.1349  21.1457  21.1506  21.2202  21.2294
    21.2340  21.2660  21.2812  21.3708  21.4136  21.4728  21.4771  21.4854
    21.5015  21.5380  21.5385  21.5794  21.6261  21.6391

          k =-0.5000-0.5000 0.2500 (  6000 PWs)   bands (ev):

   -66.2824 -66.2823 -66.2823 -66.2808 -66.2739 -66.2736 -66.2736 -66.2735
   -66.0669 -66.0669 -65.9586 -65.9586 -65.8247 -52.8592 -52.6978 -52.5495
   -32.5073 -32.4972 -32.4803 -32.4799 -32.4722 -32.4696 -32.4546 -32.4520
   -32.4354 -32.4239 -32.4118 -32.4107 -32.4065 -32.3860 -32.3847 -32.3649
   -32.3445 -32.3327 -32.3310 -32.3288 -32.3280 -32.3216 -32.3191 -32.3121
   -32.1347 -32.1293 -32.0954 -32.0921 -32.0909 -32.0522 -32.0174 -31.9817
   -31.9647 -31.9474 -31.9431 -31.9410 -31.9245 -31.8368 -31.8350 -24.1917
   -24.1908 -24.1830 -24.0837 -24.0831 -23.9539 -23.9531 -23.9252 -23.7398
    13.6104  13.6466  13.6616  13.7219  15.3245  15.4086  15.4207  15.4567
    16.3834  16.4129  16.5013  16.7067  16.7228  16.8024  16.8642  16.8759
    16.9027  16.9144  16.9166  17.1818  17.1945  17.3388  17.3653  17.4210
    17.4464  17.4879  17.5166  17.5428  17.5778  17.6049  17.6173  17.6805
    17.8331  17.8457  17.8626  17.9604  18.0269  18.0418  18.0452  18.0917
    18.2282  18.2453  18.2455  18.2960  18.5065  18.5401  18.5900  18.5986
    20.3683  20.4035  20.4309  20.4388  20.4642  20.5173  20.5239  20.5572
    20.5645  20.5758  20.5927  20.6960  20.6966  20.7341  20.7731  20.7788
    20.7861  20.8019  20.8619  20.9653  21.0645  21.0685  21.1494  21.1554
    21.1760  21.1847  21.1865  21.2020  21.2271  21.2588  21.2729  21.4667
    21.5229  21.5502  21.6201  21.6519  22.3593  22.3758

     the Fermi energy is    19.7990 ev

!    total energy              =   -5024.25842909 Ry
     total all-electron energy =    -39396.711395 Ry
     estimated scf accuracy    <       0.00000066 Ry
     smearing contrib. (-TS)   =      -0.00524812 Ry
     internal energy E=F+TS    =   -5024.25318097 Ry

     The total energy is F=E-TS. E is the sum of the following terms:
     one-electron contribution =   -1540.77666171 Ry
     hartree contribution      =     936.16701204 Ry
     xc contribution           =    -427.89285126 Ry
     ewald contribution        =   -2692.88354932 Ry
     one-center paw contrib.   =   -1298.86713072 Ry

     total magnetization       =    23.63 Bohr mag/cell
     absolute magnetization    =    30.77 Bohr mag/cell

     convergence has been achieved in  37 iterations


     Computing stress (Cartesian axis) and pressure


     negative rho (up, down):  0.000E+00 2.828E-03
          total   stress  (Ry/bohr**3)                   (kbar)     P=     -666.13
  -0.00442505   0.00000000   0.00000000         -650.95        0.00        0.00
   0.00000000  -0.00457985   0.00000000            0.00     -673.72        0.00
   0.00000000   0.00000000  -0.00457985            0.00        0.00     -673.72


     Writing all to output data dir ./tmp/fe13cr03_hydro_-0.01.save/ :
     XML data file, charge density, pseudopotentials, collected wavefunctions

     init_run     :     60.66s CPU     60.29s WALL (       1 calls)
     electrons    :   7280.68s CPU   7419.52s WALL (       1 calls)
     stress       :    134.07s CPU    136.64s WALL (       1 calls)

     Called by init_run:
     wfcinit      :     55.73s CPU     56.20s WALL (       1 calls)
     potinit      :      3.44s CPU      2.09s WALL (       1 calls)
     hinit0       :      0.56s CPU      0.62s WALL (       1 calls)

     Called by electrons:
     c_bands      :   6581.44s CPU   6672.06s WALL (      37 calls)
     sum_band     :    544.31s CPU    558.98s WALL (      37 calls)
     v_of_rho     :      5.98s CPU      6.81s WALL (      38 calls)
     newd         :     34.09s CPU     49.70s WALL (      38 calls)
     PAW_pot      :    117.10s CPU    132.90s WALL (      38 calls)
     mix_rho      :      1.20s CPU      1.38s WALL (      37 calls)

     Called by c_bands:
     init_us_2    :     18.34s CPU     17.65s WALL (    2736 calls)
     cegterg      :   6532.05s CPU   6625.03s WALL (    1332 calls)

     Called by *egterg:
     cdiaghg      :    614.18s CPU    619.60s WALL (    6371 calls)
     h_psi        :   2131.44s CPU   2177.99s WALL (    6407 calls)
     s_psi        :    777.82s CPU    769.53s WALL (    6407 calls)
     g_psi        :      2.36s CPU      2.60s WALL (    5039 calls)

     Called by h_psi:
     h_psi:calbec :    789.51s CPU    794.15s WALL (    6407 calls)
     vloc_psi     :    546.30s CPU    577.30s WALL (    6407 calls)
                                        0.00s GPU  (    6407 calls)
     add_vuspsi   :    790.62s CPU    792.55s WALL (    6407 calls)

     General routines
     calbec       :   1263.48s CPU   1269.33s WALL (    8207 calls)
     fft          :      3.41s CPU      4.07s WALL (     969 calls)
     ffts         :      0.23s CPU      0.27s WALL (     150 calls)
     fftw         :    622.31s CPU    665.01s WALL ( 1099886 calls)
     interpolate  :      0.47s CPU      0.54s WALL (      76 calls)

     Parallel routines

     PWSCF        :      2h 4m CPU      2h 6m WALL


   This run was terminated on:   8: 0:28  25Apr2026            

=------------------------------------------------------------------------------=
   JOB DONE.
=------------------------------------------------------------------------------=
Note: The following floating-point exceptions are signalling: IEEE_DENORMAL
