
     Program PWSCF v.7.5 starts on 25Apr2026 at 20:15:22 

     This program is part of the open-source Quantum ESPRESSO suite
     for quantum simulation of materials; please cite
         "P. Giannozzi et al., J. Phys.:Condens. Matter 21 395502 (2009);
         "P. Giannozzi et al., J. Phys.:Condens. Matter 29 465901 (2017);
         "P. Giannozzi et al., J. Chem. Phys. 152 154105 (2020);
          URL http://www.quantum-espresso.org", 
     in publications or presentations arising from this work. More details at
     http://www.quantum-espresso.org/quote

     Parallel version (MPI), running on     4 processors

     MPI processes distributed on     1 nodes
     880 MiB available memory on the printing compute node when the environment starts

     Waiting for input...
     Reading input from standard input

     Current dimensions of program PWSCF are:
     Max number of different atomic species (ntypx) = 10
     Max number of k-points (npk) =  40000
     Max angular momentum in pseudopotentials (lmaxx) =  4
     file Fe.pbe-spn-kjpaw_psl.1.0.0.UPF: wavefunction(s)  3P 3D renormalized
     file Cr.pbe-spn-kjpaw_psl.1.0.0.UPF: wavefunction(s)  3S 3P 3D renormalized
     Message from routine setup:
     using ibrav=0 with symmetry is DISCOURAGED, use correct ibrav instead

     R & G space division:  proc/nbgrp/npool/nimage =       4
     Subspace diagonalization in iterative solution of the eigenvalue problem:
     one sub-group per band group will be used
     custom distributed-memory algorithm (size of sub-group:  2*  2 procs)


     Parallelization info
     --------------------
     sticks:   dense  smooth     PW     G-vecs:    dense   smooth      PW
     Min         810     404    118                35092    12423    1934
     Max         811     405    119                35093    12424    1935
     Sum        3241    1617    473               140369    49695    7737

     Using Slab Decomposition



     bravais-lattice index     =            0
     lattice parameter (alat)  =      10.6228  a.u.
     unit-cell volume          =    1216.7278 (a.u.)^3
     number of atoms/cell      =           16
     number of atomic types    =            2
     number of electrons       =       250.00
     number of Kohn-Sham states=          150
     kinetic-energy cutoff     =      45.0000  Ry
     charge density cutoff     =     360.0000  Ry
     scf convergence threshold =      1.0E-06
     mixing beta               =       0.3000
     number of iterations used =            8  plain     mixing
     Exchange-correlation= SLA  PW   PBX  PBC
                           (   1   4   3   4   0   0   0)

     celldm(1)=  10.622753  celldm(2)=   0.000000  celldm(3)=   0.000000
     celldm(4)=   0.000000  celldm(5)=   0.000000  celldm(6)=   0.000000

     crystal axes: (cart. coord. in units of alat)
               a(1) = (   1.000000   0.000000   0.000000 )  
               a(2) = (   0.000000   1.000000   0.000000 )  
               a(3) = (   0.000000   0.000000   1.015038 )  

     reciprocal axes: (cart. coord. in units 2 pi/alat)
               b(1) = (  1.000000  0.000000  0.000000 )  
               b(2) = (  0.000000  1.000000  0.000000 )  
               b(3) = (  0.000000  0.000000  0.985185 )  


     PseudoPot. # 1 for Fe read from file:
     ./pseudo/Fe.pbe-spn-kjpaw_psl.1.0.0.UPF
     MD5 check sum: fc81f059e5c5069939230b1155715ae8
     Pseudo is Projector augmented-wave + core cor, Zval = 16.0
     Generated using &quot;atomic&quot; code by A. Dal Corso  v.6.3
     Shape of augmentation charge: PSQ
     Using radial grid of 1191 points,  6 beta functions with: 
                l(1) =   0
                l(2) =   0
                l(3) =   1
                l(4) =   1
                l(5) =   2
                l(6) =   2
     Q(r) pseudized with 0 coefficients 


     PseudoPot. # 2 for Cr read from file:
     ./pseudo/Cr.pbe-spn-kjpaw_psl.1.0.0.UPF
     MD5 check sum: 198f1a2427a48552563eee314eba32ba
     Pseudo is Projector augmented-wave + core cor, Zval = 14.0
     Generated using &quot;atomic&quot; code by A. Dal Corso  v.6.3
     Shape of augmentation charge: PSQ
     Using radial grid of 1183 points,  6 beta functions with: 
                l(1) =   0
                l(2) =   0
                l(3) =   1
                l(4) =   1
                l(5) =   2
                l(6) =   2
     Q(r) pseudized with 0 coefficients 


     atomic species   valence    mass     pseudopotential
     Fe               16.00    55.84500     Fe( 1.00)
     Cr               14.00    51.99600     Cr( 1.00)

     Starting magnetic structure 
     atomic species   magnetization
     Fe              0.500
     Cr              0.300

      8 Sym. Ops., with inversion, found



   Cartesian axes

     site n.     atom                  positions (alat units)
         1        Cr     tau(   1) = (   0.0000000   0.0000000   0.0000000  )
         2        Fe     tau(   2) = (   0.2500000   0.2500000   0.2537594  )
         3        Fe     tau(   3) = (   0.0000000   0.0000000   0.5075188  )
         4        Fe     tau(   4) = (   0.2500000   0.2500000   0.7612782  )
         5        Fe     tau(   5) = (   0.0000000   0.5000000   0.0000000  )
         6        Fe     tau(   6) = (   0.2500000   0.7500000   0.2537594  )
         7        Cr     tau(   7) = (   0.0000000   0.5000000   0.5075188  )
         8        Fe     tau(   8) = (   0.2500000   0.7500000   0.7612782  )
         9        Fe     tau(   9) = (   0.5000000   0.0000000   0.0000000  )
        10        Fe     tau(  10) = (   0.7500000   0.2500000   0.2537594  )
        11        Fe     tau(  11) = (   0.5000000   0.0000000   0.5075188  )
        12        Fe     tau(  12) = (   0.7500000   0.2500000   0.7612782  )
        13        Fe     tau(  13) = (   0.5000000   0.5000000   0.0000000  )
        14        Fe     tau(  14) = (   0.7500000   0.7500000   0.2537594  )
        15        Cr     tau(  15) = (   0.5000000   0.5000000   0.5075188  )
        16        Fe     tau(  16) = (   0.7500000   0.7500000   0.7612782  )

     number of k points=    27  Marzari-Vanderbilt smearing, width (Ry)=  0.0200
                       cart. coord. in units 2pi/alat
        k(    1) = (   0.0000000   0.0000000   0.0000000), wk =   0.0156250
        k(    2) = (   0.0000000   0.0000000   0.2462963), wk =   0.0312500
        k(    3) = (   0.0000000   0.0000000  -0.4925926), wk =   0.0156250
        k(    4) = (   0.0000000   0.2500000   0.0000000), wk =   0.0312500
        k(    5) = (   0.0000000   0.2500000   0.2462963), wk =   0.0625000
        k(    6) = (   0.0000000   0.2500000  -0.4925926), wk =   0.0312500
        k(    7) = (   0.0000000  -0.5000000   0.0000000), wk =   0.0156250
        k(    8) = (   0.0000000  -0.5000000   0.2462963), wk =   0.0312500
        k(    9) = (   0.0000000  -0.5000000  -0.4925926), wk =   0.0156250
        k(   10) = (   0.2500000   0.2500000   0.0000000), wk =   0.0625000
        k(   11) = (   0.2500000   0.2500000   0.2462963), wk =   0.1250000
        k(   12) = (   0.2500000   0.2500000  -0.4925926), wk =   0.0625000
        k(   13) = (   0.2500000  -0.5000000   0.0000000), wk =   0.0312500
        k(   14) = (   0.2500000  -0.5000000   0.2462963), wk =   0.0625000
        k(   15) = (   0.2500000  -0.5000000  -0.4925926), wk =   0.0312500
        k(   16) = (  -0.5000000  -0.5000000   0.0000000), wk =   0.0156250
        k(   17) = (  -0.5000000  -0.5000000   0.2462963), wk =   0.0312500
        k(   18) = (  -0.5000000  -0.5000000  -0.4925926), wk =   0.0156250
        k(   19) = (   0.2500000   0.0000000   0.0000000), wk =   0.0312500
        k(   20) = (   0.2500000   0.0000000  -0.2462963), wk =   0.0625000
        k(   21) = (   0.2500000   0.0000000   0.4925926), wk =   0.0312500
        k(   22) = (  -0.5000000   0.0000000   0.0000000), wk =   0.0156250
        k(   23) = (  -0.5000000   0.0000000  -0.2462963), wk =   0.0312500
        k(   24) = (  -0.5000000   0.0000000   0.4925926), wk =   0.0156250
        k(   25) = (  -0.5000000   0.2500000   0.0000000), wk =   0.0312500
        k(   26) = (  -0.5000000   0.2500000  -0.2462963), wk =   0.0625000
        k(   27) = (  -0.5000000   0.2500000   0.4925926), wk =   0.0312500

     Dense  grid:   140369 G-vectors     FFT dimensions: (  72,  72,  72)

     Smooth grid:    49695 G-vectors     FFT dimensions: (  45,  45,  48)

     Estimated max dynamical RAM per process >     349.58 MB

     Estimated total dynamical RAM >       1.37 GB

     Check: negative core charge=   -0.000004
     Generating pointlists ...
     new r_m :   0.1795 (alat units)  1.9070 (a.u.) for type    1
     new r_m :   0.1795 (alat units)  1.9070 (a.u.) for type    2

     Initial potential from superposition of free atoms

     starting charge     249.9920, renormalised to     250.0000
     Starting wfcs are  160 randomized atomic wfcs
     Checking if some PAW data can be deallocated... 

     total cpu time spent up to now is       93.9 secs

     Self-consistent Calculation

     iteration #  1     ecut=    45.00 Ry     beta= 0.30
     Davidson diagonalization with overlap
     ethr =  1.00E-02,  avg # of iterations =  2.9

     total cpu time spent up to now is      431.2 secs

     total energy              =   -5018.07603756 Ry
     estimated scf accuracy    <      12.67859839 Ry

     total magnetization       =    50.01 Bohr mag/cell
     absolute magnetization    =    51.07 Bohr mag/cell

     iteration #  2     ecut=    45.00 Ry     beta= 0.30
     Davidson diagonalization with overlap
     ethr =  5.07E-03,  avg # of iterations =  6.5

     total cpu time spent up to now is      766.1 secs

     total energy              =   -5019.51410041 Ry
     estimated scf accuracy    <      49.18884843 Ry

     total magnetization       =    33.06 Bohr mag/cell
     absolute magnetization    =    34.45 Bohr mag/cell

     iteration #  3     ecut=    45.00 Ry     beta= 0.30
     Davidson diagonalization with overlap
     ethr =  5.07E-03,  avg # of iterations =  3.3

     negative rho (up, down):  0.000E+00 3.345E-04

     total cpu time spent up to now is     1051.6 secs

     total energy              =   -5020.69531453 Ry
     estimated scf accuracy    <      11.70117086 Ry

     total magnetization       =    40.25 Bohr mag/cell
     absolute magnetization    =    41.34 Bohr mag/cell

     iteration #  4     ecut=    45.00 Ry     beta= 0.30
     Davidson diagonalization with overlap
     ethr =  4.68E-03,  avg # of iterations =  4.0

     negative rho (up, down):  0.000E+00 5.495E-03

     total cpu time spent up to now is     1347.9 secs

     total energy              =   -5023.02621614 Ry
     estimated scf accuracy    <       6.02885972 Ry

     total magnetization       =    45.03 Bohr mag/cell
     absolute magnetization    =    45.94 Bohr mag/cell

     iteration #  5     ecut=    45.00 Ry     beta= 0.30
     Davidson diagonalization with overlap
     ethr =  2.41E-03,  avg # of iterations =  6.6

     negative rho (up, down):  0.000E+00 6.949E-03

     total cpu time spent up to now is     1792.1 secs

     total energy              =   -5025.03356262 Ry
     estimated scf accuracy    <      51.18337888 Ry

     total magnetization       =    43.64 Bohr mag/cell
     absolute magnetization    =    44.32 Bohr mag/cell

     iteration #  6     ecut=    45.00 Ry     beta= 0.30
     Davidson diagonalization with overlap
     ethr =  2.41E-03,  avg # of iterations =  1.9

     negative rho (up, down):  0.000E+00 7.145E-03

     total cpu time spent up to now is     2060.7 secs

     total energy              =   -5024.54277319 Ry
     estimated scf accuracy    <      35.88389596 Ry

     total magnetization       =    39.91 Bohr mag/cell
     absolute magnetization    =    40.91 Bohr mag/cell

     iteration #  7     ecut=    45.00 Ry     beta= 0.30
     Davidson diagonalization with overlap
     ethr =  2.41E-03,  avg # of iterations =  1.1

     negative rho (up, down):  0.000E+00 7.079E-03

     total cpu time spent up to now is     2310.0 secs

     total energy              =   -5024.52061198 Ry
     estimated scf accuracy    <      18.81570914 Ry

     total magnetization       =    36.26 Bohr mag/cell
     absolute magnetization    =    37.63 Bohr mag/cell

     iteration #  8     ecut=    45.00 Ry     beta= 0.30
     Davidson diagonalization with overlap
     ethr =  2.41E-03,  avg # of iterations =  1.0

     negative rho (up, down):  0.000E+00 6.858E-03

     total cpu time spent up to now is     2544.8 secs

     total energy              =   -5024.05649980 Ry
     estimated scf accuracy    <      12.54507163 Ry

     total magnetization       =    34.82 Bohr mag/cell
     absolute magnetization    =    36.32 Bohr mag/cell

     iteration #  9     ecut=    45.00 Ry     beta= 0.30
     Davidson diagonalization with overlap
     ethr =  2.41E-03,  avg # of iterations =  1.3

     negative rho (up, down):  0.000E+00 6.633E-03

     total cpu time spent up to now is     2788.3 secs

     total energy              =   -5024.19102032 Ry
     estimated scf accuracy    <       4.19705130 Ry

     total magnetization       =    30.04 Bohr mag/cell
     absolute magnetization    =    32.34 Bohr mag/cell

     iteration # 10     ecut=    45.00 Ry     beta= 0.30
     Davidson diagonalization with overlap
     ethr =  1.68E-03,  avg # of iterations =  1.3

     negative rho (up, down):  0.000E+00 5.551E-03

     total cpu time spent up to now is     3031.3 secs

     total energy              =   -5024.06070011 Ry
     estimated scf accuracy    <       1.44672850 Ry

     total magnetization       =    29.00 Bohr mag/cell
     absolute magnetization    =    31.40 Bohr mag/cell

     iteration # 11     ecut=    45.00 Ry     beta= 0.30
     Davidson diagonalization with overlap
     ethr =  5.79E-04,  avg # of iterations =  4.5

     negative rho (up, down):  0.000E+00 5.316E-03

     total cpu time spent up to now is     3323.0 secs

     total energy              =   -5024.19834532 Ry
     estimated scf accuracy    <       1.27273178 Ry

     total magnetization       =    26.07 Bohr mag/cell
     absolute magnetization    =    29.20 Bohr mag/cell

     iteration # 12     ecut=    45.00 Ry     beta= 0.30
     Davidson diagonalization with overlap
     ethr =  5.09E-04,  avg # of iterations =  1.4

     negative rho (up, down):  0.000E+00 4.650E-03

     total cpu time spent up to now is     3567.1 secs

     total energy              =   -5024.23014504 Ry
     estimated scf accuracy    <       0.36274908 Ry

     total magnetization       =    26.48 Bohr mag/cell
     absolute magnetization    =    29.43 Bohr mag/cell

     iteration # 13     ecut=    45.00 Ry     beta= 0.30
     Davidson diagonalization with overlap
     ethr =  1.45E-04,  avg # of iterations =  2.7

     negative rho (up, down):  0.000E+00 4.267E-03

     total cpu time spent up to now is     3832.1 secs

     total energy              =   -5024.23584743 Ry
     estimated scf accuracy    <       0.28994048 Ry

     total magnetization       =    26.35 Bohr mag/cell
     absolute magnetization    =    29.26 Bohr mag/cell

     iteration # 14     ecut=    45.00 Ry     beta= 0.30
     Davidson diagonalization with overlap
     ethr =  1.16E-04,  avg # of iterations =  1.7

     negative rho (up, down):  0.000E+00 3.531E-03

     total cpu time spent up to now is     4082.3 secs

     total energy              =   -5024.23940453 Ry
     estimated scf accuracy    <       0.26653703 Ry

     total magnetization       =    26.30 Bohr mag/cell
     absolute magnetization    =    29.23 Bohr mag/cell

     iteration # 15     ecut=    45.00 Ry     beta= 0.30
     Davidson diagonalization with overlap
     ethr =  1.07E-04,  avg # of iterations =  1.3

     negative rho (up, down):  0.000E+00 3.351E-03

     total cpu time spent up to now is     4321.5 secs

     total energy              =   -5024.24395078 Ry
     estimated scf accuracy    <       0.10339832 Ry

     total magnetization       =    26.31 Bohr mag/cell
     absolute magnetization    =    29.36 Bohr mag/cell

     iteration # 16     ecut=    45.00 Ry     beta= 0.30
     Davidson diagonalization with overlap
     ethr =  4.14E-05,  avg # of iterations =  2.2

     negative rho (up, down):  0.000E+00 3.075E-03

     total cpu time spent up to now is     4585.3 secs

     total energy              =   -5024.24851159 Ry
     estimated scf accuracy    <       0.05257237 Ry

     total magnetization       =    26.29 Bohr mag/cell
     absolute magnetization    =    29.35 Bohr mag/cell

     iteration # 17     ecut=    45.00 Ry     beta= 0.30
     Davidson diagonalization with overlap
     ethr =  2.10E-05,  avg # of iterations =  2.6

     negative rho (up, down):  0.000E+00 2.468E-03

     total cpu time spent up to now is     4843.6 secs

     total energy              =   -5024.25386979 Ry
     estimated scf accuracy    <       0.03097701 Ry

     total magnetization       =    26.20 Bohr mag/cell
     absolute magnetization    =    29.38 Bohr mag/cell

     iteration # 18     ecut=    45.00 Ry     beta= 0.30
     Davidson diagonalization with overlap
     ethr =  1.24E-05,  avg # of iterations =  3.6

     negative rho (up, down):  0.000E+00 2.205E-03

     total cpu time spent up to now is     5132.0 secs

     total energy              =   -5024.25785203 Ry
     estimated scf accuracy    <       0.01575469 Ry

     total magnetization       =    25.96 Bohr mag/cell
     absolute magnetization    =    29.67 Bohr mag/cell

     iteration # 19     ecut=    45.00 Ry     beta= 0.30
     Davidson diagonalization with overlap
     ethr =  6.30E-06,  avg # of iterations =  4.6

     negative rho (up, down):  0.000E+00 2.201E-03

     total cpu time spent up to now is     5432.1 secs

     total energy              =   -5024.25867352 Ry
     estimated scf accuracy    <       0.03877717 Ry

     total magnetization       =    25.85 Bohr mag/cell
     absolute magnetization    =    29.72 Bohr mag/cell

     iteration # 20     ecut=    45.00 Ry     beta= 0.30
     Davidson diagonalization with overlap
     ethr =  6.30E-06,  avg # of iterations =  2.7

     negative rho (up, down):  0.000E+00 2.161E-03

     total cpu time spent up to now is     5700.1 secs

     total energy              =   -5024.26044408 Ry
     estimated scf accuracy    <       0.01031363 Ry

     total magnetization       =    25.68 Bohr mag/cell
     absolute magnetization    =    29.87 Bohr mag/cell

     iteration # 21     ecut=    45.00 Ry     beta= 0.30
     Davidson diagonalization with overlap
     ethr =  4.13E-06,  avg # of iterations =  3.4

     negative rho (up, down):  0.000E+00 1.905E-03

     total cpu time spent up to now is     5990.0 secs

     total energy              =   -5024.26231632 Ry
     estimated scf accuracy    <       0.02953705 Ry

     total magnetization       =    25.74 Bohr mag/cell
     absolute magnetization    =    29.89 Bohr mag/cell

     iteration # 22     ecut=    45.00 Ry     beta= 0.30
     Davidson diagonalization with overlap
     ethr =  4.13E-06,  avg # of iterations =  4.0

     negative rho (up, down):  0.000E+00 1.944E-03

     total cpu time spent up to now is     6284.9 secs

     total energy              =   -5024.26561766 Ry
     estimated scf accuracy    <       0.00440630 Ry

     total magnetization       =    25.32 Bohr mag/cell
     absolute magnetization    =    30.19 Bohr mag/cell

     iteration # 23     ecut=    45.00 Ry     beta= 0.30
     Davidson diagonalization with overlap
     c_bands:  1 eigenvalues not converged
     ethr =  1.76E-06,  avg # of iterations =  5.5

     negative rho (up, down):  0.000E+00 1.885E-03

     total cpu time spent up to now is     6596.5 secs

     total energy              =   -5024.26629514 Ry
     estimated scf accuracy    <       0.02243257 Ry

     total magnetization       =    25.15 Bohr mag/cell
     absolute magnetization    =    30.32 Bohr mag/cell

     iteration # 24     ecut=    45.00 Ry     beta= 0.30
     Davidson diagonalization with overlap
     c_bands:  1 eigenvalues not converged
     ethr =  1.76E-06,  avg # of iterations =  5.7

     negative rho (up, down):  0.000E+00 1.910E-03

     total cpu time spent up to now is     6908.0 secs

     total energy              =   -5024.26817515 Ry
     estimated scf accuracy    <       0.00134989 Ry

     total magnetization       =    24.94 Bohr mag/cell
     absolute magnetization    =    30.54 Bohr mag/cell

     iteration # 25     ecut=    45.00 Ry     beta= 0.30
     Davidson diagonalization with overlap
     ethr =  5.40E-07,  avg # of iterations =  5.0

     negative rho (up, down):  0.000E+00 1.972E-03

     total cpu time spent up to now is     7223.4 secs

     total energy              =   -5024.26877395 Ry
     estimated scf accuracy    <       0.00205734 Ry

     total magnetization       =    24.80 Bohr mag/cell
     absolute magnetization    =    30.72 Bohr mag/cell

     iteration # 26     ecut=    45.00 Ry     beta= 0.30
     Davidson diagonalization with overlap
     ethr =  5.40E-07,  avg # of iterations =  2.8

     negative rho (up, down):  0.000E+00 1.969E-03

     total cpu time spent up to now is     7502.4 secs

     total energy              =   -5024.26866542 Ry
     estimated scf accuracy    <       0.00145874 Ry

     total magnetization       =    24.71 Bohr mag/cell
     absolute magnetization    =    30.81 Bohr mag/cell

     iteration # 27     ecut=    45.00 Ry     beta= 0.30
     Davidson diagonalization with overlap
     ethr =  5.40E-07,  avg # of iterations =  2.5

     negative rho (up, down):  0.000E+00 2.032E-03

     total cpu time spent up to now is     7773.4 secs

     total energy              =   -5024.26913838 Ry
     estimated scf accuracy    <       0.00230104 Ry

     total magnetization       =    24.74 Bohr mag/cell
     absolute magnetization    =    30.78 Bohr mag/cell

     iteration # 28     ecut=    45.00 Ry     beta= 0.30
     Davidson diagonalization with overlap
     ethr =  5.40E-07,  avg # of iterations =  3.7

     negative rho (up, down):  0.000E+00 2.145E-03

     total cpu time spent up to now is     8068.7 secs

     total energy              =   -5024.26966464 Ry
     estimated scf accuracy    <       0.00194209 Ry

     total magnetization       =    24.61 Bohr mag/cell
     absolute magnetization    =    30.99 Bohr mag/cell

     iteration # 29     ecut=    45.00 Ry     beta= 0.30
     Davidson diagonalization with overlap
     ethr =  5.40E-07,  avg # of iterations =  5.5

     negative rho (up, down):  0.000E+00 2.103E-03

     total cpu time spent up to now is     8395.9 secs

     total energy              =   -5024.27001770 Ry
     estimated scf accuracy    <       0.00145746 Ry

     total magnetization       =    24.44 Bohr mag/cell
     absolute magnetization    =    31.26 Bohr mag/cell

     iteration # 30     ecut=    45.00 Ry     beta= 0.30
     Davidson diagonalization with overlap
     ethr =  5.40E-07,  avg # of iterations =  2.0

     negative rho (up, down):  0.000E+00 2.215E-03

     total cpu time spent up to now is     8656.4 secs

     total energy              =   -5024.27030258 Ry
     estimated scf accuracy    <       0.00108832 Ry

     total magnetization       =    24.45 Bohr mag/cell
     absolute magnetization    =    31.23 Bohr mag/cell

     iteration # 31     ecut=    45.00 Ry     beta= 0.30
     Davidson diagonalization with overlap
     ethr =  4.35E-07,  avg # of iterations =  4.0

     negative rho (up, down):  0.000E+00 2.153E-03

     total cpu time spent up to now is     8962.2 secs

     total energy              =   -5024.27040973 Ry
     estimated scf accuracy    <       0.00128592 Ry

     total magnetization       =    24.33 Bohr mag/cell
     absolute magnetization    =    31.51 Bohr mag/cell

     iteration # 32     ecut=    45.00 Ry     beta= 0.30
     Davidson diagonalization with overlap
     ethr =  4.35E-07,  avg # of iterations =  1.6

     negative rho (up, down):  0.000E+00 2.252E-03

     total cpu time spent up to now is     9219.7 secs

     total energy              =   -5024.27060228 Ry
     estimated scf accuracy    <       0.00082913 Ry

     total magnetization       =    24.36 Bohr mag/cell
     absolute magnetization    =    31.41 Bohr mag/cell

     iteration # 33     ecut=    45.00 Ry     beta= 0.30
     Davidson diagonalization with overlap
     ethr =  3.32E-07,  avg # of iterations =  5.6

     negative rho (up, down):  0.000E+00 2.229E-03

     total cpu time spent up to now is     9556.8 secs

     total energy              =   -5024.27090567 Ry
     estimated scf accuracy    <       0.00255871 Ry

     total magnetization       =    24.29 Bohr mag/cell
     absolute magnetization    =    31.76 Bohr mag/cell

     iteration # 34     ecut=    45.00 Ry     beta= 0.30
     Davidson diagonalization with overlap
     ethr =  3.32E-07,  avg # of iterations =  3.5

     negative rho (up, down):  0.000E+00 2.284E-03

     total cpu time spent up to now is     9835.4 secs

     total energy              =   -5024.27087181 Ry
     estimated scf accuracy    <       0.00042714 Ry

     total magnetization       =    24.23 Bohr mag/cell
     absolute magnetization    =    31.70 Bohr mag/cell

     iteration # 35     ecut=    45.00 Ry     beta= 0.30
     Davidson diagonalization with overlap
     ethr =  1.71E-07,  avg # of iterations =  5.7

     negative rho (up, down):  0.000E+00 2.299E-03

     total cpu time spent up to now is    10210.2 secs

     total energy              =   -5024.27148781 Ry
     estimated scf accuracy    <       0.00051330 Ry

     total magnetization       =    24.13 Bohr mag/cell
     absolute magnetization    =    32.09 Bohr mag/cell

     iteration # 36     ecut=    45.00 Ry     beta= 0.30
     Davidson diagonalization with overlap
     ethr =  1.71E-07,  avg # of iterations =  2.2

     negative rho (up, down):  0.000E+00 2.269E-03

     total cpu time spent up to now is    10492.4 secs

     total energy              =   -5024.27142633 Ry
     estimated scf accuracy    <       0.00035548 Ry

     total magnetization       =    24.09 Bohr mag/cell
     absolute magnetization    =    32.14 Bohr mag/cell

     iteration # 37     ecut=    45.00 Ry     beta= 0.30
     Davidson diagonalization with overlap
     ethr =  1.42E-07,  avg # of iterations =  3.0

     negative rho (up, down):  0.000E+00 2.285E-03

     total cpu time spent up to now is    10791.0 secs

     total energy              =   -5024.27141242 Ry
     estimated scf accuracy    <       0.00131573 Ry

     total magnetization       =    24.12 Bohr mag/cell
     absolute magnetization    =    32.05 Bohr mag/cell

     iteration # 38     ecut=    45.00 Ry     beta= 0.30
     Davidson diagonalization with overlap
     ethr =  1.42E-07,  avg # of iterations =  4.5

     negative rho (up, down):  0.000E+00 2.287E-03

     total cpu time spent up to now is    11099.7 secs

     total energy              =   -5024.27161690 Ry
     estimated scf accuracy    <       0.00033515 Ry

     total magnetization       =    24.08 Bohr mag/cell
     absolute magnetization    =    32.25 Bohr mag/cell

     iteration # 39     ecut=    45.00 Ry     beta= 0.30
     Davidson diagonalization with overlap
     ethr =  1.34E-07,  avg # of iterations =  4.1

     negative rho (up, down):  0.000E+00 2.292E-03

     total cpu time spent up to now is    11395.2 secs

     total energy              =   -5024.27166008 Ry
     estimated scf accuracy    <       0.00008062 Ry

     total magnetization       =    24.07 Bohr mag/cell
     absolute magnetization    =    32.34 Bohr mag/cell

     iteration # 40     ecut=    45.00 Ry     beta= 0.30
     Davidson diagonalization with overlap
     ethr =  3.22E-08,  avg # of iterations =  5.1

     negative rho (up, down):  0.000E+00 2.285E-03

     total cpu time spent up to now is    11708.6 secs

     total energy              =   -5024.27166005 Ry
     estimated scf accuracy    <       0.00020827 Ry

     total magnetization       =    24.05 Bohr mag/cell
     absolute magnetization    =    32.34 Bohr mag/cell

     iteration # 41     ecut=    45.00 Ry     beta= 0.30
     Davidson diagonalization with overlap
     ethr =  3.22E-08,  avg # of iterations =  4.5

     negative rho (up, down):  0.000E+00 2.274E-03

     total cpu time spent up to now is    12024.1 secs

     total energy              =   -5024.27167506 Ry
     estimated scf accuracy    <       0.00004391 Ry

     total magnetization       =    24.05 Bohr mag/cell
     absolute magnetization    =    32.42 Bohr mag/cell

     iteration # 42     ecut=    45.00 Ry     beta= 0.30
     Davidson diagonalization with overlap
     ethr =  1.76E-08,  avg # of iterations =  4.8

     negative rho (up, down):  0.000E+00 2.265E-03

     total cpu time spent up to now is    12347.5 secs

     total energy              =   -5024.27168865 Ry
     estimated scf accuracy    <       0.00020121 Ry

     total magnetization       =    24.06 Bohr mag/cell
     absolute magnetization    =    32.36 Bohr mag/cell

     iteration # 43     ecut=    45.00 Ry     beta= 0.30
     Davidson diagonalization with overlap
     ethr =  1.76E-08,  avg # of iterations =  4.4

     negative rho (up, down):  0.000E+00 2.278E-03

     total cpu time spent up to now is    12642.3 secs

     total energy              =   -5024.27165220 Ry
     estimated scf accuracy    <       0.00010798 Ry

     total magnetization       =    24.07 Bohr mag/cell
     absolute magnetization    =    32.35 Bohr mag/cell

     iteration # 44     ecut=    45.00 Ry     beta= 0.30
     Davidson diagonalization with overlap
     ethr =  1.76E-08,  avg # of iterations =  5.4

     negative rho (up, down):  0.000E+00 2.278E-03

     total cpu time spent up to now is    13010.8 secs

     total energy              =   -5024.27170223 Ry
     estimated scf accuracy    <       0.00003084 Ry

     total magnetization       =    24.04 Bohr mag/cell
     absolute magnetization    =    32.46 Bohr mag/cell

     iteration # 45     ecut=    45.00 Ry     beta= 0.30
     Davidson diagonalization with overlap
     ethr =  1.23E-08,  avg # of iterations =  3.6

     negative rho (up, down):  0.000E+00 2.276E-03

     total cpu time spent up to now is    13308.4 secs

     total energy              =   -5024.27170740 Ry
     estimated scf accuracy    <       0.00003182 Ry

     total magnetization       =    24.05 Bohr mag/cell
     absolute magnetization    =    32.42 Bohr mag/cell

     iteration # 46     ecut=    45.00 Ry     beta= 0.30
     Davidson diagonalization with overlap
     ethr =  1.23E-08,  avg # of iterations =  4.0

     negative rho (up, down):  0.000E+00 2.277E-03

     total cpu time spent up to now is    13622.7 secs

     total energy              =   -5024.27172422 Ry
     estimated scf accuracy    <       0.00001280 Ry

     total magnetization       =    24.04 Bohr mag/cell
     absolute magnetization    =    32.47 Bohr mag/cell

     iteration # 47     ecut=    45.00 Ry     beta= 0.30
     Davidson diagonalization with overlap
     ethr =  5.12E-09,  avg # of iterations =  3.6

     negative rho (up, down):  0.000E+00 2.279E-03

     total cpu time spent up to now is    13918.1 secs

     total energy              =   -5024.27172491 Ry
     estimated scf accuracy    <       0.00000867 Ry

     total magnetization       =    24.03 Bohr mag/cell
     absolute magnetization    =    32.48 Bohr mag/cell

     iteration # 48     ecut=    45.00 Ry     beta= 0.30
     Davidson diagonalization with overlap
     ethr =  3.47E-09,  avg # of iterations =  2.9

     negative rho (up, down):  0.000E+00 2.279E-03

     total cpu time spent up to now is    14208.5 secs

     total energy              =   -5024.27172669 Ry
     estimated scf accuracy    <       0.00001945 Ry

     total magnetization       =    24.04 Bohr mag/cell
     absolute magnetization    =    32.47 Bohr mag/cell

     iteration # 49     ecut=    45.00 Ry     beta= 0.30
     Davidson diagonalization with overlap
     ethr =  3.47E-09,  avg # of iterations =  3.7

     negative rho (up, down):  0.000E+00 2.281E-03

     total cpu time spent up to now is    14498.3 secs

     total energy              =   -5024.27172938 Ry
     estimated scf accuracy    <       0.00000612 Ry

     total magnetization       =    24.03 Bohr mag/cell
     absolute magnetization    =    32.48 Bohr mag/cell

     iteration # 50     ecut=    45.00 Ry     beta= 0.30
     Davidson diagonalization with overlap
     ethr =  2.45E-09,  avg # of iterations =  4.8

     negative rho (up, down):  0.000E+00 2.284E-03

     total cpu time spent up to now is    14801.5 secs

     total energy              =   -5024.27173157 Ry
     estimated scf accuracy    <       0.00000543 Ry

     total magnetization       =    24.03 Bohr mag/cell
     absolute magnetization    =    32.49 Bohr mag/cell

     iteration # 51     ecut=    45.00 Ry     beta= 0.30
     Davidson diagonalization with overlap
     ethr =  2.17E-09,  avg # of iterations =  5.3

     negative rho (up, down):  0.000E+00 2.285E-03

     total cpu time spent up to now is    15128.9 secs

     total energy              =   -5024.27173351 Ry
     estimated scf accuracy    <       0.00000311 Ry

     total magnetization       =    24.03 Bohr mag/cell
     absolute magnetization    =    32.48 Bohr mag/cell

     iteration # 52     ecut=    45.00 Ry     beta= 0.30
     Davidson diagonalization with overlap
     ethr =  1.24E-09,  avg # of iterations =  4.8

     negative rho (up, down):  0.000E+00 2.286E-03

     total cpu time spent up to now is    15455.3 secs

     total energy              =   -5024.27173442 Ry
     estimated scf accuracy    <       0.00000725 Ry

     total magnetization       =    24.03 Bohr mag/cell
     absolute magnetization    =    32.47 Bohr mag/cell

     iteration # 53     ecut=    45.00 Ry     beta= 0.30
     Davidson diagonalization with overlap
     ethr =  1.24E-09,  avg # of iterations =  4.4

     negative rho (up, down):  0.000E+00 2.287E-03

     total cpu time spent up to now is    15756.4 secs

     total energy              =   -5024.27173481 Ry
     estimated scf accuracy    <       0.00001144 Ry

     total magnetization       =    24.03 Bohr mag/cell
     absolute magnetization    =    32.47 Bohr mag/cell

     iteration # 54     ecut=    45.00 Ry     beta= 0.30
     Davidson diagonalization with overlap
     ethr =  1.24E-09,  avg # of iterations =  2.8

     negative rho (up, down):  0.000E+00 2.284E-03

     Magnetic moment per site  (integrated on atomic sphere of radius R)
     atom   1 (R=0.180)  charge= 12.0932  magn= -1.2821
     atom   2 (R=0.180)  charge= 14.4168  magn=  2.0403
     atom   3 (R=0.180)  charge= 14.3975  magn=  2.2511
     atom   4 (R=0.180)  charge= 14.4168  magn=  2.0403
     atom   5 (R=0.180)  charge= 14.3974  magn=  2.2479
     atom   6 (R=0.180)  charge= 14.4168  magn=  2.0403
     atom   7 (R=0.180)  charge= 12.1050  magn= -0.8164
     atom   8 (R=0.180)  charge= 14.4168  magn=  2.0403
     atom   9 (R=0.180)  charge= 14.3939  magn=  2.4619
     atom  10 (R=0.180)  charge= 14.4168  magn=  2.0403
     atom  11 (R=0.180)  charge= 14.3899  magn=  2.3515
     atom  12 (R=0.180)  charge= 14.4168  magn=  2.0403
     atom  13 (R=0.180)  charge= 14.3882  magn=  2.3777
     atom  14 (R=0.180)  charge= 14.4168  magn=  2.0403
     atom  15 (R=0.180)  charge= 12.1043  magn= -1.0590
     atom  16 (R=0.180)  charge= 14.4168  magn=  2.0403

     total cpu time spent up to now is    16033.3 secs

     End of self-consistent calculation

 ------ SPIN UP ------------


          k = 0.0000 0.0000 0.0000 (  6211 PWs)   bands (ev):

   -69.3953 -69.3638 -69.3578 -69.3325 -69.3209 -69.3024 -69.3012 -69.3012
   -69.2963 -69.2963 -69.2952 -69.2901 -69.2663 -52.4440 -52.3861 -52.3396
   -35.5406 -35.5372 -35.5355 -35.5354 -35.5310 -35.5198 -35.4236 -35.4227
   -35.4143 -35.4099 -35.3939 -35.3848 -35.3813 -35.3805 -35.3735 -35.3527
   -35.3520 -35.3504 -35.3460 -35.3321 -35.3051 -35.2988 -35.2962 -35.2955
   -35.2901 -35.2864 -35.2735 -35.2724 -35.2594 -35.2561 -35.2502 -35.2404
   -35.2325 -35.1742 -35.1717 -35.1669 -35.1263 -35.1258 -35.1078 -23.8627
   -23.7777 -23.7674 -23.7316 -23.7213 -23.6844 -23.6824 -23.6742 -23.6671
    10.3458  13.8690  13.8738  13.8752  13.9245  13.9277  13.9800  13.9978
    14.0441  14.0582  14.1477  14.1505  14.1559  14.3125  14.4075  15.3754
    15.4394  15.4955  15.6033  15.6126  15.6272  15.6358  15.6463  15.6632
    15.6852  15.7306  15.7331  15.7814  15.8015  15.8551  15.9292  16.1622
    16.4015  16.6855  16.7059  16.7581  16.8813  16.8839  16.9237  16.9448
    16.9572  17.0063  17.0091  17.1876  17.1935  17.5066  17.5733  17.6237
    17.7130  17.7206  17.7393  17.7607  17.7755  17.8179  17.9045  17.9229
    17.9509  17.9539  17.9882  18.0709  18.0906  18.1203  18.1424  18.1510
    18.2768  18.7091  18.9595  19.0105  19.0426  19.0650  19.1394  19.1478
    19.1546  19.1596  19.2013  19.2498  19.2791  19.3248  19.3725  19.4760
    19.6242  19.7981  19.8281  19.9130  20.0398  20.0430

          k = 0.0000 0.0000 0.2463 (  6215 PWs)   bands (ev):

   -69.3921 -69.3638 -69.3623 -69.3320 -69.3259 -69.3005 -69.3005 -69.2971
   -69.2971 -69.2945 -69.2932 -69.2909 -69.2698 -52.4440 -52.3861 -52.3396
   -35.5302 -35.5260 -35.5255 -35.5240 -35.5202 -35.5179 -35.4432 -35.4397
   -35.4249 -35.4173 -35.4150 -35.4135 -35.4005 -35.3868 -35.3820 -35.3761
   -35.3754 -35.3585 -35.3497 -35.3241 -35.3185 -35.2967 -35.2941 -35.2720
   -35.2678 -35.2611 -35.2608 -35.2524 -35.2466 -35.2400 -35.2380 -35.2142
   -35.2113 -35.1833 -35.1799 -35.1728 -35.1422 -35.1353 -35.1202 -23.8631
   -23.7777 -23.7675 -23.7311 -23.7213 -23.6849 -23.6824 -23.6746 -23.6672
    10.6678  12.8897  13.9598  13.9665  14.0274  14.0507  14.1008  14.1198
    14.1653  14.1741  14.2193  14.2280  14.3780  14.3937  14.6174  15.1605
    15.3221  15.3779  15.3879  15.4119  15.4647  15.5229  15.7002  15.7161
    15.7233  15.7461  15.7965  15.8164  15.9748  16.1654  16.1816  16.2118
    16.5809  16.6232  16.6574  16.6945  16.6954  16.7828  16.8080  16.8268
    16.8810  17.0084  17.1855  17.1913  17.1915  17.2628  17.2739  17.4279
    17.4620  17.4675  17.5147  17.6332  17.7816  17.8023  17.8329  17.8469
    17.9744  17.9916  17.9966  18.0424  18.0638  18.0787  18.2053  18.2295
    18.2878  18.4055  18.4124  18.6503  18.8825  18.9060  18.9215  19.0123
    19.0405  19.0829  19.1624  19.3164  19.3242  19.3870  19.4081  19.6893
    19.7415  19.8829  19.9760  19.9847  20.2441  20.4624

          k = 0.0000 0.0000-0.4926 (  6224 PWs)   bands (ev):

   -69.3877 -69.3683 -69.3637 -69.3302 -69.3301 -69.2987 -69.2987 -69.2987
   -69.2987 -69.2927 -69.2927 -69.2816 -69.2777 -52.4440 -52.3861 -52.3396
   -35.5137 -35.5071 -35.5071 -35.4947 -35.4898 -35.4824 -35.4783 -35.4738
   -35.4683 -35.4627 -35.4389 -35.4360 -35.4042 -35.4042 -35.3856 -35.3840
   -35.3651 -35.3649 -35.3515 -35.3446 -35.3190 -35.2932 -35.2897 -35.2616
   -35.2614 -35.2428 -35.2406 -35.2406 -35.2369 -35.2130 -35.2084 -35.1975
   -35.1900 -35.1897 -35.1791 -35.1659 -35.1639 -35.1595 -35.1575 -23.8636
   -23.7780 -23.7676 -23.7311 -23.7211 -23.6854 -23.6823 -23.6749 -23.6670
    11.5403  11.6237  14.1539  14.1622  14.1752  14.1829  14.1842  14.2345
    14.3044  14.3365  14.3947  14.4702  14.5080  14.6458  14.6625  14.6959
    14.7516  14.7530  15.3611  15.3707  15.4248  15.4910  15.9596  16.0506
    16.0584  16.1039  16.1585  16.1852  16.1916  16.1972  16.2071  16.2106
    16.2186  16.2322  16.3217  16.6082  16.6192  16.6352  16.6358  16.6467
    16.7753  16.8269  16.9920  16.9935  17.0032  17.0793  17.1237  17.1840
    17.2156  17.3017  17.5112  17.6288  17.6586  17.6688  17.7007  17.7150
    17.9447  18.0094  18.0168  18.0202  18.1197  18.1630  18.2229  18.3297
    18.3539  18.3557  18.6493  18.6727  18.6910  18.7169  18.7178  18.7526
    18.9957  19.0047  19.2634  19.2797  19.5484  19.5566  19.6696  19.8126
    19.8298  19.8339  19.8394  19.9613  20.2897  20.3605

          k = 0.0000 0.2500 0.0000 (  6217 PWs)   bands (ev):

   -69.3915 -69.3680 -69.3584 -69.3323 -69.3257 -69.3014 -69.3003 -69.2972
   -69.2961 -69.2953 -69.2925 -69.2912 -69.2696 -52.4440 -52.3861 -52.3396
   -35.5263 -35.5260 -35.5226 -35.5222 -35.5186 -35.5153 -35.4428 -35.4316
   -35.4305 -35.4269 -35.4152 -35.4069 -35.4019 -35.3933 -35.3811 -35.3809
   -35.3739 -35.3552 -35.3534 -35.3261 -35.3147 -35.2964 -35.2949 -35.2720
   -35.2715 -35.2641 -35.2595 -35.2543 -35.2525 -35.2411 -35.2357 -35.2114
   -35.2102 -35.1833 -35.1805 -35.1720 -35.1389 -35.1340 -35.1216 -23.8631
   -23.7775 -23.7678 -23.7308 -23.7218 -23.6845 -23.6825 -23.6750 -23.6672
    10.6788  12.9574  13.9526  13.9702  14.0187  14.0477  14.1170  14.1226
    14.1548  14.1711  14.1879  14.2378  14.3441  14.3885  14.7009  15.1646
    15.3717  15.4120  15.4424  15.4546  15.4571  15.5847  15.6569  15.6964
    15.7331  15.7560  15.7561  15.7696  15.9667  16.1290  16.1563  16.1579
    16.5816  16.5994  16.6263  16.7365  16.7401  16.7493  16.7691  16.8018
    16.8915  16.9465  17.2244  17.2347  17.2500  17.2716  17.3177  17.4288
    17.4445  17.5003  17.5282  17.6558  17.7580  17.7902  17.8410  17.8447
    17.8984  17.9378  17.9461  17.9982  18.0028  18.0747  18.2056  18.2204
    18.2472  18.3962  18.3964  18.6611  18.8596  18.8792  18.9264  18.9791
    19.0359  19.1217  19.1704  19.2554  19.3090  19.3599  19.4277  19.7483
    19.7747  19.8626  19.9765  19.9930  20.2526  20.4330

          k = 0.0000 0.2500 0.2463 (  6220 PWs)   bands (ev):

   -69.3887 -69.3679 -69.3625 -69.3319 -69.3278 -69.3003 -69.2996 -69.2969
   -69.2962 -69.2954 -69.2918 -69.2884 -69.2722 -52.4440 -52.3861 -52.3396
   -35.5287 -35.5231 -35.5154 -35.5109 -35.5018 -35.4994 -35.4681 -35.4610
   -35.4331 -35.4302 -35.4273 -35.4025 -35.3987 -35.3858 -35.3785 -35.3728
   -35.3617 -35.3584 -35.3551 -35.3475 -35.3280 -35.3142 -35.3048 -35.2734
   -35.2624 -35.2596 -35.2506 -35.2467 -35.2426 -35.2383 -35.2276 -35.2006
   -35.1925 -35.1901 -35.1771 -35.1718 -35.1694 -35.1307 -35.1255 -23.8635
   -23.7776 -23.7678 -23.7309 -23.7220 -23.6847 -23.6825 -23.6751 -23.6672
    10.9887  13.0294  13.2333  13.8166  14.1928  14.2059  14.2137  14.2287
    14.2802  14.2972  14.3409  14.3679  14.4999  14.6537  14.7735  15.1983
    15.2570  15.2573  15.2764  15.4834  15.5114  15.5423  15.5621  15.6566
    15.7378  15.7721  15.8486  15.8730  15.9883  16.0466  16.1041  16.2799
    16.3404  16.4900  16.5405  16.5961  16.6111  16.6289  16.7415  16.7946
    16.9843  17.0137  17.1025  17.1396  17.1419  17.1944  17.2258  17.2523
    17.3162  17.3688  17.4116  17.4900  17.5930  17.6099  17.6705  17.7884
    17.8545  17.8665  17.9590  18.0014  18.0413  18.0738  18.0889  18.1078
    18.2967  18.3343  18.4358  18.5250  18.5661  18.5832  18.5862  18.8333
    19.0040  19.1340  19.2479  19.2949  19.3363  19.5055  19.5434  19.6419
    19.7553  19.9540  20.2226  20.3297  20.5761  20.7631

          k = 0.0000 0.2500-0.4926 (  6184 PWs)   bands (ev):

   -69.3845 -69.3680 -69.3675 -69.3309 -69.3299 -69.3003 -69.2979 -69.2979
   -69.2961 -69.2936 -69.2936 -69.2803 -69.2786 -52.4439 -52.3860 -52.3396
   -35.5141 -35.5102 -35.5089 -35.5068 -35.4948 -35.4749 -35.4740 -35.4706
   -35.4636 -35.4201 -35.4194 -35.4104 -35.4086 -35.3989 -35.3868 -35.3701
   -35.3628 -35.3573 -35.3557 -35.3399 -35.3360 -35.3215 -35.3147 -35.2628
   -35.2519 -35.2518 -35.2381 -35.2375 -35.2329 -35.2267 -35.2260 -35.2065
   -35.1961 -35.1952 -35.1915 -35.1543 -35.1526 -35.1365 -35.1363 -23.8633
   -23.7773 -23.7675 -23.7306 -23.7218 -23.6844 -23.6821 -23.6748 -23.6668
    11.8253  11.9075  13.5130  13.6004  14.3871  14.4112  14.4143  14.4786
    14.4848  14.5164  14.5690  14.6606  14.6682  14.7556  14.7774  14.7836
    14.8313  14.8450  15.4545  15.4720  15.4974  15.5814  15.7270  15.7382
    15.8464  15.8558  15.8712  15.8958  15.9888  16.0069  16.2982  16.3500
    16.3984  16.4113  16.4576  16.4802  16.4818  16.4921  16.5324  16.5638
    16.5762  16.5958  16.6338  16.7002  16.8613  16.9804  17.3558  17.3933
    17.4066  17.4450  17.4938  17.5624  17.6256  17.6335  17.6595  17.7491
    17.7787  17.8470  17.8666  17.8815  17.8942  18.0691  18.0883  18.1255
    18.1553  18.1876  18.3689  18.4019  18.4918  18.5295  18.7954  18.9767
    18.9811  18.9859  19.1662  19.3391  19.4334  19.4708  19.5285  19.6929
    19.9975  20.0388  20.3344  20.4412  20.6247  20.6456

          k = 0.0000-0.5000 0.0000 (  6218 PWs)   bands (ev):

   -69.3848 -69.3755 -69.3586 -69.3319 -69.3288 -69.2993 -69.2993 -69.2983
   -69.2983 -69.2932 -69.2932 -69.2818 -69.2766 -52.4440 -52.3861 -52.3396
   -35.5129 -35.5020 -35.4994 -35.4966 -35.4920 -35.4801 -35.4771 -35.4735
   -35.4694 -35.4626 -35.4406 -35.4266 -35.4111 -35.4027 -35.3838 -35.3760
   -35.3668 -35.3666 -35.3567 -35.3458 -35.3136 -35.2949 -35.2891 -35.2614
   -35.2612 -35.2479 -35.2479 -35.2459 -35.2379 -35.2106 -35.2104 -35.1937
   -35.1890 -35.1884 -35.1775 -35.1682 -35.1675 -35.1572 -35.1560 -23.8634
   -23.7777 -23.7677 -23.7305 -23.7219 -23.6849 -23.6823 -23.6754 -23.6671
    11.5772  11.6585  14.1375  14.1558  14.1648  14.1783  14.1861  14.2288
    14.2949  14.3343  14.4538  14.5046  14.5187  14.6433  14.7026  14.7430
    14.7835  14.7975  15.4314  15.4496  15.4797  15.5726  15.9093  15.9668
    16.0743  16.0917  16.1173  16.1715  16.1821  16.1853  16.1989  16.2047
    16.2077  16.2248  16.2286  16.6004  16.6200  16.6279  16.6390  16.6614
    16.7371  16.8665  16.9357  16.9360  16.9639  17.0139  17.0543  17.1541
    17.2299  17.3230  17.5251  17.6411  17.6482  17.6946  17.7013  17.7108
    17.9207  17.9431  17.9616  18.0177  18.0987  18.2191  18.2458  18.2890
    18.3385  18.3429  18.6498  18.6833  18.6922  18.7004  18.7255  18.7621
    18.8752  18.9990  19.1859  19.2735  19.5286  19.6187  19.6673  19.8010
    19.8087  19.8322  19.8809  19.9541  20.2925  20.3367

          k = 0.0000-0.5000 0.2463 (  6216 PWs)   bands (ev):

   -69.3821 -69.3753 -69.3624 -69.3317 -69.3293 -69.3006 -69.2975 -69.2975
   -69.2965 -69.2941 -69.2940 -69.2808 -69.2778 -52.4440 -52.3861 -52.3396
   -35.5138 -35.5110 -35.5096 -35.5093 -35.4980 -35.4755 -35.4732 -35.4713
   -35.4660 -35.4236 -35.4218 -35.4120 -35.4086 -35.3985 -35.3858 -35.3723
   -35.3623 -35.3607 -35.3589 -35.3418 -35.3348 -35.3227 -35.3141 -35.2659
   -35.2543 -35.2535 -35.2404 -35.2397 -35.2363 -35.2291 -35.2281 -35.2096
   -35.1963 -35.1938 -35.1926 -35.1539 -35.1529 -35.1371 -35.1366 -23.8637
   -23.7776 -23.7681 -23.7308 -23.7221 -23.6846 -23.6825 -23.6753 -23.6674
    11.8517  11.9315  13.4919  13.5800  14.3898  14.4124  14.4144  14.4818
    14.4837  14.5137  14.5795  14.6579  14.6913  14.7684  14.7798  14.8045
    14.8507  14.8689  15.4950  15.5154  15.5254  15.6191  15.7118  15.7309
    15.8009  15.8211  15.8470  15.8891  15.9937  16.0097  16.2935  16.3338
    16.3724  16.3898  16.4302  16.4634  16.4730  16.4865  16.5108  16.5242
    16.5649  16.5680  16.6025  16.6796  16.8345  16.9470  17.3404  17.3732
    17.4228  17.4436  17.4906  17.5493  17.6223  17.6492  17.6673  17.7625
    17.7697  17.8471  17.8483  17.8910  17.8958  18.0414  18.0646  18.0985
    18.1487  18.1822  18.3698  18.4170  18.4868  18.5186  18.8073  18.9657
    18.9732  18.9785  19.1199  19.3203  19.4306  19.4823  19.5283  19.6716
    19.9950  20.0434  20.3484  20.4463  20.6315  20.6630

          k = 0.0000-0.5000-0.4926 (  6224 PWs)   bands (ev):

   -69.3778 -69.3752 -69.3677 -69.3316 -69.3297 -69.3019 -69.2958 -69.2958
   -69.2958 -69.2958 -69.2935 -69.2800 -69.2793 -52.4440 -52.3861 -52.3396
   -35.5230 -35.5133 -35.5124 -35.5099 -35.5023 -35.4747 -35.4706 -35.4683
   -35.4656 -35.3955 -35.3953 -35.3945 -35.3913 -35.3900 -35.3890 -35.3842
   -35.3638 -35.3596 -35.3562 -35.3450 -35.3445 -35.3404 -35.3388 -35.2727
   -35.2721 -35.2676 -35.2622 -35.2621 -35.2221 -35.2206 -35.2184 -35.2073
   -35.2052 -35.1969 -35.1956 -35.1511 -35.1497 -35.1265 -35.1256 -23.8636
   -23.7777 -23.7686 -23.7313 -23.7230 -23.6845 -23.6825 -23.6756 -23.6674
    12.5274  12.5291  12.6478  12.8360  14.5449  14.5452  14.6683  14.7272
    14.7289  14.7332  14.7487  14.8433  14.9044  14.9300  14.9353  15.0318
    15.0486  15.0533  15.1694  15.3898  15.4129  15.4141  15.4694  15.4709
    15.6915  15.7210  15.7351  15.8016  15.9948  15.9989  16.0851  16.0855
    16.1450  16.1811  16.1918  16.2235  16.3317  16.3323  16.3532  16.3566
    16.4040  16.6514  16.8069  16.8709  16.8743  16.9477  17.2178  17.2233
    17.4508  17.4531  17.5577  17.5598  17.6654  17.6666  17.6897  17.6906
    17.7331  17.7474  17.7781  17.7918  17.7934  17.8688  18.0129  18.0309
    18.2005  18.2033  18.2225  18.2319  18.3073  18.5576  18.5666  18.9506
    19.0066  19.1317  19.1363  19.2968  19.3020  19.3058  19.4735  19.6141
    20.1105  20.3953  20.5827  20.5857  21.2493  21.2494

          k = 0.2500 0.2500 0.0000 (  6194 PWs)   bands (ev):

   -69.3894 -69.3675 -69.3579 -69.3395 -69.3267 -69.3005 -69.2963 -69.2963
   -69.2960 -69.2934 -69.2921 -69.2915 -69.2723 -52.4431 -52.3869 -52.3396
   -35.5238 -35.5168 -35.5153 -35.5146 -35.5146 -35.4886 -35.4629 -35.4436
   -35.4351 -35.4298 -35.4286 -35.4123 -35.4011 -35.4005 -35.3711 -35.3645
   -35.3574 -35.3572 -35.3544 -35.3345 -35.3320 -35.3113 -35.2983 -35.2867
   -35.2822 -35.2661 -35.2577 -35.2537 -35.2337 -35.2205 -35.2078 -35.2006
   -35.1956 -35.1866 -35.1820 -35.1804 -35.1447 -35.1401 -35.1238 -23.8386
   -23.7764 -23.7666 -23.7314 -23.7224 -23.6924 -23.6846 -23.6820 -23.6745
    10.9993  13.1347  13.1944  13.8273  14.2003  14.2093  14.2214  14.2403
    14.2747  14.2995  14.3141  14.3457  14.4866  14.7457  14.7687  15.2049
    15.2440  15.2769  15.2939  15.5201  15.5612  15.6010  15.6143  15.6513
    15.7042  15.7303  15.8139  15.8844  15.9289  16.0006  16.0706  16.3407
    16.3876  16.4593  16.4647  16.5468  16.6385  16.7012  16.7242  16.7335
    16.9715  17.0217  17.0523  17.0954  17.1428  17.1747  17.2042  17.3065
    17.3376  17.4232  17.5056  17.5116  17.6070  17.7158  17.7687  17.7928
    17.8248  17.8871  17.9103  17.9570  17.9756  18.0649  18.1337  18.1342
    18.1894  18.2958  18.3092  18.3553  18.4112  18.5609  18.6491  19.0675
    19.0756  19.1766  19.1907  19.4766  19.5207  19.5313  19.6756  19.6998
    19.7917  19.8107  19.9169  20.0914  20.2137  20.6699

          k = 0.2500 0.2500 0.2463 (  6196 PWs)   bands (ev):

   -69.3869 -69.3674 -69.3615 -69.3380 -69.3293 -69.2999 -69.2969 -69.2963
   -69.2948 -69.2932 -69.2919 -69.2886 -69.2746 -52.4431 -52.3869 -52.3396
   -35.5154 -35.5137 -35.5109 -35.5087 -35.4984 -35.4838 -35.4757 -35.4583
   -35.4356 -35.4235 -35.4134 -35.4039 -35.4019 -35.3982 -35.3960 -35.3776
   -35.3654 -35.3583 -35.3490 -35.3476 -35.3415 -35.3228 -35.3080 -35.2765
   -35.2682 -35.2629 -35.2540 -35.2338 -35.2269 -35.2255 -35.2220 -35.2166
   -35.1966 -35.1830 -35.1718 -35.1617 -35.1585 -35.1375 -35.1303 -23.8384
   -23.7766 -23.7666 -23.7316 -23.7225 -23.6928 -23.6844 -23.6822 -23.6747
    11.3023  13.2566  13.3552  13.4714  14.0524  14.0859  14.1237  14.3744
    14.4019  14.4755  14.4935  14.5333  14.8407  14.9010  14.9175  15.1664
    15.1794  15.2208  15.2980  15.5001  15.5183  15.5564  15.6314  15.6759
    15.7127  15.8017  15.8492  15.8557  15.8870  15.9519  16.0238  16.2334
    16.2370  16.2651  16.4039  16.4519  16.4646  16.4846  16.5938  16.6379
    16.6708  16.7813  16.8441  16.8536  16.8855  16.9133  17.1313  17.3190
    17.3295  17.3771  17.4573  17.6349  17.6672  17.7153  17.7461  17.7511
    17.7618  17.8281  17.8509  17.9394  17.9704  18.0200  18.0316  18.0836
    18.1188  18.2102  18.3426  18.4699  18.6321  18.6586  18.8261  18.8960
    19.0214  19.1625  19.3336  19.3514  19.4192  19.5051  19.6538  19.7674
    19.7725  19.8038  20.0523  20.1172  20.4650  20.4755

          k = 0.2500 0.2500-0.4926 (  6198 PWs)   bands (ev):

   -69.3835 -69.3672 -69.3661 -69.3345 -69.3338 -69.2995 -69.2975 -69.2960
   -69.2938 -69.2930 -69.2925 -69.2815 -69.2802 -52.4431 -52.3869 -52.3396
   -35.5104 -35.5100 -35.5038 -35.4987 -35.4886 -35.4766 -35.4743 -35.4604
   -35.4495 -35.4229 -35.4228 -35.4127 -35.4110 -35.3949 -35.3881 -35.3754
   -35.3742 -35.3648 -35.3529 -35.3463 -35.3383 -35.3334 -35.3229 -35.2775
   -35.2606 -35.2550 -35.2433 -35.2417 -35.2277 -35.2238 -35.2142 -35.2039
   -35.1956 -35.1855 -35.1844 -35.1528 -35.1496 -35.1446 -35.1435 -23.8386
   -23.7766 -23.7668 -23.7316 -23.7226 -23.6930 -23.6842 -23.6824 -23.6751
    12.1093  12.1938  13.7326  13.8309  13.8424  13.8649  14.6660  14.6748
    14.6870  14.7194  14.7543  14.7637  14.7830  14.8335  14.8349  14.9256
    14.9490  14.9824  15.4803  15.5436  15.5540  15.5566  15.6236  15.7238
    15.7241  15.7410  15.8109  15.9075  15.9427  15.9590  16.1416  16.1516
    16.1736  16.1866  16.1869  16.2374  16.2809  16.2841  16.3012  16.3446
    16.4165  16.4946  16.5249  16.5519  16.6002  16.6017  17.1501  17.1750
    17.5071  17.5512  17.5881  17.6143  17.6284  17.6468  17.6651  17.7250
    17.8135  17.8235  17.8582  17.9872  17.9938  18.0073  18.0603  18.0878
    18.1944  18.3368  18.4165  18.4795  18.5084  18.6394  18.6837  18.8247
    19.0675  19.1431  19.1788  19.4409  19.5586  19.5809  19.6782  19.6944
    19.8506  19.8844  20.0617  20.1256  20.1554  20.3008

          k = 0.2500-0.5000 0.0000 (  6208 PWs)   bands (ev):

   -69.3835 -69.3741 -69.3581 -69.3351 -69.3336 -69.2984 -69.2984 -69.2954
   -69.2942 -69.2942 -69.2930 -69.2828 -69.2787 -52.4431 -52.3869 -52.3396
   -35.5143 -35.5078 -35.5034 -35.4960 -35.4955 -35.4895 -35.4758 -35.4680
   -35.4649 -35.4388 -35.4252 -35.4178 -35.4105 -35.3977 -35.3881 -35.3699
   -35.3626 -35.3563 -35.3561 -35.3463 -35.3136 -35.3135 -35.3037 -35.2739
   -35.2733 -35.2633 -35.2609 -35.2599 -35.2311 -35.2310 -35.2141 -35.2092
   -35.1892 -35.1686 -35.1675 -35.1550 -35.1543 -35.1469 -35.1462 -23.8384
   -23.7766 -23.7672 -23.7315 -23.7232 -23.6928 -23.6849 -23.6821 -23.6751
    11.8620  11.9457  13.5334  13.5965  14.3692  14.3922  14.4153  14.4854
    14.5022  14.5880  14.6011  14.6073  14.6723  14.7801  14.8023  14.8165
    14.8591  14.8612  15.5038  15.5244  15.5482  15.5943  15.7342  15.7364
    15.8223  15.8700  15.8827  15.9068  15.9552  16.0066  16.2477  16.2617
    16.3220  16.3759  16.4038  16.4390  16.4458  16.4848  16.4978  16.5104
    16.5868  16.6152  16.6454  16.7020  16.8269  16.8698  17.3193  17.3528
    17.4401  17.4715  17.5193  17.5208  17.5567  17.6079  17.6785  17.6920
    17.8989  17.9056  17.9177  17.9719  18.0083  18.0365  18.0666  18.0691
    18.0826  18.1387  18.3505  18.3964  18.4185  18.4964  18.5334  18.7745
    19.1066  19.2998  19.3549  19.4992  19.5161  19.5287  19.5570  19.7096
    19.7297  19.7716  19.9577  19.9979  20.7486  20.9291

          k = 0.2500-0.5000 0.2463 (  6214 PWs)   bands (ev):

   -69.3811 -69.3739 -69.3615 -69.3348 -69.3335 -69.2998 -69.2976 -69.2961
   -69.2942 -69.2935 -69.2921 -69.2819 -69.2795 -52.4432 -52.3869 -52.3396
   -35.5110 -35.5069 -35.5033 -35.5017 -35.4901 -35.4751 -35.4741 -35.4619
   -35.4500 -35.4277 -35.4263 -35.4133 -35.4105 -35.3941 -35.3887 -35.3770
   -35.3762 -35.3673 -35.3541 -35.3460 -35.3384 -35.3361 -35.3244 -35.2787
   -35.2619 -35.2554 -35.2441 -35.2435 -35.2303 -35.2246 -35.2168 -35.2049
   -35.1946 -35.1863 -35.1822 -35.1519 -35.1512 -35.1435 -35.1424 -23.8385
   -23.7770 -23.7672 -23.7317 -23.7232 -23.6928 -23.6850 -23.6824 -23.6752
    12.1358  12.2177  13.7278  13.8318  13.8469  13.8533  14.6508  14.6779
    14.6981  14.7413  14.7659  14.7698  14.7855  14.8214  14.8432  14.9452
    14.9619  15.0127  15.5232  15.5630  15.5756  15.5945  15.6605  15.7351
    15.7429  15.7537  15.7891  15.8787  15.9188  15.9335  16.1069  16.1252
    16.1278  16.1591  16.1631  16.2125  16.2702  16.2769  16.2966  16.3335
    16.3934  16.4686  16.5341  16.5424  16.5796  16.5880  17.1318  17.1514
    17.5295  17.5581  17.6106  17.6144  17.6268  17.6678  17.6801  17.7143
    17.8027  17.8236  17.8640  17.9315  17.9740  18.0118  18.0509  18.1064
    18.1535  18.3148  18.3796  18.4724  18.4778  18.6363  18.6601  18.8257
    19.0696  19.1404  19.1768  19.4296  19.5454  19.5656  19.6771  19.6774
    19.8515  19.8917  20.0621  20.1223  20.1508  20.3001

          k = 0.2500-0.5000-0.4926 (  6180 PWs)   bands (ev):

   -69.3776 -69.3737 -69.3659 -69.3345 -69.3334 -69.3009 -69.2976 -69.2966
   -69.2931 -69.2926 -69.2917 -69.2809 -69.2805 -52.4431 -52.3869 -52.3396
   -35.5074 -35.5070 -35.5003 -35.4940 -35.4877 -35.4644 -35.4633 -35.4588
   -35.4549 -35.4088 -35.4080 -35.3973 -35.3960 -35.3959 -35.3948 -35.3867
   -35.3859 -35.3771 -35.3736 -35.3566 -35.3528 -35.3528 -35.3061 -35.2773
   -35.2772 -35.2531 -35.2277 -35.2256 -35.2179 -35.2174 -35.2169 -35.1984
   -35.1982 -35.1966 -35.1944 -35.1547 -35.1533 -35.1363 -35.1359 -23.8385
   -23.7762 -23.7669 -23.7313 -23.7229 -23.6924 -23.6842 -23.6825 -23.6750
    12.8138  12.8156  12.9336  13.1262  14.3834  14.3860  14.4327  14.5447
    14.7476  14.7477  14.8760  15.0563  15.1061  15.1113  15.1925  15.2040
    15.2089  15.2144  15.2779  15.4013  15.4044  15.4215  15.4386  15.4491
    15.7063  15.7135  15.7614  15.8152  15.8333  15.8590  15.9449  15.9500
    15.9524  15.9734  16.0201  16.0373  16.0960  16.0973  16.1580  16.2740
    16.2760  16.2834  16.3189  16.4553  16.6278  16.6328  16.7032  16.7058
    17.6178  17.6202  17.7119  17.7124  17.7447  17.7541  17.7996  17.8010
    17.8027  17.8541  17.9361  17.9441  18.0165  18.0187  18.0461  18.0949
    18.2077  18.2182  18.2385  18.5886  18.6278  18.6522  18.6814  18.7379
    18.7542  19.1415  19.3180  19.4589  19.4667  19.5351  19.6022  19.6285
    19.8703  20.1741  20.1781  20.1784  20.4231  20.6206

          k =-0.5000-0.5000 0.0000 (  6200 PWs)   bands (ev):

   -69.3823 -69.3726 -69.3574 -69.3383 -69.3381 -69.2963 -69.2963 -69.2963
   -69.2963 -69.2924 -69.2851 -69.2842 -69.2841 -52.4423 -52.3878 -52.3396
   -35.5149 -35.5103 -35.4996 -35.4985 -35.4922 -35.4847 -35.4832 -35.4705
   -35.4638 -35.4333 -35.4073 -35.4038 -35.4035 -35.3708 -35.3636 -35.3596
   -35.3552 -35.3498 -35.3492 -35.3434 -35.3386 -35.3344 -35.3328 -35.2842
   -35.2832 -35.2810 -35.2805 -35.2687 -35.2506 -35.2214 -35.2192 -35.1967
   -35.1852 -35.1764 -35.1719 -35.1477 -35.1455 -35.1426 -35.1398 -23.7993
   -23.7756 -23.7663 -23.7329 -23.7322 -23.7243 -23.6848 -23.6825 -23.6752
    12.5505  12.6854  12.6955  12.7036  14.5560  14.6572  14.6715  14.6720
    14.7622  14.8022  14.8106  14.8688  14.8818  14.9177  14.9296  14.9444
    15.0786  15.2022  15.2052  15.2253  15.4714  15.4796  15.5184  15.5846
    15.6130  15.7162  15.7379  15.7393  16.0092  16.0393  16.0869  16.1235
    16.1291  16.1504  16.1570  16.2295  16.2371  16.2495  16.2546  16.2581
    16.4635  16.6364  16.7809  16.8281  16.9546  16.9705  17.0406  17.0470
    17.5061  17.5660  17.7030  17.7230  17.7295  17.7297  17.7360  17.7368
    17.7459  17.7550  17.7776  17.7896  17.8046  17.8091  17.9203  17.9939
    18.0093  18.1808  18.1912  18.3223  18.3499  18.4006  18.4081  18.6515
    19.2482  19.2513  19.3993  19.4000  19.4630  19.6303  19.7030  19.7093
    19.7980  19.8165  19.8981  19.9355  21.6503  21.6547

          k =-0.5000-0.5000 0.2463 (  6192 PWs)   bands (ev):

   -69.3802 -69.3724 -69.3601 -69.3379 -69.3377 -69.2977 -69.2976 -69.2976
   -69.2942 -69.2911 -69.2864 -69.2833 -69.2832 -52.4423 -52.3878 -52.3396
   -35.5099 -35.4989 -35.4908 -35.4868 -35.4864 -35.4718 -35.4703 -35.4667
   -35.4619 -35.4349 -35.4242 -35.3958 -35.3951 -35.3932 -35.3879 -35.3874
   -35.3783 -35.3695 -35.3638 -35.3565 -35.3526 -35.3407 -35.3154 -35.2911
   -35.2766 -35.2550 -35.2531 -35.2360 -35.2307 -35.2163 -35.2051 -35.1943
   -35.1832 -35.1776 -35.1776 -35.1555 -35.1520 -35.1493 -35.1465 -23.7990
   -23.7759 -23.7660 -23.7325 -23.7325 -23.7237 -23.6850 -23.6824 -23.6751
    12.8299  12.9623  12.9717  12.9792  14.3626  14.4623  14.4747  14.5098
    14.7399  14.8498  14.8572  14.8590  15.1265  15.1911  15.2185  15.2287
    15.2326  15.2502  15.2569  15.2636  15.3904  15.5157  15.5165  15.5705
    15.6856  15.7122  15.7590  15.7681  15.8152  15.8614  15.9215  15.9268
    15.9653  15.9754  15.9887  15.9950  16.0166  16.0182  16.1796  16.1839
    16.2335  16.3839  16.4300  16.4376  16.5919  16.6226  16.6414  16.6462
    17.6598  17.7313  17.7347  17.7390  17.7466  17.7690  17.7860  17.7885
    17.7990  17.8879  17.9294  17.9342  17.9413  17.9542  18.0456  18.0568
    18.1574  18.1834  18.2552  18.3183  18.4073  18.7998  18.8085  18.8618
    19.1951  19.3015  19.3541  19.4241  19.4638  19.5777  19.6156  19.6260
    19.6850  19.6980  19.8156  19.9085  20.6609  20.6629

          k =-0.5000-0.5000-0.4926 (  6176 PWs)   bands (ev):

   -69.3774 -69.3722 -69.3637 -69.3374 -69.3372 -69.2988 -69.2988 -69.2988
   -69.2907 -69.2902 -69.2890 -69.2825 -69.2824 -52.4423 -52.3877 -52.3396
   -35.5047 -35.4882 -35.4799 -35.4642 -35.4615 -35.4602 -35.4522 -35.4489
   -35.4442 -35.4386 -35.4349 -35.4343 -35.4283 -35.4150 -35.4127 -35.3804
   -35.3792 -35.3769 -35.3748 -35.3588 -35.3568 -35.3565 -35.2940 -35.2920
   -35.2900 -35.2401 -35.2172 -35.2116 -35.2108 -35.2067 -35.2034 -35.1862
   -35.1851 -35.1823 -35.1737 -35.1724 -35.1647 -35.1638 -35.1631 -23.7990
   -23.7754 -23.7661 -23.7323 -23.7320 -23.7235 -23.6845 -23.6827 -23.6753
    13.5550  13.5675  13.5707  13.5719  13.5720  13.8254  13.8552  13.8775
    15.2057  15.2252  15.2270  15.2270  15.2309  15.2529  15.2599  15.2661
    15.2661  15.2661  15.4512  15.4565  15.4803  15.5165  15.5520  15.5778
    15.6900  15.7118  15.7123  15.7136  15.7335  15.7366  15.7367  15.7612
    15.7872  15.8177  15.8197  15.8569  15.8719  15.8731  15.8872  16.1377
    16.1421  16.1424  16.1537  16.1553  16.1843  16.1858  16.1864  16.1969
    17.7448  17.7607  17.7681  17.7740  17.7773  17.7923  17.7982  17.8013
    17.8058  17.8245  18.1121  18.1412  18.1492  18.2001  18.2306  18.2483
    18.2883  18.4086  18.4113  18.5544  18.5727  18.6015  18.6405  18.6412
    18.9410  19.4337  19.4655  19.5574  19.5774  19.5793  19.6158  19.6411
    19.6567  19.9603  19.9772  19.9849  20.1042  20.1402

          k = 0.2500 0.0000 0.0000 (  6217 PWs)   bands (ev):

   -69.3927 -69.3636 -69.3574 -69.3412 -69.3210 -69.3014 -69.3003 -69.2972
   -69.2961 -69.2953 -69.2925 -69.2912 -69.2695 -52.4431 -52.3869 -52.3396
   -35.5257 -35.5251 -35.5233 -35.5228 -35.5192 -35.5162 -35.4304 -35.4286
   -35.4270 -35.4255 -35.4221 -35.4188 -35.3857 -35.3824 -35.3812 -35.3731
   -35.3677 -35.3656 -35.3596 -35.3542 -35.3224 -35.2983 -35.2968 -35.2950
   -35.2787 -35.2633 -35.2402 -35.2388 -35.2358 -35.2329 -35.2263 -35.2239
   -35.2213 -35.1806 -35.1800 -35.1777 -35.1363 -35.1360 -35.1209 -23.8394
   -23.7765 -23.7665 -23.7318 -23.7224 -23.6922 -23.6845 -23.6822 -23.6746
    10.6792  12.9659  13.9594  13.9692  14.0200  14.0640  14.1083  14.1164
    14.1384  14.1574  14.2255  14.2320  14.2714  14.4384  14.7068  15.1491
    15.3886  15.4293  15.4334  15.4480  15.5250  15.5490  15.5674  15.6685
    15.7219  15.7290  15.7795  15.8303  15.8796  16.1246  16.1266  16.3735
    16.4835  16.5444  16.6296  16.6773  16.6849  16.7483  16.7687  16.8599
    16.9231  17.0695  17.1969  17.2276  17.2406  17.2738  17.3701  17.4131
    17.4415  17.4561  17.6563  17.7075  17.7515  17.7975  17.8140  17.9016
    17.9340  17.9937  18.0000  18.0310  18.0524  18.1000  18.1044  18.1366
    18.1521  18.1958  18.2331  18.4387  18.9305  18.9343  18.9962  19.0317
    19.1177  19.1990  19.2728  19.3674  19.3850  19.4861  19.6726  19.6811
    19.7041  19.7887  19.9765  20.0726  20.1758  20.1927

          k = 0.2500 0.0000-0.2463 (  6220 PWs)   bands (ev):

   -69.3901 -69.3637 -69.3614 -69.3394 -69.3268 -69.2996 -69.2966 -69.2962
   -69.2954 -69.2938 -69.2923 -69.2918 -69.2725 -52.4432 -52.3869 -52.3396
   -35.5262 -35.5177 -35.5171 -35.5165 -35.5084 -35.4945 -35.4646 -35.4418
   -35.4393 -35.4354 -35.4226 -35.4150 -35.4002 -35.3976 -35.3706 -35.3692
   -35.3619 -35.3569 -35.3510 -35.3377 -35.3333 -35.3095 -35.3003 -35.2892
   -35.2835 -35.2668 -35.2622 -35.2536 -35.2315 -35.2180 -35.2076 -35.2036
   -35.1948 -35.1866 -35.1842 -35.1827 -35.1453 -35.1420 -35.1273 -23.8389
   -23.7768 -23.7667 -23.7317 -23.7223 -23.6933 -23.6843 -23.6823 -23.6749
    10.9892  13.0863  13.1722  13.8119  14.1957  14.2035  14.2256  14.2324
    14.2740  14.2869  14.3379  14.3620  14.5173  14.6856  14.7607  15.1803
    15.2258  15.2445  15.2677  15.5126  15.5439  15.5578  15.5757  15.6584
    15.6820  15.7000  15.8562  15.8794  15.9965  16.0581  16.0980  16.3600
    16.3831  16.4396  16.5208  16.5843  16.5951  16.6563  16.6965  16.7466
    16.9890  17.0576  17.1038  17.1123  17.1294  17.2026  17.2097  17.2753
    17.3110  17.3926  17.4514  17.5005  17.5752  17.6880  17.7426  17.8187
    17.8406  17.8970  17.9310  17.9329  18.0469  18.0733  18.1014  18.1366
    18.2014  18.2929  18.3427  18.4006  18.4623  18.5708  18.6719  19.0804
    19.0933  19.1423  19.2583  19.4712  19.5199  19.5200  19.6804  19.6837
    19.8010  19.8244  19.9430  20.1151  20.2248  20.7590

          k = 0.2500 0.0000 0.4926 (  6184 PWs)   bands (ev):

   -69.3863 -69.3664 -69.3636 -69.3345 -69.3341 -69.2979 -69.2979 -69.2953
   -69.2937 -69.2936 -69.2936 -69.2827 -69.2796 -52.4431 -52.3869 -52.3396
   -35.5125 -35.5123 -35.5041 -35.4993 -35.4917 -35.4864 -35.4737 -35.4645
   -35.4634 -35.4314 -35.4263 -35.4175 -35.4024 -35.3979 -35.3890 -35.3673
   -35.3615 -35.3579 -35.3492 -35.3491 -35.3129 -35.3101 -35.3045 -35.2727
   -35.2720 -35.2607 -35.2595 -35.2578 -35.2331 -35.2251 -35.2091 -35.2087
   -35.1907 -35.1693 -35.1670 -35.1579 -35.1566 -35.1467 -35.1453 -23.8386
   -23.7765 -23.7665 -23.7314 -23.7218 -23.6934 -23.6836 -23.6822 -23.6747
    11.8254  11.9113  13.5164  13.5822  14.3797  14.4056  14.4207  14.4757
    14.5096  14.5775  14.5777  14.6116  14.6533  14.7489  14.7797  14.7866
    14.8252  14.8324  15.4575  15.4717  15.5163  15.5428  15.7162  15.7349
    15.8200  15.8491  15.8620  15.8858  16.0379  16.0725  16.2767  16.2960
    16.3835  16.4003  16.4432  16.4581  16.5056  16.5175  16.5238  16.5659
    16.5676  16.6812  16.7093  16.7139  16.8232  16.8751  17.3447  17.3799
    17.3913  17.4491  17.5330  17.5348  17.5391  17.5990  17.6457  17.6656
    17.8723  17.8887  17.9296  18.0070  18.0413  18.0591  18.0801  18.0829
    18.1448  18.2203  18.3935  18.4014  18.4397  18.4897  18.5795  18.8133
    19.1105  19.3305  19.3761  19.5093  19.5217  19.5455  19.5863  19.7075
    19.7355  19.7767  19.9842  20.0260  20.7516  20.9384

          k =-0.5000 0.0000 0.0000 (  6218 PWs)   bands (ev):

   -69.3897 -69.3634 -69.3566 -69.3491 -69.3212 -69.2993 -69.2993 -69.2983
   -69.2983 -69.2932 -69.2932 -69.2817 -69.2762 -52.4423 -52.3878 -52.3396
   -35.5228 -35.5070 -35.5029 -35.4966 -35.4889 -35.4781 -35.4698 -35.4674
   -35.4548 -35.4363 -35.4315 -35.4286 -35.4252 -35.4117 -35.4051 -35.3684
   -35.3618 -35.3618 -35.3601 -35.3531 -35.3200 -35.3041 -35.2970 -35.2805
   -35.2800 -35.2339 -35.2339 -35.2278 -35.2207 -35.2188 -35.2176 -35.1915
   -35.1911 -35.1782 -35.1759 -35.1723 -35.1692 -35.1648 -35.1518 -23.7991
   -23.7759 -23.7656 -23.7324 -23.7324 -23.7230 -23.6848 -23.6827 -23.6748
    11.5829  11.6574  14.1386  14.1575  14.1674  14.1853  14.1910  14.2170
    14.2894  14.3646  14.4515  14.5015  14.5193  14.5825  14.6954  14.7487
    14.7818  14.8417  15.4322  15.4412  15.5207  15.5368  15.9104  15.9227
    15.9658  16.0632  16.0876  16.1702  16.1712  16.1753  16.1877  16.1913
    16.2106  16.2137  16.2289  16.4876  16.6018  16.6295  16.6567  16.6733
    16.6828  16.9150  16.9318  17.0227  17.1576  17.1582  17.1753  17.2087
    17.2157  17.3262  17.5120  17.6430  17.6956  17.7013  17.7948  17.8195
    17.8906  17.9182  17.9424  17.9681  17.9952  18.0063  18.0549  18.2264
    18.2950  18.3210  18.6299  18.6656  18.7233  18.7461  18.7534  18.9766
    19.0066  19.1757  19.1768  19.2809  19.2907  19.6510  19.7616  19.7906
    19.8401  19.9311  19.9771  20.1964  20.2228  20.2229

          k =-0.5000 0.0000-0.2463 (  6216 PWs)   bands (ev):

   -69.3876 -69.3634 -69.3601 -69.3463 -69.3278 -69.2975 -69.2975 -69.2962
   -69.2941 -69.2940 -69.2934 -69.2834 -69.2784 -52.4423 -52.3878 -52.3396
   -35.5182 -35.5093 -35.5057 -35.5012 -35.4973 -35.4864 -35.4755 -35.4654
   -35.4491 -35.4292 -35.4202 -35.4177 -35.4038 -35.4037 -35.3972 -35.3677
   -35.3615 -35.3580 -35.3561 -35.3482 -35.3242 -35.3186 -35.3072 -35.2821
   -35.2776 -35.2666 -35.2536 -35.2531 -35.2370 -35.2270 -35.2072 -35.1976
   -35.1882 -35.1784 -35.1690 -35.1569 -35.1566 -35.1531 -35.1407 -23.7993
   -23.7758 -23.7659 -23.7328 -23.7326 -23.7233 -23.6846 -23.6826 -23.6751
    11.8570  11.9337  13.5000  13.5515  14.3824  14.4156  14.4202  14.4788
    14.5377  14.5841  14.5962  14.6062  14.6510  14.7203  14.7668  14.8126
    14.8471  14.8935  15.4974  15.5269  15.5474  15.6021  15.6893  15.7056
    15.7118  15.7272  15.8733  15.8895  16.0372  16.0872  16.2885  16.3106
    16.3519  16.3614  16.3954  16.4027  16.4214  16.4417  16.4997  16.5240
    16.6205  16.6433  16.6518  16.7140  16.9125  16.9367  17.3592  17.3895
    17.3977  17.4853  17.5161  17.5839  17.6376  17.6897  17.7469  17.7662
    17.7833  17.8318  17.8595  17.8641  17.9028  17.9267  18.0418  18.0754
    18.1136  18.2542  18.3329  18.3925  18.5043  18.5295  18.6029  18.7902
    19.2657  19.3098  19.4254  19.4614  19.5763  19.5966  19.6117  19.6692
    19.6915  19.7555  19.9017  19.9659  20.8386  20.8875

          k =-0.5000 0.0000 0.4926 (  6224 PWs)   bands (ev):

   -69.3850 -69.3641 -69.3634 -69.3384 -69.3383 -69.2958 -69.2958 -69.2958
   -69.2958 -69.2917 -69.2865 -69.2846 -69.2845 -52.4423 -52.3878 -52.3396
   -35.5162 -35.5156 -35.5043 -35.5027 -35.4861 -35.4853 -35.4829 -35.4750
   -35.4635 -35.4299 -35.4052 -35.4048 -35.4044 -35.3723 -35.3702 -35.3611
   -35.3510 -35.3499 -35.3467 -35.3457 -35.3394 -35.3370 -35.3357 -35.2857
   -35.2853 -35.2830 -35.2825 -35.2683 -35.2543 -35.2242 -35.2146 -35.1934
   -35.1837 -35.1764 -35.1740 -35.1481 -35.1449 -35.1417 -35.1395 -23.7998
   -23.7760 -23.7658 -23.7335 -23.7331 -23.7233 -23.6847 -23.6830 -23.6751
    12.5205  12.6573  12.6693  12.6763  14.5458  14.6561  14.6705  14.6732
    14.7391  14.7767  14.7884  14.8519  14.8639  14.8857  14.9020  14.9178
    15.0437  15.1721  15.1734  15.1892  15.4526  15.4745  15.5019  15.5749
    15.6021  15.6910  15.7075  15.7141  16.0854  16.1119  16.1223  16.1436
    16.1693  16.1733  16.1773  16.2303  16.2405  16.2610  16.3043  16.3046
    16.4379  16.6169  16.7628  16.8126  17.0091  17.0303  17.0979  17.1038
    17.4705  17.5143  17.6720  17.6936  17.7038  17.7163  17.7177  17.7227
    17.7434  17.7514  17.7856  17.7877  17.7986  17.8006  17.9375  18.0373
    18.0404  18.2821  18.2924  18.3763  18.3805  18.3848  18.4068  18.6905
    19.2590  19.2617  19.3956  19.4008  19.4628  19.6633  19.6988  19.7128
    19.8078  19.8278  19.9380  19.9743  21.6883  21.7094

          k =-0.5000 0.2500 0.0000 (  6208 PWs)   bands (ev):

   -69.3869 -69.3670 -69.3571 -69.3461 -69.3276 -69.2985 -69.2984 -69.2956
   -69.2942 -69.2942 -69.2926 -69.2830 -69.2783 -52.4423 -52.3878 -52.3396
   -35.5185 -35.5040 -35.5034 -35.4994 -35.4956 -35.4928 -35.4755 -35.4686
   -35.4449 -35.4367 -35.4167 -35.4163 -35.4110 -35.4041 -35.3976 -35.3681
   -35.3607 -35.3545 -35.3544 -35.3522 -35.3216 -35.3209 -35.3060 -35.2822
   -35.2778 -35.2638 -35.2565 -35.2519 -35.2348 -35.2301 -35.2058 -35.1978
   -35.1890 -35.1756 -35.1705 -35.1549 -35.1542 -35.1507 -35.1410 -23.7994
   -23.7758 -23.7657 -23.7328 -23.7324 -23.7234 -23.6849 -23.6827 -23.6747
    11.8674  11.9437  13.5373  13.5870  14.3693  14.4044  14.4104  14.4825
    14.5410  14.5851  14.5885  14.6076  14.6723  14.7457  14.7744  14.8217
    14.8571  14.9083  15.4984  15.5372  15.5702  15.6013  15.7255  15.7304
    15.7308  15.7476  15.9213  15.9549  15.9553  16.0141  16.2520  16.2877
    16.3614  16.3655  16.3659  16.4070  16.4297  16.4350  16.4523  16.4978
    16.5553  16.6105  16.6780  16.7347  16.9314  16.9499  17.3416  17.3761
    17.4349  17.5070  17.5257  17.6092  17.6191  17.6920  17.7651  17.7845
    17.7981  17.8117  17.8664  17.8939  17.9140  17.9374  17.9833  18.0360
    18.0718  18.2469  18.2934  18.4149  18.4471  18.4544  18.5753  18.7990
    19.2556  19.3438  19.4175  19.4848  19.5284  19.5728  19.5847  19.6785
    19.6849  19.7490  19.8816  19.9380  20.8129  20.8654

          k =-0.5000 0.2500-0.2463 (  6214 PWs)   bands (ev):

   -69.3849 -69.3669 -69.3602 -69.3439 -69.3309 -69.2988 -69.2977 -69.2952
   -69.2941 -69.2939 -69.2890 -69.2845 -69.2796 -52.4423 -52.3878 -52.3396
   -35.5144 -35.5037 -35.5000 -35.4912 -35.4884 -35.4873 -35.4823 -35.4499
   -35.4442 -35.4362 -35.4314 -35.4080 -35.4011 -35.3990 -35.3927 -35.3800
   -35.3776 -35.3707 -35.3495 -35.3472 -35.3435 -35.3257 -35.3085 -35.2848
   -35.2829 -35.2687 -35.2569 -35.2504 -35.2232 -35.2091 -35.2078 -35.2002
   -35.1940 -35.1799 -35.1701 -35.1565 -35.1564 -35.1522 -35.1411 -23.7993
   -23.7760 -23.7659 -23.7328 -23.7327 -23.7235 -23.6850 -23.6827 -23.6751
    12.1408  12.2189  13.7343  13.7429  13.8367  13.9374  14.6525  14.6916
    14.7450  14.7564  14.7588  14.7695  14.7905  14.8254  14.8416  14.8486
    14.9614  15.0407  15.5176  15.5641  15.5784  15.6076  15.6200  15.6353
    15.7561  15.7733  15.7955  15.8625  15.9251  15.9566  16.1280  16.1362
    16.1386  16.1702  16.1721  16.1904  16.2017  16.2552  16.3182  16.3689
    16.3939  16.4460  16.5207  16.5701  16.5792  16.5985  17.1359  17.2060
    17.5272  17.5841  17.5961  17.6453  17.6691  17.7044  17.7776  17.7837
    17.7918  17.8045  17.8773  17.8821  17.9315  17.9633  17.9920  18.0689
    18.0804  18.1579  18.4023  18.5103  18.5293  18.6299  18.6803  19.0416
    19.0476  19.2846  19.3197  19.4008  19.4621  19.6654  19.6738  19.7332
    19.7519  19.7606  19.9187  19.9723  20.1954  20.2481

          k =-0.5000 0.2500 0.4926 (  6180 PWs)   bands (ev):

   -69.3823 -69.3667 -69.3639 -69.3379 -69.3378 -69.2975 -69.2973 -69.2973
   -69.2939 -69.2901 -69.2875 -69.2834 -69.2833 -52.4423 -52.3877 -52.3396
   -35.5097 -35.5032 -35.4880 -35.4878 -35.4824 -35.4697 -35.4678 -35.4677
   -35.4592 -35.4285 -35.4188 -35.3965 -35.3956 -35.3948 -35.3895 -35.3860
   -35.3794 -35.3693 -35.3599 -35.3578 -35.3511 -35.3386 -35.3130 -35.2898
   -35.2777 -35.2569 -35.2507 -35.2344 -35.2339 -35.2168 -35.2049 -35.1925
   -35.1832 -35.1799 -35.1759 -35.1556 -35.1509 -35.1481 -35.1457 -23.7990
   -23.7754 -23.7659 -23.7325 -23.7322 -23.7233 -23.6842 -23.6824 -23.6751
    12.8076  12.9428  12.9541  12.9601  14.3595  14.4554  14.4703  14.5053
    14.7493  14.8665  14.8759  14.8760  15.0995  15.1797  15.2011  15.2022
    15.2047  15.2307  15.2379  15.2442  15.3762  15.4988  15.5092  15.5584
    15.6859  15.7024  15.7319  15.7536  15.8249  15.8679  15.9297  15.9382
    15.9727  15.9898  16.0135  16.0271  16.0583  16.0612  16.2036  16.2304
    16.2395  16.3653  16.4183  16.4400  16.6207  16.6619  16.6782  16.6833
    17.6210  17.7152  17.7164  17.7251  17.7368  17.7712  17.7798  17.7970
    17.7982  17.8999  17.9117  17.9168  17.9295  17.9963  18.0448  18.1075
    18.2009  18.2204  18.3093  18.3261  18.4095  18.8281  18.8360  18.8858
    19.1899  19.2959  19.3456  19.4261  19.4721  19.5872  19.6133  19.6270
    19.6982  19.7047  19.8356  19.9246  20.6516  20.6556

 ------ SPIN DOWN ----------


          k = 0.0000 0.0000 0.0000 (  6211 PWs)   bands (ev):

   -66.9105 -66.8928 -66.8916 -66.8916 -66.8863 -66.8863 -66.8851 -66.8798
   -66.6762 -66.6686 -66.5789 -66.5571 -66.4632 -53.6839 -53.4878 -53.2909
   -33.1392 -33.1350 -33.1300 -33.1172 -33.0795 -33.0718 -33.0717 -33.0714
   -33.0704 -33.0571 -33.0367 -32.9987 -32.9971 -32.9774 -32.9601 -32.9455
   -32.9409 -32.9111 -32.9075 -32.8942 -32.8890 -32.8879 -32.8726 -32.8632
   -32.7925 -32.7848 -32.7612 -32.7566 -32.6769 -32.6624 -32.6491 -32.6144
   -32.6083 -32.5582 -32.5560 -32.5416 -32.5285 -32.4756 -32.4721 -25.0145
   -25.0092 -24.9973 -24.8784 -24.8764 -24.7174 -24.6999 -24.6979 -24.4267
    10.4122  14.3410  14.4941  14.5747  14.6530  14.6663  14.6728  14.6779
    14.6830  14.6974  14.7190  14.7649  15.0247  15.3226  15.5066  16.3458
    16.3918  16.4291  16.5912  16.6801  16.7607  16.8328  16.8571  16.8594
    16.9290  16.9781  17.0320  17.2499  17.3593  17.7437  17.8158  17.8174
    17.8632  18.0252  18.1728  18.2737  18.2825  18.3592  18.4063  18.5111
    18.5465  18.6114  18.6140  18.6533  18.6733  18.6947  18.7517  18.7693
    19.3433  19.3445  19.3504  19.3570  19.4605  19.4781  19.5200  19.5530
    19.5677  19.6137  19.6316  19.6897  19.7187  19.7667  20.1348  20.1357
    20.1681  20.1947  20.2886  20.4044  20.4878  20.5026  20.5707  20.5774
    20.6060  20.6134  20.6222  20.6842  20.7188  20.8133  21.0228  21.0234
    21.0477  21.1673  21.2539  21.3206  21.3313  21.3408

          k = 0.0000 0.0000 0.2463 (  6215 PWs)   bands (ev):

   -66.9081 -66.8955 -66.8908 -66.8908 -66.8871 -66.8871 -66.8844 -66.8807
   -66.6754 -66.6692 -66.5788 -66.5572 -66.4632 -53.6839 -53.4878 -53.2909
   -33.1356 -33.1243 -33.1238 -33.1184 -33.0779 -33.0714 -33.0672 -33.0618
   -33.0564 -33.0550 -33.0429 -33.0060 -32.9958 -32.9918 -32.9712 -32.9604
   -32.9563 -32.9326 -32.9129 -32.9096 -32.9023 -32.8954 -32.8835 -32.8702
   -32.7584 -32.7548 -32.7478 -32.7426 -32.6691 -32.6581 -32.6497 -32.6106
   -32.6041 -32.5641 -32.5604 -32.5452 -32.5397 -32.4745 -32.4720 -25.0143
   -25.0093 -24.9974 -24.8787 -24.8767 -24.7178 -24.6999 -24.6981 -24.4268
    10.7368  13.0396  14.6055  14.6923  14.7135  14.7172  14.7947  14.8078
    14.8140  14.9014  14.9063  15.1439  15.3562  15.5270  15.6336  16.1219
    16.3502  16.4331  16.4846  16.5773  16.6581  16.6902  16.9058  17.0087
    17.1151  17.1152  17.1281  17.1422  17.2339  17.5019  17.5247  17.5833
    17.9668  18.0320  18.0628  18.1166  18.1982  18.2061  18.3283  18.3726
    18.3776  18.4231  18.4977  18.5516  18.5555  18.5665  18.7585  18.7895
    18.8869  18.9603  18.9772  18.9936  19.1027  19.1885  19.1922  19.6218
    19.8321  19.9121  19.9947  20.0074  20.0657  20.0760  20.1167  20.1356
    20.2165  20.2192  20.3237  20.3863  20.4947  20.5231  20.5994  20.6124
    20.6711  20.6769  20.6971  20.6987  20.8302  20.8966  21.0319  21.0468
    21.0602  21.1767  21.1808  21.1817  21.2019  21.2216

          k = 0.0000 0.0000-0.4926 (  6224 PWs)   bands (ev):

   -66.9026 -66.9011 -66.8889 -66.8889 -66.8889 -66.8889 -66.8825 -66.8825
   -66.6743 -66.6701 -66.5787 -66.5573 -66.4632 -53.6839 -53.4878 -53.2909
   -33.1257 -33.1253 -33.1108 -33.0956 -33.0924 -33.0920 -33.0548 -33.0503
   -33.0502 -33.0171 -33.0131 -33.0131 -33.0018 -33.0003 -32.9999 -32.9995
   -32.9660 -32.9653 -32.9491 -32.9264 -32.8954 -32.8953 -32.8756 -32.8756
   -32.7406 -32.7319 -32.7276 -32.7267 -32.6799 -32.6718 -32.6175 -32.6027
   -32.5984 -32.5720 -32.5717 -32.5557 -32.5498 -32.4752 -32.4715 -25.0144
   -25.0091 -24.9973 -24.8792 -24.8769 -24.7183 -24.7002 -24.6981 -24.4264
    11.6431  11.6871  14.7435  14.7877  14.7877  14.8499  14.8848  14.8994
    14.9184  15.0731  15.3975  15.4679  15.5159  15.5690  15.7168  15.9277
    15.9673  16.1005  16.3579  16.5215  16.5510  16.5756  17.3037  17.3251
    17.3499  17.4069  17.4247  17.4298  17.4329  17.4640  17.4729  17.5198
    17.6017  17.6318  17.7074  17.7402  17.7576  17.8301  17.8485  17.8534
    17.9043  17.9084  18.0820  18.2037  18.2565  18.2579  18.6399  18.7284
    19.1743  19.2112  19.3577  19.5356  19.5437  19.5933  19.6021  19.6308
    19.6341  19.7464  19.8860  19.8992  19.9222  19.9679  20.2860  20.3362
    20.3915  20.4215  20.5058  20.5160  20.5203  20.5635  20.6191  20.6312
    20.6588  20.6731  20.7143  20.7304  20.7512  20.7546  20.7659  20.7783
    20.7961  20.8043  21.2860  21.3094  21.3286  21.3464

          k = 0.0000 0.2500 0.0000 (  6217 PWs)   bands (ev):

   -66.9079 -66.8945 -66.8918 -66.8906 -66.8872 -66.8860 -66.8853 -66.8808
   -66.6754 -66.6692 -66.5788 -66.5572 -66.4632 -53.6839 -53.4878 -53.2909
   -33.1308 -33.1262 -33.1208 -33.1174 -33.0751 -33.0705 -33.0693 -33.0632
   -33.0606 -33.0511 -33.0401 -33.0080 -32.9981 -32.9912 -32.9683 -32.9617
   -32.9560 -32.9286 -32.9157 -32.9117 -32.9091 -32.8946 -32.8851 -32.8670
   -32.7666 -32.7518 -32.7484 -32.7423 -32.6709 -32.6539 -32.6499 -32.6134
   -32.6028 -32.5611 -32.5602 -32.5462 -32.5407 -32.4739 -32.4727 -25.0140
   -25.0097 -24.9974 -24.8784 -24.8771 -24.7178 -24.6995 -24.6985 -24.4268
    10.7477  13.1117  14.5690  14.6706  14.6727  14.7298  14.7499  14.8127
    14.8248  14.8973  14.9075  15.1530  15.3942  15.5737  15.6410  16.1597
    16.3810  16.4338  16.5260  16.6132  16.7059  16.7635  16.8403  17.0247
    17.0508  17.0637  17.0804  17.1102  17.2280  17.4945  17.5007  17.5884
    17.9264  18.0212  18.0453  18.0555  18.1474  18.2629  18.2951  18.3368
    18.3948  18.4026  18.5365  18.5687  18.6029  18.6404  18.6606  18.6994
    18.9530  18.9749  19.0393  19.0442  19.0675  19.1342  19.1831  19.6497
    19.8566  19.9167  19.9975  20.0675  20.0717  20.1114  20.1605  20.1612
    20.1943  20.2091  20.2374  20.3218  20.4545  20.5105  20.5459  20.5906
    20.6386  20.6604  20.6646  20.6681  20.8445  20.9117  21.0140  21.0435
    21.0939  21.1873  21.1877  21.2018  21.2119  21.2391

          k = 0.0000 0.2500 0.2463 (  6220 PWs)   bands (ev):

   -66.9057 -66.8951 -66.8926 -66.8899 -66.8882 -66.8861 -66.8853 -66.8816
   -66.6749 -66.6696 -66.5787 -66.5572 -66.4632 -53.6839 -53.4878 -53.2909
   -33.1276 -33.1178 -33.1162 -33.1156 -33.0768 -33.0764 -33.0686 -33.0548
   -33.0491 -33.0459 -33.0386 -33.0135 -33.0032 -32.9981 -32.9795 -32.9669
   -32.9528 -32.9457 -32.9145 -32.9069 -32.9028 -32.8953 -32.8925 -32.8746
   -32.7817 -32.7647 -32.7313 -32.7273 -32.6816 -32.6477 -32.6329 -32.6086
   -32.6006 -32.5678 -32.5644 -32.5484 -32.5430 -32.4747 -32.4739 -25.0141
   -25.0098 -24.9975 -24.8786 -24.8772 -24.7182 -24.6997 -24.6987 -24.4267
    11.0617  13.2715  13.3371  14.3905  14.8573  14.8937  14.9026  15.0358
    15.0673  15.0852  15.2586  15.4606  15.5805  15.6709  15.7799  16.0921
    16.3009  16.4073  16.5650  16.6916  16.7187  16.7897  16.8168  16.8677
    16.8772  17.0719  17.0779  17.1215  17.2138  17.2737  17.3526  17.6655
    17.6712  17.8814  17.9098  17.9699  17.9881  18.0381  18.0499  18.0798
    18.1737  18.1924  18.2201  18.2625  18.2652  18.4936  18.6361  18.7261
    18.9540  19.0593  19.0837  19.1996  19.2362  19.2988  19.4947  19.5470
    19.6404  19.7537  19.8834  20.0384  20.1357  20.1418  20.1888  20.1903
    20.2274  20.2708  20.2833  20.3853  20.3936  20.4960  20.5110  20.5228
    20.5496  20.6482  20.6632  20.6648  20.6822  20.7371  20.8039  20.8313
    20.8983  20.9438  21.0728  21.3342  21.4736  21.5950

          k = 0.0000 0.2500-0.4926 (  6184 PWs)   bands (ev):

   -66.9008 -66.8998 -66.8908 -66.8903 -66.8880 -66.8880 -66.8835 -66.8834
   -66.6743 -66.6701 -66.5786 -66.5573 -66.4632 -53.6839 -53.4877 -53.2909
   -33.1194 -33.1194 -33.1035 -33.0954 -33.0951 -33.0858 -33.0565 -33.0550
   -33.0438 -33.0294 -33.0197 -33.0154 -33.0014 -32.9940 -32.9940 -32.9924
   -32.9404 -32.9384 -32.9336 -32.9226 -32.9023 -32.8971 -32.8856 -32.8856
   -32.7646 -32.7494 -32.7454 -32.7306 -32.6855 -32.6377 -32.6130 -32.6010
   -32.5982 -32.5709 -32.5690 -32.5557 -32.5404 -32.4735 -32.4732 -25.0138
   -25.0095 -24.9971 -24.8783 -24.8769 -24.7180 -24.6994 -24.6984 -24.4263
    11.9352  11.9855  13.8295  13.9045  14.9724  15.0627  15.0908  15.1406
    15.3926  15.5179  15.5402  15.6524  15.6561  15.6947  15.7763  15.9921
    16.1278  16.1974  16.4948  16.5598  16.5891  16.6486  16.9834  17.0168
    17.1124  17.1182  17.1477  17.2622  17.2911  17.3040  17.3907  17.4222
    17.5431  17.6043  17.6086  17.6567  17.6757  17.6776  17.7116  17.8665
    17.8812  17.8907  17.9715  18.0006  18.0450  18.1331  19.0270  19.0622
    19.2435  19.2616  19.3368  19.3415  19.4092  19.4629  19.5668  19.5781
    19.6374  19.6753  19.6951  19.7148  19.7836  19.9074  20.1971  20.2170
    20.2213  20.2401  20.3396  20.3693  20.3835  20.4039  20.5029  20.5824
    20.5835  20.6492  20.6635  20.6969  20.7015  20.7528  20.8470  20.8827
    20.9343  20.9497  21.1176  21.1502  21.8272  21.8849

          k = 0.0000-0.5000 0.0000 (  6218 PWs)   bands (ev):

   -66.9021 -66.9005 -66.8895 -66.8895 -66.8884 -66.8884 -66.8830 -66.8830
   -66.6743 -66.6701 -66.5786 -66.5573 -66.4632 -53.6839 -53.4878 -53.2909
   -33.1214 -33.1214 -33.1063 -33.0970 -33.0923 -33.0875 -33.0542 -33.0540
   -33.0515 -33.0191 -33.0166 -33.0100 -33.0005 -32.9990 -32.9979 -32.9938
   -32.9672 -32.9623 -32.9500 -32.9262 -32.8973 -32.8972 -32.8795 -32.8795
   -32.7433 -32.7342 -32.7283 -32.7218 -32.6885 -32.6646 -32.6178 -32.6071
   -32.5927 -32.5698 -32.5684 -32.5576 -32.5514 -32.4748 -32.4741 -25.0139
   -25.0097 -24.9973 -24.8787 -24.8774 -24.7182 -24.6996 -24.6988 -24.4265
    11.6807  11.7237  14.7352  14.7581  14.8009  14.8251  14.8673  14.8981
    14.9315  15.0624  15.4199  15.5280  15.5678  15.5910  15.7513  15.9661
    15.9686  16.1028  16.4226  16.6003  16.6278  16.6460  17.2843  17.2911
    17.3371  17.3394  17.3437  17.3762  17.4297  17.4319  17.4893  17.5065
    17.5663  17.6282  17.6678  17.6854  17.7463  17.7726  17.8099  17.8346
    17.8453  17.8608  18.0382  18.2028  18.2656  18.3150  18.5486  18.6305
    19.2275  19.2662  19.4392  19.5559  19.6076  19.6539  19.6847  19.6937
    19.7049  19.8092  19.8282  19.8586  19.8749  19.9563  20.2343  20.2716
    20.3383  20.3476  20.4890  20.4973  20.5156  20.5269  20.5945  20.6179
    20.6367  20.6699  20.7143  20.7172  20.7576  20.7738  20.7741  20.7768
    20.7814  20.8089  21.2082  21.2206  21.2417  21.3750

          k = 0.0000-0.5000 0.2463 (  6216 PWs)   bands (ev):

   -66.9005 -66.8993 -66.8912 -66.8907 -66.8876 -66.8876 -66.8839 -66.8839
   -66.6743 -66.6701 -66.5787 -66.5573 -66.4632 -53.6839 -53.4878 -53.2909
   -33.1186 -33.1182 -33.1012 -33.0989 -33.0977 -33.0830 -33.0598 -33.0586
   -33.0433 -33.0338 -33.0245 -33.0166 -33.0027 -32.9959 -32.9936 -32.9925
   -32.9411 -32.9381 -32.9340 -32.9223 -32.9070 -32.9021 -32.8862 -32.8856
   -32.7636 -32.7545 -32.7495 -32.7294 -32.6870 -32.6372 -32.6138 -32.6071
   -32.5958 -32.5707 -32.5696 -32.5579 -32.5408 -32.4748 -32.4745 -25.0140
   -25.0100 -24.9976 -24.8785 -24.8775 -24.7185 -24.6996 -24.6989 -24.4268
    11.9622  12.0114  13.8022  13.8769  14.9815  15.0737  15.0945  15.1468
    15.3813  15.5164  15.5531  15.6632  15.6936  15.7135  15.7991  16.0176
    16.1157  16.1867  16.5465  16.6035  16.6298  16.7006  16.9411  16.9823
    17.0918  17.0924  17.1078  17.2413  17.2667  17.3091  17.3710  17.3952
    17.4822  17.5469  17.5781  17.6058  17.6798  17.6813  17.7077  17.8690
    17.8721  17.8768  17.9789  17.9984  18.0238  18.1022  19.0029  19.0288
    19.2508  19.2731  19.3238  19.3325  19.4596  19.4973  19.5764  19.5993
    19.6128  19.6316  19.7595  19.7772  19.8185  19.9382  20.1670  20.1903
    20.2162  20.2164  20.2812  20.3157  20.3570  20.3839  20.4995  20.5743
    20.5749  20.6345  20.6433  20.6961  20.7001  20.7264  20.8489  20.8619
    20.9244  20.9394  21.1185  21.1495  21.8474  21.8750

          k = 0.0000-0.5000-0.4926 (  6224 PWs)   bands (ev):

   -66.8978 -66.8977 -66.8940 -66.8924 -66.8858 -66.8858 -66.8858 -66.8858
   -66.6742 -66.6700 -66.5787 -66.5573 -66.4633 -53.6839 -53.4878 -53.2909
   -33.1202 -33.1188 -33.0949 -33.0947 -33.0945 -33.0747 -33.0689 -33.0689
   -33.0516 -33.0368 -33.0277 -33.0163 -32.9971 -32.9957 -32.9910 -32.9905
   -32.9287 -32.9202 -32.9196 -32.9086 -32.9080 -32.9041 -32.8977 -32.8969
   -32.7879 -32.7779 -32.7690 -32.7385 -32.6800 -32.6256 -32.6055 -32.6036
   -32.6005 -32.5708 -32.5701 -32.5565 -32.5351 -32.4775 -32.4757 -25.0145
   -25.0108 -24.9975 -24.8786 -24.8779 -24.7183 -24.6999 -24.6995 -24.4267
    12.6985  12.7823  12.7836  12.8264  15.2082  15.2094  15.4039  15.4888
    15.6381  15.7374  15.7384  15.7896  15.8345  15.8664  16.0172  16.1101
    16.2210  16.2226  16.4119  16.4134  16.4893  16.7229  16.7238  16.7383
    16.8841  16.9846  17.0172  17.0209  17.0394  17.0787  17.2075  17.2192
    17.4168  17.4217  17.4345  17.5096  17.5105  17.5224  17.5272  17.7263
    17.7600  17.9166  17.9757  17.9790  18.4049  18.4103  18.6419  18.6517
    19.1590  19.2371  19.3709  19.3731  19.5010  19.5027  19.5251  19.6227
    19.6518  19.7005  19.7173  19.7519  19.9883  19.9901  20.0582  20.0594
    20.0698  20.0912  20.1045  20.1194  20.1290  20.3158  20.5088  20.5144
    20.5367  20.5698  20.5703  20.5732  20.6865  20.6935  20.8662  20.8678
    21.1219  21.1227  21.2549  21.2918  22.7462  22.7719

          k = 0.2500 0.2500 0.0000 (  6194 PWs)   bands (ev):

   -66.9054 -66.8935 -66.8930 -66.8909 -66.8873 -66.8863 -66.8863 -66.8818
   -66.6753 -66.6691 -66.5788 -66.5572 -66.4632 -53.6839 -53.4875 -53.2911
   -33.1264 -33.1199 -33.1165 -33.1128 -33.0820 -33.0759 -33.0621 -33.0560
   -33.0467 -33.0440 -33.0291 -33.0031 -32.9947 -32.9910 -32.9854 -32.9615
   -32.9572 -32.9383 -32.9357 -32.9193 -32.9114 -32.9031 -32.8868 -32.8712
   -32.7594 -32.7444 -32.7359 -32.7251 -32.6860 -32.6588 -32.6400 -32.6114
   -32.5951 -32.5697 -32.5638 -32.5470 -32.5352 -32.4730 -32.4721 -25.0137
   -25.0093 -24.9976 -24.8781 -24.8766 -24.7038 -24.6996 -24.6984 -24.4408
    11.0717  13.3360  13.3498  14.4185  14.7914  14.8257  14.9528  15.0023
    15.0340  15.0427  15.3118  15.5452  15.6502  15.7006  15.7803  16.0675
    16.3576  16.4469  16.6324  16.6735  16.6887  16.7384  16.8342  16.8382
    16.8853  17.0312  17.0573  17.0770  17.2516  17.2876  17.3035  17.5975
    17.7402  17.8586  17.9213  17.9603  17.9964  18.0346  18.0781  18.1312
    18.1380  18.1706  18.2033  18.2935  18.3345  18.4668  18.5625  18.5999
    19.0527  19.0909  19.1578  19.1830  19.2373  19.3263  19.5003  19.5649
    19.6336  19.7693  19.9226  20.0273  20.0933  20.0933  20.1157  20.1831
    20.2862  20.3018  20.3661  20.3693  20.4175  20.4786  20.5066  20.5341
    20.5699  20.5744  20.6058  20.6343  20.6516  20.6726  20.7539  20.8210
    20.9145  20.9282  21.0779  21.3213  21.3674  21.4415

          k = 0.2500 0.2500 0.2463 (  6196 PWs)   bands (ev):

   -66.9034 -66.8937 -66.8923 -66.8915 -66.8873 -66.8872 -66.8864 -66.8826
   -66.6748 -66.6695 -66.5787 -66.5572 -66.4632 -53.6839 -53.4875 -53.2911
   -33.1214 -33.1148 -33.1102 -33.1077 -33.0817 -33.0759 -33.0695 -33.0490
   -33.0451 -33.0373 -33.0200 -33.0070 -33.0020 -32.9978 -32.9834 -32.9664
   -32.9477 -32.9380 -32.9312 -32.9282 -32.9143 -32.9071 -32.9057 -32.8825
   -32.7610 -32.7378 -32.7343 -32.7246 -32.6907 -32.6587 -32.6285 -32.6074
   -32.5954 -32.5732 -32.5610 -32.5478 -32.5398 -32.4737 -32.4725 -25.0140
   -25.0094 -24.9976 -24.8783 -24.8767 -24.7038 -24.6998 -24.6985 -24.4410
    11.3791  13.5087  13.5715  13.5817  14.6185  14.6619  14.7584  15.2808
    15.2845  15.5444  15.5733  15.7403  15.7707  15.8104  15.9156  16.1055
    16.3943  16.4373  16.4878  16.5686  16.6533  16.7069  16.8343  16.8856
    16.9276  16.9581  16.9920  17.0698  17.1348  17.2285  17.4351  17.5093
    17.5644  17.6554  17.6877  17.6942  17.7565  17.7853  17.8615  17.9040
    17.9224  17.9446  17.9601  18.0189  18.1863  18.2136  18.3112  18.8740
    19.2102  19.2480  19.3559  19.3804  19.4218  19.4638  19.4950  19.6637
    19.6869  19.8684  19.9153  19.9203  19.9756  20.0149  20.0550  20.1474
    20.2024  20.3148  20.3847  20.3920  20.5015  20.5051  20.5255  20.5292
    20.5410  20.6280  20.6625  20.6792  20.6961  20.7246  20.7796  20.8342
    20.8970  20.8980  20.9177  20.9839  21.3846  21.4031

          k = 0.2500 0.2500-0.4926 (  6198 PWs)   bands (ev):

   -66.8990 -66.8980 -66.8902 -66.8897 -66.8894 -66.8893 -66.8846 -66.8845
   -66.6742 -66.6700 -66.5786 -66.5573 -66.4632 -53.6839 -53.4875 -53.2911
   -33.1168 -33.1131 -33.0996 -33.0906 -33.0906 -33.0893 -33.0625 -33.0598
   -33.0370 -33.0221 -33.0173 -33.0128 -33.0016 -32.9948 -32.9750 -32.9747
   -32.9567 -32.9546 -32.9251 -32.9238 -32.9157 -32.9090 -32.9087 -32.9032
   -32.7497 -32.7467 -32.7367 -32.7207 -32.6926 -32.6544 -32.6194 -32.6050
   -32.5964 -32.5703 -32.5631 -32.5555 -32.5420 -32.4736 -32.4733 -25.0140
   -25.0095 -24.9978 -24.8783 -24.8769 -24.7040 -24.6998 -24.6987 -24.4412
    12.2260  12.2793  14.0785  14.1159  14.1597  14.1721  15.3569  15.3984
    15.5699  15.6181  15.7015  15.7360  15.8023  15.9702  15.9723  16.1134
    16.2460  16.3042  16.5267  16.6449  16.6729  16.6874  16.8021  16.8084
    16.9279  17.1073  17.1624  17.1671  17.1939  17.2122  17.2240  17.2550
    17.3488  17.3618  17.4238  17.4871  17.5398  17.6059  17.6246  17.6676
    17.7264  17.7331  17.8373  17.8413  17.8925  17.9106  18.6397  18.6660
    19.3397  19.3482  19.4560  19.4745  19.4986  19.5678  19.7317  19.7325
    19.7390  19.7601  19.8520  19.9966  20.0425  20.0568  20.1302  20.2115
    20.3045  20.3288  20.3464  20.4112  20.4431  20.5087  20.5143  20.5592
    20.5730  20.5940  20.6498  20.6978  20.7173  20.7516  20.7853  20.8066
    20.8272  20.8429  20.8820  20.8861  20.9073  20.9448

          k = 0.2500-0.5000 0.0000 (  6208 PWs)   bands (ev):

   -66.9001 -66.8987 -66.8904 -66.8901 -66.8886 -66.8886 -66.8840 -66.8840
   -66.6742 -66.6701 -66.5787 -66.5573 -66.4632 -53.6839 -53.4875 -53.2911
   -33.1214 -33.1174 -33.1026 -33.0929 -33.0925 -33.0880 -33.0613 -33.0583
   -33.0448 -33.0232 -33.0134 -33.0117 -33.0106 -33.0064 -32.9785 -32.9713
   -32.9650 -32.9586 -32.9395 -32.9265 -32.9095 -32.9081 -32.8884 -32.8882
   -32.7473 -32.7451 -32.7220 -32.7164 -32.7071 -32.6632 -32.6244 -32.6035
   -32.5979 -32.5666 -32.5660 -32.5534 -32.5378 -32.4743 -32.4735 -25.0139
   -25.0100 -24.9976 -24.8784 -24.8774 -24.7037 -24.6998 -24.6992 -24.4410
    11.9737  12.0201  13.8582  13.9232  14.9673  15.0653  15.0698  15.0789
    15.5057  15.5149  15.5348  15.6195  15.6875  15.7221  15.8280  16.0165
    16.0561  16.1900  16.4885  16.6765  16.6797  16.7095  17.0234  17.0296
    17.0464  17.1001  17.1893  17.2499  17.2521  17.3016  17.3499  17.3745
    17.4345  17.4411  17.5111  17.5599  17.6699  17.6907  17.7959  17.8113
    17.8785  17.8846  17.9161  17.9201  18.1726  18.1867  18.9590  18.9632
    19.2276  19.2634  19.3165  19.3266  19.4478  19.5234  19.6341  19.6385
    19.6829  19.7136  19.7233  19.7363  19.8326  19.9745  20.1277  20.1293
    20.1665  20.2254  20.3172  20.3260  20.3726  20.4274  20.4703  20.5410
    20.5478  20.6074  20.6138  20.6147  20.6238  20.7347  20.7965  20.8472
    20.9293  20.9393  21.0958  21.1228  21.7992  21.8209

          k = 0.2500-0.5000 0.2463 (  6214 PWs)   bands (ev):

   -66.8986 -66.8976 -66.8903 -66.8898 -66.8893 -66.8892 -66.8850 -66.8849
   -66.6742 -66.6700 -66.5786 -66.5573 -66.4632 -53.6839 -53.4876 -53.2911
   -33.1164 -33.1129 -33.0974 -33.0919 -33.0910 -33.0866 -33.0655 -33.0629
   -33.0342 -33.0274 -33.0214 -33.0100 -33.0023 -32.9963 -32.9747 -32.9733
   -32.9602 -32.9552 -32.9269 -32.9260 -32.9201 -32.9133 -32.9061 -32.9032
   -32.7511 -32.7498 -32.7414 -32.7186 -32.6949 -32.6495 -32.6152 -32.6032
   -32.6023 -32.5705 -32.5677 -32.5561 -32.5385 -32.4746 -32.4745 -25.0142
   -25.0101 -24.9978 -24.8787 -24.8773 -24.7040 -24.7000 -24.6992 -24.4412
    12.2531  12.3051  14.0644  14.1233  14.1458  14.1780  15.3636  15.4011
    15.5625  15.6050  15.7161  15.7524  15.8322  15.9774  15.9874  16.1330
    16.2352  16.2938  16.5634  16.6841  16.7074  16.7240  16.7902  16.8143
    16.9341  17.0925  17.1383  17.1482  17.1599  17.2014  17.2069  17.2144
    17.3124  17.3304  17.3878  17.5003  17.5196  17.5955  17.6401  17.6848
    17.6930  17.7070  17.8084  17.8150  17.9176  17.9225  18.6145  18.6428
    19.3164  19.3289  19.4755  19.5058  19.5162  19.5973  19.7379  19.7676
    19.7808  19.7839  19.8880  19.9592  19.9903  20.0771  20.1382  20.1917
    20.2513  20.2708  20.3065  20.3671  20.4199  20.4858  20.4901  20.5417
    20.5609  20.5758  20.6416  20.6825  20.7236  20.7517  20.7847  20.8018
    20.8343  20.8440  20.8864  20.8995  20.9093  20.9307

          k = 0.2500-0.5000-0.4926 (  6180 PWs)   bands (ev):

   -66.8960 -66.8960 -66.8928 -66.8914 -66.8875 -66.8875 -66.8869 -66.8867
   -66.6742 -66.6700 -66.5786 -66.5573 -66.4632 -53.6839 -53.4875 -53.2911
   -33.1110 -33.1074 -33.0897 -33.0893 -33.0864 -33.0742 -33.0717 -33.0715
   -33.0358 -33.0234 -33.0177 -33.0107 -32.9895 -32.9894 -32.9705 -32.9694
   -32.9480 -32.9366 -32.9362 -32.9346 -32.9305 -32.9227 -32.9104 -32.9092
   -32.7608 -32.7569 -32.7428 -32.7187 -32.6849 -32.6357 -32.6062 -32.6033
   -32.6014 -32.5715 -32.5693 -32.5572 -32.5378 -32.4738 -32.4730 -25.0137
   -25.0098 -24.9976 -24.8779 -24.8770 -24.7040 -24.6995 -24.6989 -24.4411
    12.9964  13.0584  13.0595  13.1284  14.7013  14.7021  14.8492  14.9446
    15.7383  15.7861  16.0780  16.0864  16.0880  16.1302  16.3122  16.3681
    16.4112  16.4309  16.4325  16.4550  16.4564  16.6966  16.7507  16.7508
    16.7734  16.9344  17.0290  17.0353  17.1005  17.1183  17.1473  17.1792
    17.2186  17.2417  17.2517  17.2893  17.3718  17.4670  17.4672  17.6224
    17.6362  17.6576  17.6684  17.6876  17.9313  17.9378  18.0610  18.0637
    19.6182  19.6437  19.6573  19.7213  19.7578  19.7586  19.7732  19.8645
    19.9328  19.9341  20.0527  20.0704  20.0706  20.1093  20.1128  20.1370
    20.1574  20.1719  20.1726  20.2368  20.2454  20.2464  20.4813  20.4861
    20.5152  20.5160  20.5176  20.5506  20.5976  20.6324  20.7696  20.7718
    20.8040  20.8041  20.9059  20.9544  21.5631  21.6106

          k =-0.5000-0.5000 0.0000 (  6200 PWs)   bands (ev):

   -66.8956 -66.8951 -66.8950 -66.8939 -66.8863 -66.8863 -66.8863 -66.8863
   -66.6742 -66.6700 -66.5786 -66.5573 -66.4632 -53.6839 -53.4873 -53.2913
   -33.1225 -33.1137 -33.0976 -33.0976 -33.0847 -33.0804 -33.0669 -33.0616
   -33.0386 -33.0317 -33.0212 -33.0139 -33.0063 -32.9956 -32.9648 -32.9573
   -32.9535 -32.9527 -32.9335 -32.9326 -32.9144 -32.9118 -32.8984 -32.8973
   -32.7577 -32.7507 -32.7258 -32.7160 -32.7130 -32.6651 -32.6336 -32.6089
   -32.5930 -32.5663 -32.5641 -32.5520 -32.5315 -32.4749 -32.4730 -25.0137
   -25.0100 -24.9985 -24.8781 -24.8770 -24.6998 -24.6993 -24.6885 -24.4575
    12.7748  12.7753  12.7961  12.8656  15.3162  15.3486  15.4273  15.4880
    15.5655  15.5908  15.6041  15.7086  15.9382  15.9401  16.0035  16.1255
    16.1584  16.2700  16.3337  16.5414  16.5476  16.7755  16.8717  16.8758
    16.8857  16.9570  16.9599  16.9945  16.9965  17.0461  17.1587  17.1786
    17.1876  17.3967  17.4321  17.5325  17.5357  17.5386  17.5536  17.5712
    17.9430  17.9784  18.0037  18.0138  18.3858  18.3945  18.5058  18.5235
    19.2977  19.2994  19.3748  19.3774  19.4523  19.4629  19.6113  19.6278
    19.6508  19.7303  19.7356  19.7801  19.8086  19.9406  20.0180  20.0416
    20.0566  20.0639  20.1293  20.2430  20.3945  20.3966  20.4798  20.4865
    20.5062  20.5065  20.5125  20.5173  20.5292  20.5806  20.5865  20.8254
    21.1248  21.1330  21.2489  21.2815  22.7416  22.7572

          k =-0.5000-0.5000 0.2463 (  6192 PWs)   bands (ev):

   -66.8943 -66.8940 -66.8939 -66.8929 -66.8876 -66.8874 -66.8874 -66.8873
   -66.6742 -66.6700 -66.5786 -66.5573 -66.4632 -53.6839 -53.4873 -53.2913
   -33.1144 -33.1049 -33.0932 -33.0924 -33.0817 -33.0807 -33.0708 -33.0667
   -33.0244 -33.0231 -33.0121 -33.0048 -33.0008 -32.9886 -32.9851 -32.9667
   -32.9501 -32.9412 -32.9361 -32.9337 -32.9318 -32.9314 -32.9232 -32.9175
   -32.7520 -32.7423 -32.7112 -32.7100 -32.7078 -32.6627 -32.6191 -32.6050
   -32.5983 -32.5681 -32.5670 -32.5540 -32.5362 -32.4735 -32.4733 -25.0140
   -25.0097 -24.9980 -24.8784 -24.8768 -24.7001 -24.6990 -24.6882 -24.4572
    13.0470  13.0595  13.0796  13.1427  14.7151  14.7891  14.7997  14.8387
    15.7951  15.8336  15.9332  16.1150  16.1317  16.2253  16.2913  16.3335
    16.3342  16.3500  16.3603  16.5578  16.5854  16.7582  16.8090  16.8354
    16.8594  16.8931  16.9627  16.9652  17.0040  17.0540  17.0551  17.0733
    17.2005  17.2853  17.3055  17.3986  17.4438  17.4453  17.4747  17.4979
    17.6910  17.7004  17.7089  17.7607  17.8862  17.9197  17.9687  17.9801
    19.6527  19.6956  19.7032  19.7387  19.7516  19.8124  19.8142  19.8653
    19.8743  19.8899  19.9011  19.9897  20.0328  20.0493  20.1363  20.1400
    20.1405  20.1526  20.2356  20.3374  20.3834  20.3919  20.4520  20.4651
    20.4742  20.4797  20.4925  20.4975  20.4998  20.5293  20.5408  20.7470
    20.8039  20.8297  20.9151  20.9518  21.6140  21.6207

          k =-0.5000-0.5000-0.4926 (  6176 PWs)   bands (ev):

   -66.8924 -66.8923 -66.8913 -66.8911 -66.8907 -66.8891 -66.8890 -66.8890
   -66.6742 -66.6700 -66.5786 -66.5573 -66.4632 -53.6839 -53.4873 -53.2913
   -33.1049 -33.0919 -33.0846 -33.0841 -33.0800 -33.0792 -33.0782 -33.0778
   -33.0054 -33.0043 -33.0021 -32.9976 -32.9853 -32.9767 -32.9754 -32.9710
   -32.9683 -32.9598 -32.9557 -32.9545 -32.9411 -32.9392 -32.9290 -32.9240
   -32.7503 -32.7387 -32.7028 -32.7012 -32.6998 -32.6578 -32.6077 -32.6031
   -32.6029 -32.5726 -32.5719 -32.5582 -32.5439 -32.4734 -32.4723 -25.0136
   -25.0097 -24.9979 -24.8780 -24.8770 -24.6997 -24.6991 -24.6883 -24.4572
    13.7752  13.7776  13.7869  13.8222  13.8241  13.8324  13.9323  13.9476
    16.1161  16.1559  16.1901  16.2737  16.3145  16.3369  16.4687  16.4753
    16.5211  16.5596  16.5600  16.6720  16.6957  16.7017  16.7853  16.8902
    16.9017  16.9237  16.9786  16.9821  16.9872  16.9872  16.9909  17.0551
    17.0589  17.3017  17.3085  17.3137  17.3334  17.3477  17.3699  17.3726
    17.3803  17.3828  17.3859  17.3932  17.4243  17.4255  17.4611  17.4737
    19.7903  19.8176  19.8692  19.9337  19.9720  20.0160  20.1467  20.1676
    20.1984  20.2013  20.2254  20.2357  20.2822  20.3003  20.3197  20.3248
    20.3454  20.3515  20.3536  20.3589  20.3779  20.3895  20.3955  20.4318
    20.4412  20.4468  20.4664  20.4679  20.4891  20.5161  20.5288  20.5746
    20.7478  20.7644  20.7792  20.7801  20.7984  20.7998

          k = 0.2500 0.0000 0.0000 (  6217 PWs)   bands (ev):

   -66.9078 -66.8945 -66.8918 -66.8906 -66.8872 -66.8860 -66.8853 -66.8808
   -66.6761 -66.6685 -66.5789 -66.5571 -66.4632 -53.6839 -53.4875 -53.2911
   -33.1319 -33.1272 -33.1227 -33.1169 -33.0813 -33.0772 -33.0616 -33.0577
   -33.0550 -33.0524 -33.0384 -32.9962 -32.9933 -32.9845 -32.9684 -32.9652
   -32.9426 -32.9420 -32.9366 -32.9215 -32.9212 -32.8993 -32.8679 -32.8640
   -32.7658 -32.7580 -32.7368 -32.7325 -32.6708 -32.6674 -32.6554 -32.6145
   -32.5945 -32.5680 -32.5613 -32.5454 -32.5343 -32.4738 -32.4724 -25.0140
   -25.0093 -24.9979 -24.8782 -24.8765 -24.7043 -24.6997 -24.6984 -24.4409
    10.7477  13.1147  14.4600  14.6717  14.7283  14.7454  14.7665  14.8204
    14.8243  14.8992  14.9483  15.0910  15.4654  15.5650  15.6627  16.1473
    16.4094  16.4331  16.5486  16.6494  16.6855  16.7224  16.7494  16.9564
    17.0545  17.0646  17.0797  17.0992  17.1930  17.5078  17.5450  17.6713
    17.7566  18.0421  18.1434  18.1439  18.2424  18.2477  18.2844  18.2921
    18.3943  18.4266  18.5356  18.5643  18.6294  18.6509  18.6866  18.6945
    18.9762  18.9864  18.9942  19.0142  19.0251  19.1178  19.1876  19.6388
    19.8963  19.9059  20.0035  20.0714  20.1003  20.1059  20.1082  20.1187
    20.1287  20.1618  20.2077  20.4483  20.4788  20.4974  20.5538  20.5844
    20.6513  20.6570  20.6624  20.6712  20.8884  20.9726  21.0178  21.0330
    21.0797  21.1067  21.1612  21.2004  21.2063  21.2064

          k = 0.2500 0.0000-0.2463 (  6220 PWs)   bands (ev):

   -66.9056 -66.8943 -66.8934 -66.8899 -66.8883 -66.8861 -66.8853 -66.8816
   -66.6753 -66.6691 -66.5788 -66.5572 -66.4632 -53.6839 -53.4876 -53.2911
   -33.1307 -33.1228 -33.1148 -33.1144 -33.0855 -33.0714 -33.0626 -33.0605
   -33.0439 -33.0406 -33.0323 -33.0047 -32.9944 -32.9918 -32.9916 -32.9608
   -32.9574 -32.9409 -32.9403 -32.9184 -32.9089 -32.9030 -32.8889 -32.8704
   -32.7522 -32.7435 -32.7407 -32.7305 -32.6755 -32.6719 -32.6426 -32.6125
   -32.5959 -32.5757 -32.5543 -32.5477 -32.5422 -32.4741 -32.4721 -25.0141
   -25.0093 -24.9980 -24.8784 -24.8767 -24.7042 -24.6999 -24.6984 -24.4413
    11.0616  13.2729  13.3361  14.3901  14.8433  14.8768  14.9704  15.0084
    15.0289  15.0431  15.3115  15.5122  15.6345  15.6535  15.7755  16.0389
    16.3217  16.4247  16.6216  16.6453  16.6708  16.7357  16.7904  16.8484
    16.8801  16.9957  17.1155  17.1213  17.2875  17.2947  17.3513  17.6479
    17.7011  17.8745  17.9333  17.9437  18.0137  18.0184  18.0854  18.0962
    18.1643  18.1977  18.2287  18.2652  18.2876  18.5550  18.6206  18.6911
    18.9940  19.0457  19.1279  19.1558  19.1937  19.2731  19.5061  19.5695
    19.6051  19.7668  19.8670  20.0399  20.0793  20.1101  20.1318  20.1722
    20.2878  20.3120  20.3661  20.3756  20.4469  20.4955  20.5087  20.5339
    20.5590  20.6252  20.6492  20.6675  20.6736  20.7191  20.7696  20.8312
    20.9055  20.9393  21.0617  21.3149  21.4641  21.5456

          k = 0.2500 0.0000 0.4926 (  6184 PWs)   bands (ev):

   -66.9006 -66.8994 -66.8909 -66.8907 -66.8880 -66.8880 -66.8835 -66.8834
   -66.6743 -66.6701 -66.5787 -66.5573 -66.4632 -53.6839 -53.4875 -53.2911
   -33.1245 -33.1215 -33.1040 -33.0937 -33.0899 -33.0861 -33.0554 -33.0528
   -33.0501 -33.0238 -33.0081 -33.0076 -33.0057 -33.0056 -32.9775 -32.9711
   -32.9621 -32.9608 -32.9390 -32.9266 -32.9051 -32.9037 -32.8856 -32.8838
   -32.7437 -32.7357 -32.7235 -32.7226 -32.6890 -32.6817 -32.6297 -32.6073
   -32.5920 -32.5677 -32.5564 -32.5489 -32.5486 -32.4729 -32.4708 -25.0137
   -25.0089 -24.9977 -24.8781 -24.8765 -24.7039 -24.6996 -24.6981 -24.4410
    11.9364  11.9840  13.8346  13.9003  14.9913  15.0889  15.0896  15.0962
    15.4907  15.5000  15.5225  15.6060  15.6421  15.6934  15.8089  15.9883
    16.0523  16.1850  16.4390  16.6235  16.6293  16.6493  17.0236  17.0239
    17.0316  17.1241  17.1812  17.2353  17.3505  17.3715  17.3750  17.4157
    17.4961  17.4995  17.5215  17.6051  17.7040  17.7294  17.8468  17.8784
    17.8821  17.8838  17.9752  18.0088  18.1173  18.1301  19.0103  19.0201
    19.2572  19.2601  19.3087  19.3435  19.4024  19.4781  19.5880  19.5929
    19.6483  19.6648  19.7055  19.7183  19.7722  19.9061  20.1323  20.1497
    20.1902  20.2625  20.3649  20.3752  20.4218  20.4982  20.5154  20.5976
    20.6012  20.6218  20.6563  20.6741  20.6809  20.7616  20.8038  20.9024
    20.9344  20.9474  21.0980  21.1247  21.8213  21.8411

          k =-0.5000 0.0000 0.0000 (  6218 PWs)   bands (ev):

   -66.9014 -66.9010 -66.8895 -66.8895 -66.8884 -66.8884 -66.8830 -66.8830
   -66.6761 -66.6683 -66.5789 -66.5571 -66.4632 -53.6839 -53.4873 -53.2914
   -33.1344 -33.1184 -33.1024 -33.1015 -33.0964 -33.0961 -33.0452 -33.0452
   -33.0211 -33.0159 -33.0139 -33.0112 -33.0064 -33.0044 -32.9840 -32.9715
   -32.9697 -32.9644 -32.9580 -32.9579 -32.9201 -32.9199 -32.8657 -32.8657
   -32.7450 -32.7426 -32.7028 -32.7005 -32.6904 -32.6732 -32.6375 -32.6155
   -32.5890 -32.5838 -32.5673 -32.5491 -32.5446 -32.4749 -32.4714 -25.0139
   -25.0091 -24.9980 -24.8783 -24.8764 -24.7000 -24.6985 -24.6883 -24.4572
    11.6949  11.7092  14.5945  14.7609  14.7743  14.8048  14.8951  14.9417
    15.0624  15.1333  15.3819  15.4039  15.6201  15.6733  15.7868  15.9740
    15.9831  16.1135  16.4687  16.4774  16.6892  16.6955  16.9042  17.0864
    17.1988  17.3094  17.3194  17.3637  17.4620  17.5505  17.5991  17.6559
    17.6753  17.6836  17.7104  17.7184  17.7789  17.7820  17.8161  17.8339
    17.8539  17.8564  18.1484  18.2349  18.2465  18.3458  18.4418  18.6294
    19.2409  19.2929  19.3922  19.5523  19.5596  19.6334  19.6534  19.6646
    19.7362  19.8230  19.8241  19.8707  19.9199  19.9632  20.0378  20.3429
    20.3689  20.3708  20.4269  20.4761  20.5318  20.5918  20.6108  20.6112
    20.6658  20.6796  20.6935  20.7098  20.7415  20.7467  20.7748  20.7893
    20.8127  20.8272  21.1553  21.2277  21.2435  21.3427

          k =-0.5000 0.0000-0.2463 (  6216 PWs)   bands (ev):

   -66.8998 -66.8994 -66.8913 -66.8912 -66.8876 -66.8876 -66.8839 -66.8839
   -66.6753 -66.6691 -66.5788 -66.5572 -66.4632 -53.6839 -53.4873 -53.2914
   -33.1283 -33.1168 -33.1040 -33.1036 -33.0917 -33.0917 -33.0522 -33.0513
   -33.0387 -33.0292 -33.0141 -33.0062 -32.9956 -32.9944 -32.9801 -32.9755
   -32.9679 -32.9562 -32.9459 -32.9385 -32.9205 -32.9201 -32.8795 -32.8767
   -32.7467 -32.7354 -32.7251 -32.7077 -32.6918 -32.6884 -32.6385 -32.6120
   -32.5874 -32.5776 -32.5528 -32.5497 -32.5448 -32.4737 -32.4721 -25.0139
   -25.0094 -24.9983 -24.8781 -24.8767 -24.7000 -24.6988 -24.6884 -24.4574
    11.9768  11.9963  13.8151  13.8556  15.0046  15.0357  15.1227  15.1229
    15.4608  15.5158  15.5502  15.6410  15.6482  15.7840  15.8582  16.0406
    16.0409  16.1788  16.5115  16.6181  16.6959  16.7220  16.7658  16.8335
    16.9762  17.1092  17.2451  17.2685  17.2696  17.3475  17.3623  17.3694
    17.4870  17.4986  17.5169  17.6526  17.7115  17.7358  17.8587  17.8854
    17.9029  17.9073  17.9627  17.9836  18.0415  18.1231  18.9672  19.0120
    19.2532  19.2986  19.3256  19.3375  19.4676  19.5195  19.5528  19.5823
    19.6336  19.6497  19.7207  19.7564  19.7762  19.9521  19.9594  20.2010
    20.2077  20.2739  20.2765  20.3167  20.4465  20.5360  20.5743  20.5846
    20.5883  20.6131  20.6515  20.6550  20.6623  20.6854  20.7262  20.8971
    20.8996  20.9391  21.1040  21.1269  21.8484  21.8667

          k =-0.5000 0.0000 0.4926 (  6224 PWs)   bands (ev):

   -66.8961 -66.8956 -66.8956 -66.8946 -66.8858 -66.8858 -66.8858 -66.8857
   -66.6742 -66.6700 -66.5787 -66.5573 -66.4632 -53.6839 -53.4873 -53.2914
   -33.1265 -33.1182 -33.1002 -33.0999 -33.0842 -33.0805 -33.0656 -33.0607
   -33.0456 -33.0267 -33.0223 -33.0152 -33.0041 -32.9928 -32.9680 -32.9619
   -32.9588 -32.9575 -32.9301 -32.9293 -32.9125 -32.9103 -32.9017 -32.8980
   -32.7519 -32.7490 -32.7196 -32.7165 -32.7073 -32.6844 -32.6458 -32.6111
   -32.5868 -32.5666 -32.5512 -32.5485 -32.5457 -32.4744 -32.4713 -25.0143
   -25.0093 -24.9990 -24.8783 -24.8766 -24.7003 -24.6987 -24.6889 -24.4580
    12.7428  12.7440  12.7661  12.8340  15.3145  15.3457  15.4133  15.4696
    15.5733  15.5812  15.6098  15.7151  15.9404  15.9428  15.9982  16.0968
    16.1438  16.2414  16.3066  16.5257  16.5297  16.7431  16.8563  16.8691
    16.8878  16.9399  16.9468  16.9839  16.9859  17.0247  17.1827  17.2144
    17.2550  17.4200  17.4233  17.5516  17.5720  17.5746  17.6090  17.6687
    17.8917  17.9284  17.9491  17.9641  18.4748  18.4827  18.5996  18.6165
    19.2456  19.2488  19.3224  19.3280  19.4821  19.4935  19.6158  19.6513
    19.6642  19.6763  19.6877  19.7473  19.8032  19.8465  20.0176  20.0414
    20.0560  20.0618  20.0649  20.2144  20.4410  20.4437  20.5125  20.5243
    20.5638  20.5639  20.5837  20.5848  20.5963  20.6637  20.6697  20.9129
    21.1062  21.1153  21.2362  21.2706  22.7741  22.7971

          k =-0.5000 0.2500 0.0000 (  6208 PWs)   bands (ev):

   -66.8996 -66.8992 -66.8903 -66.8902 -66.8886 -66.8886 -66.8840 -66.8840
   -66.6753 -66.6691 -66.5788 -66.5572 -66.4632 -53.6839 -53.4873 -53.2913
   -33.1261 -33.1140 -33.0989 -33.0988 -33.0955 -33.0954 -33.0542 -33.0533
   -33.0317 -33.0247 -33.0157 -33.0127 -33.0029 -32.9928 -32.9780 -32.9724
   -32.9685 -32.9558 -32.9475 -32.9390 -32.9217 -32.9207 -32.8818 -32.8795
   -32.7520 -32.7301 -32.7257 -32.7095 -32.7034 -32.6681 -32.6329 -32.6118
   -32.5902 -32.5769 -32.5665 -32.5454 -32.5373 -32.4734 -32.4721 -25.0139
   -25.0093 -24.9984 -24.8783 -24.8764 -24.7000 -24.6987 -24.6885 -24.4575
    11.9869  12.0065  13.8659  13.9059  14.9707  15.0206  15.0872  15.0998
    15.4626  15.5199  15.5664  15.6528  15.6575  15.7918  15.8696  16.0426
    16.0483  16.1949  16.5223  16.6070  16.7104  16.7503  16.7689  16.8373
    17.0377  17.1195  17.1771  17.2858  17.2989  17.3290  17.3757  17.3873
    17.4742  17.4761  17.5037  17.6591  17.6958  17.7132  17.7763  17.7957
    17.8678  17.8885  17.9422  17.9504  18.1243  18.2100  18.9328  18.9911
    19.2544  19.2675  19.3037  19.3519  19.4829  19.5249  19.5666  19.6326
    19.6762  19.6878  19.6912  19.7337  19.8116  19.9851  19.9906  20.1747
    20.1835  20.2870  20.2918  20.3337  20.4047  20.4931  20.5326  20.5400
    20.5675  20.5998  20.6118  20.6172  20.6223  20.6572  20.7225  20.8656
    20.9051  20.9428  21.1017  21.1231  21.8036  21.8100

          k =-0.5000 0.2500-0.2463 (  6214 PWs)   bands (ev):

   -66.8981 -66.8977 -66.8908 -66.8903 -66.8892 -66.8889 -66.8849 -66.8849
   -66.6748 -66.6695 -66.5787 -66.5572 -66.4632 -53.6839 -53.4873 -53.2914
   -33.1213 -33.1105 -33.0964 -33.0961 -33.0923 -33.0914 -33.0593 -33.0584
   -33.0278 -33.0212 -33.0192 -33.0011 -32.9942 -32.9934 -32.9910 -32.9711
   -32.9612 -32.9482 -32.9450 -32.9430 -32.9247 -32.9224 -32.9013 -32.8954
   -32.7446 -32.7383 -32.7278 -32.7047 -32.7037 -32.6751 -32.6265 -32.6097
   -32.5960 -32.5740 -32.5610 -32.5481 -32.5414 -32.4742 -32.4730 -25.0142
   -25.0095 -24.9984 -24.8785 -24.8767 -24.7003 -24.6989 -24.6885 -24.4575
    12.2664  12.2911  14.0652  14.0850  14.1458  14.2167  15.3266  15.4339
    15.5577  15.5877  15.6875  15.8148  15.9417  15.9755  16.0000  16.1516
    16.1791  16.2775  16.5558  16.5761  16.6446  16.7552  16.7830  16.8612
    16.8809  17.0502  17.1002  17.1120  17.1636  17.2142  17.2406  17.2475
    17.3290  17.3329  17.3835  17.4751  17.6111  17.6365  17.7027  17.7095
    17.7305  17.7342  17.7593  17.8004  17.8534  17.9425  18.6209  18.6428
    19.3235  19.3332  19.4792  19.5333  19.5413  19.6341  19.6444  19.7426
    19.7431  19.7864  19.8867  19.9443  19.9548  20.0417  20.0969  20.2285
    20.2386  20.3148  20.4024  20.4404  20.4471  20.4812  20.5280  20.5386
    20.5524  20.5689  20.6030  20.6698  20.6796  20.7527  20.7711  20.7884
    20.7916  20.8305  20.8501  20.8893  20.9281  20.9581

          k =-0.5000 0.2500 0.4926 (  6180 PWs)   bands (ev):

   -66.8945 -66.8944 -66.8943 -66.8934 -66.8872 -66.8870 -66.8870 -66.8869
   -66.6742 -66.6700 -66.5786 -66.5573 -66.4632 -53.6839 -53.4873 -53.2913
   -33.1163 -33.1068 -33.0932 -33.0925 -33.0799 -33.0791 -33.0691 -33.0656
   -33.0287 -33.0162 -33.0063 -33.0036 -33.0002 -32.9894 -32.9817 -32.9711
   -32.9518 -32.9382 -32.9354 -32.9302 -32.9289 -32.9283 -32.9233 -32.9170
   -32.7479 -32.7420 -32.7108 -32.7107 -32.7009 -32.6741 -32.6277 -32.6058
   -32.5913 -32.5675 -32.5574 -32.5524 -32.5431 -32.4724 -32.4723 -25.0136
   -25.0094 -24.9980 -24.8778 -24.8767 -24.6996 -24.6988 -24.6882 -24.4571
    13.0231  13.0371  13.0584  13.1198  14.7279  14.7988  14.8137  14.8522
    15.8001  15.8313  15.9352  16.1050  16.1173  16.2173  16.2667  16.3349
    16.3365  16.3435  16.3529  16.5499  16.5754  16.7372  16.7845  16.8110
    16.8677  16.8776  16.9460  16.9570  17.0039  17.0500  17.0662  17.0989
    17.2446  17.2802  17.2978  17.4030  17.4790  17.5006  17.5088  17.5754
    17.6533  17.6654  17.6661  17.7278  17.9299  17.9611  18.0212  18.0294
    19.6427  19.6975  19.6991  19.7392  19.7569  19.8059  19.8113  19.8270
    19.8604  19.8752  19.8973  20.0100  20.0107  20.0514  20.1265  20.1373
    20.1460  20.1507  20.1831  20.3268  20.4347  20.4384  20.4791  20.5057
    20.5098  20.5173  20.5229  20.5423  20.5432  20.5933  20.6059  20.7795
    20.7859  20.8374  20.8976  20.9356  21.5911  21.5935

     the Fermi energy is    19.1158 ev

!    total energy              =   -5024.27173551 Ry
     total all-electron energy =    -39396.724701 Ry
     estimated scf accuracy    <       0.00000073 Ry
     smearing contrib. (-TS)   =      -0.00550163 Ry
     internal energy E=F+TS    =   -5024.26623388 Ry

     The total energy is F=E-TS. E is the sum of the following terms:
     one-electron contribution =   -1583.10119370 Ry
     hartree contribution      =     951.25229448 Ry
     xc contribution           =    -427.62333102 Ry
     ewald contribution        =   -2665.93829207 Ry
     one-center paw contrib.   =   -1298.85571156 Ry

     total magnetization       =    24.03 Bohr mag/cell
     absolute magnetization    =    32.47 Bohr mag/cell

     convergence has been achieved in  54 iterations


     Computing stress (Cartesian axis) and pressure


     negative rho (up, down):  0.000E+00 2.284E-03
          total   stress  (Ry/bohr**3)                   (kbar)     P=     -707.80
  -0.00467041   0.00000000   0.00000000         -687.04        0.00        0.00
   0.00000000  -0.00482092   0.00000000            0.00     -709.18        0.00
   0.00000000   0.00000000  -0.00494323            0.00        0.00     -727.17


     Writing all to output data dir ./tmp/fe13cr03_tetra_0.01.save/ :
     XML data file, charge density, pseudopotentials, collected wavefunctions

     init_run     :     90.60s CPU     93.45s WALL (       1 calls)
     electrons    :  15669.91s CPU  15937.11s WALL (       1 calls)
     stress       :    205.07s CPU    208.86s WALL (       1 calls)

     Called by init_run:
     wfcinit      :     85.74s CPU     86.92s WALL (       1 calls)
     potinit      :      3.09s CPU      4.12s WALL (       1 calls)
     hinit0       :      0.87s CPU      0.99s WALL (       1 calls)

     Called by electrons:
     c_bands      :  14268.01s CPU  14438.71s WALL (      54 calls)
     sum_band     :   1170.07s CPU   1219.87s WALL (      54 calls)
     v_of_rho     :     12.12s CPU     14.32s WALL (      55 calls)
     newd         :     50.92s CPU     71.06s WALL (      55 calls)
     PAW_pot      :    168.98s CPU    196.76s WALL (      55 calls)
     mix_rho      :      2.26s CPU      2.55s WALL (      54 calls)

     Called by c_bands:
     init_us_2    :     40.63s CPU     42.15s WALL (    5940 calls)
     cegterg      :  14153.62s CPU  14322.06s WALL (    2916 calls)

     Called by *egterg:
     cdiaghg      :   1185.16s CPU   1204.17s WALL (   13480 calls)
     h_psi        :   4574.20s CPU   4665.03s WALL (   13534 calls)
     s_psi        :   1645.56s CPU   1689.46s WALL (   13534 calls)
     g_psi        :      5.26s CPU      5.81s WALL (   10564 calls)

     Called by h_psi:
     h_psi:calbec :   1738.40s CPU   1710.18s WALL (   13534 calls)
     vloc_psi     :   1144.54s CPU   1216.31s WALL (   13534 calls)
                                        0.00s GPU  (   13534 calls)
     add_vuspsi   :   1680.82s CPU   1704.21s WALL (   13534 calls)

     General routines
     calbec       :   2724.00s CPU   2716.74s WALL (   17152 calls)
     fft          :      7.52s CPU      8.96s WALL (    1394 calls)
     ffts         :      0.37s CPU      0.41s WALL (     218 calls)
     fftw         :   1306.34s CPU   1382.14s WALL ( 2350458 calls)
     interpolate  :      0.86s CPU      1.00s WALL (     110 calls)

     Parallel routines

     PWSCF        :      4h26m CPU      4h30m WALL


   This run was terminated on:   0:46:14  26Apr2026            

=------------------------------------------------------------------------------=
   JOB DONE.
=------------------------------------------------------------------------------=
Note: The following floating-point exceptions are signalling: IEEE_DENORMAL
