
     Program PWSCF v.7.5 starts on 25Apr2026 at 10:32: 0 

     This program is part of the open-source Quantum ESPRESSO suite
     for quantum simulation of materials; please cite
         "P. Giannozzi et al., J. Phys.:Condens. Matter 21 395502 (2009);
         "P. Giannozzi et al., J. Phys.:Condens. Matter 29 465901 (2017);
         "P. Giannozzi et al., J. Chem. Phys. 152 154105 (2020);
          URL http://www.quantum-espresso.org", 
     in publications or presentations arising from this work. More details at
     http://www.quantum-espresso.org/quote

     Parallel version (MPI), running on     4 processors

     MPI processes distributed on     1 nodes
     809 MiB available memory on the printing compute node when the environment starts

     Waiting for input...
     Reading input from standard input

     Current dimensions of program PWSCF are:
     Max number of different atomic species (ntypx) = 10
     Max number of k-points (npk) =  40000
     Max angular momentum in pseudopotentials (lmaxx) =  4
     file Fe.pbe-spn-kjpaw_psl.1.0.0.UPF: wavefunction(s)  3P 3D renormalized
     file Cr.pbe-spn-kjpaw_psl.1.0.0.UPF: wavefunction(s)  3S 3P 3D renormalized
     Message from routine setup:
     using ibrav=0 with symmetry is DISCOURAGED, use correct ibrav instead

     R & G space division:  proc/nbgrp/npool/nimage =       4
     Subspace diagonalization in iterative solution of the eigenvalue problem:
     one sub-group per band group will be used
     custom distributed-memory algorithm (size of sub-group:  2*  2 procs)


     Parallelization info
     --------------------
     sticks:   dense  smooth     PW     G-vecs:    dense   smooth      PW
     Min         833     417    121                36123    12804    2006
     Max         834     418    124                36124    12805    2007
     Sum        3333    1669    489               144493    51219    8025

     Using Slab Decomposition



     bravais-lattice index     =            0
     lattice parameter (alat)  =      10.7825  a.u.
     unit-cell volume          =    1253.5962 (a.u.)^3
     number of atoms/cell      =           16
     number of atomic types    =            2
     number of electrons       =       250.00
     number of Kohn-Sham states=          150
     kinetic-energy cutoff     =      45.0000  Ry
     charge density cutoff     =     360.0000  Ry
     scf convergence threshold =      1.0E-06
     mixing beta               =       0.3000
     number of iterations used =            8  plain     mixing
     Exchange-correlation= SLA  PW   PBX  PBC
                           (   1   4   3   4   0   0   0)

     celldm(1)=  10.782494  celldm(2)=   0.000000  celldm(3)=   0.000000
     celldm(4)=   0.000000  celldm(5)=   0.000000  celldm(6)=   0.000000

     crystal axes: (cart. coord. in units of alat)
               a(1) = (   1.000000   0.000000   0.000000 )  
               a(2) = (   0.000000   1.000000   0.000000 )  
               a(3) = (   0.000000   0.000000   1.000000 )  

     reciprocal axes: (cart. coord. in units 2 pi/alat)
               b(1) = (  1.000000  0.000000  0.000000 )  
               b(2) = (  0.000000  1.000000  0.000000 )  
               b(3) = (  0.000000  0.000000  1.000000 )  


     PseudoPot. # 1 for Fe read from file:
     ./pseudo/Fe.pbe-spn-kjpaw_psl.1.0.0.UPF
     MD5 check sum: fc81f059e5c5069939230b1155715ae8
     Pseudo is Projector augmented-wave + core cor, Zval = 16.0
     Generated using &quot;atomic&quot; code by A. Dal Corso  v.6.3
     Shape of augmentation charge: PSQ
     Using radial grid of 1191 points,  6 beta functions with: 
                l(1) =   0
                l(2) =   0
                l(3) =   1
                l(4) =   1
                l(5) =   2
                l(6) =   2
     Q(r) pseudized with 0 coefficients 


     PseudoPot. # 2 for Cr read from file:
     ./pseudo/Cr.pbe-spn-kjpaw_psl.1.0.0.UPF
     MD5 check sum: 198f1a2427a48552563eee314eba32ba
     Pseudo is Projector augmented-wave + core cor, Zval = 14.0
     Generated using &quot;atomic&quot; code by A. Dal Corso  v.6.3
     Shape of augmentation charge: PSQ
     Using radial grid of 1183 points,  6 beta functions with: 
                l(1) =   0
                l(2) =   0
                l(3) =   1
                l(4) =   1
                l(5) =   2
                l(6) =   2
     Q(r) pseudized with 0 coefficients 


     atomic species   valence    mass     pseudopotential
     Fe               16.00    55.84500     Fe( 1.00)
     Cr               14.00    51.99600     Cr( 1.00)

     Starting magnetic structure 
     atomic species   magnetization
     Fe              0.500
     Cr              0.300

     16 Sym. Ops., with inversion, found



   Cartesian axes

     site n.     atom                  positions (alat units)
         1        Cr     tau(   1) = (   0.0000000   0.0000000   0.0000000  )
         2        Fe     tau(   2) = (   0.2500000   0.2500000   0.2500000  )
         3        Fe     tau(   3) = (   0.0000000   0.0000000   0.5000000  )
         4        Fe     tau(   4) = (   0.2500000   0.2500000   0.7500000  )
         5        Fe     tau(   5) = (   0.0000000   0.5000000   0.0000000  )
         6        Fe     tau(   6) = (   0.2500000   0.7500000   0.2500000  )
         7        Cr     tau(   7) = (   0.0000000   0.5000000   0.5000000  )
         8        Fe     tau(   8) = (   0.2500000   0.7500000   0.7500000  )
         9        Fe     tau(   9) = (   0.5000000   0.0000000   0.0000000  )
        10        Fe     tau(  10) = (   0.7500000   0.2500000   0.2500000  )
        11        Fe     tau(  11) = (   0.5000000   0.0000000   0.5000000  )
        12        Fe     tau(  12) = (   0.7500000   0.2500000   0.7500000  )
        13        Fe     tau(  13) = (   0.5000000   0.5000000   0.0000000  )
        14        Fe     tau(  14) = (   0.7500000   0.7500000   0.2500000  )
        15        Cr     tau(  15) = (   0.5000000   0.5000000   0.5000000  )
        16        Fe     tau(  16) = (   0.7500000   0.7500000   0.7500000  )

     number of k points=    18  Marzari-Vanderbilt smearing, width (Ry)=  0.0200
                       cart. coord. in units 2pi/alat
        k(    1) = (   0.0000000   0.0000000   0.0000000), wk =   0.0156250
        k(    2) = (   0.0000000   0.0000000   0.2500000), wk =   0.0625000
        k(    3) = (   0.0000000   0.0000000  -0.5000000), wk =   0.0312500
        k(    4) = (   0.0000000   0.2500000   0.2500000), wk =   0.0625000
        k(    5) = (   0.0000000   0.2500000  -0.5000000), wk =   0.0625000
        k(    6) = (   0.0000000  -0.5000000  -0.5000000), wk =   0.0156250
        k(    7) = (   0.2500000   0.2500000   0.2500000), wk =   0.1250000
        k(    8) = (   0.2500000   0.2500000  -0.5000000), wk =   0.1250000
        k(    9) = (   0.2500000  -0.5000000  -0.5000000), wk =   0.0312500
        k(   10) = (  -0.5000000  -0.5000000  -0.5000000), wk =   0.0156250
        k(   11) = (   0.2500000   0.0000000   0.0000000), wk =   0.0312500
        k(   12) = (  -0.5000000   0.0000000   0.0000000), wk =   0.0156250
        k(   13) = (   0.2500000   0.2500000   0.0000000), wk =   0.1250000
        k(   14) = (   0.2500000  -0.5000000   0.0000000), wk =   0.0625000
        k(   15) = (  -0.5000000   0.0000000   0.2500000), wk =   0.0625000
        k(   16) = (  -0.5000000  -0.5000000   0.0000000), wk =   0.0312500
        k(   17) = (  -0.5000000   0.2500000   0.2500000), wk =   0.0625000
        k(   18) = (  -0.5000000  -0.5000000   0.2500000), wk =   0.0625000

     Dense  grid:   144493 G-vectors     FFT dimensions: (  72,  72,  72)

     Smooth grid:    51219 G-vectors     FFT dimensions: (  48,  48,  48)

     Estimated max dynamical RAM per process >     293.86 MB

     Estimated total dynamical RAM >       1.15 GB

     Check: negative core charge=   -0.000004
     Generating pointlists ...
     new r_m :   0.1786 (alat units)  1.9259 (a.u.) for type    1
     new r_m :   0.1786 (alat units)  1.9259 (a.u.) for type    2

     Initial potential from superposition of free atoms

     starting charge     249.9920, renormalised to     250.0000
     Starting wfcs are  160 randomized atomic wfcs
     Checking if some PAW data can be deallocated... 

     total cpu time spent up to now is       64.3 secs

     Self-consistent Calculation

     iteration #  1     ecut=    45.00 Ry     beta= 0.30
     Davidson diagonalization with overlap
     ethr =  1.00E-02,  avg # of iterations =  3.0

     total cpu time spent up to now is      296.2 secs

     total energy              =   -5018.11676120 Ry
     estimated scf accuracy    <      12.67346856 Ry

     total magnetization       =    50.01 Bohr mag/cell
     absolute magnetization    =    51.38 Bohr mag/cell

     iteration #  2     ecut=    45.00 Ry     beta= 0.30
     Davidson diagonalization with overlap
     ethr =  5.07E-03,  avg # of iterations =  6.7

     total cpu time spent up to now is      531.3 secs

     total energy              =   -5019.54680974 Ry
     estimated scf accuracy    <      50.53590637 Ry

     total magnetization       =    33.27 Bohr mag/cell
     absolute magnetization    =    34.73 Bohr mag/cell

     iteration #  3     ecut=    45.00 Ry     beta= 0.30
     Davidson diagonalization with overlap
     ethr =  5.07E-03,  avg # of iterations =  3.3

     negative rho (up, down):  0.000E+00 2.297E-04

     total cpu time spent up to now is      734.1 secs

     total energy              =   -5020.67594446 Ry
     estimated scf accuracy    <      12.38193746 Ry

     total magnetization       =    40.64 Bohr mag/cell
     absolute magnetization    =    41.78 Bohr mag/cell

     iteration #  4     ecut=    45.00 Ry     beta= 0.30
     Davidson diagonalization with overlap
     ethr =  4.95E-03,  avg # of iterations =  3.8

     negative rho (up, down):  0.000E+00 5.574E-03

     total cpu time spent up to now is      942.9 secs

     total energy              =   -5022.90349913 Ry
     estimated scf accuracy    <       5.87368047 Ry

     total magnetization       =    45.54 Bohr mag/cell
     absolute magnetization    =    46.55 Bohr mag/cell

     iteration #  5     ecut=    45.00 Ry     beta= 0.30
     Davidson diagonalization with overlap
     ethr =  2.35E-03,  avg # of iterations =  6.9

     negative rho (up, down):  0.000E+00 7.109E-03

     total cpu time spent up to now is     1267.2 secs

     total energy              =   -5025.20120708 Ry
     estimated scf accuracy    <      53.65243921 Ry

     total magnetization       =    45.21 Bohr mag/cell
     absolute magnetization    =    45.91 Bohr mag/cell

     iteration #  6     ecut=    45.00 Ry     beta= 0.30
     Davidson diagonalization with overlap
     ethr =  2.35E-03,  avg # of iterations =  1.8

     negative rho (up, down):  0.000E+00 7.316E-03

     total cpu time spent up to now is     1449.1 secs

     total energy              =   -5024.67644141 Ry
     estimated scf accuracy    <      37.89163188 Ry

     total magnetization       =    42.32 Bohr mag/cell
     absolute magnetization    =    43.26 Bohr mag/cell

     iteration #  7     ecut=    45.00 Ry     beta= 0.30
     Davidson diagonalization with overlap
     ethr =  2.35E-03,  avg # of iterations =  1.1

     negative rho (up, down):  0.000E+00 7.239E-03

     total cpu time spent up to now is     1615.8 secs

     total energy              =   -5024.25909740 Ry
     estimated scf accuracy    <      21.91007345 Ry

     total magnetization       =    39.40 Bohr mag/cell
     absolute magnetization    =    40.61 Bohr mag/cell

     iteration #  8     ecut=    45.00 Ry     beta= 0.30
     Davidson diagonalization with overlap
     ethr =  2.35E-03,  avg # of iterations =  1.2

     negative rho (up, down):  0.000E+00 7.053E-03

     total cpu time spent up to now is     1785.8 secs

     total energy              =   -5023.93241086 Ry
     estimated scf accuracy    <       9.35046819 Ry

     total magnetization       =    35.50 Bohr mag/cell
     absolute magnetization    =    37.19 Bohr mag/cell

     iteration #  9     ecut=    45.00 Ry     beta= 0.30
     Davidson diagonalization with overlap
     ethr =  2.35E-03,  avg # of iterations =  1.4

     negative rho (up, down):  0.000E+00 6.970E-03

     total cpu time spent up to now is     1956.6 secs

     total energy              =   -5024.16181475 Ry
     estimated scf accuracy    <       2.00244463 Ry

     total magnetization       =    30.08 Bohr mag/cell
     absolute magnetization    =    32.77 Bohr mag/cell

     iteration # 10     ecut=    45.00 Ry     beta= 0.30
     Davidson diagonalization with overlap
     ethr =  8.01E-04,  avg # of iterations =  2.2

     negative rho (up, down):  0.000E+00 5.841E-03

     total cpu time spent up to now is     2141.5 secs

     total energy              =   -5024.13215221 Ry
     estimated scf accuracy    <       1.01938981 Ry

     total magnetization       =    29.85 Bohr mag/cell
     absolute magnetization    =    32.46 Bohr mag/cell

     iteration # 11     ecut=    45.00 Ry     beta= 0.30
     Davidson diagonalization with overlap
     ethr =  4.08E-04,  avg # of iterations =  3.6

     negative rho (up, down):  0.000E+00 5.002E-03

     total cpu time spent up to now is     2330.5 secs

     total energy              =   -5024.19961640 Ry
     estimated scf accuracy    <       0.07894731 Ry

     total magnetization       =    27.48 Bohr mag/cell
     absolute magnetization    =    30.46 Bohr mag/cell

     iteration # 12     ecut=    45.00 Ry     beta= 0.30
     Davidson diagonalization with overlap
     ethr =  3.16E-05,  avg # of iterations =  7.3

     negative rho (up, down):  0.000E+00 4.591E-03

     total cpu time spent up to now is     2607.6 secs

     total energy              =   -5024.20914149 Ry
     estimated scf accuracy    <       0.86718137 Ry

     total magnetization       =    26.97 Bohr mag/cell
     absolute magnetization    =    30.25 Bohr mag/cell

     iteration # 13     ecut=    45.00 Ry     beta= 0.30
     Davidson diagonalization with overlap
     ethr =  3.16E-05,  avg # of iterations =  4.9

     negative rho (up, down):  0.000E+00 3.620E-03

     total cpu time spent up to now is     2813.0 secs

     total energy              =   -5024.22517443 Ry
     estimated scf accuracy    <       0.26874895 Ry

     total magnetization       =    26.71 Bohr mag/cell
     absolute magnetization    =    29.83 Bohr mag/cell

     iteration # 14     ecut=    45.00 Ry     beta= 0.30
     Davidson diagonalization with overlap
     ethr =  3.16E-05,  avg # of iterations =  2.6

     negative rho (up, down):  0.000E+00 2.847E-03

     total cpu time spent up to now is     3000.8 secs

     total energy              =   -5024.23391118 Ry
     estimated scf accuracy    <       0.07727205 Ry

     total magnetization       =    26.63 Bohr mag/cell
     absolute magnetization    =    29.93 Bohr mag/cell

     iteration # 15     ecut=    45.00 Ry     beta= 0.30
     Davidson diagonalization with overlap
     ethr =  3.09E-05,  avg # of iterations =  2.7

     negative rho (up, down):  0.000E+00 2.525E-03

     total cpu time spent up to now is     3187.0 secs

     total energy              =   -5024.23926991 Ry
     estimated scf accuracy    <       0.04389508 Ry

     total magnetization       =    26.47 Bohr mag/cell
     absolute magnetization    =    30.00 Bohr mag/cell

     iteration # 16     ecut=    45.00 Ry     beta= 0.30
     Davidson diagonalization with overlap
     ethr =  1.76E-05,  avg # of iterations =  2.4

     negative rho (up, down):  0.000E+00 1.934E-03

     total cpu time spent up to now is     3369.9 secs

     total energy              =   -5024.24528313 Ry
     estimated scf accuracy    <       0.01322456 Ry

     total magnetization       =    26.36 Bohr mag/cell
     absolute magnetization    =    30.23 Bohr mag/cell

     iteration # 17     ecut=    45.00 Ry     beta= 0.30
     Davidson diagonalization with overlap
     ethr =  5.29E-06,  avg # of iterations =  6.6

     negative rho (up, down):  0.000E+00 2.118E-03

     total cpu time spent up to now is     3612.9 secs

     total energy              =   -5024.25015854 Ry
     estimated scf accuracy    <       0.01559625 Ry

     total magnetization       =    25.86 Bohr mag/cell
     absolute magnetization    =    30.69 Bohr mag/cell

     iteration # 18     ecut=    45.00 Ry     beta= 0.30
     Davidson diagonalization with overlap
     ethr =  5.29E-06,  avg # of iterations =  2.0

     negative rho (up, down):  0.000E+00 2.025E-03

     total cpu time spent up to now is     3792.6 secs

     total energy              =   -5024.25287909 Ry
     estimated scf accuracy    <       0.00791992 Ry

     total magnetization       =    25.65 Bohr mag/cell
     absolute magnetization    =    30.70 Bohr mag/cell

     iteration # 19     ecut=    45.00 Ry     beta= 0.30
     Davidson diagonalization with overlap
     ethr =  3.17E-06,  avg # of iterations =  4.0

     negative rho (up, down):  0.000E+00 2.348E-03

     total cpu time spent up to now is     3994.5 secs

     total energy              =   -5024.25559145 Ry
     estimated scf accuracy    <       0.00259514 Ry

     total magnetization       =    25.43 Bohr mag/cell
     absolute magnetization    =    31.09 Bohr mag/cell

     iteration # 20     ecut=    45.00 Ry     beta= 0.30
     Davidson diagonalization with overlap
     ethr =  1.04E-06,  avg # of iterations =  6.6

     negative rho (up, down):  0.000E+00 2.296E-03

     total cpu time spent up to now is     4254.4 secs

     total energy              =   -5024.25798215 Ry
     estimated scf accuracy    <       0.00452564 Ry

     total magnetization       =    25.18 Bohr mag/cell
     absolute magnetization    =    31.74 Bohr mag/cell

     iteration # 21     ecut=    45.00 Ry     beta= 0.30
     Davidson diagonalization with overlap
     ethr =  1.04E-06,  avg # of iterations =  3.0

     negative rho (up, down):  0.000E+00 2.449E-03

     total cpu time spent up to now is     4450.5 secs

     total energy              =   -5024.25910365 Ry
     estimated scf accuracy    <       0.00234333 Ry

     total magnetization       =    25.08 Bohr mag/cell
     absolute magnetization    =    31.89 Bohr mag/cell

     iteration # 22     ecut=    45.00 Ry     beta= 0.30
     Davidson diagonalization with overlap
     ethr =  9.37E-07,  avg # of iterations =  4.8

     negative rho (up, down):  0.000E+00 2.517E-03

     total cpu time spent up to now is     4663.9 secs

     total energy              =   -5024.26022390 Ry
     estimated scf accuracy    <       0.00118797 Ry

     total magnetization       =    24.94 Bohr mag/cell
     absolute magnetization    =    32.31 Bohr mag/cell

     iteration # 23     ecut=    45.00 Ry     beta= 0.30
     Davidson diagonalization with overlap
     ethr =  4.75E-07,  avg # of iterations =  6.1

     negative rho (up, down):  0.000E+00 2.614E-03

     total cpu time spent up to now is     4932.1 secs

     total energy              =   -5024.26196489 Ry
     estimated scf accuracy    <       0.00166980 Ry

     total magnetization       =    24.76 Bohr mag/cell
     absolute magnetization    =    32.94 Bohr mag/cell

     iteration # 24     ecut=    45.00 Ry     beta= 0.30
     Davidson diagonalization with overlap
     ethr =  4.75E-07,  avg # of iterations =  4.8

     negative rho (up, down):  0.000E+00 2.564E-03

     total cpu time spent up to now is     5147.2 secs

     total energy              =   -5024.26225094 Ry
     estimated scf accuracy    <       0.00253233 Ry

     total magnetization       =    24.62 Bohr mag/cell
     absolute magnetization    =    33.28 Bohr mag/cell

     iteration # 25     ecut=    45.00 Ry     beta= 0.30
     Davidson diagonalization with overlap
     ethr =  4.75E-07,  avg # of iterations =  5.6

     negative rho (up, down):  0.000E+00 2.597E-03

     total cpu time spent up to now is     5408.8 secs

     total energy              =   -5024.26313690 Ry
     estimated scf accuracy    <       0.00442300 Ry

     total magnetization       =    24.41 Bohr mag/cell
     absolute magnetization    =    33.66 Bohr mag/cell

     iteration # 26     ecut=    45.00 Ry     beta= 0.30
     Davidson diagonalization with overlap
     ethr =  4.75E-07,  avg # of iterations =  4.2

     negative rho (up, down):  0.000E+00 2.575E-03

     total cpu time spent up to now is     5612.6 secs

     total energy              =   -5024.26366667 Ry
     estimated scf accuracy    <       0.00029039 Ry

     total magnetization       =    24.38 Bohr mag/cell
     absolute magnetization    =    33.91 Bohr mag/cell

     iteration # 27     ecut=    45.00 Ry     beta= 0.30
     Davidson diagonalization with overlap
     ethr =  1.16E-07,  avg # of iterations =  5.0

     negative rho (up, down):  0.000E+00 2.559E-03

     total cpu time spent up to now is     5827.9 secs

     total energy              =   -5024.26375096 Ry
     estimated scf accuracy    <       0.00062399 Ry

     total magnetization       =    24.37 Bohr mag/cell
     absolute magnetization    =    33.97 Bohr mag/cell

     iteration # 28     ecut=    45.00 Ry     beta= 0.30
     Davidson diagonalization with overlap
     ethr =  1.16E-07,  avg # of iterations =  3.9

     negative rho (up, down):  0.000E+00 2.535E-03

     total cpu time spent up to now is     6032.9 secs

     total energy              =   -5024.26386430 Ry
     estimated scf accuracy    <       0.00046876 Ry

     total magnetization       =    24.32 Bohr mag/cell
     absolute magnetization    =    34.07 Bohr mag/cell

     iteration # 29     ecut=    45.00 Ry     beta= 0.30
     Davidson diagonalization with overlap
     ethr =  1.16E-07,  avg # of iterations =  3.6

     negative rho (up, down):  0.000E+00 2.521E-03

     total cpu time spent up to now is     6239.8 secs

     total energy              =   -5024.26395997 Ry
     estimated scf accuracy    <       0.00025382 Ry

     total magnetization       =    24.30 Bohr mag/cell
     absolute magnetization    =    34.15 Bohr mag/cell

     iteration # 30     ecut=    45.00 Ry     beta= 0.30
     Davidson diagonalization with overlap
     ethr =  1.02E-07,  avg # of iterations =  4.1

     negative rho (up, down):  0.000E+00 2.574E-03

     total cpu time spent up to now is     6450.1 secs

     total energy              =   -5024.26393576 Ry
     estimated scf accuracy    <       0.00005170 Ry

     total magnetization       =    24.25 Bohr mag/cell
     absolute magnetization    =    34.23 Bohr mag/cell

     iteration # 31     ecut=    45.00 Ry     beta= 0.30
     Davidson diagonalization with overlap
     ethr =  2.07E-08,  avg # of iterations =  6.9

     negative rho (up, down):  0.000E+00 2.587E-03

     total cpu time spent up to now is     6768.7 secs

     total energy              =   -5024.26412753 Ry
     estimated scf accuracy    <       0.00002714 Ry

     total magnetization       =    24.18 Bohr mag/cell
     absolute magnetization    =    34.38 Bohr mag/cell

     iteration # 32     ecut=    45.00 Ry     beta= 0.30
     Davidson diagonalization with overlap
     ethr =  1.09E-08,  avg # of iterations =  3.0

     negative rho (up, down):  0.000E+00 2.603E-03

     total cpu time spent up to now is     6958.5 secs

     total energy              =   -5024.26413081 Ry
     estimated scf accuracy    <       0.00001639 Ry

     total magnetization       =    24.18 Bohr mag/cell
     absolute magnetization    =    34.38 Bohr mag/cell

     iteration # 33     ecut=    45.00 Ry     beta= 0.30
     Davidson diagonalization with overlap
     ethr =  6.55E-09,  avg # of iterations =  4.2

     negative rho (up, down):  0.000E+00 2.601E-03

     total cpu time spent up to now is     7167.3 secs

     total energy              =   -5024.26413667 Ry
     estimated scf accuracy    <       0.00001055 Ry

     total magnetization       =    24.17 Bohr mag/cell
     absolute magnetization    =    34.40 Bohr mag/cell

     iteration # 34     ecut=    45.00 Ry     beta= 0.30
     Davidson diagonalization with overlap
     ethr =  4.22E-09,  avg # of iterations =  2.5

     negative rho (up, down):  0.000E+00 2.604E-03

     total cpu time spent up to now is     7355.0 secs

     total energy              =   -5024.26413904 Ry
     estimated scf accuracy    <       0.00001071 Ry

     total magnetization       =    24.17 Bohr mag/cell
     absolute magnetization    =    34.40 Bohr mag/cell

     iteration # 35     ecut=    45.00 Ry     beta= 0.30
     Davidson diagonalization with overlap
     ethr =  4.22E-09,  avg # of iterations =  3.0

     negative rho (up, down):  0.000E+00 2.611E-03

     total cpu time spent up to now is     7535.0 secs

     total energy              =   -5024.26414275 Ry
     estimated scf accuracy    <       0.00000722 Ry

     total magnetization       =    24.17 Bohr mag/cell
     absolute magnetization    =    34.39 Bohr mag/cell

     iteration # 36     ecut=    45.00 Ry     beta= 0.30
     Davidson diagonalization with overlap
     ethr =  2.89E-09,  avg # of iterations =  5.1

     negative rho (up, down):  0.000E+00 2.607E-03

     total cpu time spent up to now is     7751.5 secs

     total energy              =   -5024.26414594 Ry
     estimated scf accuracy    <       0.00000642 Ry

     total magnetization       =    24.18 Bohr mag/cell
     absolute magnetization    =    34.39 Bohr mag/cell

     iteration # 37     ecut=    45.00 Ry     beta= 0.30
     Davidson diagonalization with overlap
     ethr =  2.57E-09,  avg # of iterations =  5.0

     negative rho (up, down):  0.000E+00 2.606E-03

     total cpu time spent up to now is     7974.7 secs

     total energy              =   -5024.26414708 Ry
     estimated scf accuracy    <       0.00000534 Ry

     total magnetization       =    24.18 Bohr mag/cell
     absolute magnetization    =    34.39 Bohr mag/cell

     iteration # 38     ecut=    45.00 Ry     beta= 0.30
     Davidson diagonalization with overlap
     ethr =  2.14E-09,  avg # of iterations =  3.8

     negative rho (up, down):  0.000E+00 2.609E-03

     total cpu time spent up to now is     8176.8 secs

     total energy              =   -5024.26414771 Ry
     estimated scf accuracy    <       0.00001363 Ry

     total magnetization       =    24.18 Bohr mag/cell
     absolute magnetization    =    34.39 Bohr mag/cell

     iteration # 39     ecut=    45.00 Ry     beta= 0.30
     Davidson diagonalization with overlap
     ethr =  2.14E-09,  avg # of iterations =  3.6

     negative rho (up, down):  0.000E+00 2.599E-03

     total cpu time spent up to now is     8375.5 secs

     total energy              =   -5024.26414898 Ry
     estimated scf accuracy    <       0.00000908 Ry

     total magnetization       =    24.18 Bohr mag/cell
     absolute magnetization    =    34.39 Bohr mag/cell

     iteration # 40     ecut=    45.00 Ry     beta= 0.30
     Davidson diagonalization with overlap
     ethr =  2.14E-09,  avg # of iterations =  4.3

     negative rho (up, down):  0.000E+00 2.594E-03

     Magnetic moment per site  (integrated on atomic sphere of radius R)
     atom   1 (R=0.179)  charge= 12.1163  magn= -1.5253
     atom   2 (R=0.179)  charge= 14.4397  magn=  2.1356
     atom   3 (R=0.179)  charge= 14.4234  magn=  2.3035
     atom   4 (R=0.179)  charge= 14.4397  magn=  2.1356
     atom   5 (R=0.179)  charge= 14.4234  magn=  2.3035
     atom   6 (R=0.179)  charge= 14.4397  magn=  2.1356
     atom   7 (R=0.179)  charge= 12.1280  magn= -1.0604
     atom   8 (R=0.179)  charge= 14.4397  magn=  2.1356
     atom   9 (R=0.179)  charge= 14.4192  magn=  2.5104
     atom  10 (R=0.179)  charge= 14.4397  magn=  2.1356
     atom  11 (R=0.179)  charge= 14.4143  magn=  2.4207
     atom  12 (R=0.179)  charge= 14.4397  magn=  2.1356
     atom  13 (R=0.179)  charge= 14.4143  magn=  2.4207
     atom  14 (R=0.179)  charge= 14.4397  magn=  2.1356
     atom  15 (R=0.179)  charge= 12.1266  magn= -1.3510
     atom  16 (R=0.179)  charge= 14.4397  magn=  2.1356

     total cpu time spent up to now is     8581.8 secs

     End of self-consistent calculation

 ------ SPIN UP ------------


          k = 0.0000 0.0000 0.0000 (  6403 PWs)   bands (ev):

   -70.0456 -70.0016 -69.9993 -69.9925 -69.9925 -69.9925 -69.9875 -69.9874
   -69.9874 -69.9831 -69.9777 -69.9554 -69.9341 -52.9785 -52.9101 -52.8672
   -36.1795 -36.1795 -36.1744 -36.1676 -36.1676 -36.1647 -36.1184 -36.0929
   -36.0929 -36.0888 -36.0888 -36.0884 -36.0792 -36.0502 -36.0280 -36.0280
   -36.0134 -35.9936 -35.9924 -35.9868 -35.9868 -35.9755 -35.9637 -35.9637
   -35.9570 -35.9442 -35.9430 -35.9430 -35.9348 -35.9348 -35.9318 -35.9158
   -35.9057 -35.8447 -35.8447 -35.8337 -35.7960 -35.7960 -35.7742 -24.3927
   -24.2971 -24.2971 -24.2429 -24.2429 -24.2162 -24.2098 -24.2021 -24.2021
     9.8453  13.3693  13.3761  13.3761  13.4096  13.4199  13.4644  13.4760
    13.5139  13.5440  13.5440  13.5534  13.6333  13.7377  13.8493  14.8551
    14.9098  14.9098  14.9830  14.9830  14.9956  15.0630  15.0668  15.0668
    15.1144  15.1176  15.1176  15.2284  15.2284  15.2969  15.3782  15.5753
    15.8400  16.0982  16.0982  16.1239  16.2512  16.2730  16.2730  16.2842
    16.3236  16.3236  16.3318  16.5526  16.5526  16.9176  16.9191  16.9191
    17.0327  17.0760  17.0784  17.0996  17.1039  17.1578  17.2287  17.2336
    17.2400  17.2400  17.2459  17.2508  17.4161  17.4161  17.4530  17.4665
    17.5719  17.9891  18.3247  18.3247  18.3295  18.3658  18.3658  18.4663
    18.4663  18.4718  18.5201  18.5345  18.6558  18.6558  18.7381  18.7381
    18.8860  19.1397  19.1715  19.3157  19.3635  19.3635

          k = 0.0000 0.0000 0.2500 (  6383 PWs)   bands (ev):

   -70.0419 -70.0124 -70.0010 -69.9918 -69.9918 -69.9883 -69.9883 -69.9868
   -69.9847 -69.9834 -69.9775 -69.9520 -69.9366 -52.9785 -52.9101 -52.8672
   -36.1763 -36.1728 -36.1712 -36.1619 -36.1603 -36.1533 -36.1239 -36.0967
   -36.0917 -36.0916 -36.0790 -36.0749 -36.0733 -36.0604 -36.0586 -36.0459
   -36.0415 -36.0367 -36.0292 -35.9897 -35.9735 -35.9581 -35.9546 -35.9545
   -35.9496 -35.9341 -35.9331 -35.9283 -35.9164 -35.9147 -35.9045 -35.8841
   -35.8838 -35.8548 -35.8539 -35.8412 -35.8138 -35.8073 -35.7878 -24.3925
   -24.2971 -24.2969 -24.2423 -24.2423 -24.2153 -24.2104 -24.2024 -24.2022
    10.1639  12.3843  13.4444  13.4502  13.5048  13.5226  13.5997  13.6255
    13.6341  13.6436  13.6473  13.6491  13.8150  13.8301  14.1132  14.6094
    14.7402  14.8390  14.8700  14.8795  14.9081  14.9857  15.1059  15.1180
    15.1227  15.1452  15.2078  15.2133  15.3985  15.5551  15.5873  15.5916
    15.9321  15.9911  16.0183  16.0790  16.1196  16.1496  16.1805  16.1829
    16.2168  16.3508  16.5508  16.5615  16.5637  16.6140  16.6424  16.7681
    16.7992  16.8230  16.8584  17.0043  17.1175  17.1229  17.1583  17.1655
    17.2447  17.2570  17.2622  17.2809  17.3337  17.3617  17.5009  17.5553
    17.6130  17.7019  17.7395  17.9351  18.1793  18.2240  18.2701  18.2904
    18.2985  18.3979  18.4758  18.6095  18.6744  18.7209  18.7607  19.0364
    19.0845  19.2683  19.3089  19.3341  19.5729  19.8188

          k = 0.0000 0.0000-0.5000 (  6432 PWs)   bands (ev):

   -70.0352 -70.0237 -70.0010 -69.9901 -69.9901 -69.9900 -69.9900 -69.9853
   -69.9853 -69.9815 -69.9774 -69.9446 -69.9430 -52.9786 -52.9102 -52.8673
   -36.1712 -36.1583 -36.1499 -36.1483 -36.1431 -36.1370 -36.1298 -36.1147
   -36.1121 -36.1047 -36.0973 -36.0910 -36.0833 -36.0691 -36.0689 -36.0623
   -36.0587 -36.0573 -36.0425 -36.0065 -35.9706 -35.9564 -35.9562 -35.9555
   -35.9520 -35.9245 -35.9244 -35.9144 -35.9105 -35.8877 -35.8820 -35.8752
   -35.8668 -35.8613 -35.8449 -35.8409 -35.8384 -35.8267 -35.8260 -24.3935
   -24.2977 -24.2975 -24.2431 -24.2426 -24.2147 -24.2127 -24.2034 -24.2031
    11.0356  11.1115  13.6046  13.6133  13.6302  13.6366  13.6497  13.6895
    13.7630  13.7983  13.9056  13.9776  13.9909  14.1214  14.1421  14.1436
    14.1983  14.2352  14.8374  14.8472  14.8950  14.9622  15.3434  15.4249
    15.4335  15.4784  15.5341  15.5578  15.5703  15.5730  15.5956  15.5981
    15.6053  15.6202  15.6897  15.9864  15.9991  16.0080  16.0181  16.0463
    16.1444  16.1760  16.3231  16.3268  16.3322  16.3847  16.4633  16.5137
    16.5639  16.6743  16.8475  16.9558  16.9916  16.9978  17.0269  17.0386
    17.2389  17.2391  17.2479  17.2636  17.3754  17.5306  17.5657  17.6188
    17.6404  17.6445  17.9351  17.9657  17.9733  17.9859  18.0306  18.0598
    18.2708  18.4074  18.5122  18.5258  18.8516  18.8565  19.0167  19.1630
    19.1791  19.2144  19.2196  19.3059  19.6522  19.6734

          k = 0.0000 0.2500 0.2500 (  6408 PWs)   bands (ev):

   -70.0384 -70.0142 -70.0090 -69.9911 -69.9904 -69.9876 -69.9876 -69.9851
   -69.9842 -69.9834 -69.9774 -69.9497 -69.9387 -52.9786 -52.9101 -52.8672
   -36.1788 -36.1699 -36.1644 -36.1502 -36.1449 -36.1435 -36.1303 -36.1036
   -36.1019 -36.0945 -36.0903 -36.0824 -36.0754 -36.0705 -36.0620 -36.0510
   -36.0470 -36.0309 -36.0081 -35.9987 -35.9897 -35.9856 -35.9612 -35.9538
   -35.9465 -35.9355 -35.9295 -35.9214 -35.9188 -35.9093 -35.8951 -35.8730
   -35.8674 -35.8642 -35.8453 -35.8433 -35.8421 -35.8000 -35.7965 -24.3928
   -24.2975 -24.2974 -24.2429 -24.2427 -24.2147 -24.2115 -24.2032 -24.2025
    10.4741  12.4951  12.6819  13.2956  13.6729  13.6874  13.6883  13.7040
    13.7510  13.7765  13.7839  13.8119  13.9302  14.1300  14.2146  14.6416
    14.7062  14.7149  14.7247  14.9329  14.9490  14.9554  14.9965  15.0922
    15.1659  15.1804  15.2771  15.2992  15.3502  15.4145  15.4996  15.6854
    15.7014  15.8913  15.9056  15.9610  16.0055  16.0123  16.1025  16.1923
    16.3175  16.3759  16.4194  16.4625  16.5216  16.5608  16.5704  16.5789
    16.6452  16.7038  16.7701  16.8357  16.9387  16.9694  16.9840  17.0915
    17.1692  17.2070  17.2692  17.2816  17.3540  17.3540  17.3865  17.4044
    17.5852  17.6019  17.7834  17.8075  17.8527  17.8784  17.9059  18.1115
    18.3988  18.4067  18.6326  18.6445  18.7428  18.8442  18.8761  19.0153
    19.1533  19.2707  19.5806  19.6904  19.9099  19.9891

          k = 0.0000 0.2500-0.5000 (  6380 PWs)   bands (ev):

   -70.0318 -70.0230 -70.0101 -69.9913 -69.9893 -69.9893 -69.9858 -69.9858
   -69.9839 -69.9810 -69.9770 -69.9443 -69.9435 -52.9785 -52.9101 -52.8672
   -36.1666 -36.1646 -36.1592 -36.1502 -36.1399 -36.1224 -36.1108 -36.1068
   -36.1066 -36.0999 -36.0936 -36.0919 -36.0757 -36.0707 -36.0687 -36.0555
   -36.0446 -36.0402 -36.0282 -36.0040 -35.9863 -35.9839 -35.9732 -35.9564
   -35.9291 -35.9289 -35.9216 -35.9154 -35.9071 -35.8979 -35.8972 -35.8786
   -35.8696 -35.8690 -35.8611 -35.8202 -35.8200 -35.8123 -35.8111 -24.3926
   -24.2972 -24.2971 -24.2426 -24.2423 -24.2142 -24.2120 -24.2026 -24.2024
    11.3120  11.3866  12.9702  13.0489  13.8403  13.8672  13.8699  13.9499
    13.9549  13.9714  14.0384  14.1319  14.1490  14.2350  14.2390  14.2451
    14.3013  14.3111  14.9168  14.9306  14.9508  15.0373  15.1432  15.1544
    15.2405  15.2559  15.2812  15.3085  15.3735  15.3956  15.6719  15.7101
    15.7644  15.7731  15.8263  15.8317  15.8598  15.8781  15.8797  15.9105
    15.9206  15.9735  15.9761  16.0812  16.2342  16.3622  16.6558  16.6890
    16.7697  16.7971  16.8322  16.9048  16.9579  16.9708  16.9914  17.0912
    17.0969  17.1696  17.1836  17.1914  17.2062  17.3409  17.3793  17.3964
    17.4210  17.4831  17.6548  17.7165  17.7660  17.8763  18.0710  18.2488
    18.2572  18.3949  18.5759  18.6823  18.8117  18.8439  18.9117  19.0820
    19.3543  19.3781  19.6373  19.7475  19.9314  19.9367

          k = 0.0000-0.5000-0.5000 (  6416 PWs)   bands (ev):

   -70.0229 -70.0224 -70.0224 -69.9926 -69.9876 -69.9875 -69.9875 -69.9875
   -69.9807 -69.9807 -69.9765 -69.9442 -69.9442 -52.9786 -52.9101 -52.8673
   -36.1745 -36.1647 -36.1631 -36.1537 -36.1416 -36.1242 -36.1242 -36.1047
   -36.1047 -36.0828 -36.0828 -36.0818 -36.0799 -36.0799 -36.0697 -36.0649
   -36.0382 -36.0142 -36.0077 -36.0077 -35.9993 -35.9976 -35.9922 -35.9616
   -35.9498 -35.9498 -35.9348 -35.9346 -35.9042 -35.8914 -35.8914 -35.8793
   -35.8793 -35.8655 -35.8622 -35.8145 -35.8145 -35.8032 -35.8030 -24.3922
   -24.2979 -24.2979 -24.2429 -24.2429 -24.2154 -24.2124 -24.2028 -24.2028
    11.9964  11.9964  12.1142  12.2860  13.9988  13.9988  14.1215  14.1826
    14.1826  14.2027  14.2133  14.2981  14.3533  14.3969  14.3969  14.4788
    14.4996  14.4996  14.6273  14.8266  14.8529  14.8653  14.8875  14.8875
    15.1236  15.1635  15.1635  15.2363  15.3845  15.3890  15.4952  15.4952
    15.5149  15.5766  15.5794  15.5794  15.7240  15.7240  15.7259  15.7259
    15.8102  16.0427  16.1873  16.1931  16.1951  16.3606  16.5297  16.5297
    16.7664  16.7664  16.9002  16.9002  17.0040  17.0040  17.0256  17.0304
    17.0316  17.0400  17.0886  17.0886  17.1043  17.2210  17.3247  17.3247
    17.4773  17.4863  17.4880  17.4880  17.7034  17.8458  17.8458  18.3745
    18.3786  18.3796  18.4677  18.6748  18.7036  18.7036  18.8597  19.0218
    19.4812  19.7509  19.9165  19.9165  20.4405  20.4477

          k = 0.2500 0.2500 0.2500 (  6388 PWs)   bands (ev):

   -70.0360 -70.0126 -70.0086 -69.9997 -69.9924 -69.9899 -69.9884 -69.9857
   -69.9834 -69.9801 -69.9700 -69.9496 -69.9399 -52.9781 -52.9106 -52.8672
   -36.1698 -36.1633 -36.1594 -36.1477 -36.1467 -36.1292 -36.1235 -36.1057
   -36.1004 -36.0921 -36.0910 -36.0857 -36.0742 -36.0709 -36.0634 -36.0519
   -36.0369 -36.0319 -36.0234 -36.0115 -35.9982 -35.9858 -35.9768 -35.9580
   -35.9510 -35.9356 -35.9267 -35.9091 -35.9000 -35.8982 -35.8959 -35.8863
   -35.8718 -35.8601 -35.8382 -35.8317 -35.8290 -35.8139 -35.8041 -24.3728
   -24.2967 -24.2967 -24.2431 -24.2430 -24.2343 -24.2119 -24.2027 -24.2026
    10.7780  12.7164  12.7889  12.9117  13.5162  13.5507  13.5848  13.8618
    13.8790  13.9403  13.9594  13.9921  14.2918  14.3326  14.3356  14.6138
    14.6239  14.6632  14.7373  14.9362  14.9467  14.9993  15.0320  15.0810
    15.1355  15.2294  15.2544  15.2767  15.2844  15.3575  15.4253  15.6397
    15.6402  15.6474  15.7997  15.8285  15.8416  15.8627  15.9681  16.0167
    16.0301  16.1391  16.2046  16.2208  16.2376  16.2900  16.4650  16.6587
    16.6941  16.7227  16.7887  16.9594  17.0045  17.0409  17.0608  17.0719
    17.0781  17.1494  17.1652  17.2120  17.3003  17.3142  17.3254  17.3940
    17.4325  17.5293  17.6572  17.7645  17.9378  17.9813  18.1102  18.2157
    18.3727  18.5232  18.7061  18.7069  18.8112  18.8437  19.0211  19.1329
    19.1545  19.1594  19.3832  19.4763  19.7828  19.7921

          k = 0.2500 0.2500-0.5000 (  6364 PWs)   bands (ev):

   -70.0301 -70.0208 -70.0094 -69.9961 -69.9961 -69.9905 -69.9877 -69.9870
   -69.9820 -69.9757 -69.9720 -69.9446 -69.9442 -52.9780 -52.9106 -52.8672
   -36.1648 -36.1602 -36.1489 -36.1441 -36.1332 -36.1228 -36.1178 -36.1072
   -36.1034 -36.0953 -36.0892 -36.0766 -36.0752 -36.0704 -36.0704 -36.0568
   -36.0530 -36.0445 -36.0186 -36.0076 -36.0059 -35.9938 -35.9937 -35.9621
   -35.9322 -35.9315 -35.9206 -35.9119 -35.8980 -35.8951 -35.8887 -35.8758
   -35.8708 -35.8549 -35.8530 -35.8212 -35.8171 -35.8156 -35.8140 -24.3726
   -24.2966 -24.2965 -24.2428 -24.2428 -24.2342 -24.2118 -24.2025 -24.2023
    11.5885  11.6652  13.1857  13.2819  13.2870  13.3094  14.1240  14.1489
    14.1559  14.1790  14.2142  14.2219  14.2418  14.2861  14.2869  14.4002
    14.4033  14.4573  14.9398  14.9827  14.9980  15.0053  15.0666  15.1476
    15.1528  15.1653  15.2118  15.3083  15.3358  15.3543  15.5253  15.5382
    15.5444  15.5704  15.5708  15.6286  15.6735  15.6773  15.6933  15.7260
    15.7929  15.8784  15.9063  15.9222  15.9804  15.9951  16.4724  16.4937
    16.8587  16.9046  16.9315  16.9344  16.9473  16.9931  17.0005  17.0405
    17.1302  17.1341  17.1728  17.2765  17.2840  17.3039  17.3597  17.4093
    17.4605  17.6221  17.6968  17.8028  17.8087  17.9319  17.9729  18.1214
    18.3998  18.5268  18.5813  18.7917  18.9068  18.9326  19.0417  19.0774
    19.1996  19.2374  19.4242  19.4752  19.5175  19.6538

          k = 0.2500-0.5000-0.5000 (  6360 PWs)   bands (ev):

   -70.0224 -70.0201 -70.0201 -69.9950 -69.9950 -69.9918 -69.9888 -69.9883
   -69.9755 -69.9751 -69.9751 -69.9444 -69.9444 -52.9780 -52.9106 -52.8672
   -36.1615 -36.1611 -36.1471 -36.1382 -36.1238 -36.1186 -36.1186 -36.0994
   -36.0994 -36.0873 -36.0812 -36.0812 -36.0681 -36.0669 -36.0669 -36.0628
   -36.0587 -36.0331 -36.0324 -36.0313 -36.0167 -36.0167 -35.9784 -35.9576
   -35.9576 -35.9386 -35.8996 -35.8980 -35.8946 -35.8889 -35.8889 -35.8736
   -35.8700 -35.8639 -35.8639 -35.8222 -35.8222 -35.8095 -35.8085 -24.3727
   -24.2964 -24.2964 -24.2428 -24.2428 -24.2345 -24.2122 -24.2023 -24.2023
    12.2755  12.2755  12.3926  12.5676  13.8200  13.8200  13.8674  13.9721
    14.2040  14.2040  14.3261  14.5069  14.5532  14.5532  14.6489  14.6490
    14.6553  14.6553  14.7139  14.8323  14.8323  14.8584  14.8900  14.8910
    15.1390  15.1518  15.1518  15.2512  15.2593  15.2593  15.3363  15.3456
    15.3535  15.3665  15.4368  15.4368  15.5033  15.5033  15.5466  15.6530
    15.6530  15.6751  15.6983  15.8698  15.9872  15.9932  16.0634  16.0634
    16.9720  16.9720  17.0383  17.0383  17.0618  17.0806  17.1170  17.1170
    17.1258  17.1811  17.2378  17.2378  17.3062  17.3062  17.3590  17.4076
    17.5066  17.5237  17.5237  17.8824  17.9281  17.9281  17.9805  18.0405
    18.0613  18.5542  18.7345  18.8456  18.8456  18.8908  18.9769  19.0271
    19.2322  19.5253  19.5260  19.5260  19.7214  19.9268

          k =-0.5000-0.5000-0.5000 (  6272 PWs)   bands (ev):

   -70.0217 -70.0168 -70.0168 -70.0005 -70.0005 -69.9899 -69.9899 -69.9899
   -69.9747 -69.9720 -69.9720 -69.9446 -69.9446 -52.9774 -52.9109 -52.8671
   -36.1529 -36.1365 -36.1204 -36.1162 -36.1162 -36.1121 -36.1022 -36.0960
   -36.0947 -36.0947 -36.0882 -36.0858 -36.0730 -36.0730 -36.0679 -36.0559
   -36.0551 -36.0551 -36.0469 -36.0451 -36.0145 -36.0145 -35.9688 -35.9688
   -35.9651 -35.9180 -35.8902 -35.8814 -35.8814 -35.8766 -35.8736 -35.8576
   -35.8501 -35.8501 -35.8409 -35.8401 -35.8266 -35.8246 -35.8246 -24.3428
   -24.2948 -24.2948 -24.2616 -24.2421 -24.2421 -24.2108 -24.2015 -24.2015
    12.9991  13.0102  13.0102  13.0134  13.0134  13.2572  13.2751  13.3006
    14.6656  14.6657  14.6776  14.6776  14.6780  14.6780  14.6833  14.6833
    14.6867  14.6867  14.8996  14.9087  14.9367  14.9488  14.9807  15.0060
    15.1462  15.1462  15.1519  15.1519  15.1572  15.1572  15.1664  15.1854
    15.1967  15.2386  15.2392  15.2933  15.2962  15.2962  15.3047  15.5483
    15.5483  15.5547  15.5547  15.5798  15.6011  15.6072  15.6072  15.6261
    17.0815  17.0952  17.0952  17.1015  17.1015  17.1203  17.1441  17.1441
    17.1597  17.1597  17.4332  17.4663  17.4873  17.4912  17.5498  17.5498
    17.5715  17.6964  17.6964  17.8574  17.8789  17.9325  17.9325  17.9374
    18.2295  18.8163  18.8457  18.9503  18.9694  18.9694  18.9967  19.0230
    19.0372  19.3320  19.3320  19.3364  19.4817  19.5100

          k = 0.2500 0.0000 0.0000 (  6383 PWs)   bands (ev):

   -70.0427 -70.0043 -70.0004 -69.9993 -69.9918 -69.9918 -69.9883 -69.9883
   -69.9868 -69.9834 -69.9680 -69.9555 -69.9357 -52.9780 -52.9106 -52.8672
   -36.1780 -36.1712 -36.1712 -36.1607 -36.1607 -36.1549 -36.1213 -36.0986
   -36.0986 -36.0858 -36.0819 -36.0819 -36.0687 -36.0567 -36.0349 -36.0349
   -36.0329 -36.0317 -36.0317 -36.0290 -35.9778 -35.9756 -35.9582 -35.9582
   -35.9563 -35.9330 -35.9162 -35.9162 -35.9148 -35.9100 -35.8952 -35.8952
   -35.8809 -35.8546 -35.8526 -35.8526 -35.8091 -35.8091 -35.7861 -24.3725
   -24.2964 -24.2964 -24.2429 -24.2429 -24.2342 -24.2118 -24.2022 -24.2022
    10.1643  12.3916  13.4496  13.4496  13.5052  13.5313  13.5949  13.6093
    13.6249  13.6362  13.6362  13.6893  13.7460  13.8787  14.1230  14.5903
    14.7592  14.8584  14.8706  14.8706  14.9709  14.9709  14.9795  15.1194
    15.1194  15.1691  15.1691  15.2684  15.3179  15.5583  15.5583  15.7955
    15.8772  15.9549  15.9549  16.0610  16.0711  16.0711  16.1728  16.2627
    16.2627  16.4439  16.5122  16.5661  16.5661  16.5970  16.6905  16.7705
    16.7705  16.8117  16.9769  17.0403  17.1162  17.1162  17.1566  17.2400
    17.2566  17.2607  17.2862  17.3668  17.3668  17.4577  17.4643  17.4834
    17.4840  17.4840  17.5523  17.7360  18.2802  18.2939  18.3031  18.3031
    18.3747  18.5512  18.5512  18.7157  18.7157  18.7786  18.9915  19.0446
    19.0446  19.1374  19.3835  19.4051  19.5021  19.5021

          k =-0.5000 0.0000 0.0000 (  6432 PWs)   bands (ev):

   -70.0388 -70.0123 -70.0011 -69.9993 -69.9901 -69.9901 -69.9900 -69.9900
   -69.9853 -69.9853 -69.9611 -69.9556 -69.9383 -52.9776 -52.9111 -52.8673
   -36.1789 -36.1567 -36.1567 -36.1407 -36.1407 -36.1317 -36.1317 -36.1201
   -36.1139 -36.0938 -36.0917 -36.0789 -36.0789 -36.0709 -36.0709 -36.0650
   -36.0650 -36.0379 -36.0379 -36.0320 -35.9775 -35.9700 -35.9696 -35.9630
   -35.9630 -35.9150 -35.9150 -35.9014 -35.8908 -35.8887 -35.8887 -35.8687
   -35.8687 -35.8570 -35.8570 -35.8426 -35.8426 -35.8367 -35.8105 -24.3444
   -24.2967 -24.2967 -24.2632 -24.2440 -24.2440 -24.2123 -24.2034 -24.2034
    11.0409  11.1102  13.6053  13.6053  13.6406  13.6406  13.6608  13.6708
    13.7647  13.8159  13.9071  13.9762  13.9857  14.0660  14.1364  14.1497
    14.2377  14.2395  14.8371  14.8371  14.9284  14.9284  15.3423  15.3532
    15.4234  15.4234  15.5536  15.5536  15.5779  15.5779  15.5792  15.5946
    15.5946  15.5996  15.6375  15.8920  15.9958  15.9958  16.0171  16.0171
    16.0391  16.3012  16.3012  16.4002  16.5346  16.5481  16.5481  16.5494
    16.5762  16.6535  16.8262  16.9943  16.9943  17.0200  17.1592  17.1793
    17.1793  17.2332  17.2337  17.2524  17.2588  17.2890  17.3309  17.5453
    17.6200  17.6200  17.9129  17.9854  17.9935  18.0130  18.0687  18.3849
    18.3849  18.5134  18.5134  18.5167  18.5167  19.0099  19.1313  19.1379
    19.1379  19.2989  19.3849  19.5465  19.5465  19.5922

          k = 0.2500 0.2500 0.0000 (  6408 PWs)   bands (ev):

   -70.0393 -70.0114 -70.0024 -69.9999 -69.9918 -69.9911 -69.9876 -69.9876
   -69.9842 -69.9822 -69.9690 -69.9520 -69.9382 -52.9781 -52.9106 -52.8672
   -36.1771 -36.1676 -36.1636 -36.1555 -36.1545 -36.1328 -36.1269 -36.1035
   -36.1025 -36.0956 -36.0904 -36.0849 -36.0759 -36.0741 -36.0597 -36.0422
   -36.0416 -36.0355 -36.0118 -35.9945 -35.9800 -35.9779 -35.9652 -35.9636
   -35.9563 -35.9549 -35.9324 -35.9322 -35.9102 -35.8945 -35.8813 -35.8791
   -35.8693 -35.8578 -35.8567 -35.8496 -35.8183 -35.8125 -35.7952 -24.3730
   -24.2969 -24.2967 -24.2434 -24.2430 -24.2347 -24.2121 -24.2028 -24.2027
    10.4746  12.5575  12.6148  13.2906  13.6732  13.6808  13.7010  13.7142
    13.7483  13.7655  13.7769  13.8057  13.9501  14.1743  14.1902  14.6189
    14.6791  14.7026  14.7140  14.9667  14.9771  14.9905  15.0052  15.0682
    15.1138  15.1233  15.2739  15.3066  15.3608  15.4237  15.4984  15.7532
    15.7642  15.8358  15.8870  15.9565  15.9750  16.0502  16.0711  16.1086
    16.3375  16.3871  16.4103  16.4597  16.4976  16.5403  16.5587  16.6228
    16.6585  16.7381  16.8000  16.8295  16.9170  17.0462  17.0692  17.1385
    17.1580  17.2124  17.2234  17.2711  17.3020  17.3370  17.4414  17.4502
    17.5057  17.6040  17.6611  17.6830  17.7285  17.8489  18.0058  18.4154
    18.4666  18.5267  18.5334  18.8375  18.8865  18.8938  18.9870  19.0295
    19.0951  19.1542  19.3007  19.4820  19.5641  20.0498

          k = 0.2500-0.5000 0.0000 (  6380 PWs)   bands (ev):

   -70.0333 -70.0214 -70.0010 -69.9969 -69.9969 -69.9893 -69.9893 -69.9858
   -69.9858 -69.9765 -69.9711 -69.9449 -69.9440 -52.9781 -52.9106 -52.8672
   -36.1696 -36.1610 -36.1451 -36.1432 -36.1415 -36.1353 -36.1236 -36.1135
   -36.1082 -36.0986 -36.0976 -36.0817 -36.0786 -36.0647 -36.0642 -36.0530
   -36.0458 -36.0420 -36.0277 -36.0066 -35.9780 -35.9626 -35.9589 -35.9567
   -35.9563 -35.9422 -35.9354 -35.9299 -35.9093 -35.9041 -35.8869 -35.8807
   -35.8646 -35.8441 -35.8404 -35.8310 -35.8291 -35.8138 -35.8137 -24.3726
   -24.2966 -24.2966 -24.2429 -24.2429 -24.2346 -24.2118 -24.2028 -24.2024
    11.3120  11.3901  12.9725  13.0319  13.8323  13.8626  13.8771  13.9495
    13.9670  14.0465  14.0546  14.0749  14.1262  14.2323  14.2380  14.2495
    14.2840  14.3136  14.9209  14.9316  14.9728  14.9920  15.1343  15.1477
    15.2289  15.2538  15.2651  15.2874  15.4203  15.4624  15.6493  15.6598
    15.7403  15.7700  15.8052  15.8252  15.8654  15.8799  15.8842  15.9267
    15.9558  16.0288  16.0640  16.0733  16.1898  16.2382  16.6587  16.6879
    16.7450  16.8054  16.8707  16.8726  16.8783  16.9330  16.9848  17.0079
    17.1963  17.2039  17.2272  17.2915  17.3344  17.3443  17.3800  17.3852
    17.3896  17.4899  17.6816  17.7289  17.7795  17.8452  17.8500  18.1407
    18.5175  18.6745  18.7300  18.8607  18.8745  18.8836  18.8852  19.0490
    19.0718  19.0942  19.3371  19.3901  20.0677  20.2389

          k =-0.5000 0.0000 0.2500 (  6380 PWs)   bands (ev):

   -70.0359 -70.0097 -70.0097 -70.0005 -69.9944 -69.9893 -69.9893 -69.9858
   -69.9858 -69.9809 -69.9630 -69.9519 -69.9400 -52.9776 -52.9111 -52.8672
   -36.1736 -36.1570 -36.1473 -36.1419 -36.1402 -36.1380 -36.1238 -36.1151
   -36.1086 -36.0946 -36.0930 -36.0795 -36.0785 -36.0631 -36.0591 -36.0523
   -36.0516 -36.0339 -36.0229 -36.0172 -35.9868 -35.9755 -35.9659 -35.9589
   -35.9580 -35.9332 -35.9325 -35.9292 -35.9074 -35.9040 -35.8788 -35.8721
   -35.8682 -35.8522 -35.8403 -35.8285 -35.8283 -35.8225 -35.8058 -24.3439
   -24.2962 -24.2961 -24.2629 -24.2437 -24.2434 -24.2116 -24.2027 -24.2027
    11.3170  11.3884  12.9762  13.0226  13.8324  13.8680  13.8729  13.9499
    13.9852  14.0447  14.0608  14.0729  14.1250  14.1990  14.2263  14.2443
    14.3131  14.3256  14.9161  14.9418  14.9696  15.0182  15.1329  15.1417
    15.1484  15.1484  15.3019  15.3301  15.4236  15.4684  15.6585  15.6837
    15.7671  15.7695  15.7701  15.7994  15.8129  15.8141  15.8592  15.9053
    15.9750  16.0232  16.0492  16.1022  16.3074  16.3118  16.6790  16.7153
    16.7427  16.8264  16.8372  16.9345  16.9636  17.0143  17.0879  17.0994
    17.1157  17.1452  17.1798  17.1925  17.2274  17.2413  17.3418  17.3734
    17.3810  17.5642  17.6174  17.7702  17.7716  17.7838  17.9455  18.1823
    18.6376  18.6842  18.7980  18.8491  18.8513  18.8728  18.9401  19.0437
    19.0565  19.0805  19.2644  19.3464  20.1263  20.1826

          k =-0.5000-0.5000 0.0000 (  6416 PWs)   bands (ev):

   -70.0311 -70.0182 -70.0029 -70.0029 -70.0005 -69.9876 -69.9876 -69.9875
   -69.9875 -69.9736 -69.9669 -69.9452 -69.9452 -52.9776 -52.9111 -52.8673
   -36.1722 -36.1638 -36.1443 -36.1414 -36.1400 -36.1289 -36.1279 -36.1276
   -36.1202 -36.0980 -36.0975 -36.0886 -36.0854 -36.0615 -36.0477 -36.0365
   -36.0364 -36.0328 -36.0012 -35.9920 -35.9896 -35.9895 -35.9845 -35.9636
   -35.9622 -35.9583 -35.9575 -35.9518 -35.9277 -35.8930 -35.8924 -35.8733
   -35.8585 -35.8481 -35.8443 -35.8211 -35.8149 -35.8117 -35.8073 -24.3445
   -24.2966 -24.2964 -24.2636 -24.2444 -24.2438 -24.2120 -24.2031 -24.2030
    11.9922  12.1201  12.1296  12.1356  13.9994  14.1068  14.1207  14.1251
    14.1913  14.2450  14.2507  14.3179  14.3234  14.3389  14.3540  14.3663
    14.4983  14.6255  14.6289  14.6476  14.8773  14.9081  14.9439  15.0088
    15.0398  15.1184  15.1322  15.1388  15.4690  15.4941  15.5093  15.5448
    15.5493  15.5493  15.5495  15.6385  15.6518  15.6684  15.6799  15.6840
    15.8270  15.9968  16.1330  16.1791  16.3292  16.3457  16.4149  16.4185
    16.7926  16.8396  17.0161  17.0163  17.0286  17.0389  17.0444  17.0447
    17.0643  17.0737  17.0871  17.1119  17.1245  17.1255  17.2612  17.3264
    17.3434  17.5257  17.5347  17.6583  17.6831  17.7712  17.7836  18.0408
    18.6773  18.6873  18.7874  18.7954  18.8477  18.9870  19.0047  19.0065
    19.0771  19.0938  19.3027  19.3335  20.9089  20.9199

          k =-0.5000 0.2500 0.2500 (  6364 PWs)   bands (ev):

   -70.0330 -70.0107 -70.0075 -70.0073 -69.9959 -69.9900 -69.9879 -69.9867
   -69.9829 -69.9783 -69.9648 -69.9495 -69.9414 -52.9776 -52.9110 -52.8672
   -36.1689 -36.1526 -36.1444 -36.1362 -36.1334 -36.1332 -36.1288 -36.1051
   -36.0997 -36.0943 -36.0917 -36.0844 -36.0761 -36.0662 -36.0615 -36.0611
   -36.0483 -36.0325 -36.0273 -36.0108 -36.0061 -36.0011 -35.9715 -35.9624
   -35.9490 -35.9390 -35.9335 -35.9244 -35.8956 -35.8797 -35.8766 -35.8723
   -35.8682 -35.8562 -35.8433 -35.8295 -35.8262 -35.8193 -35.8056 -24.3439
   -24.2961 -24.2959 -24.2628 -24.2435 -24.2434 -24.2115 -24.2027 -24.2024
    11.5933  11.6658  13.1942  13.1963  13.2821  13.3811  14.1244  14.1516
    14.1797  14.2081  14.2123  14.2421  14.2430  14.2776  14.2915  14.3150
    14.4014  14.4819  14.9335  14.9863  15.0008  15.0194  15.0313  15.0443
    15.1720  15.2079  15.2277  15.2680  15.3498  15.3786  15.5365  15.5469
    15.5598  15.5605  15.5812  15.5965  15.6061  15.6524  15.7237  15.7759
    15.7950  15.8567  15.9097  15.9480  15.9647  15.9826  16.4738  16.5397
    16.8486  16.9054  16.9120  16.9763  17.0003  17.0317  17.1075  17.1139
    17.1186  17.1203  17.1834  17.1982  17.2695  17.2894  17.2917  17.3882
    17.3964  17.4719  17.7115  17.8428  17.8439  17.9192  17.9617  18.3621
    18.4079  18.6710  18.6767  18.7644  18.8187  19.0349  19.0405  19.0910
    19.1250  19.1267  19.2799  19.3424  19.5347  19.6126

          k =-0.5000-0.5000 0.2500 (  6360 PWs)   bands (ev):

   -70.0280 -70.0176 -70.0081 -70.0018 -70.0018 -69.9888 -69.9887 -69.9887
   -69.9812 -69.9727 -69.9684 -69.9449 -69.9449 -52.9776 -52.9111 -52.8672
   -36.1643 -36.1527 -36.1351 -36.1303 -36.1302 -36.1194 -36.1150 -36.1143
   -36.1141 -36.0919 -36.0911 -36.0851 -36.0834 -36.0612 -36.0595 -36.0577
   -36.0359 -36.0345 -36.0344 -36.0160 -36.0151 -35.9982 -35.9952 -35.9734
   -35.9530 -35.9344 -35.9243 -35.9076 -35.9068 -35.8892 -35.8786 -35.8695
   -35.8566 -35.8534 -35.8465 -35.8276 -35.8211 -35.8165 -35.8139 -24.3438
   -24.2962 -24.2958 -24.2627 -24.2435 -24.2434 -24.2115 -24.2029 -24.2024
    12.2721  12.3973  12.4066  12.4114  13.7977  13.8902  13.8993  13.9344
    14.2048  14.3137  14.3231  14.3252  14.5490  14.6251  14.6491  14.6538
    14.6559  14.6787  14.6800  14.6869  14.8126  14.9433  14.9443  14.9937
    15.1120  15.1302  15.1691  15.1807  15.2162  15.2696  15.3247  15.3322
    15.3881  15.4008  15.4099  15.4246  15.4438  15.4577  15.5922  15.6209
    15.6342  15.7604  15.8174  15.8210  15.9741  16.0160  16.0356  16.0422
    16.9578  17.0475  17.0498  17.0510  17.0596  17.0949  17.1151  17.1172
    17.1310  17.2088  17.2334  17.2376  17.2531  17.2768  17.3597  17.3909
    17.4857  17.5132  17.5830  17.6350  17.7147  18.1176  18.1351  18.1715
    18.5071  18.6803  18.7321  18.7979  18.8774  18.9577  18.9719  18.9756
    19.0622  19.0653  19.2096  19.2887  19.9495  19.9655

 ------ SPIN DOWN ----------


          k = 0.0000 0.0000 0.0000 (  6403 PWs)   bands (ev):

   -67.4947 -67.4798 -67.4798 -67.4798 -67.4745 -67.4745 -67.4745 -67.4694
   -67.2551 -67.2503 -67.1512 -67.1479 -67.0487 -54.4670 -54.3220 -54.0867
   -33.7131 -33.7106 -33.7106 -33.7055 -33.6719 -33.6719 -33.6541 -33.6348
   -33.6348 -33.6285 -33.6251 -33.5855 -33.5855 -33.5559 -33.5513 -33.5376
   -33.5198 -33.4984 -33.4984 -33.4777 -33.4734 -33.4734 -33.4521 -33.4409
   -33.3691 -33.3691 -33.3427 -33.3427 -33.2550 -33.2445 -33.2445 -33.2009
   -33.1899 -33.1376 -33.1366 -33.1366 -33.1144 -33.0614 -33.0614 -25.7873
   -25.7873 -25.7772 -25.6981 -25.6981 -25.5461 -25.4810 -25.4810 -25.2379
     9.8986  13.7975  13.8973  14.0456  14.0718  14.0718  14.0907  14.1405
    14.1511  14.1511  14.2083  14.2225  14.5188  14.8270  15.0161  15.7202
    15.7872  15.7872  16.0153  16.1658  16.1658  16.2763  16.2824  16.2824
    16.4153  16.4153  16.5637  16.6224  16.7261  17.2648  17.2648  17.2673
    17.3138  17.3748  17.6241  17.6241  17.7026  17.7067  17.7067  18.0055
    18.0114  18.0114  18.0533  18.0533  18.0796  18.1222  18.1222  18.2178
    18.6875  18.6913  18.6913  18.7148  18.7148  18.7759  18.8685  18.9247
    18.9352  18.9712  19.0026  19.0152  19.0231  19.0231  19.3902  19.4916
    19.5507  19.5507  19.5530  19.7882  19.8236  19.8487  19.9450  19.9477
    19.9477  19.9505  19.9604  19.9742  19.9835  20.1570  20.2556  20.2783
    20.2783  20.5833  20.5833  20.5887  20.5917  20.6135

          k = 0.0000 0.0000 0.2500 (  6383 PWs)   bands (ev):

   -67.4926 -67.4821 -67.4791 -67.4791 -67.4753 -67.4753 -67.4737 -67.4701
   -67.2543 -67.2509 -67.1507 -67.1483 -67.0487 -54.4669 -54.3220 -54.0867
   -33.7120 -33.7091 -33.7070 -33.7040 -33.6717 -33.6585 -33.6573 -33.6378
   -33.6319 -33.6241 -33.6125 -33.5771 -33.5708 -33.5694 -33.5451 -33.5440
   -33.5370 -33.5099 -33.4954 -33.4923 -33.4902 -33.4830 -33.4666 -33.4506
   -33.3424 -33.3393 -33.3309 -33.3274 -33.2566 -33.2527 -33.2279 -33.1980
   -33.1849 -33.1423 -33.1414 -33.1402 -33.1266 -33.0618 -33.0612 -25.7869
   -25.7869 -25.7768 -25.6984 -25.6982 -25.5461 -25.4809 -25.4808 -25.2377
    10.2202  12.5212  14.0226  14.0900  14.1489  14.1551  14.2271  14.2446
    14.2607  14.3627  14.3683  14.6263  14.8557  15.0340  15.1472  15.5382
    15.7521  15.8453  15.9571  16.0344  16.1494  16.1686  16.2971  16.4403
    16.5252  16.5366  16.5386  16.6131  16.6306  16.9383  16.9519  17.0418
    17.3089  17.3969  17.4632  17.5120  17.5794  17.6547  17.7204  17.7479
    17.8007  17.8073  17.9267  17.9354  17.9521  17.9575  18.0487  18.0678
    18.3294  18.3519  18.3897  18.4594  18.4754  18.5401  18.5740  18.9129
    19.1532  19.2486  19.3627  19.4083  19.4186  19.4288  19.4498  19.4761
    19.5539  19.5699  19.5975  19.7185  19.7977  19.8052  19.9278  19.9547
    19.9784  19.9922  19.9929  19.9965  20.1790  20.1823  20.3688  20.3710
    20.3805  20.4910  20.5039  20.5173  20.5287  20.5527

          k = 0.0000 0.0000-0.5000 (  6432 PWs)   bands (ev):

   -67.4880 -67.4868 -67.4772 -67.4772 -67.4772 -67.4772 -67.4720 -67.4720
   -67.2526 -67.2526 -67.1496 -67.1496 -67.0488 -54.4670 -54.3220 -54.0868
   -33.7092 -33.7079 -33.7006 -33.6852 -33.6833 -33.6800 -33.6499 -33.6498
   -33.6192 -33.5962 -33.5898 -33.5860 -33.5718 -33.5677 -33.5669 -33.5668
   -33.5390 -33.5364 -33.5291 -33.5102 -33.4901 -33.4901 -33.4618 -33.4618
   -33.3265 -33.3210 -33.3203 -33.3166 -33.2719 -33.2651 -33.2051 -33.1906
   -33.1861 -33.1509 -33.1485 -33.1473 -33.1471 -33.0642 -33.0632 -25.7875
   -25.7873 -25.7777 -25.6993 -25.6991 -25.5472 -25.4817 -25.4814 -25.2385
    11.1293  11.1590  14.1954  14.2158  14.2179  14.2652  14.3154  14.3349
    14.3543  14.5189  14.8307  14.9588  15.0032  15.0197  15.1824  15.4377
    15.4576  15.6164  15.7839  16.0068  16.0362  16.0552  16.6440  16.6741
    16.7320  16.7824  16.8271  16.8370  16.8384  16.8611  16.8736  16.9322
    16.9837  17.0008  17.1443  17.1568  17.1866  17.1939  17.2402  17.2482
    17.2701  17.2943  17.4876  17.6279  17.6832  17.6893  17.9828  18.0859
    18.5366  18.5741  18.7149  18.9136  18.9424  18.9977  19.0001  19.0427
    19.0679  19.1839  19.2013  19.2264  19.2509  19.3161  19.5042  19.6314
    19.6716  19.6931  19.7637  19.7895  19.8232  19.8743  19.9297  19.9446
    19.9661  19.9667  20.0511  20.0569  20.0680  20.0842  20.1075  20.1109
    20.1419  20.1476  20.5393  20.5993  20.6060  20.6169

          k = 0.0000 0.2500 0.2500 (  6408 PWs)   bands (ev):

   -67.4907 -67.4820 -67.4802 -67.4783 -67.4762 -67.4746 -67.4746 -67.4708
   -67.2538 -67.2514 -67.1504 -67.1487 -67.0488 -54.4670 -54.3220 -54.0868
   -33.7092 -33.7045 -33.7033 -33.6996 -33.6688 -33.6653 -33.6637 -33.6436
   -33.6249 -33.6169 -33.6003 -33.5877 -33.5809 -33.5678 -33.5557 -33.5462
   -33.5339 -33.5186 -33.5002 -33.4943 -33.4864 -33.4810 -33.4739 -33.4578
   -33.3621 -33.3464 -33.3200 -33.3168 -33.2714 -33.2427 -33.2146 -33.1949
   -33.1833 -33.1506 -33.1469 -33.1348 -33.1348 -33.0638 -33.0630 -25.7875
   -25.7873 -25.7771 -25.6991 -25.6985 -25.5465 -25.4815 -25.4812 -25.2379
    10.5341  12.7438  12.7487  13.8502  14.2593  14.2965  14.3448  14.5108
    14.5181  14.5297  14.7204  14.9305  15.0231  15.1537  15.2840  15.5164
    15.7419  15.7883  15.9934  16.1504  16.1720  16.1975  16.2757  16.2867
    16.3418  16.5124  16.5363  16.5646  16.6335  16.6710  16.8252  17.0417
    17.0491  17.2746  17.3282  17.4113  17.4188  17.4410  17.4482  17.5007
    17.5672  17.5705  17.6184  17.6252  17.6828  17.8240  18.0174  18.1097
    18.3313  18.4365  18.4599  18.5757  18.6438  18.7159  18.8531  18.8782
    19.0266  19.0549  19.2398  19.3773  19.4073  19.4808  19.5108  19.5384
    19.5615  19.5961  19.6509  19.7053  19.7264  19.7853  19.8371  19.8596
    19.9006  19.9707  19.9745  19.9827  20.0414  20.0642  20.1513  20.1606
    20.2621  20.2909  20.3484  20.6594  20.7371  20.8371

          k = 0.0000 0.2500-0.5000 (  6380 PWs)   bands (ev):

   -67.4866 -67.4857 -67.4786 -67.4783 -67.4764 -67.4764 -67.4727 -67.4727
   -67.2525 -67.2525 -67.1495 -67.1495 -67.0488 -54.4669 -54.3220 -54.0867
   -33.7038 -33.7033 -33.6909 -33.6827 -33.6814 -33.6762 -33.6528 -33.6518
   -33.6118 -33.6018 -33.5947 -33.5861 -33.5771 -33.5703 -33.5598 -33.5593
   -33.5227 -33.5121 -33.5079 -33.5072 -33.4950 -33.4902 -33.4668 -33.4667
   -33.3445 -33.3383 -33.3353 -33.3176 -33.2756 -33.2347 -33.2005 -33.1874
   -33.1825 -33.1515 -33.1480 -33.1472 -33.1324 -33.0631 -33.0626 -25.7872
   -25.7870 -25.7770 -25.6986 -25.6985 -25.5464 -25.4811 -25.4809 -25.2380
    11.4120  11.4480  13.2692  13.3294  14.3927  14.4872  14.5323  14.5657
    14.8093  14.9719  14.9743  15.1020  15.1286  15.1613  15.2494  15.4986
    15.6167  15.7001  15.9010  16.0021  16.0333  16.1089  16.3716  16.4426
    16.5223  16.5541  16.5761  16.6377  16.6966  16.7178  16.7798  16.8257
    16.9297  16.9748  16.9805  17.0597  17.0919  17.1012  17.1314  17.2650
    17.2762  17.3267  17.3981  17.4222  17.4781  17.5638  18.3783  18.4164
    18.6059  18.6235  18.6701  18.6885  18.7505  18.8256  18.9159  18.9737
    19.0143  19.0276  19.0899  19.1203  19.1761  19.3484  19.4447  19.5615
    19.5662  19.5804  19.6453  19.6592  19.7045  19.7173  19.8139  19.8844
    19.8859  19.9855  20.0056  20.0235  20.0253  20.0885  20.1800  20.2063
    20.2194  20.2307  20.4556  20.4878  21.1114  21.1247

          k = 0.0000-0.5000-0.5000 (  6416 PWs)   bands (ev):

   -67.4841 -67.4841 -67.4812 -67.4800 -67.4746 -67.4746 -67.4746 -67.4746
   -67.2525 -67.2525 -67.1495 -67.1495 -67.0488 -54.4670 -54.3220 -54.0868
   -33.7010 -33.7008 -33.6868 -33.6868 -33.6826 -33.6663 -33.6610 -33.6610
   -33.6176 -33.6079 -33.6038 -33.5969 -33.5704 -33.5704 -33.5550 -33.5550
   -33.5185 -33.5099 -33.5099 -33.4958 -33.4897 -33.4897 -33.4743 -33.4743
   -33.3686 -33.3554 -33.3523 -33.3225 -33.2672 -33.2248 -33.1936 -33.1866
   -33.1866 -33.1518 -33.1475 -33.1475 -33.1277 -33.0646 -33.0646 -25.7878
   -25.7878 -25.7774 -25.6990 -25.6990 -25.5463 -25.4815 -25.4815 -25.2388
    12.1430  12.2418  12.2498  12.2498  14.6127  14.6127  14.8419  14.8992
    15.0532  15.2038  15.2038  15.2444  15.2854  15.3223  15.4343  15.5346
    15.7230  15.7230  15.7898  15.7898  15.9070  16.0481  16.2126  16.2126
    16.2219  16.4736  16.4950  16.4950  16.5315  16.5709  16.5797  16.5797
    16.8390  16.8390  16.8568  16.8898  16.9437  16.9850  16.9850  17.1778
    17.2120  17.3707  17.4393  17.4393  17.7338  17.7338  18.0277  18.0389
    18.5132  18.5802  18.7653  18.7653  18.8196  18.8267  18.8267  18.9380
    18.9607  19.0307  19.0827  19.1187  19.3456  19.3456  19.3830  19.4690
    19.4697  19.4732  19.4732  19.4913  19.5350  19.5350  19.8646  19.8646
    19.8699  19.8699  19.8796  19.9040  20.0177  20.0245  20.2081  20.2081
    20.3777  20.3777  20.5726  20.6105  21.9480  21.9961

          k = 0.2500 0.2500 0.2500 (  6388 PWs)   bands (ev):

   -67.4889 -67.4809 -67.4802 -67.4793 -67.4756 -67.4755 -67.4754 -67.4716
   -67.2538 -67.2513 -67.1504 -67.1487 -67.0488 -54.4669 -54.3219 -54.0869
   -33.7073 -33.7013 -33.6967 -33.6961 -33.6720 -33.6686 -33.6606 -33.6439
   -33.6112 -33.6105 -33.5871 -33.5834 -33.5730 -33.5705 -33.5575 -33.5465
   -33.5279 -33.5185 -33.5102 -33.5066 -33.4965 -33.4936 -33.4836 -33.4635
   -33.3467 -33.3238 -33.3210 -33.3146 -33.2787 -33.2532 -33.2073 -33.1958
   -33.1821 -33.1530 -33.1436 -33.1374 -33.1342 -33.0629 -33.0622 -25.7871
   -25.7871 -25.7772 -25.6986 -25.6984 -25.5368 -25.4813 -25.4812 -25.2476
    10.8418  12.9729  12.9746  12.9980  14.0636  14.1056  14.1947  14.7198
    14.7394  15.0028  15.0221  15.1451  15.2313  15.2465  15.3863  15.5223
    15.8225  15.8448  15.8807  16.0075  16.0904  16.1298  16.2497  16.3262
    16.3614  16.4085  16.4362  16.5349  16.5372  16.7169  16.8260  16.9173
    16.9927  17.0511  17.0866  17.1329  17.1487  17.2032  17.2564  17.3351
    17.3439  17.3817  17.3942  17.4429  17.6031  17.6445  17.7322  18.2743
    18.5663  18.6008  18.6951  18.7361  18.7798  18.8305  18.8671  18.9694
    19.0069  19.1969  19.2763  19.2795  19.3363  19.3914  19.3925  19.4188
    19.5296  19.6849  19.7294  19.7416  19.8169  19.8587  19.8680  19.8734
    19.8794  19.9655  19.9875  19.9967  20.0108  20.0385  20.1320  20.1818
    20.2454  20.2524  20.2612  20.3339  20.6728  20.6987

          k = 0.2500 0.2500-0.5000 (  6364 PWs)   bands (ev):

   -67.4851 -67.4843 -67.4781 -67.4777 -67.4775 -67.4775 -67.4736 -67.4736
   -67.2525 -67.2525 -67.1495 -67.1495 -67.0488 -54.4669 -54.3218 -54.0868
   -33.7021 -33.6993 -33.6874 -33.6790 -33.6779 -33.6765 -33.6555 -33.6532
   -33.6050 -33.5933 -33.5924 -33.5803 -33.5746 -33.5691 -33.5472 -33.5445
   -33.5338 -33.5318 -33.5085 -33.5085 -33.4990 -33.4937 -33.4857 -33.4806
   -33.3352 -33.3339 -33.3220 -33.3079 -33.2812 -33.2457 -33.1978 -33.1921
   -33.1830 -33.1477 -33.1458 -33.1452 -33.1307 -33.0619 -33.0618 -25.7869
   -25.7869 -25.7770 -25.6984 -25.6983 -25.5367 -25.4810 -25.4810 -25.2474
    11.6949  11.7340  13.5177  13.5424  13.5810  13.5921  14.7681  14.8219
    14.9988  15.0250  15.1432  15.1879  15.2671  15.4213  15.4258  15.5963
    15.7207  15.7853  15.9197  16.0765  16.1059  16.1247  16.1783  16.2480
    16.3542  16.4949  16.5719  16.5871  16.6209  16.6387  16.6492  16.7005
    16.7577  16.7618  16.8245  16.9436  16.9701  17.0445  17.0663  17.1418
    17.1679  17.1695  17.2805  17.2942  17.3501  17.3741  18.0251  18.0540
    18.6724  18.6819  18.7927  18.8048  18.8351  18.9210  19.1036  19.1059
    19.1133  19.1378  19.2188  19.3065  19.3221  19.4261  19.4721  19.5823
    19.6093  19.6426  19.6713  19.7428  19.7630  19.8310  19.8399  19.8896
    19.9088  19.9488  19.9859  20.0254  20.0369  20.0580  20.1016  20.1383
    20.1679  20.1783  20.2203  20.2251  20.2540  20.2910

          k = 0.2500-0.5000-0.5000 (  6360 PWs)   bands (ev):

   -67.4827 -67.4827 -67.4803 -67.4792 -67.4760 -67.4760 -67.4755 -67.4754
   -67.2525 -67.2525 -67.1495 -67.1495 -67.0488 -54.4669 -54.3218 -54.0868
   -33.6955 -33.6912 -33.6798 -33.6798 -33.6768 -33.6682 -33.6633 -33.6633
   -33.5993 -33.5955 -33.5897 -33.5877 -33.5644 -33.5644 -33.5399 -33.5399
   -33.5306 -33.5181 -33.5181 -33.5172 -33.5056 -33.4960 -33.4906 -33.4906
   -33.3462 -33.3444 -33.3254 -33.3059 -33.2764 -33.2309 -33.1927 -33.1873
   -33.1873 -33.1532 -33.1478 -33.1478 -33.1278 -33.0620 -33.0620 -25.7869
   -25.7869 -25.7772 -25.6982 -25.6982 -25.5369 -25.4809 -25.4809 -25.2478
    12.4335  12.5177  12.5177  12.5363  14.1168  14.1168  14.2606  14.3337
    15.1384  15.2104  15.4941  15.5080  15.5080  15.5516  15.7398  15.8101
    15.8284  15.8326  15.8326  15.9338  15.9338  16.0507  16.1344  16.2223
    16.2223  16.4267  16.4997  16.4997  16.5217  16.5217  16.5919  16.6395
    16.6619  16.6619  16.6994  16.7209  16.8057  16.9199  16.9199  17.0874
    17.1007  17.1007  17.1278  17.1470  17.3588  17.3588  17.4753  17.4874
    18.9205  18.9341  18.9571  19.0254  19.0677  19.0677  19.0893  19.1874
    19.2984  19.2984  19.3628  19.4259  19.4259  19.4532  19.4628  19.4943
    19.5243  19.5425  19.5876  19.5876  19.6393  19.6393  19.8022  19.8022
    19.8414  19.8627  19.8627  19.9216  19.9222  19.9609  20.0861  20.0861
    20.1297  20.1297  20.2508  20.3022  20.8388  20.8882

          k =-0.5000-0.5000-0.5000 (  6272 PWs)   bands (ev):

   -67.4797 -67.4797 -67.4789 -67.4789 -67.4785 -67.4772 -67.4772 -67.4772
   -67.2524 -67.2524 -67.1495 -67.1495 -67.0487 -54.4668 -54.3216 -54.0868
   -33.6860 -33.6750 -33.6727 -33.6727 -33.6689 -33.6677 -33.6674 -33.6674
   -33.5784 -33.5683 -33.5678 -33.5676 -33.5520 -33.5501 -33.5501 -33.5469
   -33.5423 -33.5321 -33.5321 -33.5256 -33.5088 -33.5088 -33.4999 -33.4999
   -33.3351 -33.3233 -33.2885 -33.2875 -33.2829 -33.2485 -33.1877 -33.1837
   -33.1837 -33.1506 -33.1438 -33.1438 -33.1296 -33.0582 -33.0582 -25.7857
   -25.7857 -25.7758 -25.6972 -25.6972 -25.5253 -25.4800 -25.4800 -25.2565
    13.2140  13.2140  13.2218  13.2323  13.2580  13.2580  13.3195  13.3417
    15.5170  15.5693  15.5988  15.6808  15.6975  15.7091  15.8544  15.8544
    15.8833  15.9348  15.9348  16.0637  16.1035  16.1035  16.1734  16.3825
    16.3825  16.3994  16.4409  16.4409  16.4424  16.4453  16.4453  16.5129
    16.5129  16.7833  16.8064  16.8064  16.8291  16.8385  16.8596  16.8654
    16.8777  16.8777  16.8870  16.8870  16.8908  16.9066  16.9525  16.9552
    19.0808  19.1132  19.1474  19.1923  19.2671  19.2809  19.4773  19.4773
    19.5157  19.5179  19.5235  19.5235  19.6091  19.6091  19.6283  19.7152
    19.7152  19.7342  19.7354  19.7530  19.7530  19.7796  19.8056  19.8056
    19.8333  19.8354  19.8482  19.8668  19.8668  19.9260  19.9260  19.9656
    20.0811  20.0811  20.1179  20.1245  20.1433  20.1506

          k = 0.2500 0.0000 0.0000 (  6383 PWs)   bands (ev):

   -67.4925 -67.4821 -67.4791 -67.4791 -67.4753 -67.4753 -67.4737 -67.4701
   -67.2551 -67.2502 -67.1512 -67.1478 -67.0487 -54.4669 -54.3218 -54.0868
   -33.7175 -33.7073 -33.7049 -33.7049 -33.6720 -33.6720 -33.6461 -33.6347
   -33.6237 -33.6237 -33.6175 -33.5686 -33.5686 -33.5627 -33.5438 -33.5409
   -33.5222 -33.5222 -33.5194 -33.4996 -33.4996 -33.4915 -33.4508 -33.4453
   -33.3473 -33.3473 -33.3194 -33.3194 -33.2543 -33.2543 -33.2340 -33.1994
   -33.1782 -33.1543 -33.1403 -33.1403 -33.1212 -33.0611 -33.0611 -25.7869
   -25.7869 -25.7770 -25.6981 -25.6981 -25.5366 -25.4809 -25.4809 -25.2474
    10.2202  12.5233  13.9117  14.1528  14.1528  14.2257  14.2387  14.2435
    14.2435  14.3527  14.3958  14.5607  14.9793  14.9832  15.1610  15.5210
    15.8145  15.8145  15.9811  16.0707  16.1360  16.1480  16.1480  16.4573
    16.4774  16.4774  16.5342  16.5342  16.7036  16.9744  16.9744  17.1177
    17.1282  17.5242  17.5242  17.6003  17.6003  17.7031  17.7060  17.7289
    17.7905  17.7905  17.9323  17.9323  17.9396  18.0180  18.0746  18.0746
    18.3557  18.3557  18.3601  18.3750  18.4171  18.5511  18.5511  18.9049
    19.1877  19.2408  19.3909  19.3909  19.4009  19.4128  19.4636  19.4766
    19.4766  19.4931  19.5959  19.7700  19.8031  19.8942  19.9286  19.9528
    19.9839  19.9875  20.0039  20.0039  20.1607  20.3272  20.3462  20.3647
    20.3647  20.3824  20.4452  20.5176  20.5176  20.5570

          k =-0.5000 0.0000 0.0000 (  6432 PWs)   bands (ev):

   -67.4875 -67.4873 -67.4772 -67.4772 -67.4772 -67.4772 -67.4720 -67.4720
   -67.2551 -67.2501 -67.1513 -67.1479 -67.0488 -54.4670 -54.3218 -54.0870
   -33.7196 -33.7065 -33.6922 -33.6922 -33.6903 -33.6903 -33.6429 -33.6429
   -33.5853 -33.5853 -33.5843 -33.5778 -33.5776 -33.5776 -33.5662 -33.5488
   -33.5467 -33.5467 -33.5320 -33.5320 -33.5082 -33.5081 -33.4508 -33.4508
   -33.3308 -33.3308 -33.2980 -33.2980 -33.2743 -33.2743 -33.2203 -33.2004
   -33.1748 -33.1658 -33.1477 -33.1477 -33.1277 -33.0638 -33.0638 -25.7876
   -25.7876 -25.7775 -25.6991 -25.6991 -25.5269 -25.4819 -25.4819 -25.2581
    11.1413  11.1469  14.0513  14.2265  14.2265  14.2319  14.3619  14.3619
    14.5133  14.5702  14.8008  14.8193  15.0337  15.0829  15.2658  15.4494
    15.4536  15.6246  15.8545  15.8545  16.0948  16.0948  16.2758  16.4082
    16.6692  16.6692  16.7470  16.8468  16.8468  16.9139  17.0741  17.0741
    17.0843  17.1565  17.1944  17.1944  17.1960  17.1960  17.2577  17.2688
    17.2688  17.2982  17.6165  17.6165  17.7148  17.7148  17.8494  18.0744
    18.5557  18.5932  18.7140  18.8862  18.9231  18.9231  18.9841  19.0427
    19.0427  19.2066  19.2066  19.2122  19.2994  19.3188  19.3188  19.6926
    19.6943  19.7062  19.7594  19.8003  19.8517  19.8777  19.9427  19.9466
    19.9860  20.0020  20.0020  20.0460  20.0873  20.0897  20.1161  20.1161
    20.1519  20.1609  20.4666  20.6061  20.6061  20.6183

          k = 0.2500 0.2500 0.0000 (  6408 PWs)   bands (ev):

   -67.4906 -67.4812 -67.4809 -67.4783 -67.4763 -67.4746 -67.4746 -67.4708
   -67.2543 -67.2509 -67.1507 -67.1483 -67.0488 -54.4670 -54.3219 -54.0869
   -33.7147 -33.7074 -33.7021 -33.6978 -33.6757 -33.6664 -33.6543 -33.6414
   -33.6229 -33.6129 -33.5980 -33.5805 -33.5704 -33.5662 -33.5612 -33.5412
   -33.5382 -33.5213 -33.5171 -33.5016 -33.4929 -33.4896 -33.4704 -33.4543
   -33.3415 -33.3291 -33.3279 -33.3154 -33.2697 -33.2594 -33.2194 -33.1991
   -33.1811 -33.1554 -33.1430 -33.1375 -33.1290 -33.0632 -33.0618 -25.7873
   -25.7870 -25.7775 -25.6987 -25.6985 -25.5370 -25.4815 -25.4811 -25.2479
    10.5342  12.7347  12.7595  13.8558  14.2443  14.2897  14.4046  14.4584
    14.4810  14.5099  14.7802  14.9961  15.0671  15.1388  15.2693  15.4481
    15.7878  15.8109  16.0644  16.0783  16.1047  16.1514  16.2285  16.2375
    16.3417  16.4427  16.5403  16.5557  16.7446  16.7521  16.7871  17.0199
    17.1042  17.2499  17.3334  17.3780  17.4096  17.4332  17.5216  17.5364
    17.5462  17.5680  17.6256  17.6636  17.7084  17.9042  17.9963  18.0687
    18.3748  18.4286  18.5122  18.5163  18.5792  18.6708  18.8839  18.9090
    18.9675  19.0647  19.2238  19.3531  19.3743  19.4627  19.4764  19.5182
    19.6027  19.6217  19.6972  19.7075  19.8055  19.8313  19.8517  19.8750
    19.9086  19.9359  19.9628  19.9978  19.9993  20.0491  20.1025  20.1546
    20.2710  20.2910  20.3527  20.6204  20.7312  20.7942

          k = 0.2500-0.5000 0.0000 (  6380 PWs)   bands (ev):

   -67.4864 -67.4854 -67.4788 -67.4786 -67.4764 -67.4764 -67.4727 -67.4727
   -67.2525 -67.2525 -67.1495 -67.1495 -67.0488 -54.4669 -54.3218 -54.0868
   -33.7086 -33.7063 -33.6928 -33.6841 -33.6764 -33.6730 -33.6521 -33.6502
   -33.6148 -33.5951 -33.5824 -33.5815 -33.5778 -33.5754 -33.5482 -33.5442
   -33.5369 -33.5363 -33.5213 -33.5114 -33.4923 -33.4910 -33.4697 -33.4678
   -33.3289 -33.3282 -33.3111 -33.3108 -33.2857 -33.2652 -33.2073 -33.1938
   -33.1810 -33.1456 -33.1446 -33.1446 -33.1335 -33.0621 -33.0618 -25.7869
   -25.7869 -25.7773 -25.6985 -25.6983 -25.5368 -25.4811 -25.4811 -25.2477
    11.4135  11.4469  13.2740  13.3288  14.4152  14.5082  14.5176  14.5298
    14.9203  14.9441  14.9805  15.0478  15.1202  15.1573  15.2713  15.4952
    15.5271  15.6791  15.8486  16.0730  16.0828  16.1220  16.4087  16.4179
    16.4333  16.5312  16.6125  16.6351  16.7393  16.7674  16.7849  16.7872
    16.8715  16.8957  16.9405  17.0042  17.1115  17.1487  17.2856  17.2867
    17.3009  17.3259  17.3804  17.4210  17.5564  17.5674  18.3549  18.3588
    18.6232  18.6276  18.6529  18.6890  18.7482  18.8559  18.9420  18.9636
    18.9781  19.0410  19.1166  19.1282  19.1655  19.3443  19.3707  19.4617
    19.5019  19.6011  19.7066  19.7149  19.7285  19.8001  19.8313  19.9015
    19.9108  19.9706  19.9764  19.9917  20.0044  20.0985  20.1528  20.2276
    20.2311  20.2460  20.4144  20.4418  21.1076  21.1186

          k =-0.5000 0.0000 0.2500 (  6380 PWs)   bands (ev):

   -67.4860 -67.4858 -67.4787 -67.4786 -67.4764 -67.4764 -67.4727 -67.4727
   -67.2543 -67.2508 -67.1508 -67.1483 -67.0488 -54.4669 -54.3217 -54.0870
   -33.7140 -33.7037 -33.6889 -33.6881 -33.6811 -33.6802 -33.6473 -33.6463
   -33.6012 -33.5938 -33.5853 -33.5790 -33.5710 -33.5657 -33.5504 -33.5474
   -33.5453 -33.5315 -33.5263 -33.5195 -33.5022 -33.5019 -33.4628 -33.4601
   -33.3346 -33.3223 -33.3136 -33.2962 -33.2868 -33.2695 -33.2146 -33.1966
   -33.1733 -33.1611 -33.1444 -33.1335 -33.1300 -33.0626 -33.0618 -25.7871
   -25.7869 -25.7772 -25.6984 -25.6984 -25.5264 -25.4813 -25.4812 -25.2576
    11.4245  11.4357  13.2809  13.3156  14.4232  14.4675  14.5381  14.5569
    14.8831  14.9413  15.0079  15.0704  15.0986  15.2121  15.3335  15.5259
    15.5267  15.6762  15.8961  15.9972  16.0883  16.1045  16.1677  16.2383
    16.4282  16.5354  16.6512  16.6817  16.7245  16.7840  16.7871  16.8326
    16.8936  16.9271  16.9461  17.0971  17.1630  17.1749  17.2594  17.2896
    17.3649  17.3670  17.3728  17.3903  17.5035  17.5880  18.3310  18.3973
    18.6144  18.6561  18.6828  18.6950  18.8013  18.8345  18.8904  18.9577
    18.9806  19.0032  19.0338  19.1067  19.1381  19.2674  19.3581  19.5383
    19.5517  19.6366  19.6613  19.7061  19.7729  19.8531  19.8979  19.9068
    19.9305  19.9670  19.9837  19.9897  20.0048  20.0107  20.0908  20.2044
    20.2392  20.2456  20.4140  20.4462  21.1038  21.1165

          k =-0.5000-0.5000 0.0000 (  6416 PWs)   bands (ev):

   -67.4829 -67.4824 -67.4824 -67.4816 -67.4746 -67.4746 -67.4746 -67.4746
   -67.2525 -67.2525 -67.1496 -67.1495 -67.0488 -54.4670 -54.3218 -54.0870
   -33.7098 -33.7026 -33.6902 -33.6901 -33.6716 -33.6691 -33.6603 -33.6555
   -33.6093 -33.6022 -33.5926 -33.5872 -33.5765 -33.5662 -33.5502 -33.5398
   -33.5374 -33.5348 -33.5154 -33.5147 -33.4937 -33.4912 -33.4844 -33.4803
   -33.3383 -33.3339 -33.3072 -33.3048 -33.2995 -33.2662 -33.2165 -33.1964
   -33.1760 -33.1437 -33.1431 -33.1427 -33.1271 -33.0640 -33.0625 -25.7876
   -25.7872 -25.7779 -25.6988 -25.6987 -25.5269 -25.4818 -25.4816 -25.2583
    12.1893  12.2064  12.2093  12.2795  14.7239  14.7533  14.8554  14.9028
    14.9974  15.0198  15.0387  15.1822  15.3999  15.4001  15.4703  15.5193
    15.6240  15.6338  15.7195  15.9059  15.9197  16.2207  16.2332  16.2847
    16.3036  16.3101  16.4199  16.4615  16.4637  16.5057  16.5536  16.6078
    16.6387  16.8520  16.8784  17.0071  17.0275  17.0347  17.0502  17.1040
    17.3595  17.3896  17.4183  17.4240  17.8290  17.8419  17.9759  17.9924
    18.6119  18.6148  18.6886  18.6989  18.8031  18.8143  18.9258  18.9858
    18.9874  18.9886  19.0270  19.0278  19.1014  19.2142  19.4025  19.4278
    19.4404  19.4431  19.4708  19.6203  19.7851  19.7894  19.8628  19.8711
    19.8870  19.8935  19.8957  19.9116  19.9159  19.9891  19.9955  20.2396
    20.3840  20.3926  20.5310  20.5671  21.9767  21.9867

          k =-0.5000 0.2500 0.2500 (  6364 PWs)   bands (ev):

   -67.4847 -67.4845 -67.4784 -67.4780 -67.4775 -67.4772 -67.4736 -67.4736
   -67.2537 -67.2513 -67.1504 -67.1487 -67.0488 -54.4669 -54.3217 -54.0870
   -33.7074 -33.6982 -33.6836 -33.6826 -33.6818 -33.6808 -33.6501 -33.6489
   -33.5946 -33.5891 -33.5889 -33.5757 -33.5669 -33.5640 -33.5636 -33.5436
   -33.5331 -33.5262 -33.5251 -33.5238 -33.5045 -33.5028 -33.4800 -33.4730
   -33.3302 -33.3224 -33.3129 -33.2972 -33.2862 -33.2674 -33.2055 -33.1945
   -33.1797 -33.1558 -33.1425 -33.1326 -33.1324 -33.0622 -33.0610 -25.7869
   -25.7868 -25.7771 -25.6985 -25.6981 -25.5263 -25.4812 -25.4811 -25.2576
    11.7063  11.7223  13.5153  13.5312  13.5655  13.6258  14.7382  14.8466
    14.9984  15.0253  15.1015  15.2439  15.4045  15.4296  15.4413  15.6205
    15.6418  15.7614  15.9236  15.9569  16.0128  16.1417  16.1583  16.2741
    16.2877  16.5004  16.5151  16.5445  16.6147  16.6539  16.7008  16.7065
    16.7599  16.7771  16.8555  16.9094  17.0709  17.1064  17.1779  17.1836
    17.1879  17.1921  17.2170  17.2688  17.2906  17.3817  18.0319  18.0517
    18.6826  18.6970  18.8042  18.8426  18.8610  18.9536  18.9655  19.0711
    19.0934  19.1067  19.2244  19.2340  19.3067  19.4121  19.4882  19.6052
    19.6170  19.6753  19.7603  19.7986  19.8102  19.8323  19.8740  19.8932
    19.9254  19.9277  19.9774  19.9796  19.9904  20.0739  20.0939  20.1095
    20.1224  20.1615  20.1802  20.2219  20.2656  20.3098

          k =-0.5000-0.5000 0.2500 (  6360 PWs)   bands (ev):

   -67.4816 -67.4814 -67.4814 -67.4806 -67.4758 -67.4756 -67.4756 -67.4755
   -67.2525 -67.2525 -67.1495 -67.1495 -67.0488 -54.4669 -54.3217 -54.0870
   -33.7012 -33.6934 -33.6835 -33.6827 -33.6702 -33.6700 -33.6626 -33.6588
   -33.5936 -33.5891 -33.5779 -33.5740 -33.5723 -33.5637 -33.5585 -33.5460
   -33.5303 -33.5195 -33.5165 -33.5119 -33.5073 -33.5053 -33.5005 -33.4940
   -33.3371 -33.3284 -33.3002 -33.2989 -33.2910 -33.2610 -33.2025 -33.1933
   -33.1801 -33.1469 -33.1441 -33.1433 -33.1299 -33.0621 -33.0615 -25.7871
   -25.7868 -25.7770 -25.6986 -25.6981 -25.5262 -25.4814 -25.4810 -25.2575
    12.4741  12.4818  12.4913  12.5571  14.1460  14.2005  14.2224  14.2553
    15.2256  15.2548  15.3603  15.5233  15.5368  15.6494  15.6537  15.7614
    15.7793  15.7936  15.8023  15.9268  15.9679  16.1150  16.1788  16.2703
    16.2994  16.3327  16.3675  16.4272  16.4640  16.5122  16.5210  16.5215
    16.6549  16.7464  16.7602  16.8674  16.9291  16.9525  16.9671  17.0147
    17.1219  17.1294  17.1475  17.1961  17.3446  17.3722  17.4353  17.4438
    18.9575  19.0003  19.0081  19.0479  19.0736  19.0853  19.1241  19.1554
    19.1925  19.2046  19.2086  19.3438  19.3868  19.3884  19.5125  19.5170
    19.5171  19.5293  19.5937  19.7208  19.7799  19.7877  19.8132  19.8432
    19.8515  19.8557  19.8849  19.8952  19.9002  19.9201  19.9318  20.0893
    20.1028  20.1674  20.2241  20.2639  20.8758  20.8804

     the Fermi energy is    18.4716 ev

!    total energy              =   -5024.26415104 Ry
     total all-electron energy =    -39396.717116 Ry
     estimated scf accuracy    <       0.00000078 Ry
     smearing contrib. (-TS)   =      -0.00553940 Ry
     internal energy E=F+TS    =   -5024.25861163 Ry

     The total energy is F=E-TS. E is the sum of the following terms:
     one-electron contribution =   -1624.68761374 Ry
     hartree contribution      =     966.22417721 Ry
     xc contribution           =    -427.39487547 Ry
     ewald contribution        =   -2639.55871139 Ry
     one-center paw contrib.   =   -1298.84158824 Ry

     total magnetization       =    24.18 Bohr mag/cell
     absolute magnetization    =    34.38 Bohr mag/cell

     convergence has been achieved in  40 iterations


     Computing stress (Cartesian axis) and pressure


     negative rho (up, down):  0.000E+00 2.594E-03
          total   stress  (Ry/bohr**3)                   (kbar)     P=     -749.03
  -0.00498883   0.00000000   0.00000000         -733.88        0.00        0.00
   0.00000000  -0.00514332   0.00000000            0.00     -756.61        0.00
   0.00000000   0.00000000  -0.00514332            0.00        0.00     -756.61


     Writing all to output data dir ./tmp/fe13cr03_hydro_0.01.save/ :
     XML data file, charge density, pseudopotentials, collected wavefunctions

     init_run     :     64.05s CPU     66.52s WALL (       1 calls)
     electrons    :   8357.33s CPU   8517.68s WALL (       1 calls)
     stress       :    141.36s CPU    142.18s WALL (       1 calls)

     Called by init_run:
     wfcinit      :     58.78s CPU     59.60s WALL (       1 calls)
     potinit      :      3.38s CPU      4.41s WALL (       1 calls)
     hinit0       :      0.84s CPU      0.97s WALL (       1 calls)

     Called by electrons:
     c_bands      :   7566.44s CPU   7650.76s WALL (      40 calls)
     sum_band     :    618.28s CPU    661.89s WALL (      40 calls)
     v_of_rho     :      9.38s CPU      8.82s WALL (      41 calls)
     newd         :     39.31s CPU     53.36s WALL (      41 calls)
     PAW_pot      :    125.24s CPU    145.11s WALL (      41 calls)
     mix_rho      :      1.71s CPU      1.95s WALL (      40 calls)

     Called by c_bands:
     init_us_2    :     21.27s CPU     20.84s WALL (    2952 calls)
     cegterg      :   7510.89s CPU   7591.42s WALL (    1440 calls)

     Called by *egterg:
     cdiaghg      :    665.25s CPU    689.85s WALL (    7220 calls)
     h_psi        :   2387.58s CPU   2433.97s WALL (    7256 calls)
     s_psi        :    871.85s CPU    863.30s WALL (    7256 calls)
     g_psi        :      2.76s CPU      3.04s WALL (    5780 calls)

     Called by h_psi:
     h_psi:calbec :    914.44s CPU    926.76s WALL (    7256 calls)
     vloc_psi     :    572.39s CPU    623.76s WALL (    7256 calls)
                                        0.00s GPU  (    7256 calls)
     add_vuspsi   :    895.21s CPU    867.60s WALL (    7256 calls)

     General routines
     calbec       :   1449.92s CPU   1476.96s WALL (    9164 calls)
     fft          :      6.01s CPU      4.86s WALL (    1044 calls)
     ffts         :      0.42s CPU      0.46s WALL (     162 calls)
     fftw         :    644.92s CPU    698.88s WALL ( 1194780 calls)
     interpolate  :      0.82s CPU      0.94s WALL (      82 calls)

     Parallel routines

     PWSCF        :      2h22m CPU      2h25m WALL


   This run was terminated on:  12:57:28  25Apr2026            

=------------------------------------------------------------------------------=
   JOB DONE.
=------------------------------------------------------------------------------=
Note: The following floating-point exceptions are signalling: IEEE_DENORMAL
