
     Program PWSCF v.7.5 starts on 24Apr2026 at 14:48:29 

     This program is part of the open-source Quantum ESPRESSO suite
     for quantum simulation of materials; please cite
         "P. Giannozzi et al., J. Phys.:Condens. Matter 21 395502 (2009);
         "P. Giannozzi et al., J. Phys.:Condens. Matter 29 465901 (2017);
         "P. Giannozzi et al., J. Chem. Phys. 152 154105 (2020);
          URL http://www.quantum-espresso.org", 
     in publications or presentations arising from this work. More details at
     http://www.quantum-espresso.org/quote

     Parallel version (MPI), running on     4 processors

     MPI processes distributed on     1 nodes
     913 MiB available memory on the printing compute node when the environment starts

     Waiting for input...
     Reading input from standard input

     Current dimensions of program PWSCF are:
     Max number of different atomic species (ntypx) = 10
     Max number of k-points (npk) =  40000
     Max angular momentum in pseudopotentials (lmaxx) =  4
     file Fe.pbe-spn-kjpaw_psl.1.0.0.UPF: wavefunction(s)  3P 3D renormalized
     file Cr.pbe-spn-kjpaw_psl.1.0.0.UPF: wavefunction(s)  3S 3P 3D renormalized
     Found identity + ( -0.5000 -0.5000 -0.5000) symmetry
     This is a supercell, fractional translations are disabled
     Message from routine setup:
     using ibrav=0 with symmetry is DISCOURAGED, use correct ibrav instead

     R & G space division:  proc/nbgrp/npool/nimage =       4
     Subspace diagonalization in iterative solution of the eigenvalue problem:
     one sub-group per band group will be used
     custom distributed-memory algorithm (size of sub-group:  2*  2 procs)


     Parallelization info
     --------------------
     sticks:   dense  smooth     PW     G-vecs:    dense   smooth      PW
     Min         799     400    115                34024    12073    1873
     Max         800     402    117                34025    12076    1875
     Sum        3197    1605    465               136099    48297    7497

     Using Slab Decomposition



     bravais-lattice index     =            0
     lattice parameter (alat)  =      10.5674  a.u.
     unit-cell volume          =    1180.0766 (a.u.)^3
     number of atoms/cell      =           16
     number of atomic types    =            2
     number of electrons       =       252.00
     number of Kohn-Sham states=          151
     kinetic-energy cutoff     =      45.0000  Ry
     charge density cutoff     =     360.0000  Ry
     scf convergence threshold =      1.0E-06
     mixing beta               =       0.3000
     number of iterations used =            8  plain     mixing
     Exchange-correlation= SLA  PW   PBX  PBC
                           (   1   4   3   4   0   0   0)

     celldm(1)=  10.567447  celldm(2)=   0.000000  celldm(3)=   0.000000
     celldm(4)=   0.000000  celldm(5)=   0.000000  celldm(6)=   0.000000

     crystal axes: (cart. coord. in units of alat)
               a(1) = (   1.000000   0.000000   0.000000 )  
               a(2) = (   0.000000   1.000000   0.000000 )  
               a(3) = (   0.000000   0.000000   1.000000 )  

     reciprocal axes: (cart. coord. in units 2 pi/alat)
               b(1) = (  1.000000  0.000000  0.000000 )  
               b(2) = (  0.000000  1.000000  0.000000 )  
               b(3) = (  0.000000  0.000000  1.000000 )  


     PseudoPot. # 1 for Fe read from file:
     ./pseudo/Fe.pbe-spn-kjpaw_psl.1.0.0.UPF
     MD5 check sum: fc81f059e5c5069939230b1155715ae8
     Pseudo is Projector augmented-wave + core cor, Zval = 16.0
     Generated using &quot;atomic&quot; code by A. Dal Corso  v.6.3
     Shape of augmentation charge: PSQ
     Using radial grid of 1191 points,  6 beta functions with: 
                l(1) =   0
                l(2) =   0
                l(3) =   1
                l(4) =   1
                l(5) =   2
                l(6) =   2
     Q(r) pseudized with 0 coefficients 


     PseudoPot. # 2 for Cr read from file:
     ./pseudo/Cr.pbe-spn-kjpaw_psl.1.0.0.UPF
     MD5 check sum: 198f1a2427a48552563eee314eba32ba
     Pseudo is Projector augmented-wave + core cor, Zval = 14.0
     Generated using &quot;atomic&quot; code by A. Dal Corso  v.6.3
     Shape of augmentation charge: PSQ
     Using radial grid of 1183 points,  6 beta functions with: 
                l(1) =   0
                l(2) =   0
                l(3) =   1
                l(4) =   1
                l(5) =   2
                l(6) =   2
     Q(r) pseudized with 0 coefficients 


     atomic species   valence    mass     pseudopotential
     Fe               16.00    55.84500     Fe( 1.00)
     Cr               14.00    51.99600     Cr( 1.00)

     Starting magnetic structure 
     atomic species   magnetization
     Fe              0.500
     Cr              0.300

     48 Sym. Ops., with inversion, found



   Cartesian axes

     site n.     atom                  positions (alat units)
         1        Cr     tau(   1) = (   0.0000000   0.0000000   0.0000000  )
         2        Fe     tau(   2) = (   0.2500000   0.2500000   0.2500000  )
         3        Fe     tau(   3) = (   0.0000000   0.0000000   0.5000000  )
         4        Fe     tau(   4) = (   0.2500000   0.2500000   0.7500000  )
         5        Fe     tau(   5) = (   0.0000000   0.5000000   0.0000000  )
         6        Fe     tau(   6) = (   0.2500000   0.7500000   0.2500000  )
         7        Fe     tau(   7) = (   0.0000000   0.5000000   0.5000000  )
         8        Fe     tau(   8) = (   0.2500000   0.7500000   0.7500000  )
         9        Fe     tau(   9) = (   0.5000000   0.0000000   0.0000000  )
        10        Fe     tau(  10) = (   0.7500000   0.2500000   0.2500000  )
        11        Fe     tau(  11) = (   0.5000000   0.0000000   0.5000000  )
        12        Fe     tau(  12) = (   0.7500000   0.2500000   0.7500000  )
        13        Fe     tau(  13) = (   0.5000000   0.5000000   0.0000000  )
        14        Fe     tau(  14) = (   0.7500000   0.7500000   0.2500000  )
        15        Cr     tau(  15) = (   0.5000000   0.5000000   0.5000000  )
        16        Fe     tau(  16) = (   0.7500000   0.7500000   0.7500000  )

     number of k points=    10  Marzari-Vanderbilt smearing, width (Ry)=  0.0200
                       cart. coord. in units 2pi/alat
        k(    1) = (   0.0000000   0.0000000   0.0000000), wk =   0.0156250
        k(    2) = (   0.0000000   0.0000000   0.2500000), wk =   0.0937500
        k(    3) = (   0.0000000   0.0000000  -0.5000000), wk =   0.0468750
        k(    4) = (   0.0000000   0.2500000   0.2500000), wk =   0.1875000
        k(    5) = (   0.0000000   0.2500000  -0.5000000), wk =   0.1875000
        k(    6) = (   0.0000000  -0.5000000  -0.5000000), wk =   0.0468750
        k(    7) = (   0.2500000   0.2500000   0.2500000), wk =   0.1250000
        k(    8) = (   0.2500000   0.2500000  -0.5000000), wk =   0.1875000
        k(    9) = (   0.2500000  -0.5000000  -0.5000000), wk =   0.0937500
        k(   10) = (  -0.5000000  -0.5000000  -0.5000000), wk =   0.0156250

     Dense  grid:   136099 G-vectors     FFT dimensions: (  64,  64,  64)

     Smooth grid:    48297 G-vectors     FFT dimensions: (  45,  45,  45)

     Estimated max dynamical RAM per process >     219.96 MB

     Estimated total dynamical RAM >     879.85 MB

     Check: negative core charge=   -0.000005
     Generating pointlists ...
     new r_m :   0.1786 (alat units)  1.8875 (a.u.) for type    1
     new r_m :   0.1786 (alat units)  1.8875 (a.u.) for type    2

     Initial potential from superposition of free atoms

     starting charge     251.9923, renormalised to     252.0000
     Starting wfcs are  160 randomized atomic wfcs
     Checking if some PAW data can be deallocated... 

     total cpu time spent up to now is       37.7 secs

     Self-consistent Calculation

     iteration #  1     ecut=    45.00 Ry     beta= 0.30
     Davidson diagonalization with overlap
     ethr =  1.00E-02,  avg # of iterations =  2.8

     total cpu time spent up to now is      163.0 secs

     total energy              =   -5099.61702180 Ry
     estimated scf accuracy    <      11.88032123 Ry

     total magnetization       =    49.94 Bohr mag/cell
     absolute magnetization    =    51.25 Bohr mag/cell

     iteration #  2     ecut=    45.00 Ry     beta= 0.30
     Davidson diagonalization with overlap
     ethr =  4.71E-03,  avg # of iterations =  7.2

     total cpu time spent up to now is      284.3 secs

     total energy              =   -5101.02801295 Ry
     estimated scf accuracy    <      29.74685475 Ry

     total magnetization       =    38.73 Bohr mag/cell
     absolute magnetization    =    40.19 Bohr mag/cell

     iteration #  3     ecut=    45.00 Ry     beta= 0.30
     Davidson diagonalization with overlap
     ethr =  4.71E-03,  avg # of iterations =  3.1

     negative rho (up, down):  0.000E+00 1.967E-03

     total cpu time spent up to now is      392.1 secs

     total energy              =   -5102.11850533 Ry
     estimated scf accuracy    <       7.77662555 Ry

     total magnetization       =    43.25 Bohr mag/cell
     absolute magnetization    =    44.38 Bohr mag/cell

     iteration #  4     ecut=    45.00 Ry     beta= 0.30
     Davidson diagonalization with overlap
     ethr =  3.09E-03,  avg # of iterations =  5.6

     negative rho (up, down):  0.000E+00 1.060E-02

     total cpu time spent up to now is      514.6 secs

     total energy              =   -5105.40225446 Ry
     estimated scf accuracy    <      11.75826004 Ry

     total magnetization       =    47.20 Bohr mag/cell
     absolute magnetization    =    47.97 Bohr mag/cell

     iteration #  5     ecut=    45.00 Ry     beta= 0.30
     Davidson diagonalization with overlap
     ethr =  3.09E-03,  avg # of iterations =  4.3

     negative rho (up, down):  0.000E+00 1.089E-02

     total cpu time spent up to now is      627.4 secs

     total energy              =   -5105.77591773 Ry
     estimated scf accuracy    <      23.35445810 Ry

     total magnetization       =    37.78 Bohr mag/cell
     absolute magnetization    =    39.32 Bohr mag/cell

     iteration #  6     ecut=    45.00 Ry     beta= 0.30
     Davidson diagonalization with overlap
     ethr =  3.09E-03,  avg # of iterations =  1.1

     negative rho (up, down):  0.000E+00 1.078E-02

     total cpu time spent up to now is      717.3 secs

     total energy              =   -5105.65421222 Ry
     estimated scf accuracy    <      17.26554766 Ry

     total magnetization       =    36.41 Bohr mag/cell
     absolute magnetization    =    38.00 Bohr mag/cell

     iteration #  7     ecut=    45.00 Ry     beta= 0.30
     Davidson diagonalization with overlap
     ethr =  3.09E-03,  avg # of iterations =  1.0

     negative rho (up, down):  0.000E+00 1.061E-02

     total cpu time spent up to now is      806.7 secs

     total energy              =   -5105.48060194 Ry
     estimated scf accuracy    <      12.37845894 Ry

     total magnetization       =    35.28 Bohr mag/cell
     absolute magnetization    =    36.99 Bohr mag/cell

     iteration #  8     ecut=    45.00 Ry     beta= 0.30
     Davidson diagonalization with overlap
     ethr =  3.09E-03,  avg # of iterations =  1.0

     negative rho (up, down):  0.000E+00 9.984E-03

     total cpu time spent up to now is      895.2 secs

     total energy              =   -5105.28209071 Ry
     estimated scf accuracy    <       8.49816001 Ry

     total magnetization       =    34.17 Bohr mag/cell
     absolute magnetization    =    36.00 Bohr mag/cell

     iteration #  9     ecut=    45.00 Ry     beta= 0.30
     Davidson diagonalization with overlap
     ethr =  3.09E-03,  avg # of iterations =  1.0

     negative rho (up, down):  0.000E+00 8.665E-03

     total cpu time spent up to now is      984.1 secs

     total energy              =   -5105.26978368 Ry
     estimated scf accuracy    <       3.82093633 Ry

     total magnetization       =    32.09 Bohr mag/cell
     absolute magnetization    =    34.18 Bohr mag/cell

     iteration # 10     ecut=    45.00 Ry     beta= 0.30
     Davidson diagonalization with overlap
     ethr =  1.52E-03,  avg # of iterations =  1.1

     negative rho (up, down):  0.000E+00 6.141E-03

     total cpu time spent up to now is     1075.8 secs

     total energy              =   -5105.09600187 Ry
     estimated scf accuracy    <       2.43311069 Ry

     total magnetization       =    30.71 Bohr mag/cell
     absolute magnetization    =    32.85 Bohr mag/cell

     iteration # 11     ecut=    45.00 Ry     beta= 0.30
     Davidson diagonalization with overlap
     ethr =  9.66E-04,  avg # of iterations =  1.6

     negative rho (up, down):  0.000E+00 4.767E-03

     total cpu time spent up to now is     1171.7 secs

     total energy              =   -5105.24430857 Ry
     estimated scf accuracy    <       0.17874847 Ry

     total magnetization       =    27.90 Bohr mag/cell
     absolute magnetization    =    30.35 Bohr mag/cell

     iteration # 12     ecut=    45.00 Ry     beta= 0.30
     Davidson diagonalization with overlap
     ethr =  7.09E-05,  avg # of iterations =  6.2

     negative rho (up, down):  0.000E+00 4.461E-03

     total cpu time spent up to now is     1290.2 secs

     total energy              =   -5105.24728483 Ry
     estimated scf accuracy    <       0.52326050 Ry

     total magnetization       =    27.89 Bohr mag/cell
     absolute magnetization    =    30.34 Bohr mag/cell

     iteration # 13     ecut=    45.00 Ry     beta= 0.30
     Davidson diagonalization with overlap
     ethr =  7.09E-05,  avg # of iterations =  1.1

     negative rho (up, down):  0.000E+00 4.189E-03

     total cpu time spent up to now is     1379.9 secs

     total energy              =   -5105.25192776 Ry
     estimated scf accuracy    <       0.18772222 Ry

     total magnetization       =    27.94 Bohr mag/cell
     absolute magnetization    =    30.55 Bohr mag/cell

     iteration # 14     ecut=    45.00 Ry     beta= 0.30
     Davidson diagonalization with overlap
     ethr =  7.09E-05,  avg # of iterations =  1.1

     negative rho (up, down):  0.000E+00 3.931E-03

     total cpu time spent up to now is     1469.4 secs

     total energy              =   -5105.25003577 Ry
     estimated scf accuracy    <       0.11434921 Ry

     total magnetization       =    28.03 Bohr mag/cell
     absolute magnetization    =    30.73 Bohr mag/cell

     iteration # 15     ecut=    45.00 Ry     beta= 0.30
     Davidson diagonalization with overlap
     ethr =  4.54E-05,  avg # of iterations =  3.0

     negative rho (up, down):  0.000E+00 3.371E-03

     total cpu time spent up to now is     1572.0 secs

     total energy              =   -5105.25726148 Ry
     estimated scf accuracy    <       0.03428241 Ry

     total magnetization       =    28.09 Bohr mag/cell
     absolute magnetization    =    30.87 Bohr mag/cell

     iteration # 16     ecut=    45.00 Ry     beta= 0.30
     Davidson diagonalization with overlap
     ethr =  1.36E-05,  avg # of iterations =  5.0

     negative rho (up, down):  0.000E+00 3.234E-03

     total cpu time spent up to now is     1684.9 secs

     total energy              =   -5105.26367196 Ry
     estimated scf accuracy    <       0.00958407 Ry

     total magnetization       =    27.65 Bohr mag/cell
     absolute magnetization    =    31.19 Bohr mag/cell

     iteration # 17     ecut=    45.00 Ry     beta= 0.30
     Davidson diagonalization with overlap
     ethr =  3.80E-06,  avg # of iterations =  5.5

     negative rho (up, down):  0.000E+00 2.879E-03

     total cpu time spent up to now is     1801.6 secs

     total energy              =   -5105.26578019 Ry
     estimated scf accuracy    <       0.00845263 Ry

     total magnetization       =    27.52 Bohr mag/cell
     absolute magnetization    =    31.66 Bohr mag/cell

     iteration # 18     ecut=    45.00 Ry     beta= 0.30
     Davidson diagonalization with overlap
     ethr =  3.35E-06,  avg # of iterations =  4.6

     negative rho (up, down):  0.000E+00 3.094E-03

     total cpu time spent up to now is     1916.2 secs

     total energy              =   -5105.26733121 Ry
     estimated scf accuracy    <       0.00491477 Ry

     total magnetization       =    27.36 Bohr mag/cell
     absolute magnetization    =    31.85 Bohr mag/cell

     iteration # 19     ecut=    45.00 Ry     beta= 0.30
     Davidson diagonalization with overlap
     ethr =  1.95E-06,  avg # of iterations =  6.0

     negative rho (up, down):  0.000E+00 3.334E-03

     total cpu time spent up to now is     2038.8 secs

     total energy              =   -5105.26937238 Ry
     estimated scf accuracy    <       0.00096858 Ry

     total magnetization       =    27.28 Bohr mag/cell
     absolute magnetization    =    32.32 Bohr mag/cell

     iteration # 20     ecut=    45.00 Ry     beta= 0.30
     Davidson diagonalization with overlap
     ethr =  3.84E-07,  avg # of iterations =  5.7

     negative rho (up, down):  0.000E+00 3.511E-03

     total cpu time spent up to now is     2161.0 secs

     total energy              =   -5105.26991018 Ry
     estimated scf accuracy    <       0.00096416 Ry

     total magnetization       =    27.11 Bohr mag/cell
     absolute magnetization    =    32.51 Bohr mag/cell

     iteration # 21     ecut=    45.00 Ry     beta= 0.30
     Davidson diagonalization with overlap
     ethr =  3.83E-07,  avg # of iterations =  5.2

     negative rho (up, down):  0.000E+00 3.550E-03

     total cpu time spent up to now is     2284.1 secs

     total energy              =   -5105.27060319 Ry
     estimated scf accuracy    <       0.00030582 Ry

     total magnetization       =    27.00 Bohr mag/cell
     absolute magnetization    =    32.85 Bohr mag/cell

     iteration # 22     ecut=    45.00 Ry     beta= 0.30
     Davidson diagonalization with overlap
     ethr =  1.21E-07,  avg # of iterations =  6.0

     negative rho (up, down):  0.000E+00 3.566E-03

     total cpu time spent up to now is     2426.3 secs

     total energy              =   -5105.27117578 Ry
     estimated scf accuracy    <       0.00016085 Ry

     total magnetization       =    26.96 Bohr mag/cell
     absolute magnetization    =    33.18 Bohr mag/cell

     iteration # 23     ecut=    45.00 Ry     beta= 0.30
     Davidson diagonalization with overlap
     ethr =  6.38E-08,  avg # of iterations =  3.8

     negative rho (up, down):  0.000E+00 3.517E-03

     total cpu time spent up to now is     2551.7 secs

     total energy              =   -5105.27116525 Ry
     estimated scf accuracy    <       0.00027663 Ry

     total magnetization       =    26.94 Bohr mag/cell
     absolute magnetization    =    33.27 Bohr mag/cell

     iteration # 24     ecut=    45.00 Ry     beta= 0.30
     Davidson diagonalization with overlap
     ethr =  6.38E-08,  avg # of iterations =  5.2

     negative rho (up, down):  0.000E+00 3.496E-03

     total cpu time spent up to now is     2678.3 secs

     total energy              =   -5105.27135194 Ry
     estimated scf accuracy    <       0.00009712 Ry

     total magnetization       =    26.92 Bohr mag/cell
     absolute magnetization    =    33.44 Bohr mag/cell

     iteration # 25     ecut=    45.00 Ry     beta= 0.30
     Davidson diagonalization with overlap
     ethr =  3.85E-08,  avg # of iterations =  3.6

     negative rho (up, down):  0.000E+00 3.499E-03

     total cpu time spent up to now is     2790.1 secs

     total energy              =   -5105.27138840 Ry
     estimated scf accuracy    <       0.00002852 Ry

     total magnetization       =    26.90 Bohr mag/cell
     absolute magnetization    =    33.47 Bohr mag/cell

     iteration # 26     ecut=    45.00 Ry     beta= 0.30
     Davidson diagonalization with overlap
     ethr =  1.13E-08,  avg # of iterations =  4.2

     negative rho (up, down):  0.000E+00 3.498E-03

     total cpu time spent up to now is     2905.7 secs

     total energy              =   -5105.27139540 Ry
     estimated scf accuracy    <       0.00001767 Ry

     total magnetization       =    26.89 Bohr mag/cell
     absolute magnetization    =    33.49 Bohr mag/cell

     iteration # 27     ecut=    45.00 Ry     beta= 0.30
     Davidson diagonalization with overlap
     ethr =  7.01E-09,  avg # of iterations =  3.0

     negative rho (up, down):  0.000E+00 3.503E-03

     total cpu time spent up to now is     3013.2 secs

     total energy              =   -5105.27139807 Ry
     estimated scf accuracy    <       0.00001485 Ry

     total magnetization       =    26.89 Bohr mag/cell
     absolute magnetization    =    33.50 Bohr mag/cell

     iteration # 28     ecut=    45.00 Ry     beta= 0.30
     Davidson diagonalization with overlap
     ethr =  5.89E-09,  avg # of iterations =  3.4

     negative rho (up, down):  0.000E+00 3.507E-03

     total cpu time spent up to now is     3125.5 secs

     total energy              =   -5105.27140000 Ry
     estimated scf accuracy    <       0.00000455 Ry

     total magnetization       =    26.89 Bohr mag/cell
     absolute magnetization    =    33.51 Bohr mag/cell

     iteration # 29     ecut=    45.00 Ry     beta= 0.30
     Davidson diagonalization with overlap
     ethr =  1.80E-09,  avg # of iterations =  4.3

     negative rho (up, down):  0.000E+00 3.508E-03

     Magnetic moment per site  (integrated on atomic sphere of radius R)
     atom   1 (R=0.179)  charge= 12.0680  magn= -1.1468
     atom   2 (R=0.179)  charge= 14.3826  magn=  2.0425
     atom   3 (R=0.179)  charge= 14.3669  magn=  2.2694
     atom   4 (R=0.179)  charge= 14.3826  magn=  2.0425
     atom   5 (R=0.179)  charge= 14.3669  magn=  2.2694
     atom   6 (R=0.179)  charge= 14.3826  magn=  2.0425
     atom   7 (R=0.179)  charge= 14.3665  magn=  2.2696
     atom   8 (R=0.179)  charge= 14.3826  magn=  2.0425
     atom   9 (R=0.179)  charge= 14.3669  magn=  2.2694
     atom  10 (R=0.179)  charge= 14.3826  magn=  2.0425
     atom  11 (R=0.179)  charge= 14.3665  magn=  2.2696
     atom  12 (R=0.179)  charge= 14.3826  magn=  2.0425
     atom  13 (R=0.179)  charge= 14.3665  magn=  2.2696
     atom  14 (R=0.179)  charge= 14.3826  magn=  2.0425
     atom  15 (R=0.179)  charge= 12.0678  magn= -1.1512
     atom  16 (R=0.179)  charge= 14.3826  magn=  2.0425

     total cpu time spent up to now is     3247.0 secs

     End of self-consistent calculation

 ------ SPIN UP ------------


          k = 0.0000 0.0000 0.0000 (  6031 PWs)   bands (ev):

   -68.7963 -68.7373 -68.7373 -68.7311 -68.7311 -68.7277 -68.7029 -68.7029
   -68.7029 -68.6966 -68.6966 -68.6966 -68.6899 -68.6535 -51.8447 -51.8409
   -34.9800 -34.9800 -34.9800 -34.9682 -34.9682 -34.9682 -34.8433 -34.8374
   -34.8374 -34.8374 -34.7932 -34.7932 -34.7932 -34.7904 -34.7904 -34.7904
   -34.7709 -34.7603 -34.7603 -34.7603 -34.7185 -34.7185 -34.6961 -34.6961
   -34.6961 -34.6723 -34.6723 -34.6723 -34.6607 -34.6607 -34.6607 -34.6441
   -34.6441 -34.6410 -34.6410 -34.6410 -34.5178 -34.5178 -34.5178 -34.5027
   -34.5027 -34.5027 -23.1924 -23.1924 -23.1924 -23.1816 -23.1816 -23.1816
    10.7459  14.2941  14.2941  14.2941  14.3306  14.3306  14.4023  14.4023
    14.4090  14.6035  14.6035  14.6035  14.6264  14.6264  14.8217  15.8926
    15.8926  15.8926  16.1040  16.1040  16.1040  16.1306  16.1306  16.1306
    16.1986  16.1986  16.1986  16.2649  16.2649  16.2649  16.3123  16.6598
    16.6598  17.2503  17.2503  17.2503  17.5060  17.5060  17.5060  17.5250
    17.5250  17.5250  17.5758  17.5758  17.5758  17.9486  17.9486  17.9486
    18.2465  18.3586  18.3586  18.3831  18.3831  18.4100  18.4984  18.4984
    18.5601  18.5601  18.5601  18.5775  18.5775  18.5775  18.5829  18.6846
    18.6846  19.0291  19.0291  19.5707  19.5707  19.5707  19.7703  19.7703
    19.7703  19.7712  19.7712  19.7712  19.8173  19.8173  19.9210  19.9210
    19.9210  19.9621  20.0594  20.0594  20.0594  20.6595  20.6595

          k = 0.0000 0.0000 0.2500 (  6023 PWs)   bands (ev):

   -68.7905 -68.7520 -68.7365 -68.7318 -68.7306 -68.7289 -68.7020 -68.7020
   -68.6974 -68.6974 -68.6955 -68.6909 -68.6890 -68.6578 -51.8447 -51.8410
   -34.9557 -34.9557 -34.9510 -34.9508 -34.9468 -34.9468 -34.8682 -34.8440
   -34.8440 -34.8400 -34.8271 -34.8271 -34.8221 -34.8216 -34.8216 -34.8046
   -34.7921 -34.7773 -34.7773 -34.7691 -34.7451 -34.7013 -34.7013 -34.6715
   -34.6698 -34.6675 -34.6636 -34.6636 -34.6445 -34.6412 -34.6397 -34.6230
   -34.6230 -34.6219 -34.6060 -34.6060 -34.5407 -34.5304 -34.5304 -34.5157
   -34.5153 -34.5153 -23.1919 -23.1911 -23.1911 -23.1826 -23.1826 -23.1826
    11.0801  13.3881  14.4008  14.4008  14.4372  14.4733  14.5416  14.5439
    14.5497  14.6165  14.6840  14.6840  14.7202  14.8120  15.1125  15.5955
    15.8379  15.8747  15.9329  15.9329  15.9361  15.9361  16.0524  16.1982
    16.1982  16.2483  16.2483  16.2744  16.3120  16.6281  16.6281  16.6468
    17.0725  17.1324  17.1324  17.1954  17.2301  17.2301  17.3483  17.3483
    17.3505  17.3910  17.7647  17.8228  17.8359  17.8359  17.8694  17.8694
    17.9003  18.0267  18.0811  18.2189  18.3477  18.3621  18.3621  18.4264
    18.4264  18.4654  18.4898  18.5901  18.5942  18.6344  18.6507  18.6507
    18.6622  18.8159  18.8215  18.8392  19.0930  19.4609  19.5208  19.5609
    19.5609  19.6506  19.6506  19.6659  19.6884  19.8018  19.9512  20.0145
    20.0145  20.0663  20.0663  20.6244  20.6244  20.6916  20.9619

          k = 0.0000 0.0000-0.5000 (  6062 PWs)   bands (ev):

   -68.7742 -68.7741 -68.7345 -68.7340 -68.7299 -68.7298 -68.6998 -68.6998
   -68.6998 -68.6998 -68.6932 -68.6932 -68.6704 -68.6703 -51.8447 -51.8411
   -34.9188 -34.9186 -34.9060 -34.9060 -34.9058 -34.9058 -34.9008 -34.9008
   -34.9008 -34.9008 -34.8955 -34.8953 -34.8429 -34.8428 -34.8039 -34.8039
   -34.8038 -34.8038 -34.7799 -34.7799 -34.7047 -34.7046 -34.6811 -34.6811
   -34.6810 -34.6810 -34.6593 -34.6593 -34.6412 -34.6412 -34.5929 -34.5928
   -34.5637 -34.5637 -34.5635 -34.5635 -34.5625 -34.5623 -34.5574 -34.5574
   -34.5574 -34.5574 -23.1900 -23.1889 -23.1889 -23.1865 -23.1854 -23.1854
    12.0320  12.0320  14.6133  14.6133  14.6135  14.6135  14.6585  14.6586
    14.6965  14.6966  14.8925  14.8926  14.9699  14.9701  15.1716  15.1718
    15.1979  15.1980  15.9193  15.9193  15.9195  15.9195  16.4584  16.4585
    16.5543  16.5543  16.5544  16.5544  16.7214  16.7216  16.7273  16.7276
    16.7309  16.7309  16.7310  16.7310  17.1620  17.1622  17.2031  17.2031
    17.2033  17.2033  17.4950  17.4950  17.4951  17.4951  17.6328  17.6330
    17.8111  17.8112  18.1202  18.1204  18.2748  18.2748  18.2750  18.2750
    18.3223  18.3224  18.6143  18.6145  18.6269  18.6269  18.6374  18.6374
    18.9719  18.9719  18.9721  18.9721  19.3244  19.3250  19.3447  19.3447
    19.3640  19.3647  19.4033  19.4035  19.8814  19.8814  19.8818  19.8818
    20.4301  20.4301  20.4313  20.4313  20.5596  20.5614  20.9738

          k = 0.0000 0.2500 0.2500 (  6016 PWs)   bands (ev):

   -68.7850 -68.7534 -68.7447 -68.7347 -68.7308 -68.7304 -68.7011 -68.6963
   -68.6963 -68.6958 -68.6930 -68.6919 -68.6868 -68.6617 -51.8447 -51.8410
   -34.9551 -34.9487 -34.9348 -34.9312 -34.9248 -34.9108 -34.8970 -34.8784
   -34.8631 -34.8545 -34.8463 -34.8459 -34.8218 -34.8196 -34.8130 -34.8033
   -34.7710 -34.7692 -34.7626 -34.7600 -34.7526 -34.7314 -34.7250 -34.6863
   -34.6793 -34.6754 -34.6692 -34.6688 -34.6477 -34.6279 -34.6190 -34.6158
   -34.6134 -34.5894 -34.5817 -34.5785 -34.5666 -34.5414 -34.5371 -34.5234
   -34.5222 -34.5085 -23.1932 -23.1903 -23.1889 -23.1854 -23.1833 -23.1809
    11.4047  13.5286  13.6495  14.2502  14.6394  14.6424  14.6507  14.6543
    14.7140  14.7207  14.7394  14.8232  14.8988  15.1429  15.1968  15.6511
    15.6949  15.7135  15.7342  16.0115  16.0256  16.0402  16.0474  16.0770
    16.1881  16.1887  16.2523  16.3062  16.4630  16.5219  16.5524  16.8340
    16.8604  16.9271  16.9330  17.0676  17.1356  17.1746  17.2029  17.2689
    17.5522  17.5528  17.6178  17.6489  17.6987  17.7293  17.7405  17.7477
    17.8665  17.8911  17.9895  18.0321  18.0473  18.2217  18.2848  18.3003
    18.3916  18.4725  18.4972  18.5092  18.5196  18.5666  18.5930  18.6735
    18.7522  18.7644  18.8349  18.9492  18.9676  18.9894  19.0413  19.2029
    19.2366  19.2414  19.6199  19.7332  19.8152  19.8994  19.9814  20.0438
    20.1277  20.3962  20.4615  20.5986  20.6673  21.1283  21.4201

          k = 0.0000 0.2500-0.5000 (  6018 PWs)   bands (ev):

   -68.7704 -68.7703 -68.7416 -68.7412 -68.7308 -68.7308 -68.6988 -68.6988
   -68.6941 -68.6941 -68.6930 -68.6930 -68.6726 -68.6725 -51.8447 -51.8411
   -34.9307 -34.9306 -34.9205 -34.9204 -34.8999 -34.8996 -34.8951 -34.8951
   -34.8918 -34.8917 -34.8443 -34.8442 -34.8369 -34.8369 -34.8098 -34.8097
   -34.7731 -34.7731 -34.7720 -34.7720 -34.7285 -34.7284 -34.7066 -34.7066
   -34.6968 -34.6967 -34.6648 -34.6648 -34.6360 -34.6359 -34.6168 -34.6167
   -34.5747 -34.5746 -34.5723 -34.5722 -34.5532 -34.5532 -34.5405 -34.5405
   -34.5256 -34.5256 -23.1917 -23.1915 -23.1885 -23.1850 -23.1832 -23.1830
    12.3171  12.3171  13.9908  13.9909  14.8489  14.8490  14.8999  14.9000
    14.9466  14.9467  15.0409  15.0411  15.1247  15.1249  15.2478  15.2479
    15.2716  15.2716  15.9904  15.9905  15.9960  15.9961  16.2318  16.2319
    16.2426  16.2427  16.3458  16.3458  16.4808  16.4808  16.8051  16.8051
    16.8876  16.8876  16.9282  16.9283  16.9821  16.9822  17.0023  17.0024
    17.0382  17.0384  17.0858  17.0860  17.3918  17.3920  17.9247  17.9247
    18.0172  18.0173  18.1009  18.1009  18.1477  18.1477  18.2584  18.2584
    18.3089  18.3090  18.4143  18.4143  18.5486  18.5488  18.6742  18.6742
    18.6871  18.6871  18.7644  18.7645  18.8338  18.8339  19.0741  19.0742
    19.2164  19.2168  19.6500  19.6501  20.0071  20.0072  20.0815  20.0836
    20.2846  20.2847  20.4031  20.4036  21.2591  21.2593  21.3980

          k = 0.0000-0.5000-0.5000 (  6024 PWs)   bands (ev):

   -68.7639 -68.7639 -68.7512 -68.7508 -68.7309 -68.7309 -68.6964 -68.6964
   -68.6964 -68.6964 -68.6862 -68.6861 -68.6763 -68.6763 -51.8447 -51.8411
   -34.9341 -34.9340 -34.9326 -34.9325 -34.9036 -34.9036 -34.8935 -34.8932
   -34.8883 -34.8883 -34.8190 -34.8190 -34.8128 -34.8128 -34.7856 -34.7854
   -34.7584 -34.7583 -34.7550 -34.7550 -34.7427 -34.7425 -34.7411 -34.7411
   -34.7339 -34.7339 -34.6723 -34.6723 -34.6712 -34.6712 -34.5970 -34.5970
   -34.5872 -34.5870 -34.5770 -34.5770 -34.5492 -34.5492 -34.5302 -34.5302
   -34.5122 -34.5121 -23.1933 -23.1933 -23.1888 -23.1853 -23.1817 -23.1817
    13.0148  13.0148  13.1436  13.1437  15.0005  15.0005  15.1166  15.1169
    15.2251  15.2251  15.2311  15.2312  15.3356  15.3356  15.3990  15.3991
    15.5561  15.5561  15.6829  15.6831  15.9288  15.9288  15.9761  15.9761
    16.1110  16.1110  16.1890  16.1893  16.4886  16.4887  16.6323  16.6323
    16.6549  16.6549  16.6893  16.6893  16.7966  16.7968  16.7996  16.7996
    16.8888  16.8888  17.3450  17.3452  17.4545  17.4545  17.6734  17.6734
    18.0837  18.0837  18.1918  18.1918  18.3060  18.3060  18.3181  18.3182
    18.3362  18.3364  18.3497  18.3497  18.3692  18.3692  18.4247  18.4249
    18.4295  18.4295  18.8230  18.8230  18.8474  18.8474  18.8990  18.8990
    18.9634  18.9642  19.8105  19.8105  19.8116  19.8116  20.0200  20.0223
    20.4825  20.4825  20.5337  20.5352  21.9735  21.9735  22.0088

          k = 0.2500 0.2500 0.2500 (  6007 PWs)   bands (ev):

   -68.7800 -68.7507 -68.7507 -68.7352 -68.7351 -68.7351 -68.6975 -68.6971
   -68.6942 -68.6942 -68.6920 -68.6876 -68.6876 -68.6651 -51.8446 -51.8410
   -34.9397 -34.9397 -34.9379 -34.9360 -34.9094 -34.9003 -34.9003 -34.8862
   -34.8862 -34.8391 -34.8391 -34.8347 -34.8275 -34.8275 -34.8175 -34.7982
   -34.7899 -34.7899 -34.7633 -34.7564 -34.7564 -34.7488 -34.7193 -34.7098
   -34.7098 -34.6683 -34.6337 -34.6337 -34.6327 -34.6327 -34.6248 -34.6248
   -34.6066 -34.6005 -34.5764 -34.5565 -34.5565 -34.5417 -34.5417 -34.5270
   -34.5270 -34.5144 -23.1911 -23.1911 -23.1899 -23.1846 -23.1827 -23.1827
    11.7240  13.7499  13.7499  13.9328  14.4954  14.4954  14.5617  14.8061
    14.8061  14.9149  14.9263  14.9263  15.3293  15.3481  15.3481  15.6005
    15.6217  15.7112  15.7112  16.0021  16.0021  16.0182  16.1248  16.1248
    16.1424  16.3178  16.3178  16.3335  16.3335  16.3675  16.4731  16.6949
    16.6949  16.7841  16.7841  16.9705  16.9829  16.9829  17.0679  17.1505
    17.1505  17.3050  17.3461  17.3461  17.4267  17.4267  17.5686  17.8484
    17.8957  17.9561  17.9561  18.2184  18.2441  18.3272  18.3272  18.3534
    18.3808  18.3808  18.4148  18.4148  18.4926  18.4926  18.5669  18.5859
    18.6505  18.6505  18.7634  18.7634  18.9782  19.1620  19.1620  19.2834
    19.3151  19.3151  19.3878  19.7941  19.7941  19.9751  19.9751  20.1403
    20.1905  20.1905  20.3568  20.3568  20.8097  21.0843  21.0843

          k = 0.2500 0.2500-0.5000 (  6004 PWs)   bands (ev):

   -68.7667 -68.7666 -68.7437 -68.7433 -68.7359 -68.7358 -68.6975 -68.6975
   -68.6927 -68.6927 -68.6904 -68.6903 -68.6745 -68.6744 -51.8446 -51.8410
   -34.9282 -34.9281 -34.9158 -34.9157 -34.9080 -34.9078 -34.8884 -34.8884
   -34.8726 -34.8725 -34.8409 -34.8408 -34.8330 -34.8329 -34.8073 -34.8072
   -34.8015 -34.8015 -34.7633 -34.7632 -34.7444 -34.7444 -34.7281 -34.7280
   -34.7054 -34.7053 -34.6371 -34.6370 -34.6304 -34.6303 -34.6173 -34.6173
   -34.5811 -34.5809 -34.5619 -34.5617 -34.5537 -34.5537 -34.5323 -34.5323
   -34.5306 -34.5306 -23.1917 -23.1916 -23.1884 -23.1849 -23.1832 -23.1831
    12.6062  12.6062  14.2117  14.2118  14.3063  14.3064  15.1382  15.1382
    15.1661  15.1661  15.2165  15.2166  15.2489  15.2490  15.2893  15.2895
    15.4161  15.4162  16.0215  16.0216  16.0808  16.0809  16.0856  16.0857
    16.2332  16.2333  16.2935  16.2935  16.4037  16.4037  16.6417  16.6417
    16.6824  16.6825  16.7084  16.7084  16.7185  16.7186  16.7261  16.7262
    16.8596  16.8598  17.0385  17.0387  17.0592  17.0595  17.7300  17.7301
    18.1241  18.1241  18.2130  18.2130  18.2247  18.2248  18.2401  18.2402
    18.3300  18.3300  18.4740  18.4740  18.5314  18.5316  18.6065  18.6065
    18.6318  18.6318  18.8243  18.8244  19.0739  19.0739  19.1060  19.1063
    19.3484  19.3487  19.3668  19.3670  19.9043  19.9049  20.1644  20.1660
    20.3091  20.3109  20.4874  20.4889  20.5121  20.5133  22.0589

          k = 0.2500-0.5000-0.5000 (  6000 PWs)   bands (ev):

   -68.7601 -68.7601 -68.7508 -68.7504 -68.7378 -68.7378 -68.6983 -68.6982
   -68.6915 -68.6915 -68.6847 -68.6846 -68.6781 -68.6781 -51.8446 -51.8410
   -34.9238 -34.9236 -34.9137 -34.9136 -34.8940 -34.8937 -34.8883 -34.8883
   -34.8790 -34.8790 -34.8232 -34.8232 -34.8122 -34.8122 -34.8070 -34.8070
   -34.8029 -34.8028 -34.7908 -34.7908 -34.7771 -34.7770 -34.7411 -34.7411
   -34.7064 -34.7062 -34.6338 -34.6338 -34.6276 -34.6276 -34.5860 -34.5860
   -34.5816 -34.5816 -34.5768 -34.5768 -34.5573 -34.5573 -34.5362 -34.5362
   -34.5234 -34.5233 -23.1920 -23.1920 -23.1886 -23.1850 -23.1831 -23.1831
    13.3066  13.3066  13.4342  13.4342  14.8629  14.8629  14.9414  14.9414
    15.2217  15.2217  15.3380  15.3382  15.6101  15.6101  15.6638  15.6638
    15.6992  15.6992  15.7034  15.7035  15.8798  15.8798  15.9519  15.9519
    16.1955  16.1955  16.2032  16.2034  16.3075  16.3075  16.4450  16.4450
    16.4536  16.4537  16.4639  16.4639  16.5311  16.5312  16.6417  16.6417
    16.7222  16.7222  16.8476  16.8477  17.1490  17.1490  17.1544  17.1546
    18.2541  18.2541  18.3261  18.3261  18.3634  18.3636  18.3816  18.3818
    18.4303  18.4303  18.4994  18.4995  18.5125  18.5125  18.6251  18.6251
    18.6803  18.6803  18.6870  18.6871  18.8583  18.8583  19.0454  19.0454
    19.4337  19.4339  19.4430  19.4434  19.9921  19.9921  20.0475  20.0475
    20.1609  20.1630  20.3841  20.3861  21.0251  21.0260  21.2895

          k =-0.5000-0.5000-0.5000 (  6008 PWs)   bands (ev):

   -68.7503 -68.7503 -68.7503 -68.7500 -68.7500 -68.7500 -68.6998 -68.6998
   -68.6838 -68.6838 -68.6838 -68.6837 -68.6837 -68.6837 -51.8447 -51.8411
   -34.9063 -34.9061 -34.8893 -34.8893 -34.8890 -34.8890 -34.8539 -34.8539
   -34.8539 -34.8538 -34.8538 -34.8538 -34.8515 -34.8515 -34.8515 -34.8512
   -34.8512 -34.8512 -34.7763 -34.7763 -34.7763 -34.7762 -34.7762 -34.7762
   -34.6964 -34.6961 -34.5898 -34.5898 -34.5898 -34.5896 -34.5896 -34.5896
   -34.5732 -34.5732 -34.5730 -34.5730 -34.5521 -34.5521 -34.5521 -34.5519
   -34.5519 -34.5519 -23.1893 -23.1893 -23.1893 -23.1858 -23.1858 -23.1858
    14.0703  14.0703  14.0703  14.0704  14.0704  14.0704  14.3312  14.3312
    15.7217  15.7217  15.7217  15.7218  15.7218  15.7218  15.7371  15.7371
    15.7371  15.7372  15.7372  15.7372  15.9835  15.9835  15.9837  15.9837
    16.2458  16.2458  16.2458  16.2459  16.2459  16.2459  16.2681  16.2681
    16.2681  16.2682  16.2682  16.2682  16.3131  16.3132  16.3919  16.3919
    16.3919  16.3919  16.6582  16.6582  16.6582  16.6587  16.6587  16.6587
    18.4013  18.4013  18.4013  18.4015  18.4015  18.4015  18.4316  18.4316
    18.4316  18.4318  18.4318  18.4318  18.8128  18.8128  18.8129  18.8129
    18.8886  18.8886  18.8886  18.8888  18.8888  18.8888  19.2641  19.2641
    19.2641  19.2641  19.2641  19.2641  19.5817  19.5819  20.2085  20.2085
    20.2109  20.2109  20.5929  20.5929  20.5946  20.5946  20.5946

 ------ SPIN DOWN ----------


          k = 0.0000 0.0000 0.0000 (  6031 PWs)   bands (ev):

   -66.3076 -66.2783 -66.2783 -66.2783 -66.2713 -66.2713 -66.2713 -66.2643
   -66.0498 -66.0498 -66.0428 -66.0428 -66.0394 -66.0309 -53.0497 -53.0460
   -32.5805 -32.5805 -32.5805 -32.5314 -32.5172 -32.5172 -32.5172 -32.4730
   -32.4730 -32.4730 -32.4476 -32.4158 -32.4158 -32.4158 -32.3454 -32.3454
   -32.2949 -32.2949 -32.2949 -32.2591 -32.2591 -32.2572 -32.2572 -32.2572
   -32.2249 -32.2249 -32.2249 -32.1274 -32.1274 -32.1274 -32.1007 -32.1007
   -32.1007 -32.0514 -32.0514 -32.0514 -31.9842 -31.9842 -31.9842 -31.9557
   -31.9557 -31.9557 -24.3817 -24.3817 -24.3817 -24.3679 -24.3679 -24.3679
    10.8368  14.9558  14.9558  15.1417  15.1417  15.1417  15.1609  15.1609
    15.1945  15.1945  15.1945  15.2273  15.5202  15.9467  15.9467  17.0337
    17.0337  17.0337  17.1749  17.1749  17.1749  17.3586  17.3586  17.3586
    17.5213  17.5213  17.5213  17.9064  17.9064  18.3301  18.3301  18.3301
    18.5951  18.8038  18.8038  18.8038  18.9368  18.9368  18.9368  19.1779
    19.1779  19.1779  19.2384  19.2384  19.2384  19.3622  19.3622  19.3622
    19.9529  19.9529  19.9529  20.0298  20.0298  20.0298  20.0880  20.2220
    20.2220  20.2775  20.2775  20.2775  20.3648  20.3648  20.8207  20.8207
    20.8207  20.9044  21.0668  21.0668  21.2152  21.2152  21.2215  21.2215
    21.2215  21.2513  21.2513  21.3386  21.3386  21.5052  21.6793  21.6793
    21.6793  21.9663  21.9663  21.9663  22.0116  22.0116  22.0116

          k = 0.0000 0.0000 0.2500 (  6023 PWs)   bands (ev):

   -66.3036 -66.2828 -66.2772 -66.2772 -66.2722 -66.2722 -66.2702 -66.2653
   -66.0488 -66.0471 -66.0438 -66.0425 -66.0396 -66.0332 -53.0497 -53.0461
   -32.5686 -32.5612 -32.5612 -32.5368 -32.4917 -32.4891 -32.4891 -32.4882
   -32.4882 -32.4714 -32.4465 -32.4175 -32.4040 -32.4040 -32.3778 -32.3761
   -32.3424 -32.3424 -32.3198 -32.3198 -32.2934 -32.2605 -32.2573 -32.2550
   -32.1918 -32.1755 -32.1755 -32.1120 -32.1087 -32.1058 -32.1058 -32.0827
   -32.0827 -32.0413 -32.0413 -32.0318 -32.0064 -31.9939 -31.9939 -31.9707
   -31.9707 -31.9641 -24.3809 -24.3799 -24.3799 -24.3694 -24.3693 -24.3693
    11.1739  13.5708  15.0757  15.2074  15.2567  15.2567  15.2689  15.2689
    15.3106  15.3594  15.4386  15.6445  16.0373  16.0676  16.1029  16.7272
    17.0117  17.0117  17.0246  17.1965  17.1965  17.2420  17.3505  17.6129
    17.6129  17.6156  17.6156  17.6968  17.7622  18.0879  18.0879  18.2148
    18.4838  18.6580  18.6580  18.7727  18.7727  18.8424  18.9132  18.9220
    18.9220  18.9798  19.1447  19.1563  19.1563  19.2019  19.3038  19.3038
    19.5594  19.5971  19.5971  19.6868  19.6936  19.7796  19.7796  20.2599
    20.5324  20.5403  20.6828  20.6828  20.7393  20.7393  20.7394  20.8308
    20.8411  20.8757  20.8897  21.1022  21.1346  21.2258  21.2383  21.2389
    21.2785  21.3295  21.3295  21.3309  21.5508  21.5909  21.7227  21.7227
    21.7491  21.8625  21.8676  21.8801  21.8801  21.9040  21.9911

          k = 0.0000 0.0000-0.5000 (  6062 PWs)   bands (ev):

   -66.2935 -66.2935 -66.2748 -66.2748 -66.2748 -66.2748 -66.2678 -66.2678
   -66.0466 -66.0461 -66.0428 -66.0422 -66.0387 -66.0382 -53.0497 -53.0462
   -32.5544 -32.5543 -32.5262 -32.5262 -32.5261 -32.5261 -32.4582 -32.4582
   -32.4449 -32.4447 -32.4288 -32.4288 -32.4288 -32.4288 -32.4115 -32.4114
   -32.3727 -32.3727 -32.3725 -32.3725 -32.2779 -32.2779 -32.2567 -32.2567
   -32.1446 -32.1443 -32.1318 -32.1318 -32.1315 -32.1315 -32.0557 -32.0553
   -32.0180 -32.0180 -32.0177 -32.0177 -32.0169 -32.0169 -32.0166 -32.0166
   -31.9992 -31.9988 -24.3779 -24.3766 -24.3766 -24.3745 -24.3732 -24.3732
    12.1415  12.1417  15.2289  15.2295  15.3587  15.3587  15.3590  15.3590
    15.5439  15.5441  16.0188  16.0195  16.0516  16.0524  16.4177  16.4177
    16.5483  16.5486  17.1100  17.1100  17.1106  17.1106  17.8164  17.8173
    17.9259  17.9259  17.9263  17.9263  17.9629  17.9638  18.1505  18.1507
    18.2737  18.2737  18.2738  18.2738  18.3501  18.3502  18.3579  18.3579
    18.3580  18.3580  18.8061  18.8061  18.8062  18.8062  19.2243  19.2245
    19.8378  19.8392  20.1804  20.1808  20.2478  20.2478  20.2481  20.2481
    20.3636  20.3637  20.5254  20.5254  20.5256  20.5256  20.9176  20.9186
    21.0228  21.0232  21.1780  21.1784  21.2529  21.2533  21.2733  21.2733
    21.3462  21.3464  21.4044  21.4044  21.4046  21.4046  21.4291  21.4292
    21.4498  21.4500  21.9735  21.9735  21.9735  21.9735  22.0654

          k = 0.0000 0.2500 0.2500 (  6016 PWs)   bands (ev):

   -66.2999 -66.2823 -66.2803 -66.2762 -66.2738 -66.2712 -66.2712 -66.2664
   -66.0472 -66.0458 -66.0437 -66.0428 -66.0401 -66.0351 -53.0497 -53.0461
   -32.5627 -32.5496 -32.5449 -32.5409 -32.4991 -32.4914 -32.4812 -32.4766
   -32.4667 -32.4569 -32.4506 -32.4318 -32.4155 -32.3959 -32.3941 -32.3837
   -32.3639 -32.3561 -32.3287 -32.3007 -32.2997 -32.2732 -32.2642 -32.2606
   -32.1997 -32.1764 -32.1511 -32.1233 -32.1134 -32.1072 -32.0971 -32.0661
   -32.0596 -32.0385 -32.0351 -32.0241 -32.0121 -32.0020 -31.9885 -31.9832
   -31.9808 -31.9620 -24.3826 -24.3788 -24.3768 -24.3733 -24.3704 -24.3672
    11.5024  13.7984  13.8030  14.9059  15.3529  15.3973  15.4506  15.5134
    15.5149  15.5675  15.8376  16.1182  16.1505  16.2082  16.2325  16.6479
    16.8652  17.0181  17.1885  17.2513  17.2643  17.3208  17.3410  17.3536
    17.3995  17.5943  17.6274  17.6724  17.8488  17.8608  17.8800  18.2004
    18.3049  18.4659  18.5796  18.5818  18.5846  18.5978  18.6315  18.6698
    18.7504  18.7743  18.7895  18.8347  18.8676  19.0970  19.2011  19.2731
    19.6048  19.6740  19.7550  19.7720  19.8597  19.9845  20.1398  20.2090
    20.2266  20.4108  20.5255  20.6913  20.7792  20.7838  20.8100  20.9008
    20.9266  20.9669  20.9702  21.0287  21.0592  21.1487  21.1734  21.2212
    21.2338  21.2879  21.2986  21.3199  21.3223  21.3735  21.4915  21.5291
    21.5459  21.5525  21.7364  22.0041  22.1293  22.2140  22.9074

          k = 0.0000 0.2500-0.5000 (  6018 PWs)   bands (ev):

   -66.2910 -66.2910 -66.2774 -66.2774 -66.2737 -66.2737 -66.2688 -66.2688
   -66.0454 -66.0448 -66.0427 -66.0422 -66.0398 -66.0392 -53.0496 -53.0461
   -32.5513 -32.5512 -32.5199 -32.5199 -32.5179 -32.5178 -32.4665 -32.4665
   -32.4482 -32.4482 -32.4314 -32.4314 -32.4207 -32.4207 -32.3993 -32.3993
   -32.3658 -32.3657 -32.3375 -32.3374 -32.2869 -32.2869 -32.2710 -32.2710
   -32.1574 -32.1571 -32.1524 -32.1521 -32.1212 -32.1209 -32.0772 -32.0771
   -32.0242 -32.0239 -32.0194 -32.0193 -32.0151 -32.0151 -31.9934 -31.9933
   -31.9819 -31.9817 -24.3807 -24.3805 -24.3762 -24.3728 -24.3701 -24.3699
    12.4375  12.4376  14.3581  14.3581  15.5535  15.5538  15.5830  15.5835
    16.0192  16.0195  16.1314  16.1321  16.2083  16.2088  16.4846  16.4847
    16.6477  16.6479  17.1500  17.1507  17.2036  17.2042  17.5192  17.5195
    17.6322  17.6328  17.8212  17.8213  17.8547  17.8549  17.9350  17.9351
    18.0650  18.0650  18.1839  18.1839  18.2398  18.2398  18.4532  18.4533
    18.4634  18.4634  18.4795  18.4795  18.6847  18.6847  19.6149  19.6150
    19.9126  19.9134  19.9227  19.9228  20.1282  20.1288  20.2377  20.2381
    20.3050  20.3051  20.3409  20.3410  20.5446  20.5446  20.8318  20.8324
    20.8463  20.8464  20.9690  20.9690  21.1250  21.1253  21.2293  21.2293
    21.2625  21.2627  21.3254  21.3254  21.3517  21.3517  21.4813  21.4813
    21.5920  21.5920  21.8092  21.8092  22.5288  22.5289  22.5695

          k = 0.0000-0.5000-0.5000 (  6024 PWs)   bands (ev):

   -66.2862 -66.2862 -66.2824 -66.2824 -66.2712 -66.2712 -66.2712 -66.2712
   -66.0429 -66.0429 -66.0426 -66.0420 -66.0417 -66.0417 -53.0497 -53.0462
   -32.5515 -32.5515 -32.5172 -32.5172 -32.5052 -32.5052 -32.4775 -32.4775
   -32.4703 -32.4702 -32.4331 -32.4331 -32.4103 -32.4103 -32.3799 -32.3799
   -32.3534 -32.3532 -32.3060 -32.3060 -32.2945 -32.2945 -32.2925 -32.2925
   -32.1874 -32.1870 -32.1660 -32.1658 -32.1157 -32.1154 -32.0883 -32.0883
   -32.0250 -32.0250 -32.0250 -32.0247 -32.0129 -32.0129 -31.9799 -31.9797
   -31.9739 -31.9739 -24.3828 -24.3828 -24.3766 -24.3732 -24.3681 -24.3681
    13.2389  13.2391  13.2699  13.2699  15.7983  15.7983  15.9043  15.9050
    16.2298  16.2298  16.2746  16.2747  16.4072  16.4074  16.6162  16.6176
    16.6630  16.6630  17.0229  17.0229  17.2190  17.2190  17.4107  17.4120
    17.4743  17.4744  17.5257  17.5257  17.5549  17.5549  17.7319  17.7319
    17.9885  17.9886  18.0502  18.0502  18.0700  18.0700  18.2112  18.2112
    18.4770  18.4772  18.5397  18.5397  19.0225  19.0225  19.2012  19.2012
    19.8813  19.8816  20.0063  20.0063  20.1038  20.1038  20.2843  20.2858
    20.3026  20.3033  20.3135  20.3135  20.6411  20.6411  20.6697  20.6697
    20.6926  20.6926  20.7820  20.7820  21.1057  21.1058  21.1364  21.1364
    21.1473  21.1474  21.2117  21.2117  21.3174  21.3174  21.4756  21.4756
    21.7826  21.7826  21.9372  21.9372  23.4999  23.5001  23.5138

          k = 0.2500 0.2500 0.2500 (  6007 PWs)   bands (ev):

   -66.2966 -66.2807 -66.2807 -66.2782 -66.2729 -66.2729 -66.2724 -66.2674
   -66.0453 -66.0453 -66.0432 -66.0432 -66.0405 -66.0367 -53.0496 -53.0461
   -32.5569 -32.5414 -32.5414 -32.5404 -32.4979 -32.4886 -32.4886 -32.4731
   -32.4569 -32.4473 -32.4473 -32.4217 -32.4217 -32.4120 -32.4120 -32.3749
   -32.3538 -32.3393 -32.3393 -32.3166 -32.3166 -32.2906 -32.2757 -32.2757
   -32.1978 -32.1436 -32.1436 -32.1220 -32.1220 -32.1219 -32.0717 -32.0717
   -32.0527 -32.0391 -32.0366 -32.0051 -32.0051 -31.9949 -31.9949 -31.9898
   -31.9898 -31.9669 -24.3800 -24.3800 -24.3782 -24.3721 -24.3695 -24.3695
    11.8256  14.0307  14.0307  14.0630  15.1408  15.1408  15.2790  15.7737
    15.7737  16.1085  16.1884  16.1884  16.3648  16.3648  16.3722  16.6900
    16.9039  17.0393  17.0393  17.2053  17.2053  17.3112  17.3112  17.4429
    17.4771  17.4877  17.4877  17.6450  17.7627  17.7627  18.0430  18.0871
    18.0871  18.2620  18.2620  18.2697  18.3522  18.4478  18.4478  18.4497
    18.4618  18.4618  18.5627  18.5627  18.7790  18.7790  18.8846  19.4956
    19.8482  19.8482  20.0094  20.0094  20.0370  20.1354  20.2193  20.3054
    20.3054  20.5283  20.5670  20.5670  20.6144  20.6778  20.6778  20.8445
    20.9782  20.9782  21.0389  21.0389  21.1736  21.1736  21.1780  21.1854
    21.1854  21.2956  21.3503  21.3503  21.3513  21.3513  21.4954  21.5198
    21.5198  21.5693  21.5693  21.6270  22.0601  22.0713  22.0713

          k = 0.2500 0.2500-0.5000 (  6004 PWs)   bands (ev):

   -66.2886 -66.2886 -66.2768 -66.2768 -66.2756 -66.2756 -66.2700 -66.2700
   -66.0446 -66.0440 -66.0427 -66.0422 -66.0405 -66.0400 -53.0496 -53.0461
   -32.5470 -32.5469 -32.5157 -32.5156 -32.5138 -32.5138 -32.4743 -32.4742
   -32.4367 -32.4366 -32.4366 -32.4365 -32.4062 -32.4061 -32.3983 -32.3982
   -32.3739 -32.3739 -32.3175 -32.3174 -32.3110 -32.3110 -32.2966 -32.2966
   -32.1674 -32.1670 -32.1356 -32.1354 -32.1225 -32.1222 -32.0661 -32.0661
   -32.0303 -32.0302 -32.0159 -32.0157 -32.0107 -32.0106 -31.9915 -31.9913
   -31.9829 -31.9828 -24.3806 -24.3805 -24.3762 -24.3728 -24.3700 -24.3699
    12.7345  12.7347  14.5967  14.5967  14.6545  14.6546  15.9200  15.9204
    16.0775  16.0780  16.2348  16.2354  16.5141  16.5142  16.6274  16.6276
    16.7803  16.7804  17.2098  17.2107  17.2351  17.2358  17.3260  17.3267
    17.6437  17.6441  17.6787  17.6788  17.7456  17.7457  17.7492  17.7493
    17.9402  17.9402  18.0094  18.0096  18.1936  18.1936  18.2350  18.2350
    18.2640  18.2642  18.3764  18.3765  18.4655  18.4655  19.2705  19.2705
    19.9608  19.9609  20.1216  20.1227  20.2103  20.2110  20.3692  20.3694
    20.3851  20.3852  20.6405  20.6406  20.6790  20.6792  20.8091  20.8095
    20.9360  20.9363  21.0541  21.0542  21.1629  21.1631  21.2036  21.2036
    21.2242  21.2244  21.3198  21.3198  21.3928  21.3929  21.4535  21.4537
    21.5018  21.5019  21.5555  21.5555  21.5612  21.5613  23.2336

          k = 0.2500-0.5000-0.5000 (  6000 PWs)   bands (ev):

   -66.2840 -66.2840 -66.2810 -66.2810 -66.2735 -66.2735 -66.2727 -66.2727
   -66.0428 -66.0428 -66.0426 -66.0420 -66.0418 -66.0418 -53.0496 -53.0461
   -32.5430 -32.5429 -32.5093 -32.5093 -32.5045 -32.5045 -32.4836 -32.4836
   -32.4506 -32.4505 -32.4199 -32.4199 -32.3990 -32.3989 -32.3953 -32.3953
   -32.3512 -32.3512 -32.3352 -32.3352 -32.3308 -32.3308 -32.3110 -32.3110
   -32.1836 -32.1832 -32.1307 -32.1304 -32.1068 -32.1065 -32.0659 -32.0659
   -32.0278 -32.0275 -32.0178 -32.0178 -32.0148 -32.0148 -31.9884 -31.9881
   -31.9823 -31.9823 -24.3810 -24.3810 -24.3763 -24.3729 -24.3699 -24.3699
    13.5398  13.5400  13.5534  13.5534  15.2387  15.2387  15.3762  15.3765
    16.2861  16.2868  16.6163  16.6163  16.6364  16.6378  16.8897  16.8897
    16.9441  16.9441  17.0439  17.0439  17.2595  17.2595  17.2854  17.2866
    17.4102  17.4103  17.5339  17.5339  17.6088  17.6088  17.6853  17.6854
    17.8116  17.8117  17.9053  17.9053  18.0283  18.0283  18.1300  18.1301
    18.2029  18.2029  18.2325  18.2326  18.4954  18.4954  18.5912  18.5913
    20.2999  20.3011  20.3602  20.3617  20.3834  20.3834  20.4790  20.4793
    20.5578  20.5578  20.7135  20.7135  20.7178  20.7178  20.7593  20.7593
    20.8170  20.8170  20.8924  20.8924  21.1014  21.1014  21.1020  21.1020
    21.1058  21.1060  21.1551  21.1551  21.2490  21.2490  21.3801  21.3801
    21.4706  21.4706  21.6106  21.6107  22.2880  22.2881  22.3054

          k =-0.5000-0.5000-0.5000 (  6008 PWs)   bands (ev):

   -66.2788 -66.2788 -66.2788 -66.2788 -66.2788 -66.2788 -66.2749 -66.2749
   -66.0425 -66.0425 -66.0425 -66.0420 -66.0420 -66.0420 -53.0497 -53.0461
   -32.5340 -32.5340 -32.4980 -32.4980 -32.4980 -32.4980 -32.4980 -32.4980
   -32.4243 -32.4243 -32.4241 -32.4241 -32.3835 -32.3835 -32.3835 -32.3834
   -32.3834 -32.3834 -32.3543 -32.3543 -32.3543 -32.3542 -32.3542 -32.3542
   -32.1868 -32.1863 -32.0941 -32.0941 -32.0937 -32.0937 -32.0332 -32.0332
   -32.0332 -32.0327 -32.0327 -32.0327 -32.0009 -32.0009 -32.0009 -32.0005
   -32.0005 -32.0005 -24.3772 -24.3772 -24.3772 -24.3738 -24.3738 -24.3738
    14.3132  14.3132  14.3132  14.3133  14.3133  14.3133  14.3996  14.4000
    16.6576  16.6576  16.6590  16.6590  16.9965  16.9965  16.9965  16.9979
    16.9979  16.9979  17.3783  17.3783  17.3783  17.3784  17.3784  17.3784
    17.4670  17.4670  17.4670  17.4672  17.4672  17.4672  17.8215  17.8218
    17.8463  17.8463  17.8463  17.8465  17.8465  17.8465  17.9003  17.9003
    17.9003  17.9005  17.9005  17.9005  17.9541  17.9541  17.9543  17.9543
    20.4671  20.4671  20.4688  20.4688  20.8325  20.8325  20.8325  20.8334
    20.8334  20.8334  20.9640  20.9640  20.9640  20.9642  20.9642  20.9642
    21.0028  21.0028  21.0028  21.0032  21.0032  21.0032  21.0770  21.0770
    21.0772  21.0772  21.1354  21.1354  21.1354  21.1357  21.1357  21.1357
    21.4283  21.4283  21.4286  21.4286  21.4286  21.4565  21.4568

     the Fermi energy is    19.6655 ev

!    total energy              =   -5105.27140231 Ry
     total all-electron energy =    -39840.488222 Ry
     estimated scf accuracy    <       0.00000077 Ry
     smearing contrib. (-TS)   =       0.00190870 Ry
     internal energy E=F+TS    =   -5105.27331101 Ry

     The total energy is F=E-TS. E is the sum of the following terms:
     one-electron contribution =   -1592.02399693 Ry
     hartree contribution      =     963.35749425 Ry
     xc contribution           =    -433.45230369 Ry
     ewald contribution        =   -2735.76685022 Ry
     one-center paw contrib.   =   -1307.38765442 Ry

     total magnetization       =    26.89 Bohr mag/cell
     absolute magnetization    =    33.50 Bohr mag/cell

     convergence has been achieved in  29 iterations


     Computing stress (Cartesian axis) and pressure


     negative rho (up, down):  0.000E+00 3.508E-03
          total   stress  (Ry/bohr**3)                   (kbar)     P=     -721.62
  -0.00490550   0.00000000   0.00000000         -721.62        0.00        0.00
   0.00000000  -0.00490550   0.00000000            0.00     -721.62        0.00
   0.00000000   0.00000000  -0.00490550            0.00        0.00     -721.62


     Writing all to output data dir ./tmp/fe14cr02_hydro_-0.01.save/ :
     XML data file, charge density, pseudopotentials, collected wavefunctions

     init_run     :     35.21s CPU     37.12s WALL (       1 calls)
     electrons    :   3125.92s CPU   3209.39s WALL (       1 calls)
     stress       :     77.74s CPU     78.11s WALL (       1 calls)

     Called by init_run:
     wfcinit      :     30.70s CPU     31.09s WALL (       1 calls)
     potinit      :      3.03s CPU      4.04s WALL (       1 calls)
     hinit0       :      0.56s CPU      0.65s WALL (       1 calls)

     Called by electrons:
     c_bands      :   2753.02s CPU   2790.95s WALL (      29 calls)
     sum_band     :    253.64s CPU    269.88s WALL (      29 calls)
     v_of_rho     :      4.66s CPU      5.22s WALL (      30 calls)
     newd         :     26.03s CPU     34.53s WALL (      30 calls)
     PAW_pot      :     90.72s CPU    112.07s WALL (      30 calls)
     mix_rho      :      0.92s CPU      1.03s WALL (      29 calls)

     Called by c_bands:
     init_us_2    :      7.94s CPU      5.05s WALL (    1200 calls)
     cegterg      :   2731.60s CPU   2769.63s WALL (     580 calls)

     Called by *egterg:
     cdiaghg      :    254.15s CPU    258.62s WALL (    2715 calls)
     h_psi        :    912.24s CPU    931.14s WALL (    2735 calls)
     s_psi        :    334.68s CPU    335.47s WALL (    2735 calls)
     g_psi        :      0.99s CPU      1.07s WALL (    2135 calls)

     Called by h_psi:
     h_psi:calbec :    338.03s CPU    333.78s WALL (    2735 calls)
     vloc_psi     :    233.59s CPU    253.29s WALL (    2735 calls)
                                        0.00s GPU  (    2735 calls)
     add_vuspsi   :    338.86s CPU    337.48s WALL (    2735 calls)

     General routines
     calbec       :    559.69s CPU    556.38s WALL (    3575 calls)
     fft          :      2.87s CPU      3.33s WALL (     769 calls)
     ffts         :      0.20s CPU      0.23s WALL (     118 calls)
     fftw         :    267.26s CPU    287.52s WALL (  477484 calls)
     interpolate  :      0.39s CPU      0.45s WALL (      60 calls)

     Parallel routines

     PWSCF        :  53m59.52s CPU  55m26.41s WALL


   This run was terminated on:  15:43:56  24Apr2026            

=------------------------------------------------------------------------------=
   JOB DONE.
=------------------------------------------------------------------------------=
Note: The following floating-point exceptions are signalling: IEEE_DENORMAL
