
     Program PWSCF v.7.5 starts on 24Apr2026 at 16:44:13 

     This program is part of the open-source Quantum ESPRESSO suite
     for quantum simulation of materials; please cite
         "P. Giannozzi et al., J. Phys.:Condens. Matter 21 395502 (2009);
         "P. Giannozzi et al., J. Phys.:Condens. Matter 29 465901 (2017);
         "P. Giannozzi et al., J. Chem. Phys. 152 154105 (2020);
          URL http://www.quantum-espresso.org", 
     in publications or presentations arising from this work. More details at
     http://www.quantum-espresso.org/quote

     Parallel version (MPI), running on     4 processors

     MPI processes distributed on     1 nodes
     736 MiB available memory on the printing compute node when the environment starts

     Waiting for input...
     Reading input from standard input

     Current dimensions of program PWSCF are:
     Max number of different atomic species (ntypx) = 10
     Max number of k-points (npk) =  40000
     Max angular momentum in pseudopotentials (lmaxx) =  4
     file Fe.pbe-spn-kjpaw_psl.1.0.0.UPF: wavefunction(s)  3P 3D renormalized
     file Cr.pbe-spn-kjpaw_psl.1.0.0.UPF: wavefunction(s)  3S 3P 3D renormalized
     Found identity + ( -0.5000 -0.5000 -0.5000) symmetry
     This is a supercell, fractional translations are disabled
     Message from routine setup:
     using ibrav=0 with symmetry is DISCOURAGED, use correct ibrav instead

     R & G space division:  proc/nbgrp/npool/nimage =       4
     Subspace diagonalization in iterative solution of the eigenvalue problem:
     one sub-group per band group will be used
     custom distributed-memory algorithm (size of sub-group:  2*  2 procs)


     Parallelization info
     --------------------
     sticks:   dense  smooth     PW     G-vecs:    dense   smooth      PW
     Min         829     412    121                36099    12720    2006
     Max         830     414    124                36100    12723    2007
     Sum        3317    1653    489               144397    50883    8025

     Using Slab Decomposition



     bravais-lattice index     =            0
     lattice parameter (alat)  =      10.7809  a.u.
     unit-cell volume          =    1253.0505 (a.u.)^3
     number of atoms/cell      =           16
     number of atomic types    =            2
     number of electrons       =       252.00
     number of Kohn-Sham states=          151
     kinetic-energy cutoff     =      45.0000  Ry
     charge density cutoff     =     360.0000  Ry
     scf convergence threshold =      1.0E-06
     mixing beta               =       0.3000
     number of iterations used =            8  plain     mixing
     Exchange-correlation= SLA  PW   PBX  PBC
                           (   1   4   3   4   0   0   0)

     celldm(1)=  10.780929  celldm(2)=   0.000000  celldm(3)=   0.000000
     celldm(4)=   0.000000  celldm(5)=   0.000000  celldm(6)=   0.000000

     crystal axes: (cart. coord. in units of alat)
               a(1) = (   1.000000   0.000000   0.000000 )  
               a(2) = (   0.000000   1.000000   0.000000 )  
               a(3) = (   0.000000   0.000000   1.000000 )  

     reciprocal axes: (cart. coord. in units 2 pi/alat)
               b(1) = (  1.000000  0.000000  0.000000 )  
               b(2) = (  0.000000  1.000000  0.000000 )  
               b(3) = (  0.000000  0.000000  1.000000 )  


     PseudoPot. # 1 for Fe read from file:
     ./pseudo/Fe.pbe-spn-kjpaw_psl.1.0.0.UPF
     MD5 check sum: fc81f059e5c5069939230b1155715ae8
     Pseudo is Projector augmented-wave + core cor, Zval = 16.0
     Generated using &quot;atomic&quot; code by A. Dal Corso  v.6.3
     Shape of augmentation charge: PSQ
     Using radial grid of 1191 points,  6 beta functions with: 
                l(1) =   0
                l(2) =   0
                l(3) =   1
                l(4) =   1
                l(5) =   2
                l(6) =   2
     Q(r) pseudized with 0 coefficients 


     PseudoPot. # 2 for Cr read from file:
     ./pseudo/Cr.pbe-spn-kjpaw_psl.1.0.0.UPF
     MD5 check sum: 198f1a2427a48552563eee314eba32ba
     Pseudo is Projector augmented-wave + core cor, Zval = 14.0
     Generated using &quot;atomic&quot; code by A. Dal Corso  v.6.3
     Shape of augmentation charge: PSQ
     Using radial grid of 1183 points,  6 beta functions with: 
                l(1) =   0
                l(2) =   0
                l(3) =   1
                l(4) =   1
                l(5) =   2
                l(6) =   2
     Q(r) pseudized with 0 coefficients 


     atomic species   valence    mass     pseudopotential
     Fe               16.00    55.84500     Fe( 1.00)
     Cr               14.00    51.99600     Cr( 1.00)

     Starting magnetic structure 
     atomic species   magnetization
     Fe              0.500
     Cr              0.300

     48 Sym. Ops., with inversion, found



   Cartesian axes

     site n.     atom                  positions (alat units)
         1        Cr     tau(   1) = (   0.0000000   0.0000000   0.0000000  )
         2        Fe     tau(   2) = (   0.2500000   0.2500000   0.2500000  )
         3        Fe     tau(   3) = (   0.0000000   0.0000000   0.5000000  )
         4        Fe     tau(   4) = (   0.2500000   0.2500000   0.7500000  )
         5        Fe     tau(   5) = (   0.0000000   0.5000000   0.0000000  )
         6        Fe     tau(   6) = (   0.2500000   0.7500000   0.2500000  )
         7        Fe     tau(   7) = (   0.0000000   0.5000000   0.5000000  )
         8        Fe     tau(   8) = (   0.2500000   0.7500000   0.7500000  )
         9        Fe     tau(   9) = (   0.5000000   0.0000000   0.0000000  )
        10        Fe     tau(  10) = (   0.7500000   0.2500000   0.2500000  )
        11        Fe     tau(  11) = (   0.5000000   0.0000000   0.5000000  )
        12        Fe     tau(  12) = (   0.7500000   0.2500000   0.7500000  )
        13        Fe     tau(  13) = (   0.5000000   0.5000000   0.0000000  )
        14        Fe     tau(  14) = (   0.7500000   0.7500000   0.2500000  )
        15        Cr     tau(  15) = (   0.5000000   0.5000000   0.5000000  )
        16        Fe     tau(  16) = (   0.7500000   0.7500000   0.7500000  )

     number of k points=    10  Marzari-Vanderbilt smearing, width (Ry)=  0.0200
                       cart. coord. in units 2pi/alat
        k(    1) = (   0.0000000   0.0000000   0.0000000), wk =   0.0156250
        k(    2) = (   0.0000000   0.0000000   0.2500000), wk =   0.0937500
        k(    3) = (   0.0000000   0.0000000  -0.5000000), wk =   0.0468750
        k(    4) = (   0.0000000   0.2500000   0.2500000), wk =   0.1875000
        k(    5) = (   0.0000000   0.2500000  -0.5000000), wk =   0.1875000
        k(    6) = (   0.0000000  -0.5000000  -0.5000000), wk =   0.0468750
        k(    7) = (   0.2500000   0.2500000   0.2500000), wk =   0.1250000
        k(    8) = (   0.2500000   0.2500000  -0.5000000), wk =   0.1875000
        k(    9) = (   0.2500000  -0.5000000  -0.5000000), wk =   0.0937500
        k(   10) = (  -0.5000000  -0.5000000  -0.5000000), wk =   0.0156250

     Dense  grid:   144397 G-vectors     FFT dimensions: (  72,  72,  72)

     Smooth grid:    50883 G-vectors     FFT dimensions: (  48,  48,  48)

     Estimated max dynamical RAM per process >     235.79 MB

     Estimated total dynamical RAM >     943.18 MB

     Check: negative core charge=   -0.000004
     Generating pointlists ...
     new r_m :   0.1786 (alat units)  1.9257 (a.u.) for type    1
     new r_m :   0.1786 (alat units)  1.9257 (a.u.) for type    2

     Initial potential from superposition of free atoms

     starting charge     251.9923, renormalised to     252.0000
     Starting wfcs are  160 randomized atomic wfcs
     Checking if some PAW data can be deallocated... 

     total cpu time spent up to now is       40.2 secs

     Self-consistent Calculation

     iteration #  1     ecut=    45.00 Ry     beta= 0.30
     Davidson diagonalization with overlap
     ethr =  1.00E-02,  avg # of iterations =  2.8

     total cpu time spent up to now is      174.5 secs

     total energy              =   -5099.70992964 Ry
     estimated scf accuracy    <      11.86379314 Ry

     total magnetization       =    50.03 Bohr mag/cell
     absolute magnetization    =    51.92 Bohr mag/cell

     iteration #  2     ecut=    45.00 Ry     beta= 0.30
     Davidson diagonalization with overlap
     ethr =  4.71E-03,  avg # of iterations =  6.9

     total cpu time spent up to now is      305.8 secs

     total energy              =   -5101.18886166 Ry
     estimated scf accuracy    <      30.80955439 Ry

     total magnetization       =    39.65 Bohr mag/cell
     absolute magnetization    =    41.13 Bohr mag/cell

     iteration #  3     ecut=    45.00 Ry     beta= 0.30
     Davidson diagonalization with overlap
     ethr =  4.71E-03,  avg # of iterations =  3.0

     negative rho (up, down):  0.000E+00 8.964E-04

     total cpu time spent up to now is      420.7 secs

     total energy              =   -5101.88751627 Ry
     estimated scf accuracy    <       9.03504956 Ry

     total magnetization       =    43.63 Bohr mag/cell
     absolute magnetization    =    44.93 Bohr mag/cell

     iteration #  4     ecut=    45.00 Ry     beta= 0.30
     Davidson diagonalization with overlap
     ethr =  3.59E-03,  avg # of iterations =  5.0

     negative rho (up, down):  0.000E+00 7.569E-03

     total cpu time spent up to now is      546.5 secs

     total energy              =   -5105.31929449 Ry
     estimated scf accuracy    <       7.93443542 Ry

     total magnetization       =    48.01 Bohr mag/cell
     absolute magnetization    =    49.06 Bohr mag/cell

     iteration #  5     ecut=    45.00 Ry     beta= 0.30
     Davidson diagonalization with overlap
     ethr =  3.15E-03,  avg # of iterations =  5.3

     negative rho (up, down):  0.000E+00 8.063E-03

     total cpu time spent up to now is      676.2 secs

     total energy              =   -5106.01761090 Ry
     estimated scf accuracy    <      29.71535062 Ry

     total magnetization       =    42.57 Bohr mag/cell
     absolute magnetization    =    43.97 Bohr mag/cell

     iteration #  6     ecut=    45.00 Ry     beta= 0.30
     Davidson diagonalization with overlap
     ethr =  3.15E-03,  avg # of iterations =  1.2

     negative rho (up, down):  0.000E+00 8.016E-03

     total cpu time spent up to now is      774.0 secs

     total energy              =   -5105.88745993 Ry
     estimated scf accuracy    <      23.09087381 Ry

     total magnetization       =    40.99 Bohr mag/cell
     absolute magnetization    =    42.48 Bohr mag/cell

     iteration #  7     ecut=    45.00 Ry     beta= 0.30
     Davidson diagonalization with overlap
     ethr =  3.15E-03,  avg # of iterations =  1.1

     negative rho (up, down):  0.000E+00 7.919E-03

     total cpu time spent up to now is      868.9 secs

     total energy              =   -5105.61332842 Ry
     estimated scf accuracy    <      17.40819363 Ry

     total magnetization       =    39.97 Bohr mag/cell
     absolute magnetization    =    41.57 Bohr mag/cell

     iteration #  8     ecut=    45.00 Ry     beta= 0.30
     Davidson diagonalization with overlap
     ethr =  3.15E-03,  avg # of iterations =  1.0

     negative rho (up, down):  0.000E+00 7.590E-03

     total cpu time spent up to now is      963.0 secs

     total energy              =   -5105.12111988 Ry
     estimated scf accuracy    <      12.45697182 Ry

     total magnetization       =    38.75 Bohr mag/cell
     absolute magnetization    =    40.48 Bohr mag/cell

     iteration #  9     ecut=    45.00 Ry     beta= 0.30
     Davidson diagonalization with overlap
     ethr =  3.15E-03,  avg # of iterations =  1.0

     negative rho (up, down):  0.000E+00 7.599E-03

     total cpu time spent up to now is     1057.2 secs

     total energy              =   -5105.25493173 Ry
     estimated scf accuracy    <       2.86146647 Ry

     total magnetization       =    34.24 Bohr mag/cell
     absolute magnetization    =    36.59 Bohr mag/cell

     iteration # 10     ecut=    45.00 Ry     beta= 0.30
     Davidson diagonalization with overlap
     ethr =  1.14E-03,  avg # of iterations =  1.1

     negative rho (up, down):  0.000E+00 6.061E-03

     total cpu time spent up to now is     1152.0 secs

     total energy              =   -5105.13787858 Ry
     estimated scf accuracy    <       2.81288826 Ry

     total magnetization       =    34.30 Bohr mag/cell
     absolute magnetization    =    36.62 Bohr mag/cell

     iteration # 11     ecut=    45.00 Ry     beta= 0.30
     Davidson diagonalization with overlap
     ethr =  1.12E-03,  avg # of iterations =  1.1

     negative rho (up, down):  0.000E+00 5.208E-03

     total cpu time spent up to now is     1248.5 secs

     total energy              =   -5105.12364429 Ry
     estimated scf accuracy    <       0.84687753 Ry

     total magnetization       =    30.26 Bohr mag/cell
     absolute magnetization    =    33.11 Bohr mag/cell

     iteration # 12     ecut=    45.00 Ry     beta= 0.30
     Davidson diagonalization with overlap
     ethr =  3.36E-04,  avg # of iterations =  4.2

     negative rho (up, down):  0.000E+00 4.555E-03

     total cpu time spent up to now is     1362.6 secs

     total energy              =   -5105.24172404 Ry
     estimated scf accuracy    <       1.16284261 Ry

     total magnetization       =    28.96 Bohr mag/cell
     absolute magnetization    =    32.26 Bohr mag/cell

     iteration # 13     ecut=    45.00 Ry     beta= 0.30
     Davidson diagonalization with overlap
     ethr =  3.36E-04,  avg # of iterations =  1.5

     negative rho (up, down):  0.000E+00 4.153E-03

     total cpu time spent up to now is     1464.1 secs

     total energy              =   -5105.24075457 Ry
     estimated scf accuracy    <       0.82919723 Ry

     total magnetization       =    28.77 Bohr mag/cell
     absolute magnetization    =    32.37 Bohr mag/cell

     iteration # 14     ecut=    45.00 Ry     beta= 0.30
     Davidson diagonalization with overlap
     ethr =  3.29E-04,  avg # of iterations =  1.1

     negative rho (up, down):  0.000E+00 3.947E-03

     total cpu time spent up to now is     1561.0 secs

     total energy              =   -5105.24561331 Ry
     estimated scf accuracy    <       0.44375410 Ry

     total magnetization       =    29.00 Bohr mag/cell
     absolute magnetization    =    32.78 Bohr mag/cell

     iteration # 15     ecut=    45.00 Ry     beta= 0.30
     Davidson diagonalization with overlap
     ethr =  1.76E-04,  avg # of iterations =  1.7

     negative rho (up, down):  0.000E+00 4.169E-03

     total cpu time spent up to now is     1660.8 secs

     total energy              =   -5105.23034280 Ry
     estimated scf accuracy    <       0.35882115 Ry

     total magnetization       =    29.22 Bohr mag/cell
     absolute magnetization    =    33.09 Bohr mag/cell

     iteration # 16     ecut=    45.00 Ry     beta= 0.30
     Davidson diagonalization with overlap
     ethr =  1.42E-04,  avg # of iterations =  1.5

     negative rho (up, down):  0.000E+00 3.876E-03

     total cpu time spent up to now is     1760.0 secs

     total energy              =   -5105.24004645 Ry
     estimated scf accuracy    <       0.07377110 Ry

     total magnetization       =    29.16 Bohr mag/cell
     absolute magnetization    =    32.69 Bohr mag/cell

     iteration # 17     ecut=    45.00 Ry     beta= 0.30
     Davidson diagonalization with overlap
     ethr =  2.93E-05,  avg # of iterations =  3.8

     negative rho (up, down):  0.000E+00 2.888E-03

     total cpu time spent up to now is     1869.5 secs

     total energy              =   -5105.24952067 Ry
     estimated scf accuracy    <       0.02956390 Ry

     total magnetization       =    29.21 Bohr mag/cell
     absolute magnetization    =    32.99 Bohr mag/cell

     iteration # 18     ecut=    45.00 Ry     beta= 0.30
     Davidson diagonalization with overlap
     ethr =  1.17E-05,  avg # of iterations =  4.5

     negative rho (up, down):  0.000E+00 2.901E-03

     total cpu time spent up to now is     1996.0 secs

     total energy              =   -5105.25992110 Ry
     estimated scf accuracy    <       0.00811173 Ry

     total magnetization       =    28.46 Bohr mag/cell
     absolute magnetization    =    33.28 Bohr mag/cell

     iteration # 19     ecut=    45.00 Ry     beta= 0.30
     Davidson diagonalization with overlap
     ethr =  3.22E-06,  avg # of iterations =  6.3

     negative rho (up, down):  0.000E+00 2.842E-03

     total cpu time spent up to now is     2127.3 secs

     total energy              =   -5105.26482996 Ry
     estimated scf accuracy    <       0.02507462 Ry

     total magnetization       =    28.30 Bohr mag/cell
     absolute magnetization    =    33.57 Bohr mag/cell

     iteration # 20     ecut=    45.00 Ry     beta= 0.30
     Davidson diagonalization with overlap
     ethr =  3.22E-06,  avg # of iterations =  5.0

     negative rho (up, down):  0.000E+00 2.954E-03

     total cpu time spent up to now is     2255.0 secs

     total energy              =   -5105.26642789 Ry
     estimated scf accuracy    <       0.01650569 Ry

     total magnetization       =    28.10 Bohr mag/cell
     absolute magnetization    =    34.34 Bohr mag/cell

     iteration # 21     ecut=    45.00 Ry     beta= 0.30
     Davidson diagonalization with overlap
     ethr =  3.22E-06,  avg # of iterations =  6.7

     negative rho (up, down):  0.000E+00 2.917E-03

     total cpu time spent up to now is     2397.6 secs

     total energy              =   -5105.27269133 Ry
     estimated scf accuracy    <       0.00197732 Ry

     total magnetization       =    27.97 Bohr mag/cell
     absolute magnetization    =    35.49 Bohr mag/cell

     iteration # 22     ecut=    45.00 Ry     beta= 0.30
     Davidson diagonalization with overlap
     ethr =  7.85E-07,  avg # of iterations =  5.6

     negative rho (up, down):  0.000E+00 2.988E-03

     total cpu time spent up to now is     2542.8 secs

     total energy              =   -5105.27542310 Ry
     estimated scf accuracy    <       0.00060411 Ry

     total magnetization       =    27.86 Bohr mag/cell
     absolute magnetization    =    36.13 Bohr mag/cell

     iteration # 23     ecut=    45.00 Ry     beta= 0.30
     Davidson diagonalization with overlap
     ethr =  2.40E-07,  avg # of iterations =  4.8

     negative rho (up, down):  0.000E+00 3.040E-03

     total cpu time spent up to now is     2679.1 secs

     total energy              =   -5105.27549759 Ry
     estimated scf accuracy    <       0.00060415 Ry

     total magnetization       =    27.87 Bohr mag/cell
     absolute magnetization    =    36.27 Bohr mag/cell

     iteration # 24     ecut=    45.00 Ry     beta= 0.30
     Davidson diagonalization with overlap
     ethr =  2.40E-07,  avg # of iterations =  4.7

     negative rho (up, down):  0.000E+00 3.064E-03

     total cpu time spent up to now is     2805.3 secs

     total energy              =   -5105.27582481 Ry
     estimated scf accuracy    <       0.00009393 Ry

     total magnetization       =    27.83 Bohr mag/cell
     absolute magnetization    =    36.51 Bohr mag/cell

     iteration # 25     ecut=    45.00 Ry     beta= 0.30
     Davidson diagonalization with overlap
     ethr =  3.73E-08,  avg # of iterations =  5.2

     negative rho (up, down):  0.000E+00 3.086E-03

     total cpu time spent up to now is     2947.0 secs

     total energy              =   -5105.27588662 Ry
     estimated scf accuracy    <       0.00039517 Ry

     total magnetization       =    27.82 Bohr mag/cell
     absolute magnetization    =    36.43 Bohr mag/cell

     iteration # 26     ecut=    45.00 Ry     beta= 0.30
     Davidson diagonalization with overlap
     ethr =  3.73E-08,  avg # of iterations =  3.5

     negative rho (up, down):  0.000E+00 3.084E-03

     total cpu time spent up to now is     3058.1 secs

     total energy              =   -5105.27591360 Ry
     estimated scf accuracy    <       0.00006404 Ry

     total magnetization       =    27.82 Bohr mag/cell
     absolute magnetization    =    36.46 Bohr mag/cell

     iteration # 27     ecut=    45.00 Ry     beta= 0.30
     Davidson diagonalization with overlap
     ethr =  2.54E-08,  avg # of iterations =  5.3

     negative rho (up, down):  0.000E+00 3.084E-03

     total cpu time spent up to now is     3194.5 secs

     total energy              =   -5105.27595433 Ry
     estimated scf accuracy    <       0.00003915 Ry

     total magnetization       =    27.81 Bohr mag/cell
     absolute magnetization    =    36.53 Bohr mag/cell

     iteration # 28     ecut=    45.00 Ry     beta= 0.30
     Davidson diagonalization with overlap
     ethr =  1.55E-08,  avg # of iterations =  2.2

     negative rho (up, down):  0.000E+00 3.082E-03

     total cpu time spent up to now is     3301.3 secs

     total energy              =   -5105.27595752 Ry
     estimated scf accuracy    <       0.00003141 Ry

     total magnetization       =    27.81 Bohr mag/cell
     absolute magnetization    =    36.52 Bohr mag/cell

     iteration # 29     ecut=    45.00 Ry     beta= 0.30
     Davidson diagonalization with overlap
     ethr =  1.25E-08,  avg # of iterations =  2.3

     negative rho (up, down):  0.000E+00 3.081E-03

     total cpu time spent up to now is     3409.3 secs

     total energy              =   -5105.27594026 Ry
     estimated scf accuracy    <       0.00002057 Ry

     total magnetization       =    27.82 Bohr mag/cell
     absolute magnetization    =    36.52 Bohr mag/cell

     iteration # 30     ecut=    45.00 Ry     beta= 0.30
     Davidson diagonalization with overlap
     ethr =  8.16E-09,  avg # of iterations =  5.5

     negative rho (up, down):  0.000E+00 3.079E-03

     total cpu time spent up to now is     3550.6 secs

     total energy              =   -5105.27596774 Ry
     estimated scf accuracy    <       0.00000989 Ry

     total magnetization       =    27.80 Bohr mag/cell
     absolute magnetization    =    36.58 Bohr mag/cell

     iteration # 31     ecut=    45.00 Ry     beta= 0.30
     Davidson diagonalization with overlap
     ethr =  3.93E-09,  avg # of iterations =  2.8

     negative rho (up, down):  0.000E+00 3.080E-03

     Magnetic moment per site  (integrated on atomic sphere of radius R)
     atom   1 (R=0.179)  charge= 12.1147  magn= -1.5917
     atom   2 (R=0.179)  charge= 14.4301  magn=  2.2068
     atom   3 (R=0.179)  charge= 14.4172  magn=  2.3861
     atom   4 (R=0.179)  charge= 14.4301  magn=  2.2068
     atom   5 (R=0.179)  charge= 14.4172  magn=  2.3861
     atom   6 (R=0.179)  charge= 14.4301  magn=  2.2068
     atom   7 (R=0.179)  charge= 14.4171  magn=  2.3861
     atom   8 (R=0.179)  charge= 14.4301  magn=  2.2068
     atom   9 (R=0.179)  charge= 14.4172  magn=  2.3861
     atom  10 (R=0.179)  charge= 14.4301  magn=  2.2068
     atom  11 (R=0.179)  charge= 14.4171  magn=  2.3861
     atom  12 (R=0.179)  charge= 14.4301  magn=  2.2068
     atom  13 (R=0.179)  charge= 14.4171  magn=  2.3861
     atom  14 (R=0.179)  charge= 14.4301  magn=  2.2068
     atom  15 (R=0.179)  charge= 12.1145  magn= -1.5969
     atom  16 (R=0.179)  charge= 14.4301  magn=  2.2068

     total cpu time spent up to now is     3664.0 secs

     End of self-consistent calculation

 ------ SPIN UP ------------


          k = 0.0000 0.0000 0.0000 (  6403 PWs)   bands (ev):

   -70.1317 -70.0877 -70.0877 -70.0877 -70.0826 -70.0826 -70.0826 -70.0782
   -70.0553 -70.0553 -70.0502 -70.0502 -70.0483 -70.0181 -52.9806 -52.9756
   -36.2892 -36.2892 -36.2892 -36.2540 -36.2540 -36.2540 -36.2453 -36.2108
   -36.2108 -36.2108 -36.1903 -36.1903 -36.1903 -36.1771 -36.1160 -36.1160
   -36.1160 -36.0734 -36.0734 -36.0719 -36.0719 -36.0719 -36.0469 -36.0469
   -36.0469 -36.0143 -36.0143 -36.0143 -36.0137 -36.0137 -36.0137 -36.0037
   -36.0037 -36.0025 -36.0025 -36.0025 -35.8884 -35.8884 -35.8884 -35.8666
   -35.8666 -35.8666 -24.3215 -24.3215 -24.3215 -24.3101 -24.3101 -24.3101
     9.7250  13.2749  13.2749  13.2749  13.3061  13.3061  13.3473  13.3696
    13.3696  13.4456  13.4456  13.4456  13.5107  13.5107  13.6617  14.7753
    14.7753  14.7753  14.8758  14.8758  14.8758  14.9708  14.9708  14.9708
    15.0180  15.0180  15.0180  15.0462  15.0462  15.0462  15.1545  15.4674
    15.4674  15.9946  15.9946  15.9946  16.1623  16.1623  16.1623  16.2186
    16.2186  16.2186  16.2390  16.2390  16.2390  16.6454  16.6454  16.6454
    16.8086  16.9603  16.9603  16.9867  16.9867  17.0117  17.1297  17.1297
    17.1564  17.1564  17.1564  17.1602  17.1602  17.1602  17.1656  17.1656
    17.2284  17.5886  17.5886  18.2383  18.2383  18.2383  18.2456  18.2456
    18.2456  18.3801  18.3801  18.3801  18.4345  18.4345  18.4345  18.4516
    18.4789  18.4789  18.6595  18.6595  18.6595  19.3673  19.3675

          k = 0.0000 0.0000 0.2500 (  6383 PWs)   bands (ev):

   -70.1273 -70.0982 -70.0869 -70.0869 -70.0834 -70.0834 -70.0820 -70.0786
   -70.0546 -70.0511 -70.0502 -70.0496 -70.0444 -70.0212 -52.9805 -52.9756
   -36.2878 -36.2820 -36.2820 -36.2526 -36.2440 -36.2424 -36.2424 -36.2202
   -36.2202 -36.1991 -36.1849 -36.1795 -36.1722 -36.1722 -36.1560 -36.1332
   -36.1332 -36.1266 -36.1266 -36.1262 -36.0609 -36.0335 -36.0320 -36.0320
   -36.0160 -36.0145 -36.0127 -36.0110 -36.0091 -36.0091 -36.0079 -35.9801
   -35.9801 -35.9701 -35.9701 -35.9677 -35.9106 -35.9002 -35.9002 -35.8805
   -35.8805 -35.8789 -24.3199 -24.3199 -24.3193 -24.3122 -24.3114 -24.3114
    10.0426  12.2617  13.3459  13.3459  13.3874  13.3995  13.4948  13.5138
    13.5239  13.5344  13.5344  13.5386  13.6054  13.6679  13.9789  14.4752
    14.6247  14.7219  14.7850  14.7850  14.7890  14.7890  14.8999  15.0378
    15.0378  15.0456  15.0456  15.1076  15.1511  15.4111  15.4111  15.4663
    15.8021  15.8410  15.8410  15.9413  15.9653  15.9653  16.0623  16.0623
    16.0780  16.1092  16.4147  16.4770  16.4770  16.5160  16.5289  16.5289
    16.5604  16.6478  16.7229  16.8740  16.9611  17.0175  17.0175  17.0531
    17.0531  17.0852  17.1259  17.1610  17.1626  17.1752  17.1814  17.2762
    17.2762  17.4000  17.4181  17.4229  17.6749  18.0203  18.0877  18.0877
    18.1684  18.1728  18.2245  18.2245  18.2888  18.2964  18.6003  18.6003
    18.6629  18.6629  18.6877  19.2057  19.2057  19.2313  19.6199

          k = 0.0000 0.0000-0.5000 (  6432 PWs)   bands (ev):

   -70.1150 -70.1150 -70.0852 -70.0852 -70.0852 -70.0852 -70.0804 -70.0804
   -70.0530 -70.0526 -70.0498 -70.0496 -70.0310 -70.0309 -52.9806 -52.9757
   -36.2694 -36.2694 -36.2562 -36.2562 -36.2561 -36.2561 -36.1985 -36.1985
   -36.1985 -36.1985 -36.1944 -36.1944 -36.1937 -36.1935 -36.1790 -36.1790
   -36.1548 -36.1548 -36.1547 -36.1547 -36.0388 -36.0386 -36.0267 -36.0267
   -36.0236 -36.0236 -36.0236 -36.0236 -36.0130 -36.0130 -35.9590 -35.9589
   -35.9360 -35.9360 -35.9359 -35.9359 -35.9201 -35.9201 -35.9200 -35.9200
   -35.9139 -35.9137 -24.3189 -24.3189 -24.3186 -24.3141 -24.3141 -24.3138
    10.9496  10.9496  13.5181  13.5181  13.5182  13.5182  13.5812  13.5812
    13.5929  13.5930  13.8189  13.8190  13.9104  13.9106  14.0426  14.0427
    14.0652  14.0652  14.7533  14.7533  14.7535  14.7535  15.2691  15.2691
    15.3436  15.3436  15.3437  15.3437  15.4965  15.4965  15.4966  15.4966
    15.5096  15.5097  15.5402  15.5404  15.9068  15.9068  15.9070  15.9070
    15.9214  15.9218  16.2200  16.2200  16.2202  16.2202  16.3012  16.3015
    16.4933  16.4933  16.7469  16.7469  16.9071  16.9071  16.9073  16.9073
    16.9482  16.9483  17.1552  17.1552  17.1791  17.1792  17.1910  17.1911
    17.5593  17.5593  17.5595  17.5595  17.8700  17.8701  17.9126  17.9128
    17.9309  17.9316  17.9677  17.9686  18.4123  18.4123  18.4127  18.4127
    19.0567  19.0567  19.0586  19.0586  19.2095  19.2120  19.5659

          k = 0.0000 0.2500 0.2500 (  6408 PWs)   bands (ev):

   -70.1232 -70.0987 -70.0936 -70.0862 -70.0859 -70.0828 -70.0828 -70.0793
   -70.0515 -70.0504 -70.0497 -70.0457 -70.0440 -70.0243 -52.9806 -52.9756
   -36.2891 -36.2743 -36.2707 -36.2594 -36.2344 -36.2322 -36.2249 -36.2232
   -36.2168 -36.2068 -36.1973 -36.1924 -36.1906 -36.1652 -36.1567 -36.1546
   -36.1492 -36.1287 -36.1248 -36.0833 -36.0748 -36.0585 -36.0542 -36.0322
   -36.0317 -36.0315 -36.0255 -36.0193 -36.0136 -35.9946 -35.9846 -35.9744
   -35.9718 -35.9532 -35.9487 -35.9377 -35.9295 -35.9112 -35.9019 -35.8916
   -35.8897 -35.8797 -24.3210 -24.3191 -24.3187 -24.3139 -24.3128 -24.3111
    10.3523  12.4082  12.5172  13.1738  13.5675  13.5770  13.5874  13.5962
    13.6257  13.6589  13.6678  13.6721  13.7592  14.0280  14.0610  14.4944
    14.5722  14.5788  14.5942  14.8491  14.8511  14.8677  14.8799  14.9145
    15.0105  15.0247  15.0894  15.1383  15.2526  15.2717  15.3384  15.5867
    15.6159  15.6822  15.6858  15.8312  15.8537  15.8995  15.9371  15.9912
    16.2140  16.2309  16.3027  16.3196  16.3554  16.4196  16.4339  16.4529
    16.5165  16.5270  16.6247  16.6727  16.7025  16.8556  16.8992  16.9231
    17.0076  17.0680  17.0951  17.1126  17.1489  17.1520  17.1774  17.2081
    17.3619  17.3713  17.4378  17.5122  17.5192  17.5469  17.5633  17.7708
    17.7849  17.8619  18.2483  18.3049  18.4231  18.5133  18.6567  18.6759
    18.8118  18.9779  19.0552  19.2026  19.3531  19.7076  19.8597

          k = 0.0000 0.2500-0.5000 (  6380 PWs)   bands (ev):

   -70.1120 -70.1120 -70.0908 -70.0908 -70.0845 -70.0845 -70.0810 -70.0810
   -70.0507 -70.0506 -70.0473 -70.0472 -70.0328 -70.0327 -52.9805 -52.9756
   -36.2756 -36.2756 -36.2479 -36.2479 -36.2478 -36.2478 -36.2061 -36.2060
   -36.2001 -36.2001 -36.1944 -36.1944 -36.1932 -36.1932 -36.1574 -36.1573
   -36.1445 -36.1444 -36.1242 -36.1242 -36.0548 -36.0547 -36.0533 -36.0533
   -36.0267 -36.0267 -36.0241 -36.0241 -36.0021 -36.0021 -35.9834 -35.9834
   -35.9383 -35.9382 -35.9329 -35.9327 -35.9147 -35.9147 -35.9069 -35.9069
   -35.8939 -35.8938 -24.3197 -24.3196 -24.3183 -24.3135 -24.3122 -24.3120
    11.2267  11.2267  12.8812  12.8813  13.7431  13.7432  13.7877  13.7877
    13.8684  13.8684  13.9468  13.9469  14.0434  14.0436  14.1369  14.1370
    14.1512  14.1513  14.8301  14.8302  14.8323  14.8325  15.0483  15.0484
    15.0610  15.0610  15.1404  15.1405  15.2914  15.2914  15.5624  15.5625
    15.6560  15.6561  15.6711  15.6711  15.7094  15.7095  15.7424  15.7425
    15.7942  15.7943  15.8332  15.8334  16.1282  16.1284  16.5608  16.5608
    16.6724  16.6724  16.7324  16.7324  16.7917  16.7918  16.8730  16.8731
    16.9321  16.9322  17.0315  17.0316  17.1389  17.1390  17.2591  17.2591
    17.2797  17.2798  17.3227  17.3228  17.4257  17.4258  17.6049  17.6049
    17.8907  17.8912  18.1579  18.1580  18.7308  18.7316  18.7641  18.7669
    18.8031  18.8038  19.0582  19.0584  19.7700  19.7703  19.9318

          k = 0.0000-0.5000-0.5000 (  6304 PWs)   bands (ev):

   -70.1064 -70.1064 -70.0982 -70.0981 -70.0827 -70.0827 -70.0827 -70.0827
   -70.0504 -70.0504 -70.0421 -70.0417 -70.0359 -70.0359 -52.9804 -52.9755
   -36.2791 -36.2791 -36.2423 -36.2422 -36.2288 -36.2288 -36.2193 -36.2193
   -36.2054 -36.2054 -36.1915 -36.1915 -36.1868 -36.1868 -36.1342 -36.1342
   -36.1306 -36.1305 -36.0798 -36.0798 -36.0676 -36.0674 -36.0645 -36.0645
   -36.0525 -36.0525 -36.0326 -36.0326 -36.0249 -36.0249 -35.9549 -35.9548
   -35.9515 -35.9515 -35.9342 -35.9340 -35.9088 -35.9088 -35.8906 -35.8906
   -35.8812 -35.8810 -24.3201 -24.3201 -24.3173 -24.3126 -24.3102 -24.3102
    11.9148  11.9148  12.0320  12.0321  13.9564  13.9564  14.0462  14.0464
    14.0918  14.0918  14.1160  14.1162  14.2301  14.2301  14.2584  14.2585
    14.4304  14.4304  14.5685  14.5686  14.7667  14.7668  14.7868  14.7868
    14.9566  14.9566  15.0191  15.0195  15.3088  15.3089  15.4163  15.4164
    15.4221  15.4221  15.4394  15.4394  15.5844  15.5844  15.5939  15.5941
    15.6496  15.6496  16.0886  16.0888  16.1325  16.1326  16.3475  16.3475
    16.7005  16.7005  16.8234  16.8234  16.9449  16.9450  16.9489  16.9489
    16.9531  16.9531  16.9859  16.9860  17.0165  17.0165  17.0516  17.0516
    17.0744  17.0746  17.3955  17.3955  17.4078  17.4078  17.4356  17.4356
    17.7024  17.7035  18.3366  18.3366  18.5962  18.5962  18.7376  18.7408
    19.0144  19.0144  19.2289  19.2309  20.3383  20.3385  20.3545

          k = 0.2500 0.2500 0.2500 (  6388 PWs)   bands (ev):

   -70.1194 -70.0966 -70.0966 -70.0895 -70.0856 -70.0856 -70.0836 -70.0802
   -70.0491 -70.0491 -70.0465 -70.0447 -70.0447 -70.0269 -52.9805 -52.9756
   -36.2801 -36.2669 -36.2669 -36.2627 -36.2298 -36.2239 -36.2239 -36.2227
   -36.2013 -36.2013 -36.1942 -36.1864 -36.1864 -36.1826 -36.1826 -36.1471
   -36.1306 -36.1246 -36.1246 -36.0860 -36.0838 -36.0838 -36.0769 -36.0593
   -36.0593 -36.0064 -35.9957 -35.9957 -35.9932 -35.9932 -35.9875 -35.9875
   -35.9728 -35.9625 -35.9326 -35.9152 -35.9152 -35.9090 -35.9090 -35.9020
   -35.9020 -35.8866 -24.3196 -24.3196 -24.3191 -24.3130 -24.3122 -24.3122
    10.6553  12.6279  12.6279  12.7903  13.4100  13.4100  13.4669  13.7624
    13.7624  13.8146  13.8468  13.8468  14.1516  14.2041  14.2041  14.4819
    14.5015  14.5733  14.5733  14.8368  14.8368  14.8663  14.9179  14.9609
    14.9609  15.1322  15.1322  15.1342  15.1342  15.1660  15.2676  15.4857
    15.4857  15.5593  15.5593  15.7069  15.7077  15.7077  15.8056  15.8885
    15.8885  16.0236  16.0463  16.0463  16.1357  16.1357  16.2465  16.5525
    16.5533  16.6140  16.6140  16.8061  16.8449  16.9403  16.9442  16.9442
    16.9825  16.9825  17.0097  17.0097  17.0809  17.0809  17.1588  17.1839
    17.2362  17.2362  17.3677  17.3677  17.5645  17.7007  17.7007  17.8692
    17.8692  17.9016  17.9686  18.3538  18.3538  18.7090  18.7090  18.7483
    18.8341  18.8341  19.0065  19.0065  19.3733  19.6739  19.6739

          k = 0.2500 0.2500-0.5000 (  6364 PWs)   bands (ev):

   -70.1091 -70.1091 -70.0914 -70.0913 -70.0876 -70.0876 -70.0823 -70.0823
   -70.0476 -70.0475 -70.0466 -70.0463 -70.0345 -70.0344 -52.9805 -52.9756
   -36.2723 -36.2722 -36.2472 -36.2471 -36.2391 -36.2391 -36.2110 -36.2110
   -36.1985 -36.1984 -36.1956 -36.1956 -36.1706 -36.1706 -36.1691 -36.1690
   -36.1436 -36.1434 -36.1027 -36.1026 -36.0945 -36.0944 -36.0814 -36.0814
   -36.0370 -36.0369 -35.9970 -35.9970 -35.9877 -35.9877 -35.9755 -35.9755
   -35.9403 -35.9402 -35.9340 -35.9339 -35.9153 -35.9152 -35.9027 -35.9026
   -35.8951 -35.8950 -24.3195 -24.3195 -24.3182 -24.3135 -24.3119 -24.3119
    11.5035  11.5035  13.0995  13.0997  13.1823  13.1823  14.0498  14.0498
    14.0684  14.0684  14.0826  14.0826  14.1143  14.1144  14.1846  14.1848
    14.3075  14.3076  14.8483  14.8483  14.9122  14.9123  14.9158  14.9159
    15.0463  15.0464  15.1110  15.1111  15.2231  15.2231  15.4219  15.4219
    15.4562  15.4562  15.4700  15.4700  15.4798  15.4798  15.5136  15.5137
    15.6319  15.6321  15.8027  15.8029  15.8086  15.8088  16.3524  16.3525
    16.7690  16.7690  16.8350  16.8351  16.8399  16.8400  16.8857  16.8857
    16.9474  16.9474  17.0684  17.0684  17.1108  17.1109  17.2052  17.2052
    17.2106  17.2106  17.3922  17.3923  17.6429  17.6430  17.7402  17.7405
    17.8889  17.8891  17.9047  17.9047  18.5161  18.5170  18.8550  18.8572
    18.9722  18.9745  19.1139  19.1161  19.1726  19.1743  20.4883

          k = 0.2500-0.5000-0.5000 (  6360 PWs)   bands (ev):

   -70.1037 -70.1037 -70.0974 -70.0973 -70.0874 -70.0874 -70.0838 -70.0838
   -70.0471 -70.0471 -70.0419 -70.0416 -70.0375 -70.0375 -52.9805 -52.9756
   -36.2708 -36.2708 -36.2363 -36.2362 -36.2319 -36.2319 -36.2160 -36.2160
   -36.2125 -36.2125 -36.1845 -36.1845 -36.1694 -36.1693 -36.1637 -36.1637
   -36.1227 -36.1226 -36.1133 -36.1132 -36.1078 -36.1078 -36.0762 -36.0762
   -36.0726 -36.0726 -35.9902 -35.9902 -35.9869 -35.9868 -35.9545 -35.9545
   -35.9408 -35.9407 -35.9391 -35.9391 -35.9208 -35.9208 -35.9005 -35.9005
   -35.8945 -35.8944 -24.3193 -24.3193 -24.3184 -24.3136 -24.3120 -24.3120
    12.1907  12.1907  12.3068  12.3069  13.7145  13.7145  13.7805  13.7806
    14.1235  14.1235  14.2244  14.2245  14.4658  14.4658  14.5298  14.5298
    14.5572  14.5572  14.5818  14.5819  14.7255  14.7255  14.8045  14.8046
    15.0208  15.0208  15.0319  15.0322  15.1053  15.1053  15.2258  15.2259
    15.2579  15.2579  15.2725  15.2725  15.3298  15.3300  15.4210  15.4210
    15.5105  15.5105  15.6043  15.6044  15.8722  15.8722  15.8840  15.8843
    16.8688  16.8688  16.9533  16.9533  16.9608  16.9608  17.0114  17.0115
    17.0381  17.0381  17.1060  17.1060  17.1212  17.1213  17.2116  17.2116
    17.2797  17.2798  17.2832  17.2832  17.4290  17.4290  17.5782  17.5782
    17.9526  17.9527  18.0659  18.0666  18.5023  18.5023  18.7899  18.7899
    18.8510  18.8541  19.0664  19.0693  19.5490  19.5505  19.8377

          k =-0.5000-0.5000-0.5000 (  6272 PWs)   bands (ev):

   -70.0961 -70.0961 -70.0961 -70.0960 -70.0960 -70.0960 -70.0850 -70.0850
   -70.0416 -70.0416 -70.0416 -70.0413 -70.0413 -70.0413 -52.9804 -52.9755
   -36.2525 -36.2525 -36.2212 -36.2212 -36.2212 -36.2211 -36.2211 -36.2211
   -36.1951 -36.1951 -36.1950 -36.1950 -36.1531 -36.1531 -36.1531 -36.1529
   -36.1529 -36.1529 -36.1111 -36.1111 -36.1111 -36.1109 -36.1109 -36.1109
   -36.0622 -36.0620 -35.9453 -35.9453 -35.9453 -35.9450 -35.9450 -35.9450
   -35.9441 -35.9441 -35.9440 -35.9440 -35.9134 -35.9134 -35.9134 -35.9132
   -35.9132 -35.9132 -24.3170 -24.3170 -24.3170 -24.3123 -24.3123 -24.3123
    12.9227  12.9227  12.9227  12.9228  12.9228  12.9228  13.1551  13.1552
    14.5855  14.5855  14.5855  14.5856  14.5856  14.5856  14.5984  14.5984
    14.5984  14.5984  14.5984  14.5984  14.8482  14.8482  14.8484  14.8484
    15.0639  15.0639  15.0639  15.0640  15.0640  15.0640  15.0927  15.0927
    15.0927  15.0927  15.0927  15.0927  15.1167  15.1169  15.2035  15.2035
    15.2035  15.2035  15.4672  15.4672  15.4672  15.4678  15.4678  15.4678
    17.0081  17.0081  17.0081  17.0082  17.0082  17.0082  17.0611  17.0611
    17.0611  17.0613  17.0613  17.0613  17.4148  17.4148  17.4150  17.4150
    17.4664  17.4664  17.4664  17.4666  17.4666  17.4666  17.8510  17.8510
    17.8510  17.8510  17.8510  17.8510  18.1185  18.1187  18.9097  18.9097
    18.9130  18.9130  19.2526  19.2526  19.2550  19.2550  19.2550

 ------ SPIN DOWN ----------


          k = 0.0000 0.0000 0.0000 (  6403 PWs)   bands (ev):

   -67.5016 -67.4828 -67.4828 -67.4828 -67.4774 -67.4774 -67.4774 -67.4723
   -67.2427 -67.2427 -67.2373 -67.2373 -67.2348 -67.2316 -54.6530 -54.6490
   -33.7553 -33.7553 -33.7553 -33.7380 -33.6975 -33.6975 -33.6975 -33.6605
   -33.6495 -33.6495 -33.6495 -33.6006 -33.6006 -33.6006 -33.5306 -33.5306
   -33.5000 -33.5000 -33.5000 -33.4625 -33.4625 -33.4625 -33.4513 -33.4513
   -33.4304 -33.4304 -33.4304 -33.3124 -33.3124 -33.3124 -33.3108 -33.3108
   -33.3108 -33.2464 -33.2464 -33.2464 -33.1937 -33.1937 -33.1937 -33.1682
   -33.1682 -33.1682 -25.9724 -25.9724 -25.9724 -25.9588 -25.9588 -25.9588
     9.7897  13.7914  13.7914  13.9739  13.9739  13.9739  13.9908  14.1289
    14.1289  14.1390  14.1390  14.1390  14.5043  14.9900  14.9900  15.7742
    15.7742  15.7742  16.0668  16.0668  16.0668  16.2260  16.2260  16.2260
    16.5267  16.5267  16.5267  16.6620  16.6620  17.2343  17.2343  17.2343
    17.5180  17.5974  17.5974  17.5974  17.6645  17.6645  17.6645  17.9793
    17.9793  17.9793  18.0606  18.0606  18.0606  18.1742  18.1742  18.1742
    18.5841  18.5841  18.5841  18.5943  18.5943  18.5943  18.8328  18.8395
    18.8395  18.9814  18.9814  19.0103  19.0103  19.0103  19.5136  19.5136
    19.5136  19.6447  19.7442  19.7442  19.8096  19.8096  19.9257  19.9257
    19.9257  19.9362  19.9362  19.9653  19.9653  20.1997  20.1997  20.1997
    20.2283  20.5534  20.5534  20.5534  20.6121  20.6121  20.6235

          k = 0.0000 0.0000 0.2500 (  6383 PWs)   bands (ev):

   -67.4989 -67.4856 -67.4820 -67.4820 -67.4782 -67.4782 -67.4766 -67.4729
   -67.2419 -67.2411 -67.2381 -67.2371 -67.2350 -67.2330 -54.6529 -54.6491
   -33.7557 -33.7484 -33.7484 -33.7420 -33.7013 -33.7013 -33.6855 -33.6688
   -33.6407 -33.6363 -33.6363 -33.5905 -33.5815 -33.5815 -33.5606 -33.5550
   -33.5266 -33.5266 -33.5089 -33.5089 -33.4859 -33.4631 -33.4612 -33.4557
   -33.3943 -33.3879 -33.3879 -33.3253 -33.3208 -33.3208 -33.2870 -33.2764
   -33.2764 -33.2386 -33.2386 -33.2296 -33.2152 -33.2016 -33.2016 -33.1829
   -33.1829 -33.1780 -25.9703 -25.9703 -25.9696 -25.9616 -25.9606 -25.9606
    10.1101  12.4145  13.9167  14.0913  14.0913  14.1101  14.1506  14.1843
    14.1843  14.3032  14.3521  14.5878  14.8853  15.1046  15.1366  15.5058
    15.8128  15.8128  15.9181  16.0637  16.0637  16.1451  16.2142  16.4563
    16.4563  16.5609  16.5791  16.5791  16.6671  16.9856  16.9856  17.1234
    17.2247  17.4687  17.4687  17.5972  17.6129  17.6129  17.6894  17.7599
    17.7707  17.7707  17.8515  17.8515  17.9095  17.9335  17.9890  17.9890
    18.3269  18.3307  18.3307  18.4638  18.5079  18.5486  18.5486  18.7727
    19.1072  19.1871  19.3849  19.3849  19.4409  19.4409  19.4664  19.5495
    19.5549  19.5630  19.6393  19.6863  19.7932  19.8542  19.9119  19.9327
    19.9417  19.9417  19.9627  19.9746  20.1000  20.2865  20.3302  20.3302
    20.3458  20.4880  20.4937  20.4937  20.5034  20.5358  20.5665

          k = 0.0000 0.0000-0.5000 (  6432 PWs)   bands (ev):

   -67.4924 -67.4924 -67.4801 -67.4801 -67.4801 -67.4801 -67.4749 -67.4749
   -67.2401 -67.2400 -67.2378 -67.2377 -67.2354 -67.2353 -54.6530 -54.6492
   -33.7483 -33.7483 -33.7271 -33.7271 -33.7271 -33.7271 -33.6795 -33.6795
   -33.6005 -33.6005 -33.5895 -33.5895 -33.5895 -33.5895 -33.5855 -33.5854
   -33.5554 -33.5554 -33.5553 -33.5553 -33.4773 -33.4773 -33.4611 -33.4611
   -33.3550 -33.3550 -33.3493 -33.3493 -33.3492 -33.3492 -33.2557 -33.2556
   -33.2256 -33.2256 -33.2256 -33.2256 -33.2230 -33.2230 -33.2229 -33.2229
   -33.2001 -33.2000 -25.9682 -25.9682 -25.9680 -25.9644 -25.9644 -25.9642
    11.0323  11.0325  14.1148  14.1156  14.2283  14.2283  14.2287  14.2287
    14.4235  14.4239  14.8987  14.8991  14.8999  14.9002  15.3772  15.3773
    15.5375  15.5380  15.9462  15.9462  15.9473  15.9473  16.6334  16.6343
    16.7186  16.7195  16.7645  16.7645  16.7650  16.7650  17.0828  17.0828
    17.1214  17.1214  17.1215  17.1215  17.1678  17.1678  17.1678  17.1678
    17.2150  17.2151  17.6429  17.6429  17.6430  17.6430  18.0226  18.0228
    18.4587  18.4605  18.8744  18.8751  18.9598  18.9598  18.9603  18.9603
    19.1549  19.1549  19.2239  19.2239  19.2240  19.2240  19.5465  19.5473
    19.6201  19.6209  19.8009  19.8011  19.8699  19.8704  19.9174  19.9174
    20.0214  20.0215  20.0363  20.0363  20.0365  20.0365  20.1011  20.1011
    20.1060  20.1061  20.5739  20.5739  20.5740  20.5740  20.6413

          k = 0.0000 0.2500 0.2500 (  6408 PWs)   bands (ev):

   -67.4965 -67.4851 -67.4840 -67.4812 -67.4793 -67.4775 -67.4775 -67.4737
   -67.2408 -67.2403 -67.2381 -67.2374 -67.2354 -67.2341 -54.6529 -54.6491
   -33.7553 -33.7421 -33.7414 -33.7410 -33.7069 -33.7003 -33.6918 -33.6744
   -33.6330 -33.6238 -33.6172 -33.6042 -33.5873 -33.5753 -33.5680 -33.5649
   -33.5386 -33.5382 -33.5186 -33.4933 -33.4933 -33.4711 -33.4683 -33.4637
   -33.4045 -33.3785 -33.3682 -33.3377 -33.3348 -33.3262 -33.2826 -33.2617
   -33.2578 -33.2397 -33.2335 -33.2261 -33.2163 -33.2092 -33.2006 -33.1969
   -33.1937 -33.1792 -25.9718 -25.9690 -25.9681 -25.9642 -25.9624 -25.9600
    10.4234  12.6262  12.6598  13.8024  14.1753  14.2256  14.3323  14.4280
    14.4410  14.4702  14.7656  14.9637  14.9973  15.2181  15.2473  15.4600
    15.7629  15.7692  16.0764  16.0823  16.0843  16.1665  16.1777  16.1860
    16.3229  16.4793  16.5472  16.6382  16.7671  16.7833  16.7899  16.9909
    17.1086  17.1816  17.2966  17.4399  17.4491  17.4638  17.4699  17.4996
    17.5289  17.5442  17.5551  17.6161  17.6638  17.8345  17.9945  18.0747
    18.3043  18.3982  18.4653  18.5081  18.6215  18.7938  18.7959  18.8963
    18.9654  18.9918  19.2025  19.3155  19.4763  19.5017  19.5172  19.5321
    19.6031  19.6120  19.6451  19.6473  19.7867  19.8348  19.8374  19.8665
    19.9089  19.9414  19.9466  19.9481  20.0151  20.0221  20.1259  20.2209
    20.2320  20.2483  20.2912  20.6254  20.6958  20.7690  21.3395

          k = 0.0000 0.2500-0.5000 (  6380 PWs)   bands (ev):

   -67.4907 -67.4907 -67.4818 -67.4818 -67.4793 -67.4793 -67.4756 -67.4756
   -67.2394 -67.2393 -67.2378 -67.2377 -67.2360 -67.2359 -54.6529 -54.6491
   -33.7467 -33.7467 -33.7230 -33.7230 -33.7181 -33.7181 -33.6828 -33.6828
   -33.6130 -33.6130 -33.5944 -33.5944 -33.5816 -33.5816 -33.5722 -33.5722
   -33.5486 -33.5485 -33.5257 -33.5257 -33.4811 -33.4811 -33.4708 -33.4708
   -33.3690 -33.3689 -33.3580 -33.3579 -33.3409 -33.3408 -33.2664 -33.2663
   -33.2268 -33.2268 -33.2225 -33.2225 -33.2207 -33.2207 -33.2069 -33.2069
   -33.1909 -33.1908 -25.9700 -25.9700 -25.9676 -25.9638 -25.9615 -25.9614
    11.3189  11.3191  13.2125  13.2126  14.3996  14.3999  14.4463  14.4471
    14.9053  14.9057  14.9895  14.9904  15.0792  15.0800  15.4449  15.4450
    15.6239  15.6243  15.9518  15.9528  16.0158  16.0169  16.3529  16.3533
    16.4763  16.4769  16.6531  16.6532  16.7407  16.7408  16.7817  16.7817
    16.8882  16.8882  17.0287  17.0288  17.1251  17.1251  17.3021  17.3021
    17.3196  17.3197  17.3743  17.3744  17.5345  17.5346  18.3628  18.3629
    18.5671  18.5685  18.6535  18.6536  18.8026  18.8035  18.8808  18.8808
    19.0044  19.0044  19.0851  19.0852  19.3098  19.3098  19.5153  19.5157
    19.5225  19.5226  19.6812  19.6812  19.7631  19.7634  19.8522  19.8523
    19.9438  19.9438  19.9905  19.9905  20.0401  20.0401  20.1652  20.1652
    20.1773  20.1774  20.4402  20.4402  21.0678  21.0679  21.0887

          k = 0.0000-0.5000-0.5000 (  6304 PWs)   bands (ev):

   -67.4874 -67.4874 -67.4851 -67.4851 -67.4775 -67.4775 -67.4775 -67.4775
   -67.2378 -67.2378 -67.2377 -67.2376 -67.2374 -67.2374 -54.6528 -54.6490
   -33.7442 -33.7442 -33.7158 -33.7158 -33.7095 -33.7095 -33.6888 -33.6888
   -33.6159 -33.6159 -33.5924 -33.5924 -33.5771 -33.5771 -33.5641 -33.5641
   -33.5376 -33.5375 -33.4951 -33.4951 -33.4849 -33.4849 -33.4806 -33.4806
   -33.3881 -33.3881 -33.3637 -33.3636 -33.3325 -33.3324 -33.2722 -33.2722
   -33.2271 -33.2270 -33.2203 -33.2203 -33.2159 -33.2159 -33.1921 -33.1920
   -33.1822 -33.1822 -25.9709 -25.9709 -25.9666 -25.9628 -25.9591 -25.9591
    12.0811  12.0814  12.1538  12.1538  14.6026  14.6026  14.7550  14.7560
    15.1323  15.1323  15.1606  15.1607  15.3150  15.3152  15.4162  15.4181
    15.6866  15.6866  15.7650  15.7650  16.0689  16.0704  16.1575  16.1575
    16.4173  16.4173  16.4393  16.4393  16.4921  16.4921  16.5285  16.5285
    16.8624  16.8626  16.9357  16.9357  16.9895  16.9895  17.1635  17.1635
    17.3593  17.3593  17.4226  17.4226  17.7753  17.7753  18.0174  18.0174
    18.5670  18.5676  18.7574  18.7574  18.7889  18.7889  18.8650  18.8667
    18.8983  18.8990  19.0972  19.0972  19.3864  19.3864  19.4278  19.4278
    19.4470  19.4470  19.5456  19.5456  19.8059  19.8060  19.8411  19.8411
    19.8428  19.8428  19.8726  19.8726  19.9905  19.9905  20.1627  20.1627
    20.3460  20.3460  20.6123  20.6124  21.8965  21.8966  21.9572

          k = 0.2500 0.2500 0.2500 (  6388 PWs)   bands (ev):

   -67.4944 -67.4840 -67.4840 -67.4825 -67.4786 -67.4786 -67.4783 -67.4745
   -67.2398 -67.2398 -67.2378 -67.2378 -67.2357 -67.2350 -54.6529 -54.6491
   -33.7481 -33.7394 -33.7360 -33.7360 -33.7061 -33.6995 -33.6995 -33.6767
   -33.6244 -33.6074 -33.6074 -33.5890 -33.5890 -33.5869 -33.5869 -33.5518
   -33.5420 -33.5227 -33.5227 -33.5023 -33.5023 -33.4862 -33.4750 -33.4750
   -33.4069 -33.3577 -33.3577 -33.3452 -33.3359 -33.3359 -33.2672 -33.2672
   -33.2465 -33.2361 -33.2343 -33.2102 -33.2102 -33.2089 -33.2089 -33.2014
   -33.2014 -33.1863 -25.9700 -25.9700 -25.9689 -25.9628 -25.9615 -25.9615
    10.7305  12.8639  12.8883  12.8883  14.0220  14.0220  14.1526  14.6684
    14.6684  15.0122  15.0122  15.0325  15.1707  15.3633  15.3633  15.5126
    15.7872  15.8197  15.8197  16.0822  16.0822  16.1512  16.1512  16.2198
    16.3745  16.3745  16.4472  16.6173  16.6868  16.6868  16.8524  16.9435
    16.9435  17.0141  17.0141  17.1009  17.1819  17.2501  17.2764  17.2764
    17.3561  17.3561  17.4276  17.4276  17.6133  17.6133  17.7212  18.2665
    18.5289  18.5289  18.6745  18.6745  18.7568  18.8657  18.8732  18.8732
    19.0265  19.2385  19.2802  19.2802  19.3379  19.3541  19.3541  19.5506
    19.6644  19.6644  19.7034  19.7034  19.7557  19.8479  19.8479  19.8657
    19.8657  19.9397  19.9397  19.9779  20.0113  20.0113  20.2025  20.2157
    20.2157  20.2212  20.2212  20.2844  20.6372  20.6622  20.6622

          k = 0.2500 0.2500-0.5000 (  6364 PWs)   bands (ev):

   -67.4891 -67.4891 -67.4813 -67.4813 -67.4806 -67.4806 -67.4765 -67.4765
   -67.2388 -67.2387 -67.2377 -67.2376 -67.2365 -67.2364 -54.6529 -54.6491
   -33.7421 -33.7421 -33.7177 -33.7177 -33.7175 -33.7175 -33.6862 -33.6862
   -33.6051 -33.6051 -33.6008 -33.6008 -33.5727 -33.5727 -33.5709 -33.5709
   -33.5442 -33.5442 -33.5166 -33.5166 -33.4985 -33.4985 -33.4870 -33.4870
   -33.3796 -33.3796 -33.3443 -33.3442 -33.3374 -33.3373 -33.2594 -33.2594
   -33.2352 -33.2352 -33.2206 -33.2206 -33.2163 -33.2163 -33.2039 -33.2039
   -33.1916 -33.1915 -25.9699 -25.9699 -25.9676 -25.9638 -25.9612 -25.9612
    11.6036  11.6038  13.4547  13.4547  13.4850  13.4852  14.7335  14.7341
    14.9259  14.9265  15.0895  15.0904  15.4026  15.4027  15.5444  15.5449
    15.7353  15.7355  16.0014  16.0023  16.0040  16.0050  16.1646  16.1652
    16.4978  16.4982  16.5498  16.5499  16.6398  16.6398  16.6405  16.6405
    16.8282  16.8282  16.8810  16.8810  17.0883  17.0883  17.1261  17.1261
    17.1546  17.1547  17.2821  17.2821  17.3454  17.3454  18.0251  18.0251
    18.6548  18.6548  18.7307  18.7323  18.8480  18.8492  19.0780  19.0783
    19.0819  19.0820  19.3165  19.3167  19.4339  19.4339  19.5252  19.5254
    19.5990  19.5993  19.7249  19.7250  19.8207  19.8209  19.8577  19.8578
    19.9106  19.9107  19.9994  19.9995  20.0032  20.0032  20.0930  20.0930
    20.1559  20.1559  20.2169  20.2169  20.2289  20.2290  21.7022

          k = 0.2500-0.5000-0.5000 (  6360 PWs)   bands (ev):

   -67.4860 -67.4860 -67.4841 -67.4841 -67.4789 -67.4789 -67.4785 -67.4785
   -67.2378 -67.2378 -67.2377 -67.2376 -67.2374 -67.2374 -54.6529 -54.6491
   -33.7384 -33.7384 -33.7160 -33.7160 -33.7081 -33.7081 -33.6951 -33.6951
   -33.6115 -33.6115 -33.5821 -33.5821 -33.5790 -33.5790 -33.5622 -33.5622
   -33.5361 -33.5361 -33.5133 -33.5133 -33.5129 -33.5129 -33.4994 -33.4994
   -33.3948 -33.3947 -33.3410 -33.3410 -33.3273 -33.3273 -33.2586 -33.2586
   -33.2313 -33.2312 -33.2218 -33.2218 -33.2203 -33.2203 -33.2011 -33.2010
   -33.1932 -33.1932 -25.9696 -25.9696 -25.9678 -25.9640 -25.9614 -25.9614
    12.3681  12.3684  12.4219  12.4219  14.0575  14.0575  14.1804  14.1808
    15.1223  15.1232  15.4294  15.4314  15.4375  15.4375  15.7822  15.7822
    15.8647  15.8648  15.8652  15.8652  15.9793  15.9806  16.1887  16.1887
    16.3565  16.3565  16.4482  16.4482  16.4621  16.4621  16.6321  16.6321
    16.7065  16.7066  16.8103  16.8103  16.9399  16.9399  17.0719  17.0719
    17.0866  17.0866  17.1333  17.1333  17.3465  17.3465  17.4413  17.4414
    18.8843  18.8859  18.9277  18.9294  18.9957  18.9957  19.1000  19.1005
    19.2659  19.2659  19.4427  19.4427  19.4621  19.4621  19.4961  19.4961
    19.5454  19.5454  19.6435  19.6435  19.7532  19.7532  19.7771  19.7771
    19.8330  19.8330  19.8380  19.8381  19.9146  19.9146  20.0271  20.0271
    20.0947  20.0947  20.2504  20.2504  20.8275  20.8276  20.8485

          k =-0.5000-0.5000-0.5000 (  6272 PWs)   bands (ev):

   -67.4824 -67.4824 -67.4824 -67.4824 -67.4824 -67.4824 -67.4801 -67.4801
   -67.2376 -67.2376 -67.2376 -67.2375 -67.2375 -67.2375 -54.6528 -54.6490
   -33.7232 -33.7232 -33.7038 -33.7038 -33.7038 -33.7038 -33.7038 -33.7038
   -33.5894 -33.5894 -33.5894 -33.5894 -33.5487 -33.5487 -33.5487 -33.5487
   -33.5487 -33.5487 -33.5224 -33.5224 -33.5224 -33.5224 -33.5224 -33.5224
   -33.3946 -33.3945 -33.3166 -33.3166 -33.3165 -33.3165 -33.2301 -33.2301
   -33.2301 -33.2300 -33.2300 -33.2300 -33.2065 -33.2065 -33.2065 -33.2064
   -33.2064 -33.2064 -25.9664 -25.9664 -25.9664 -25.9626 -25.9626 -25.9626
    13.1496  13.1496  13.1496  13.1497  13.1497  13.1497  13.1641  13.1648
    15.4465  15.4465  15.4485  15.4485  15.7333  15.7333  15.7333  15.7351
    15.7351  15.7351  16.3261  16.3261  16.3261  16.3262  16.3262  16.3262
    16.3621  16.3621  16.3621  16.3622  16.3622  16.3622  16.7461  16.7462
    16.7816  16.7816  16.7816  16.7816  16.7816  16.7816  16.8384  16.8384
    16.8384  16.8384  16.8384  16.8384  16.9002  16.9002  16.9002  16.9002
    19.0171  19.0171  19.0188  19.0188  19.4166  19.4166  19.4166  19.4175
    19.4175  19.4175  19.6741  19.6741  19.6741  19.6742  19.6742  19.6742
    19.7389  19.7389  19.7389  19.7390  19.7390  19.7390  19.8012  19.8012
    19.8012  19.8012  19.8728  19.8728  19.8728  19.8729  19.8729  19.8729
    20.0903  20.0903  20.0903  20.0903  20.0903  20.0903  20.1425

     the Fermi energy is    18.3045 ev

!    total energy              =   -5105.27596992 Ry
     total all-electron energy =    -39840.492790 Ry
     estimated scf accuracy    <       0.00000069 Ry
     smearing contrib. (-TS)   =       0.00450094 Ry
     internal energy E=F+TS    =   -5105.28047086 Ry

     The total energy is F=E-TS. E is the sum of the following terms:
     one-electron contribution =   -1677.56980527 Ry
     hartree contribution      =     994.20704940 Ry
     xc contribution           =    -432.96263501 Ry
     ewald contribution        =   -2681.59360057 Ry
     one-center paw contrib.   =   -1307.36147941 Ry

     total magnetization       =    27.81 Bohr mag/cell
     absolute magnetization    =    36.57 Bohr mag/cell

     convergence has been achieved in  31 iterations


     Computing stress (Cartesian axis) and pressure


     negative rho (up, down):  0.000E+00 3.080E-03
          total   stress  (Ry/bohr**3)                   (kbar)     P=     -804.12
  -0.00546630   0.00000000   0.00000000         -804.12        0.00        0.00
   0.00000000  -0.00546630   0.00000000            0.00     -804.12        0.00
   0.00000000   0.00000000  -0.00546630            0.00        0.00     -804.12


     Writing all to output data dir ./tmp/fe14cr02_hydro_0.01.save/ :
     XML data file, charge density, pseudopotentials, collected wavefunctions

     init_run     :     37.75s CPU     39.72s WALL (       1 calls)
     electrons    :   3528.32s CPU   3623.91s WALL (       1 calls)
     stress       :     82.04s CPU     82.64s WALL (       1 calls)

     Called by init_run:
     wfcinit      :     32.52s CPU     33.05s WALL (       1 calls)
     potinit      :      3.41s CPU      4.29s WALL (       1 calls)
     hinit0       :      0.76s CPU      0.86s WALL (       1 calls)

     Called by electrons:
     c_bands      :   3101.08s CPU   3153.12s WALL (      31 calls)
     sum_band     :    293.00s CPU    313.72s WALL (      31 calls)
     v_of_rho     :      7.20s CPU      6.22s WALL (      32 calls)
     newd         :     30.26s CPU     42.88s WALL (      32 calls)
     PAW_pot      :     98.75s CPU    111.01s WALL (      32 calls)
     mix_rho      :      1.24s CPU      1.35s WALL (      31 calls)

     Called by c_bands:
     init_us_2    :      9.14s CPU      9.69s WALL (    1280 calls)
     cegterg      :   3075.81s CPU   3127.58s WALL (     620 calls)

     Called by *egterg:
     cdiaghg      :    273.95s CPU    284.83s WALL (    2771 calls)
     h_psi        :   1027.29s CPU   1059.45s WALL (    2791 calls)
     s_psi        :    385.69s CPU    380.97s WALL (    2791 calls)
     g_psi        :      1.12s CPU      1.20s WALL (    2151 calls)

     Called by h_psi:
     h_psi:calbec :    389.40s CPU    395.24s WALL (    2791 calls)
     vloc_psi     :    251.74s CPU    268.19s WALL (    2791 calls)
                                        0.00s GPU  (    2791 calls)
     add_vuspsi   :    384.03s CPU    389.82s WALL (    2791 calls)

     General routines
     calbec       :    637.77s CPU    644.01s WALL (    3671 calls)
     fft          :      4.37s CPU      3.31s WALL (     819 calls)
     ffts         :      0.41s CPU      0.44s WALL (     126 calls)
     fftw         :    285.75s CPU    302.98s WALL (  510134 calls)
     interpolate  :      0.70s CPU      0.77s WALL (      64 calls)

     Parallel routines

     PWSCF        :      1h 0m CPU      1h 2m WALL


   This run was terminated on:  17:46:40  24Apr2026            

=------------------------------------------------------------------------------=
   JOB DONE.
=------------------------------------------------------------------------------=
Note: The following floating-point exceptions are signalling: IEEE_DENORMAL
