
     Program PWSCF v.7.5 starts on 24Apr2026 at 12:17:21 

     This program is part of the open-source Quantum ESPRESSO suite
     for quantum simulation of materials; please cite
         "P. Giannozzi et al., J. Phys.:Condens. Matter 21 395502 (2009);
         "P. Giannozzi et al., J. Phys.:Condens. Matter 29 465901 (2017);
         "P. Giannozzi et al., J. Chem. Phys. 152 154105 (2020);
          URL http://www.quantum-espresso.org", 
     in publications or presentations arising from this work. More details at
     http://www.quantum-espresso.org/quote

     Parallel version (MPI), running on     4 processors

     MPI processes distributed on     1 nodes
     719 MiB available memory on the printing compute node when the environment starts

     Waiting for input...
     Reading input from standard input

     Current dimensions of program PWSCF are:
     Max number of different atomic species (ntypx) = 10
     Max number of k-points (npk) =  40000
     Max angular momentum in pseudopotentials (lmaxx) =  4
     file Fe.pbe-spn-kjpaw_psl.1.0.0.UPF: wavefunction(s)  3P 3D renormalized
     file Cr.pbe-spn-kjpaw_psl.1.0.0.UPF: wavefunction(s)  3S 3P 3D renormalized
     Message from routine setup:
     using ibrav=0 with symmetry is DISCOURAGED, use correct ibrav instead

     R & G space division:  proc/nbgrp/npool/nimage =       4
     Subspace diagonalization in iterative solution of the eigenvalue problem:
     one sub-group per band group will be used
     custom distributed-memory algorithm (size of sub-group:  2*  2 procs)


     Parallelization info
     --------------------
     sticks:   dense  smooth     PW     G-vecs:    dense   smooth      PW
     Min         818     406    119                35054    12376    1929
     Max         819     407    120                35055    12381    1932
     Sum        3275    1627    477               140219    49519    7721

     Using Slab Decomposition



     bravais-lattice index     =            0
     lattice parameter (alat)  =      10.6732  a.u.
     unit-cell volume          =    1215.5488 (a.u.)^3
     number of atoms/cell      =           16
     number of atomic types    =            2
     number of electrons       =       254.00
     number of Kohn-Sham states=          152
     kinetic-energy cutoff     =      45.0000  Ry
     charge density cutoff     =     360.0000  Ry
     scf convergence threshold =      1.0E-06
     mixing beta               =       0.3000
     number of iterations used =            8  plain     mixing
     Exchange-correlation= SLA  PW   PBX  PBC
                           (   1   4   3   4   0   0   0)

     celldm(1)=  10.673176  celldm(2)=   0.000000  celldm(3)=   0.000000
     celldm(4)=   0.000000  celldm(5)=   0.000000  celldm(6)=   0.000000

     crystal axes: (cart. coord. in units of alat)
               a(1) = (   0.999950   0.009999   0.000000 )  
               a(2) = (   0.009999   0.999950   0.000000 )  
               a(3) = (   0.000000   0.000000   0.999950 )  

     reciprocal axes: (cart. coord. in units 2 pi/alat)
               b(1) = (  1.000150 -0.010001  0.000000 )  
               b(2) = ( -0.010001  1.000150  0.000000 )  
               b(3) = (  0.000000  0.000000  1.000050 )  


     PseudoPot. # 1 for Fe read from file:
     ./pseudo/Fe.pbe-spn-kjpaw_psl.1.0.0.UPF
     MD5 check sum: fc81f059e5c5069939230b1155715ae8
     Pseudo is Projector augmented-wave + core cor, Zval = 16.0
     Generated using &quot;atomic&quot; code by A. Dal Corso  v.6.3
     Shape of augmentation charge: PSQ
     Using radial grid of 1191 points,  6 beta functions with: 
                l(1) =   0
                l(2) =   0
                l(3) =   1
                l(4) =   1
                l(5) =   2
                l(6) =   2
     Q(r) pseudized with 0 coefficients 


     PseudoPot. # 2 for Cr read from file:
     ./pseudo/Cr.pbe-spn-kjpaw_psl.1.0.0.UPF
     MD5 check sum: 198f1a2427a48552563eee314eba32ba
     Pseudo is Projector augmented-wave + core cor, Zval = 14.0
     Generated using &quot;atomic&quot; code by A. Dal Corso  v.6.3
     Shape of augmentation charge: PSQ
     Using radial grid of 1183 points,  6 beta functions with: 
                l(1) =   0
                l(2) =   0
                l(3) =   1
                l(4) =   1
                l(5) =   2
                l(6) =   2
     Q(r) pseudized with 0 coefficients 


     atomic species   valence    mass     pseudopotential
     Fe               16.00    55.84500     Fe( 1.00)
     Cr               14.00    51.99600     Cr( 1.00)

     Starting magnetic structure 
     atomic species   magnetization
     Fe              0.500
     Cr              0.300

      8 Sym. Ops., with inversion, found



   Cartesian axes

     site n.     atom                  positions (alat units)
         1        Cr     tau(   1) = (   0.0000000   0.0000000   0.0000000  )
         2        Fe     tau(   2) = (   0.2524874   0.2524874   0.2499875  )
         3        Fe     tau(   3) = (   0.0000000   0.0000000   0.4999750  )
         4        Fe     tau(   4) = (   0.2524874   0.2524874   0.7499625  )
         5        Fe     tau(   5) = (   0.0049997   0.4999750   0.0000000  )
         6        Fe     tau(   6) = (   0.2574871   0.7524624   0.2499875  )
         7        Fe     tau(   7) = (   0.0049997   0.4999750   0.4999750  )
         8        Fe     tau(   8) = (   0.2574871   0.7524624   0.7499625  )
         9        Fe     tau(   9) = (   0.4999750   0.0049997   0.0000000  )
        10        Fe     tau(  10) = (   0.7524624   0.2574871   0.2499875  )
        11        Fe     tau(  11) = (   0.4999750   0.0049997   0.4999750  )
        12        Fe     tau(  12) = (   0.7524624   0.2574871   0.7499625  )
        13        Fe     tau(  13) = (   0.5049747   0.5049747   0.0000000  )
        14        Fe     tau(  14) = (   0.7574621   0.7574621   0.2499875  )
        15        Fe     tau(  15) = (   0.5049747   0.5049747   0.4999750  )
        16        Fe     tau(  16) = (   0.7574621   0.7574621   0.7499625  )

     number of k points=    21  Marzari-Vanderbilt smearing, width (Ry)=  0.0200
                       cart. coord. in units 2pi/alat
        k(    1) = (   0.0000000   0.0000000   0.0000000), wk =   0.0156250
        k(    2) = (   0.0000000   0.0000000   0.2500125), wk =   0.0312500
        k(    3) = (   0.0000000   0.0000000  -0.5000250), wk =   0.0156250
        k(    4) = (  -0.0025004   0.2500375   0.0000000), wk =   0.0625000
        k(    5) = (  -0.0025004   0.2500375   0.2500125), wk =   0.1250000
        k(    6) = (  -0.0025004   0.2500375  -0.5000250), wk =   0.0625000
        k(    7) = (   0.0050007  -0.5000750   0.0000000), wk =   0.0312500
        k(    8) = (   0.0050007  -0.5000750   0.2500125), wk =   0.0625000
        k(    9) = (   0.0050007  -0.5000750  -0.5000250), wk =   0.0312500
        k(   10) = (   0.2475371   0.2475371   0.0000000), wk =   0.0312500
        k(   11) = (   0.2475371   0.2475371   0.2500125), wk =   0.0625000
        k(   12) = (   0.2475371   0.2475371  -0.5000250), wk =   0.0312500
        k(   13) = (   0.2550382  -0.5025754   0.0000000), wk =   0.0625000
        k(   14) = (   0.2550382  -0.5025754   0.2500125), wk =   0.1250000
        k(   15) = (   0.2550382  -0.5025754  -0.5000250), wk =   0.0625000
        k(   16) = (   0.2525379  -0.2525379   0.0000000), wk =   0.0312500
        k(   17) = (   0.2525379  -0.2525379   0.2500125), wk =   0.0625000
        k(   18) = (   0.2525379  -0.2525379  -0.5000250), wk =   0.0312500
        k(   19) = (  -0.4950743  -0.4950743   0.0000000), wk =   0.0156250
        k(   20) = (  -0.4950743  -0.4950743   0.2500125), wk =   0.0312500
        k(   21) = (  -0.4950743  -0.4950743  -0.5000250), wk =   0.0156250

     Dense  grid:   140219 G-vectors     FFT dimensions: (  72,  72,  72)

     Smooth grid:    49519 G-vectors     FFT dimensions: (  45,  45,  45)

     Estimated max dynamical RAM per process >     308.79 MB

     Estimated total dynamical RAM >       1.21 GB

     Check: negative core charge=   -0.000004
     Generating pointlists ...
     new r_m :   0.1774 (alat units)  1.8936 (a.u.) for type    1
     new r_m :   0.1774 (alat units)  1.8936 (a.u.) for type    2

     Initial potential from superposition of free atoms

     starting charge     253.9927, renormalised to     254.0000
     Starting wfcs are  160 randomized atomic wfcs
     Checking if some PAW data can be deallocated... 

     total cpu time spent up to now is       73.6 secs

     Self-consistent Calculation

     iteration #  1     ecut=    45.00 Ry     beta= 0.30
     Davidson diagonalization with overlap
     ethr =  1.00E-02,  avg # of iterations =  3.0

     total cpu time spent up to now is      341.9 secs

     total energy              =   -5181.10574416 Ry
     estimated scf accuracy    <      11.56889960 Ry

     total magnetization       =    49.98 Bohr mag/cell
     absolute magnetization    =    52.15 Bohr mag/cell

     iteration #  2     ecut=    45.00 Ry     beta= 0.30
     Davidson diagonalization with overlap
     ethr =  4.55E-03,  avg # of iterations =  6.6

     total cpu time spent up to now is      587.0 secs

     total energy              =   -5182.20881486 Ry
     estimated scf accuracy    <      22.70120423 Ry

     total magnetization       =    44.02 Bohr mag/cell
     absolute magnetization    =    45.61 Bohr mag/cell

     iteration #  3     ecut=    45.00 Ry     beta= 0.30
     Davidson diagonalization with overlap
     ethr =  4.55E-03,  avg # of iterations =  3.6

     negative rho (up, down):  0.000E+00 9.778E-04

     total cpu time spent up to now is      814.3 secs

     total energy              =   -5182.97856669 Ry
     estimated scf accuracy    <       7.77262203 Ry

     total magnetization       =    45.50 Bohr mag/cell
     absolute magnetization    =    47.22 Bohr mag/cell

     iteration #  4     ecut=    45.00 Ry     beta= 0.30
     Davidson diagonalization with overlap
     ethr =  3.06E-03,  avg # of iterations =  5.6

     negative rho (up, down):  0.000E+00 8.530E-03

     total cpu time spent up to now is     1071.0 secs

     total energy              =   -5186.24595672 Ry
     estimated scf accuracy    <      13.20755195 Ry

     total magnetization       =    48.19 Bohr mag/cell
     absolute magnetization    =    49.72 Bohr mag/cell

     iteration #  5     ecut=    45.00 Ry     beta= 0.30
     Davidson diagonalization with overlap
     ethr =  3.06E-03,  avg # of iterations =  2.8

     negative rho (up, down):  0.000E+00 8.595E-03

     total cpu time spent up to now is     1302.9 secs

     total energy              =   -5186.55902373 Ry
     estimated scf accuracy    <      22.85554928 Ry

     total magnetization       =    38.70 Bohr mag/cell
     absolute magnetization    =    41.13 Bohr mag/cell

     iteration #  6     ecut=    45.00 Ry     beta= 0.30
     Davidson diagonalization with overlap
     ethr =  3.06E-03,  avg # of iterations =  1.0

     negative rho (up, down):  0.000E+00 8.297E-03

     total cpu time spent up to now is     1489.2 secs

     total energy              =   -5186.32463240 Ry
     estimated scf accuracy    <      12.97497838 Ry

     total magnetization       =    38.94 Bohr mag/cell
     absolute magnetization    =    41.12 Bohr mag/cell

     iteration #  7     ecut=    45.00 Ry     beta= 0.30
     Davidson diagonalization with overlap
     ethr =  3.06E-03,  avg # of iterations =  1.0

     negative rho (up, down):  0.000E+00 7.615E-03

     total cpu time spent up to now is     1674.6 secs

     total energy              =   -5185.94014248 Ry
     estimated scf accuracy    <       6.78497793 Ry

     total magnetization       =    37.86 Bohr mag/cell
     absolute magnetization    =    40.16 Bohr mag/cell

     iteration #  8     ecut=    45.00 Ry     beta= 0.30
     Davidson diagonalization with overlap
     ethr =  2.67E-03,  avg # of iterations =  1.6

     negative rho (up, down):  0.000E+00 7.025E-03

     total cpu time spent up to now is     1878.3 secs

     total energy              =   -5186.23731676 Ry
     estimated scf accuracy    <       0.38310454 Ry

     total magnetization       =    34.10 Bohr mag/cell
     absolute magnetization    =    37.67 Bohr mag/cell

     iteration #  9     ecut=    45.00 Ry     beta= 0.30
     Davidson diagonalization with overlap
     ethr =  1.51E-04,  avg # of iterations =  3.9

     negative rho (up, down):  0.000E+00 5.988E-03

     total cpu time spent up to now is     2117.3 secs

     total energy              =   -5186.23620439 Ry
     estimated scf accuracy    <       0.54315972 Ry

     total magnetization       =    32.89 Bohr mag/cell
     absolute magnetization    =    36.69 Bohr mag/cell

     iteration # 10     ecut=    45.00 Ry     beta= 0.30
     Davidson diagonalization with overlap
     ethr =  1.51E-04,  avg # of iterations =  1.9

     negative rho (up, down):  0.000E+00 5.938E-03

     total cpu time spent up to now is     2325.6 secs

     total energy              =   -5186.25759099 Ry
     estimated scf accuracy    <       0.24603672 Ry

     total magnetization       =    32.07 Bohr mag/cell
     absolute magnetization    =    35.62 Bohr mag/cell

     iteration # 11     ecut=    45.00 Ry     beta= 0.30
     Davidson diagonalization with overlap
     ethr =  9.69E-05,  avg # of iterations =  2.0

     negative rho (up, down):  0.000E+00 5.485E-03

     total cpu time spent up to now is     2536.2 secs

     total energy              =   -5186.26372594 Ry
     estimated scf accuracy    <       0.17720643 Ry

     total magnetization       =    32.26 Bohr mag/cell
     absolute magnetization    =    35.61 Bohr mag/cell

     iteration # 12     ecut=    45.00 Ry     beta= 0.30
     Davidson diagonalization with overlap
     ethr =  6.98E-05,  avg # of iterations =  1.8

     negative rho (up, down):  0.000E+00 4.581E-03

     total cpu time spent up to now is     2738.0 secs

     total energy              =   -5186.28149429 Ry
     estimated scf accuracy    <       0.04682750 Ry

     total magnetization       =    31.82 Bohr mag/cell
     absolute magnetization    =    35.60 Bohr mag/cell

     iteration # 13     ecut=    45.00 Ry     beta= 0.30
     Davidson diagonalization with overlap
     ethr =  1.84E-05,  avg # of iterations =  3.8

     negative rho (up, down):  0.000E+00 4.059E-03

     total cpu time spent up to now is     2986.4 secs

     total energy              =   -5186.28348697 Ry
     estimated scf accuracy    <       0.10303275 Ry

     total magnetization       =    31.43 Bohr mag/cell
     absolute magnetization    =    35.31 Bohr mag/cell

     iteration # 14     ecut=    45.00 Ry     beta= 0.30
     Davidson diagonalization with overlap
     ethr =  1.84E-05,  avg # of iterations =  1.5

     negative rho (up, down):  0.000E+00 3.340E-03

     total cpu time spent up to now is     3223.8 secs

     total energy              =   -5186.29334898 Ry
     estimated scf accuracy    <       0.02010407 Ry

     total magnetization       =    31.10 Bohr mag/cell
     absolute magnetization    =    35.11 Bohr mag/cell

     iteration # 15     ecut=    45.00 Ry     beta= 0.30
     Davidson diagonalization with overlap
     c_bands:  1 eigenvalues not converged
     ethr =  7.91E-06,  avg # of iterations =  4.6

     negative rho (up, down):  0.000E+00 3.059E-03

     total cpu time spent up to now is     3455.1 secs

     total energy              =   -5186.29522565 Ry
     estimated scf accuracy    <       0.01676729 Ry

     total magnetization       =    31.12 Bohr mag/cell
     absolute magnetization    =    35.22 Bohr mag/cell

     iteration # 16     ecut=    45.00 Ry     beta= 0.30
     Davidson diagonalization with overlap
     ethr =  6.60E-06,  avg # of iterations =  2.3

     negative rho (up, down):  0.000E+00 3.145E-03

     total cpu time spent up to now is     3669.6 secs

     total energy              =   -5186.29347158 Ry
     estimated scf accuracy    <       0.02372004 Ry

     total magnetization       =    31.13 Bohr mag/cell
     absolute magnetization    =    35.30 Bohr mag/cell

     iteration # 17     ecut=    45.00 Ry     beta= 0.30
     Davidson diagonalization with overlap
     ethr =  6.60E-06,  avg # of iterations =  2.0

     negative rho (up, down):  0.000E+00 2.930E-03

     total cpu time spent up to now is     3887.7 secs

     total energy              =   -5186.29581577 Ry
     estimated scf accuracy    <       0.01325862 Ry

     total magnetization       =    30.94 Bohr mag/cell
     absolute magnetization    =    35.09 Bohr mag/cell

     iteration # 18     ecut=    45.00 Ry     beta= 0.30
     Davidson diagonalization with overlap
     ethr =  5.22E-06,  avg # of iterations =  1.4

     negative rho (up, down):  0.000E+00 2.828E-03

     total cpu time spent up to now is     4079.3 secs

     total energy              =   -5186.29745263 Ry
     estimated scf accuracy    <       0.00161186 Ry

     total magnetization       =    30.98 Bohr mag/cell
     absolute magnetization    =    35.22 Bohr mag/cell

     iteration # 19     ecut=    45.00 Ry     beta= 0.30
     Davidson diagonalization with overlap
     ethr =  6.35E-07,  avg # of iterations =  5.3

     negative rho (up, down):  0.000E+00 2.838E-03

     total cpu time spent up to now is     4328.1 secs

     total energy              =   -5186.29769487 Ry
     estimated scf accuracy    <       0.00194347 Ry

     total magnetization       =    31.02 Bohr mag/cell
     absolute magnetization    =    35.37 Bohr mag/cell

     iteration # 20     ecut=    45.00 Ry     beta= 0.30
     Davidson diagonalization with overlap
     ethr =  6.35E-07,  avg # of iterations =  2.9

     negative rho (up, down):  0.000E+00 2.853E-03

     total cpu time spent up to now is     4560.1 secs

     total energy              =   -5186.29790792 Ry
     estimated scf accuracy    <       0.00510035 Ry

     total magnetization       =    31.02 Bohr mag/cell
     absolute magnetization    =    35.38 Bohr mag/cell

     iteration # 21     ecut=    45.00 Ry     beta= 0.30
     Davidson diagonalization with overlap
     ethr =  6.35E-07,  avg # of iterations =  2.2

     negative rho (up, down):  0.000E+00 2.724E-03

     total cpu time spent up to now is     4770.9 secs

     total energy              =   -5186.29832306 Ry
     estimated scf accuracy    <       0.00176780 Ry

     total magnetization       =    31.04 Bohr mag/cell
     absolute magnetization    =    35.47 Bohr mag/cell

     iteration # 22     ecut=    45.00 Ry     beta= 0.30
     Davidson diagonalization with overlap
     ethr =  6.35E-07,  avg # of iterations =  3.2

     negative rho (up, down):  0.000E+00 2.913E-03

     total cpu time spent up to now is     4998.2 secs

     total energy              =   -5186.29882833 Ry
     estimated scf accuracy    <       0.00051185 Ry

     total magnetization       =    31.00 Bohr mag/cell
     absolute magnetization    =    35.54 Bohr mag/cell

     iteration # 23     ecut=    45.00 Ry     beta= 0.30
     Davidson diagonalization with overlap
     ethr =  2.02E-07,  avg # of iterations =  4.9

     negative rho (up, down):  0.000E+00 2.865E-03

     total cpu time spent up to now is     5261.3 secs

     total energy              =   -5186.29891238 Ry
     estimated scf accuracy    <       0.00076159 Ry

     total magnetization       =    31.01 Bohr mag/cell
     absolute magnetization    =    35.71 Bohr mag/cell

     iteration # 24     ecut=    45.00 Ry     beta= 0.30
     Davidson diagonalization with overlap
     ethr =  2.02E-07,  avg # of iterations =  1.9

     negative rho (up, down):  0.000E+00 3.043E-03

     total cpu time spent up to now is     5467.9 secs

     total energy              =   -5186.29906890 Ry
     estimated scf accuracy    <       0.00056754 Ry

     total magnetization       =    31.01 Bohr mag/cell
     absolute magnetization    =    35.69 Bohr mag/cell

     iteration # 25     ecut=    45.00 Ry     beta= 0.30
     Davidson diagonalization with overlap
     ethr =  2.02E-07,  avg # of iterations =  3.7

     negative rho (up, down):  0.000E+00 3.037E-03

     total cpu time spent up to now is     5716.9 secs

     total energy              =   -5186.29927693 Ry
     estimated scf accuracy    <       0.00057579 Ry

     total magnetization       =    30.99 Bohr mag/cell
     absolute magnetization    =    35.84 Bohr mag/cell

     iteration # 26     ecut=    45.00 Ry     beta= 0.30
     Davidson diagonalization with overlap
     ethr =  2.02E-07,  avg # of iterations =  1.3

     negative rho (up, down):  0.000E+00 3.039E-03

     total cpu time spent up to now is     5912.2 secs

     total energy              =   -5186.29929684 Ry
     estimated scf accuracy    <       0.00038296 Ry

     total magnetization       =    30.99 Bohr mag/cell
     absolute magnetization    =    35.84 Bohr mag/cell

     iteration # 27     ecut=    45.00 Ry     beta= 0.30
     Davidson diagonalization with overlap
     ethr =  1.51E-07,  avg # of iterations =  2.1

     negative rho (up, down):  0.000E+00 3.030E-03

     total cpu time spent up to now is     6133.7 secs

     total energy              =   -5186.29932440 Ry
     estimated scf accuracy    <       0.00031274 Ry

     total magnetization       =    30.99 Bohr mag/cell
     absolute magnetization    =    35.89 Bohr mag/cell

     iteration # 28     ecut=    45.00 Ry     beta= 0.30
     Davidson diagonalization with overlap
     ethr =  1.23E-07,  avg # of iterations =  1.6

     negative rho (up, down):  0.000E+00 3.073E-03

     total cpu time spent up to now is     6331.8 secs

     total energy              =   -5186.29937045 Ry
     estimated scf accuracy    <       0.00018501 Ry

     total magnetization       =    31.00 Bohr mag/cell
     absolute magnetization    =    35.90 Bohr mag/cell

     iteration # 29     ecut=    45.00 Ry     beta= 0.30
     Davidson diagonalization with overlap
     ethr =  7.28E-08,  avg # of iterations =  2.4

     negative rho (up, down):  0.000E+00 3.081E-03

     total cpu time spent up to now is     6541.4 secs

     total energy              =   -5186.29939699 Ry
     estimated scf accuracy    <       0.00004652 Ry

     total magnetization       =    30.99 Bohr mag/cell
     absolute magnetization    =    35.93 Bohr mag/cell

     iteration # 30     ecut=    45.00 Ry     beta= 0.30
     Davidson diagonalization with overlap
     ethr =  1.83E-08,  avg # of iterations =  4.4

     negative rho (up, down):  0.000E+00 3.082E-03

     total cpu time spent up to now is     6808.0 secs

     total energy              =   -5186.29939999 Ry
     estimated scf accuracy    <       0.00007615 Ry

     total magnetization       =    31.00 Bohr mag/cell
     absolute magnetization    =    35.96 Bohr mag/cell

     iteration # 31     ecut=    45.00 Ry     beta= 0.30
     Davidson diagonalization with overlap
     ethr =  1.83E-08,  avg # of iterations =  3.3

     negative rho (up, down):  0.000E+00 3.086E-03

     total cpu time spent up to now is     7043.0 secs

     total energy              =   -5186.29941199 Ry
     estimated scf accuracy    <       0.00009758 Ry

     total magnetization       =    31.00 Bohr mag/cell
     absolute magnetization    =    35.97 Bohr mag/cell

     iteration # 32     ecut=    45.00 Ry     beta= 0.30
     Davidson diagonalization with overlap
     ethr =  1.83E-08,  avg # of iterations =  1.7

     negative rho (up, down):  0.000E+00 3.085E-03

     total cpu time spent up to now is     7251.5 secs

     total energy              =   -5186.29941888 Ry
     estimated scf accuracy    <       0.00005574 Ry

     total magnetization       =    31.00 Bohr mag/cell
     absolute magnetization    =    35.98 Bohr mag/cell

     iteration # 33     ecut=    45.00 Ry     beta= 0.30
     Davidson diagonalization with overlap
     ethr =  1.83E-08,  avg # of iterations =  1.6

     negative rho (up, down):  0.000E+00 3.073E-03

     total cpu time spent up to now is     7456.5 secs

     total energy              =   -5186.29942433 Ry
     estimated scf accuracy    <       0.00000757 Ry

     total magnetization       =    31.00 Bohr mag/cell
     absolute magnetization    =    36.00 Bohr mag/cell

     iteration # 34     ecut=    45.00 Ry     beta= 0.30
     Davidson diagonalization with overlap
     ethr =  2.98E-09,  avg # of iterations =  4.3

     negative rho (up, down):  0.000E+00 3.076E-03

     total cpu time spent up to now is     7708.9 secs

     total energy              =   -5186.29942635 Ry
     estimated scf accuracy    <       0.00000633 Ry

     total magnetization       =    31.01 Bohr mag/cell
     absolute magnetization    =    36.00 Bohr mag/cell

     iteration # 35     ecut=    45.00 Ry     beta= 0.30
     Davidson diagonalization with overlap
     ethr =  2.49E-09,  avg # of iterations =  2.6

     negative rho (up, down):  0.000E+00 3.070E-03

     total cpu time spent up to now is     7939.7 secs

     total energy              =   -5186.29942834 Ry
     estimated scf accuracy    <       0.00001100 Ry

     total magnetization       =    31.01 Bohr mag/cell
     absolute magnetization    =    36.01 Bohr mag/cell

     iteration # 36     ecut=    45.00 Ry     beta= 0.30
     Davidson diagonalization with overlap
     ethr =  2.49E-09,  avg # of iterations =  2.3

     negative rho (up, down):  0.000E+00 3.069E-03

     total cpu time spent up to now is     8153.0 secs

     total energy              =   -5186.29942922 Ry
     estimated scf accuracy    <       0.00000610 Ry

     total magnetization       =    31.02 Bohr mag/cell
     absolute magnetization    =    36.02 Bohr mag/cell

     iteration # 37     ecut=    45.00 Ry     beta= 0.30
     Davidson diagonalization with overlap
     ethr =  2.40E-09,  avg # of iterations =  1.7

     negative rho (up, down):  0.000E+00 3.075E-03

     total cpu time spent up to now is     8362.1 secs

     total energy              =   -5186.29942978 Ry
     estimated scf accuracy    <       0.00000123 Ry

     total magnetization       =    31.02 Bohr mag/cell
     absolute magnetization    =    36.03 Bohr mag/cell

     iteration # 38     ecut=    45.00 Ry     beta= 0.30
     Davidson diagonalization with overlap
     ethr =  4.83E-10,  avg # of iterations =  5.1

     negative rho (up, down):  0.000E+00 3.073E-03

     total cpu time spent up to now is     8652.7 secs

     total energy              =   -5186.29942962 Ry
     estimated scf accuracy    <       0.00000924 Ry

     total magnetization       =    31.02 Bohr mag/cell
     absolute magnetization    =    36.04 Bohr mag/cell

     iteration # 39     ecut=    45.00 Ry     beta= 0.30
     Davidson diagonalization with overlap
     ethr =  4.83E-10,  avg # of iterations =  3.8

     negative rho (up, down):  0.000E+00 3.080E-03

     Magnetic moment per site  (integrated on atomic sphere of radius R)
     atom   1 (R=0.177)  charge= 12.0477  magn= -1.3834
     atom   2 (R=0.177)  charge= 14.3558  magn=  2.1760
     atom   3 (R=0.177)  charge= 14.3544  magn=  2.1611
     atom   4 (R=0.177)  charge= 14.3558  magn=  2.1760
     atom   5 (R=0.177)  charge= 14.3545  magn=  2.1606
     atom   6 (R=0.177)  charge= 14.3563  magn=  2.1727
     atom   7 (R=0.177)  charge= 14.3445  magn=  2.3141
     atom   8 (R=0.177)  charge= 14.3563  magn=  2.1727
     atom   9 (R=0.177)  charge= 14.3545  magn=  2.1606
     atom  10 (R=0.177)  charge= 14.3563  magn=  2.1727
     atom  11 (R=0.177)  charge= 14.3445  magn=  2.3141
     atom  12 (R=0.177)  charge= 14.3563  magn=  2.1727
     atom  13 (R=0.177)  charge= 14.3442  magn=  2.3128
     atom  14 (R=0.177)  charge= 14.3558  magn=  2.1760
     atom  15 (R=0.177)  charge= 14.3480  magn=  2.4969
     atom  16 (R=0.177)  charge= 14.3558  magn=  2.1760

     total cpu time spent up to now is     8900.8 secs

     End of self-consistent calculation

 ------ SPIN UP ------------


          k = 0.0000 0.0000 0.0000 (  6177 PWs)   bands (ev):

   -69.5833 -69.5412 -69.5162 -69.5158 -69.5024 -69.5022 -69.5020 -69.4966
   -69.4962 -69.4962 -69.4906 -69.4861 -69.4609 -69.4608 -69.4285 -52.5150
   -35.7527 -35.7508 -35.7492 -35.7382 -35.7366 -35.7346 -35.6387 -35.6258
   -35.6180 -35.5929 -35.5535 -35.5460 -35.5429 -35.5349 -35.5339 -35.5339
   -35.5330 -35.5323 -35.5261 -35.5244 -35.5168 -35.5157 -35.4989 -35.4942
   -35.4911 -35.4910 -35.4852 -35.4838 -35.4688 -35.4683 -35.4674 -35.4656
   -35.4655 -35.4654 -35.4610 -35.4602 -35.3905 -35.3882 -35.3870 -35.3276
   -35.3175 -35.3083 -35.3057 -35.2991 -35.2978 -23.8623 -23.8538 -23.8464
    10.0976  13.6649  13.6728  13.6730  13.6839  13.6924  13.6937  13.7642
    13.7736  13.9027  13.9029  13.9048  13.9332  13.9340  14.0521  15.2084
    15.2320  15.2425  15.2632  15.2681  15.2824  15.3788  15.3883  15.4614
    15.4891  15.4996  15.5501  15.5625  15.5653  15.5689  15.6028  15.7669
    15.7690  16.2982  16.3894  16.4614  16.7503  16.7524  16.7538  16.7666
    16.7676  16.7763  16.7772  16.7809  16.7820  17.0540  17.0657  17.0665
    17.4748  17.5393  17.5474  17.5683  17.5767  17.6114  17.6314  17.6357
    17.6647  17.7059  17.7084  17.7501  17.7771  17.7805  17.8057  17.8301
    17.8327  17.8577  17.8670  17.9488  17.9527  17.9531  18.4848  18.4912
    18.8581  18.8691  18.8762  18.8868  18.9107  18.9229  18.9903  19.0004
    19.0353  19.0530  19.0635  19.0957  19.0968  19.1253  19.1688  19.3093

          k = 0.0000 0.0000 0.2500 (  6205 PWs)   bands (ev):

   -69.5794 -69.5418 -69.5276 -69.5161 -69.5016 -69.5011 -69.4993 -69.4975
   -69.4971 -69.4942 -69.4917 -69.4836 -69.4609 -69.4554 -69.4323 -52.5150
   -35.7397 -35.7389 -35.7367 -35.7199 -35.7182 -35.7180 -35.6459 -35.6369
   -35.6228 -35.6101 -35.6094 -35.5973 -35.5905 -35.5829 -35.5798 -35.5794
   -35.5488 -35.5419 -35.5345 -35.5306 -35.5213 -35.5009 -35.4956 -35.4875
   -35.4777 -35.4661 -35.4656 -35.4649 -35.4646 -35.4607 -35.4592 -35.4268
   -35.4230 -35.4225 -35.4146 -35.4140 -35.3976 -35.3946 -35.3942 -35.3369
   -35.3344 -35.3225 -35.3191 -35.3167 -35.3136 -23.8628 -23.8544 -23.8468
    10.4254  12.6823  13.7559  13.7568  13.7745  13.7797  13.8898  13.8913
    13.8989  13.9127  13.9894  13.9902  14.0290  14.0898  14.4249  14.9145
    15.1033  15.1272  15.1787  15.1830  15.2479  15.2787  15.3720  15.4191
    15.4240  15.4779  15.5614  15.5634  15.6011  15.7416  15.8231  15.9471
    16.2910  16.3373  16.3495  16.3791  16.3829  16.3925  16.4649  16.5440
    16.6118  16.6344  16.9869  17.0376  17.0458  17.0483  17.0650  17.0848
    17.0859  17.1628  17.2452  17.3377  17.3733  17.4404  17.5826  17.5826
    17.6494  17.6578  17.6650  17.6913  17.7283  17.7439  17.7651  17.8113
    17.8175  17.8322  17.8322  17.9874  18.0088  18.0444  18.1595  18.2077
    18.2084  18.4933  18.6644  18.6684  18.7632  18.8065  18.9358  18.9631
    18.9643  19.1543  19.1653  19.2070  19.2288  19.5690  19.6263  19.8716

          k = 0.0000 0.0000-0.5000 (  6210 PWs)   bands (ev):

   -69.5742 -69.5443 -69.5352 -69.5161 -69.4996 -69.4996 -69.4991 -69.4991
   -69.4981 -69.4941 -69.4919 -69.4818 -69.4610 -69.4460 -69.4397 -52.5150
   -35.7257 -35.7234 -35.7168 -35.6786 -35.6723 -35.6721 -35.6713 -35.6709
   -35.6665 -35.6520 -35.6400 -35.6353 -35.6302 -35.6026 -35.5927 -35.5921
   -35.5644 -35.5584 -35.5387 -35.5341 -35.5240 -35.4971 -35.4942 -35.4787
   -35.4770 -35.4622 -35.4621 -35.4486 -35.4413 -35.4356 -35.4302 -35.4207
   -35.4146 -35.3889 -35.3812 -35.3768 -35.3742 -35.3699 -35.3683 -35.3614
   -35.3580 -35.3567 -35.3443 -35.3435 -35.3393 -23.8624 -23.8548 -23.8471
    11.3211  11.3828  13.9180  13.9316  13.9325  13.9404  13.9634  13.9647
    14.0032  14.0590  14.1933  14.2560  14.2607  14.3618  14.4394  14.4495
    14.5116  14.5126  15.1480  15.1528  15.2345  15.2347  15.7484  15.7489
    15.7527  15.7599  15.7753  15.8467  15.8627  16.0012  16.0075  16.0108
    16.0185  16.0205  16.0301  16.0305  16.0447  16.3073  16.4138  16.4311
    16.4557  16.4693  16.5138  16.6783  16.6926  16.6936  16.8136  16.8803
    16.9702  17.0602  17.3516  17.3539  17.3542  17.3686  17.3697  17.5261
    17.5261  17.5324  17.7113  17.7660  17.7740  17.7959  17.8068  17.8211
    17.8233  17.8304  17.8312  17.9546  18.1238  18.1899  18.4026  18.4886
    18.5261  18.5271  18.5271  18.5277  18.5313  18.5776  18.5836  19.0201
    19.0602  19.1429  19.1867  19.1868  19.1927  19.5577  19.6028  19.7885

          k =-0.0025 0.2500 0.0000 (  6191 PWs)   bands (ev):

   -69.5794 -69.5420 -69.5275 -69.5158 -69.5014 -69.5013 -69.4990 -69.4974
   -69.4962 -69.4955 -69.4916 -69.4835 -69.4609 -69.4553 -69.4323 -52.5150
   -35.7390 -35.7385 -35.7380 -35.7207 -35.7192 -35.7181 -35.6467 -35.6275
   -35.6256 -35.6075 -35.5999 -35.5995 -35.5895 -35.5815 -35.5790 -35.5783
   -35.5485 -35.5388 -35.5370 -35.5286 -35.5244 -35.4974 -35.4971 -35.4861
   -35.4781 -35.4670 -35.4653 -35.4651 -35.4617 -35.4603 -35.4602 -35.4241
   -35.4229 -35.4198 -35.4186 -35.4139 -35.3987 -35.3934 -35.3923 -35.3419
   -35.3279 -35.3238 -35.3197 -35.3152 -35.3116 -23.8627 -23.8541 -23.8466
    10.4240  12.6812  13.7486  13.7573  13.7722  13.7790  13.8917  13.8967
    13.9044  13.9194  13.9873  13.9898  14.0294  14.0900  14.4230  14.9074
    15.1263  15.1364  15.1865  15.1867  15.2583  15.2590  15.3656  15.4227
    15.4240  15.4834  15.5585  15.5600  15.5988  15.7407  15.8862  15.8867
    16.3058  16.3303  16.3379  16.3679  16.3804  16.4120  16.4352  16.5753
    16.5781  16.6455  16.9861  17.0361  17.0464  17.0472  17.0657  17.0883
    17.0907  17.1567  17.2448  17.3594  17.3619  17.4425  17.5809  17.6345
    17.6375  17.6476  17.6698  17.7292  17.7419  17.7631  17.7676  17.7897
    17.8198  17.8251  17.8397  17.9877  18.0130  18.0445  18.1706  18.1878
    18.2261  18.4967  18.6648  18.6791  18.7188  18.8492  18.9281  18.9628
    18.9742  19.1159  19.1606  19.2190  19.2645  19.5970  19.6012  19.8779

          k =-0.0025 0.2500 0.2500 (  6200 PWs)   bands (ev):

   -69.5761 -69.5417 -69.5302 -69.5224 -69.5048 -69.5005 -69.4980 -69.4965
   -69.4954 -69.4927 -69.4923 -69.4820 -69.4575 -69.4541 -69.4355 -52.5150
   -35.7312 -35.7295 -35.7293 -35.7097 -35.7050 -35.6900 -35.6498 -35.6479
   -35.6369 -35.6271 -35.6266 -35.6225 -35.6173 -35.5893 -35.5751 -35.5549
   -35.5419 -35.5369 -35.5252 -35.5216 -35.5136 -35.5102 -35.5038 -35.4958
   -35.4873 -35.4833 -35.4810 -35.4744 -35.4696 -35.4589 -35.4223 -35.4210
   -35.4168 -35.4151 -35.4121 -35.4051 -35.3875 -35.3775 -35.3719 -35.3641
   -35.3407 -35.3356 -35.3250 -35.3205 -35.3087 -23.8629 -23.8545 -23.8467
    10.7396  12.8554  12.9110  13.5787  13.9759  13.9816  13.9979  14.0023
    14.0084  14.0364  14.0515  14.1240  14.1953  14.4615  14.4921  14.9670
    14.9903  14.9983  15.0039  15.2951  15.3132  15.3286  15.3516  15.3711
    15.3903  15.4022  15.5183  15.5422  15.6694  15.7719  15.8612  16.0728
    16.1117  16.1485  16.1742  16.2105  16.2799  16.3481  16.3780  16.4247
    16.7470  16.8058  16.8202  16.8548  16.8762  16.8981  16.9166  16.9661
    17.0602  17.1137  17.2039  17.2087  17.2311  17.3284  17.4802  17.4977
    17.4995  17.5859  17.5912  17.6540  17.6576  17.6806  17.7284  17.7597
    17.7904  17.8398  17.8995  17.9734  17.9880  18.0629  18.0958  18.1343
    18.1540  18.2073  18.2381  18.2394  18.4518  18.5231  18.8507  18.9479
    18.9909  19.1527  19.3421  19.5220  19.6877  20.1431  20.4592  20.6323

          k =-0.0025 0.2500-0.5000 (  6212 PWs)   bands (ev):

   -69.5717 -69.5419 -69.5366 -69.5230 -69.5079 -69.4987 -69.4986 -69.4959
   -69.4959 -69.4930 -69.4909 -69.4803 -69.4565 -69.4470 -69.4420 -52.5150
   -35.7208 -35.7145 -35.7107 -35.6869 -35.6851 -35.6701 -35.6690 -35.6637
   -35.6630 -35.6581 -35.6515 -35.6330 -35.6010 -35.6005 -35.5921 -35.5632
   -35.5477 -35.5465 -35.5420 -35.5312 -35.5178 -35.5087 -35.4971 -35.4925
   -35.4805 -35.4792 -35.4672 -35.4650 -35.4528 -35.4471 -35.4424 -35.4287
   -35.4218 -35.4152 -35.4095 -35.3844 -35.3775 -35.3685 -35.3643 -35.3510
   -35.3506 -35.3374 -35.3368 -35.3315 -35.3208 -23.8630 -23.8551 -23.8468
    11.6001  11.6630  13.2698  13.3238  14.1382  14.1470  14.1919  14.2403
    14.2739  14.2956  14.2998  14.3896  14.4052  14.4929  14.5169  14.5424
    14.5787  14.6012  15.2213  15.2393  15.2813  15.3117  15.4892  15.4956
    15.5137  15.5254  15.5371  15.6257  15.7016  15.7349  16.0689  16.0742
    16.0804  16.0953  16.1133  16.1534  16.1750  16.1883  16.2370  16.2487
    16.2610  16.2856  16.3305  16.3545  16.3865  16.5340  17.0847  17.1347
    17.1681  17.1986  17.2804  17.2885  17.3643  17.3721  17.3960  17.4268
    17.4819  17.4847  17.5215  17.6180  17.6745  17.6760  17.7248  17.7399
    17.7420  17.7799  17.8504  17.8801  17.9035  17.9268  17.9307  18.0124
    18.0846  18.1475  18.1658  18.2898  18.3544  18.7350  18.7959  18.8188
    19.2083  19.3702  19.3823  19.4216  20.0833  20.1840  20.2561  20.5152

          k = 0.0050-0.5001 0.0000 (  6212 PWs)   bands (ev):

   -69.5742 -69.5451 -69.5347 -69.5159 -69.5002 -69.4994 -69.4994 -69.4989
   -69.4963 -69.4936 -69.4936 -69.4817 -69.4610 -69.4457 -69.4400 -52.5150
   -35.7221 -35.7220 -35.7175 -35.6794 -35.6718 -35.6692 -35.6689 -35.6683
   -35.6656 -35.6539 -35.6364 -35.6364 -35.6325 -35.6002 -35.5991 -35.5936
   -35.5644 -35.5637 -35.5352 -35.5343 -35.5288 -35.4946 -35.4945 -35.4776
   -35.4770 -35.4624 -35.4613 -35.4533 -35.4365 -35.4365 -35.4353 -35.4167
   -35.4158 -35.3892 -35.3837 -35.3769 -35.3745 -35.3719 -35.3661 -35.3644
   -35.3497 -35.3494 -35.3494 -35.3490 -35.3398 -23.8631 -23.8542 -23.8471
    11.3196  11.3814  13.9160  13.9299  13.9304  13.9419  13.9622  13.9627
    14.0021  14.0575  14.1899  14.2487  14.2538  14.3526  14.4572  14.4673
    14.5239  14.5286  15.1466  15.1467  15.2307  15.2312  15.7288  15.7450
    15.7482  15.7707  15.7922  15.8514  15.8631  15.9830  16.0053  16.0058
    16.0148  16.0152  16.0297  16.0437  16.0520  16.3497  16.3541  16.4471
    16.4561  16.4577  16.6040  16.6041  16.6777  16.7405  16.7413  16.8808
    16.9696  17.0604  17.3435  17.3533  17.3576  17.3694  17.3727  17.5242
    17.5260  17.5397  17.7518  17.7565  17.7867  17.8067  17.8118  17.8121
    17.8176  17.8287  17.8794  17.8871  18.1424  18.1509  18.3995  18.4781
    18.4898  18.5267  18.5280  18.5406  18.5642  18.5775  18.5801  19.0403
    19.0421  19.1385  19.1730  19.1888  19.2108  19.5806  19.5816  19.7935

          k = 0.0050-0.5001 0.2500 (  6204 PWs)   bands (ev):

   -69.5716 -69.5427 -69.5360 -69.5229 -69.5080 -69.4991 -69.4989 -69.4948
   -69.4948 -69.4930 -69.4923 -69.4803 -69.4566 -69.4466 -69.4423 -52.5150
   -35.7206 -35.7144 -35.7096 -35.6854 -35.6849 -35.6704 -35.6681 -35.6631
   -35.6629 -35.6568 -35.6512 -35.6327 -35.6015 -35.6000 -35.5920 -35.5633
   -35.5486 -35.5474 -35.5418 -35.5311 -35.5185 -35.5083 -35.4972 -35.4917
   -35.4800 -35.4774 -35.4681 -35.4643 -35.4554 -35.4453 -35.4438 -35.4281
   -35.4213 -35.4166 -35.4095 -35.3824 -35.3754 -35.3700 -35.3643 -35.3489
   -35.3488 -35.3366 -35.3364 -35.3314 -35.3209 -23.8631 -23.8545 -23.8471
    11.6008  11.6636  13.2671  13.3215  14.1396  14.1588  14.1854  14.2399
    14.2745  14.2952  14.2987  14.3896  14.4045  14.4923  14.5230  14.5280
    14.5952  14.5967  15.2223  15.2390  15.2912  15.3217  15.4908  15.4994
    15.5165  15.5260  15.5383  15.6280  15.6973  15.7307  16.0539  16.0646
    16.0739  16.0912  16.1385  16.1693  16.1872  16.2358  16.2426  16.2457
    16.2580  16.2767  16.2793  16.3441  16.3826  16.5238  17.0944  17.1440
    17.1630  17.1962  17.2801  17.2882  17.3775  17.3846  17.3849  17.4263
    17.4750  17.4934  17.5217  17.6171  17.6689  17.6767  17.7267  17.7367
    17.7495  17.7811  17.8563  17.8884  17.9002  17.9286  17.9286  18.0113
    18.0863  18.1449  18.1660  18.2896  18.3546  18.7356  18.7982  18.8243
    19.2079  19.3656  19.3943  19.4201  20.1075  20.1429  20.2848  20.5155

          k = 0.0050-0.5001-0.5000 (  6188 PWs)   bands (ev):

   -69.5684 -69.5394 -69.5386 -69.5270 -69.5142 -69.4975 -69.4974 -69.4965
   -69.4963 -69.4911 -69.4902 -69.4781 -69.4489 -69.4481 -69.4477 -52.5150
   -35.7172 -35.6950 -35.6940 -35.6863 -35.6848 -35.6844 -35.6839 -35.6675
   -35.6669 -35.6638 -35.6631 -35.6278 -35.5790 -35.5624 -35.5623 -35.5576
   -35.5465 -35.5184 -35.5178 -35.5164 -35.5159 -35.5146 -35.5069 -35.4977
   -35.4959 -35.4951 -35.4896 -35.4895 -35.4779 -35.4776 -35.4541 -35.4512
   -35.4370 -35.3983 -35.3980 -35.3893 -35.3749 -35.3717 -35.3603 -35.3463
   -35.3456 -35.3272 -35.3272 -35.3181 -35.3095 -23.8631 -23.8549 -23.8466
    12.3495  12.3548  12.3549  12.4804  14.3661  14.3705  14.3707  14.4875
    14.5257  14.5270  14.5419  14.5898  14.5902  14.5927  14.6145  14.7011
    14.8899  14.8923  14.8924  15.0119  15.2422  15.2660  15.2711  15.2803
    15.2873  15.3384  15.3399  15.5082  15.7835  15.7912  15.8699  15.8730
    15.8808  15.8985  15.9193  15.9502  15.9711  15.9960  16.0150  16.0998
    16.1738  16.1739  16.2626  16.4698  16.7011  16.7018  16.8459  16.8487
    17.3195  17.3198  17.3411  17.3636  17.4072  17.4077  17.5126  17.5134
    17.5216  17.5478  17.5494  17.5609  17.5650  17.5678  17.5781  17.5781
    17.6361  17.6474  17.6563  17.6573  17.7820  17.8322  17.8353  17.9908
    17.9957  18.0043  18.0073  18.1823  18.1834  18.5333  18.9532  18.9578
    19.3182  19.4960  19.5385  19.5494  20.8979  20.9436  21.0933  21.1483

          k = 0.2475 0.2475 0.0000 (  6188 PWs)   bands (ev):

   -69.5763 -69.5423 -69.5288 -69.5216 -69.5063 -69.5005 -69.4967 -69.4963
   -69.4950 -69.4939 -69.4926 -69.4821 -69.4572 -69.4550 -69.4348 -52.5150
   -35.7342 -35.7339 -35.7333 -35.7138 -35.7114 -35.6901 -35.6546 -35.6416
   -35.6278 -35.6252 -35.6202 -35.6192 -35.6155 -35.5867 -35.5676 -35.5536
   -35.5391 -35.5391 -35.5211 -35.5202 -35.5094 -35.5072 -35.5027 -35.4929
   -35.4923 -35.4862 -35.4815 -35.4723 -35.4710 -35.4589 -35.4251 -35.4235
   -35.4212 -35.4158 -35.4155 -35.4086 -35.3888 -35.3824 -35.3763 -35.3686
   -35.3370 -35.3325 -35.3227 -35.3123 -35.3002 -23.8627 -23.8546 -23.8466
    10.7264  12.8843  12.9376  13.5488  13.9838  13.9846  13.9872  13.9942
    14.0027  14.0167  14.0650  14.1237  14.1899  14.4841  14.5091  14.9603
    14.9810  15.0036  15.0062  15.3059  15.3087  15.3388  15.3487  15.3663
    15.3756  15.4186  15.5437  15.5466  15.6886  15.7591  15.7983  16.1057
    16.1416  16.1798  16.1803  16.2105  16.2746  16.3556  16.4004  16.4071
    16.7767  16.8387  16.8422  16.8644  16.8835  16.8946  16.9067  16.9452
    17.0383  17.0955  17.1812  17.1876  17.1904  17.3213  17.4935  17.5036
    17.5095  17.5972  17.6028  17.6624  17.6702  17.6850  17.7201  17.7847
    17.7897  17.8461  17.8936  17.9720  17.9791  18.0375  18.0789  18.1133
    18.1395  18.2046  18.2137  18.2241  18.4137  18.4768  18.8450  18.9778
    19.0454  19.1322  19.3475  19.5802  19.6746  20.1449  20.5325  20.6074

          k = 0.2475 0.2475 0.2500 (  6197 PWs)   bands (ev):

   -69.5734 -69.5415 -69.5286 -69.5275 -69.5064 -69.5043 -69.5018 -69.4967
   -69.4933 -69.4908 -69.4881 -69.4809 -69.4549 -69.4538 -69.4376 -52.5150
   -35.7260 -35.7229 -35.7185 -35.7061 -35.6844 -35.6798 -35.6584 -35.6504
   -35.6425 -35.6367 -35.6344 -35.6298 -35.5954 -35.5904 -35.5855 -35.5556
   -35.5546 -35.5521 -35.5388 -35.5368 -35.5361 -35.5307 -35.5146 -35.5109
   -35.4821 -35.4622 -35.4578 -35.4571 -35.4395 -35.4389 -35.4322 -35.4274
   -35.4237 -35.4110 -35.4109 -35.4074 -35.3887 -35.3773 -35.3617 -35.3608
   -35.3432 -35.3344 -35.3304 -35.3197 -35.3113 -23.8630 -23.8545 -23.8469
    11.0355  13.0769  13.1032  13.1715  13.8083  13.8396  13.8702  14.1456
    14.1710  14.2141  14.2303  14.2307  14.6191  14.6301  14.6445  14.9393
    14.9512  15.0048  15.0102  15.2359  15.2452  15.3249  15.3337  15.3881
    15.3998  15.5212  15.5229  15.5696  15.6022  15.6891  15.8008  15.9044
    15.9088  16.0863  16.0868  16.1271  16.1835  16.2106  16.2564  16.3231
    16.3323  16.4358  16.5123  16.5230  16.6085  16.6548  16.7456  17.0493
    17.0777  17.1039  17.1052  17.3953  17.4646  17.4649  17.4797  17.5302
    17.5505  17.5623  17.5691  17.5782  17.6682  17.6951  17.7534  17.7541
    17.7584  17.7939  17.8005  17.8241  17.8609  17.8978  17.9037  18.1613
    18.1735  18.1759  18.3852  18.3880  18.5344  18.5469  18.5940  18.9193
    19.0163  19.0685  19.5168  19.5209  19.7788  19.9381  19.9673  21.4866

          k = 0.2475 0.2475-0.5000 (  6190 PWs)   bands (ev):

   -69.5697 -69.5397 -69.5368 -69.5259 -69.5079 -69.5051 -69.5040 -69.4973
   -69.4934 -69.4891 -69.4858 -69.4795 -69.4548 -69.4476 -69.4431 -52.5150
   -35.7130 -35.7059 -35.7021 -35.6774 -35.6751 -35.6693 -35.6637 -35.6559
   -35.6521 -35.6504 -35.6330 -35.6273 -35.6246 -35.6153 -35.6040 -35.5679
   -35.5675 -35.5559 -35.5448 -35.5436 -35.5418 -35.5199 -35.5174 -35.5091
   -35.4818 -35.4809 -35.4623 -35.4529 -35.4417 -35.4291 -35.4223 -35.4154
   -35.4105 -35.4099 -35.4043 -35.3881 -35.3692 -35.3616 -35.3561 -35.3538
   -35.3495 -35.3423 -35.3359 -35.3351 -35.3262 -23.8627 -23.8549 -23.8469
    11.8716  11.9348  13.5542  13.5633  13.5653  13.6575  14.4545  14.4584
    14.4749  14.4850  14.4856  14.4974  14.5083  14.5331  14.5634  14.6161
    14.6955  14.7494  15.2528  15.3152  15.3211  15.3642  15.4089  15.4112
    15.4207  15.5667  15.5731  15.5908  15.6143  15.6815  15.8310  15.8426
    15.9157  15.9183  15.9413  15.9691  15.9755  15.9768  15.9977  16.0058
    16.0174  16.0772  16.1044  16.1489  16.2233  16.2401  16.8491  16.8921
    17.2597  17.3118  17.3754  17.4000  17.4061  17.4189  17.4260  17.4652
    17.5187  17.5187  17.5364  17.6653  17.7003  17.7140  17.7354  17.7825
    17.7949  17.8179  17.8212  17.8480  17.8924  17.8948  17.9760  17.9949
    18.0343  18.2681  18.5021  18.5170  18.5915  18.5921  18.6692  18.7094
    18.7152  19.1486  19.3657  19.5861  19.6804  19.7179  20.7878  20.9466

          k = 0.2550-0.5026 0.0000 (  6192 PWs)   bands (ev):

   -69.5716 -69.5429 -69.5361 -69.5223 -69.5076 -69.4985 -69.4985 -69.4948
   -69.4946 -69.4945 -69.4926 -69.4801 -69.4566 -69.4468 -69.4420 -52.5150
   -35.7212 -35.7154 -35.7101 -35.6873 -35.6846 -35.6743 -35.6671 -35.6639
   -35.6617 -35.6549 -35.6458 -35.6331 -35.6028 -35.5996 -35.5920 -35.5637
   -35.5472 -35.5457 -35.5397 -35.5307 -35.5189 -35.5098 -35.4955 -35.4881
   -35.4815 -35.4771 -35.4669 -35.4640 -35.4516 -35.4476 -35.4411 -35.4300
   -35.4201 -35.4184 -35.4056 -35.3814 -35.3758 -35.3670 -35.3610 -35.3533
   -35.3457 -35.3438 -35.3371 -35.3266 -35.3148 -23.8630 -23.8544 -23.8468
    11.5937  11.6730  13.2470  13.3421  14.1462  14.1518  14.1878  14.2379
    14.2639  14.2755  14.3288  14.3956  14.4112  14.4963  14.5242  14.5313
    14.5883  14.5903  15.2173  15.2291  15.2957  15.3220  15.4761  15.4869
    15.5007  15.5502  15.5538  15.6350  15.6799  15.7579  16.0453  16.0677
    16.0940  16.1120  16.1201  16.1518  16.1907  16.2146  16.2483  16.2484
    16.2662  16.2810  16.2896  16.3469  16.3903  16.5310  17.0753  17.1442
    17.1698  17.2072  17.2897  17.2971  17.3773  17.3817  17.3824  17.4297
    17.4873  17.4958  17.5263  17.6214  17.6771  17.6797  17.7180  17.7369
    17.7777  17.7866  17.8575  17.8832  17.8896  17.9266  17.9443  18.0143
    18.0879  18.1461  18.1686  18.2879  18.3590  18.7378  18.7385  18.8845
    19.2112  19.3617  19.3701  19.4466  20.1039  20.1600  20.2622  20.5102

          k = 0.2550-0.5026 0.2500 (  6194 PWs)   bands (ev):

   -69.5695 -69.5406 -69.5357 -69.5269 -69.5074 -69.5065 -69.5028 -69.4964
   -69.4941 -69.4887 -69.4861 -69.4798 -69.4541 -69.4474 -69.4437 -52.5150
   -35.7119 -35.7086 -35.7023 -35.6820 -35.6811 -35.6674 -35.6657 -35.6603
   -35.6518 -35.6496 -35.6264 -35.6238 -35.6191 -35.6077 -35.5951 -35.5644
   -35.5639 -35.5559 -35.5453 -35.5398 -35.5382 -35.5198 -35.5145 -35.5045
   -35.4827 -35.4775 -35.4656 -35.4512 -35.4489 -35.4370 -35.4268 -35.4204
   -35.4156 -35.4125 -35.4059 -35.3966 -35.3791 -35.3637 -35.3604 -35.3564
   -35.3455 -35.3394 -35.3377 -35.3242 -35.3221 -23.8630 -23.8547 -23.8470
    11.8738  11.9538  13.5001  13.5313  13.5607  13.6400  14.4459  14.4693
    14.4793  14.4843  14.4978  14.5144  14.5271  14.5588  14.5793  14.6224
    14.6909  14.7522  15.2534  15.3151  15.3231  15.3587  15.3788  15.3962
    15.4082  15.5459  15.5532  15.5757  15.6077  15.6720  15.8704  15.8845
    15.9279  15.9366  15.9542  15.9664  15.9703  15.9883  16.0020  16.0108
    16.0154  16.0695  16.0874  16.1547  16.2411  16.2575  16.8813  16.9343
    17.2651  17.3391  17.3756  17.3881  17.4118  17.4291  17.4350  17.4661
    17.5037  17.5179  17.5285  17.6578  17.6652  17.6869  17.7106  17.7554
    17.7844  17.7969  17.8349  17.8500  17.8771  17.8840  17.9555  17.9948
    18.0339  18.2495  18.4916  18.5192  18.5752  18.6188  18.6462  18.6662
    18.7085  19.1482  19.3818  19.5909  19.6770  19.7034  20.8519  21.0412

          k = 0.2550-0.5026-0.5000 (  6186 PWs)   bands (ev):

   -69.5669 -69.5374 -69.5363 -69.5305 -69.5133 -69.5056 -69.5055 -69.4978
   -69.4935 -69.4846 -69.4840 -69.4791 -69.4495 -69.4484 -69.4472 -52.5150
   -35.7066 -35.6899 -35.6890 -35.6718 -35.6708 -35.6699 -35.6687 -35.6599
   -35.6594 -35.6429 -35.6427 -35.6262 -35.6139 -35.5789 -35.5782 -35.5755
   -35.5692 -35.5647 -35.5631 -35.5606 -35.5591 -35.5413 -35.5271 -35.5264
   -35.4790 -35.4584 -35.4504 -35.4468 -35.4356 -35.4353 -35.4315 -35.4291
   -35.4260 -35.3922 -35.3912 -35.3876 -35.3858 -35.3668 -35.3653 -35.3531
   -35.3507 -35.3339 -35.3331 -35.3301 -35.3204 -23.8631 -23.8546 -23.8471
    12.6141  12.6338  12.6566  12.7645  14.1104  14.1457  14.2007  14.2764
    14.5534  14.5631  14.5701  14.6809  14.9218  14.9281  14.9384  14.9415
    14.9504  14.9573  15.0019  15.0336  15.1560  15.1852  15.2023  15.2772
    15.4010  15.4336  15.4343  15.5228  15.5938  15.6086  15.6431  15.6684
    15.7268  15.7334  15.7383  15.7421  15.7964  15.7986  15.8267  15.8296
    15.9405  15.9414  15.9789  16.0950  16.2333  16.3466  16.3571  16.3573
    17.4536  17.4545  17.4594  17.5169  17.5405  17.5488  17.5715  17.6070
    17.6184  17.6390  17.6545  17.6896  17.6992  17.7065  17.7107  17.7303
    17.7557  17.7753  17.7970  17.8408  17.8412  17.8913  17.9983  18.0562
    18.0625  18.0869  18.0875  18.2823  18.2826  18.5880  18.6463  18.7378
    19.1580  19.1611  19.4364  19.4410  19.8035  20.1112  20.1542  20.1790

          k = 0.2525-0.2525 0.0000 (  6206 PWs)   bands (ev):

   -69.5757 -69.5414 -69.5324 -69.5217 -69.5031 -69.5005 -69.4969 -69.4967
   -69.4963 -69.4940 -69.4926 -69.4815 -69.4579 -69.4530 -69.4362 -52.5150
   -35.7284 -35.7265 -35.7236 -35.7048 -35.7007 -35.6897 -35.6535 -35.6454
   -35.6382 -35.6316 -35.6312 -35.6279 -35.6240 -35.5935 -35.5820 -35.5586
   -35.5463 -35.5363 -35.5284 -35.5257 -35.5194 -35.5153 -35.5073 -35.4964
   -35.4819 -35.4816 -35.4757 -35.4741 -35.4698 -35.4610 -35.4179 -35.4157
   -35.4114 -35.4092 -35.4083 -35.4047 -35.3817 -35.3730 -35.3626 -35.3606
   -35.3380 -35.3349 -35.3310 -35.3303 -35.3214 -23.8630 -23.8543 -23.8470
    10.7557  12.8280  12.8854  13.6019  13.9884  13.9912  13.9975  14.0072
    14.0182  14.0450  14.0505  14.1337  14.2004  14.4482  14.4848  14.9692
    14.9964  14.9971  15.0052  15.2811  15.2906  15.3431  15.3672  15.3818
    15.4006  15.4045  15.4964  15.5502  15.6452  15.8112  15.8478  16.0249
    16.0824  16.1081  16.1483  16.2857  16.3126  16.3196  16.3525  16.4479
    16.7166  16.7855  16.8228  16.8668  16.8708  16.8744  16.8923  16.9896
    17.0769  17.1452  17.2165  17.2311  17.2567  17.3363  17.4667  17.4941
    17.5088  17.5743  17.5848  17.6421  17.6479  17.6596  17.7246  17.7376
    17.8060  17.8355  17.9042  17.9741  17.9966  18.0902  18.1106  18.1583
    18.1663  18.1913  18.2339  18.2619  18.4904  18.5677  18.8526  18.8653
    18.9908  19.1595  19.3406  19.4709  19.7001  20.1364  20.4796  20.5523

          k = 0.2525-0.2525 0.2500 (  6206 PWs)   bands (ev):

   -69.5729 -69.5406 -69.5307 -69.5285 -69.5062 -69.5033 -69.5008 -69.4967
   -69.4934 -69.4908 -69.4891 -69.4806 -69.4544 -69.4530 -69.4387 -52.5150
   -35.7206 -35.7196 -35.7174 -35.7012 -35.6817 -35.6773 -35.6653 -35.6526
   -35.6495 -35.6394 -35.6336 -35.6287 -35.5943 -35.5925 -35.5853 -35.5543
   -35.5519 -35.5518 -35.5393 -35.5369 -35.5339 -35.5303 -35.5093 -35.5065
   -35.4861 -35.4663 -35.4634 -35.4513 -35.4446 -35.4360 -35.4324 -35.4319
   -35.4274 -35.4178 -35.4153 -35.4147 -35.3921 -35.3632 -35.3551 -35.3485
   -35.3453 -35.3376 -35.3359 -35.3238 -35.3201 -23.8629 -23.8547 -23.8470
    11.0625  13.0457  13.0668  13.1430  13.8122  13.8282  13.8658  14.1578
    14.1767  14.2428  14.2437  14.2452  14.6276  14.6329  14.6479  14.9013
    14.9101  14.9680  14.9723  15.2275  15.2322  15.3531  15.4003  15.4159
    15.4300  15.5361  15.5363  15.5990  15.6004  15.6676  15.7758  15.8833
    15.8885  16.0168  16.0312  16.1566  16.1830  16.2094  16.2298  16.2905
    16.2905  16.4553  16.5383  16.5495  16.6759  16.7069  16.7953  17.0338
    17.1115  17.1577  17.1595  17.3857  17.4447  17.4471  17.4740  17.5085
    17.5278  17.5452  17.5537  17.5696  17.6440  17.6654  17.7312  17.7545
    17.7706  17.7710  17.8246  17.8456  17.8664  17.9058  17.9107  18.1519
    18.1553  18.1618  18.4050  18.4081  18.5001  18.5354  18.5570  18.9344
    18.9976  19.0505  19.5251  19.5277  19.7654  19.9261  19.9688  21.5350

          k = 0.2525-0.2525-0.5000 (  6206 PWs)   bands (ev):

   -69.5693 -69.5394 -69.5359 -69.5287 -69.5075 -69.5069 -69.5022 -69.4957
   -69.4949 -69.4869 -69.4868 -69.4804 -69.4529 -69.4478 -69.4444 -52.5150
   -35.7111 -35.7094 -35.7016 -35.6831 -35.6830 -35.6706 -35.6694 -35.6623
   -35.6573 -35.6480 -35.6227 -35.6217 -35.6140 -35.6043 -35.5919 -35.5624
   -35.5609 -35.5548 -35.5403 -35.5367 -35.5344 -35.5182 -35.5136 -35.5060
   -35.4830 -35.4759 -35.4645 -35.4597 -35.4514 -35.4417 -35.4301 -35.4241
   -35.4180 -35.4179 -35.4096 -35.4056 -35.3909 -35.3713 -35.3658 -35.3481
   -35.3453 -35.3316 -35.3293 -35.3243 -35.3222 -23.8633 -23.8548 -23.8470
    11.8928  11.9559  13.5003  13.5083  13.5094  13.6063  14.4463  14.4833
    14.4875  14.5085  14.5110  14.5223  14.5346  14.5704  14.5872  14.6268
    14.6870  14.7356  15.2575  15.3276  15.3392  15.3469  15.3523  15.3562
    15.4074  15.5213  15.5448  15.5666  15.5845  15.6558  15.8984  15.9133
    15.9228  15.9264  15.9634  15.9928  15.9930  15.9971  15.9973  16.0157
    16.0235  16.0576  16.0789  16.1635  16.2521  16.2705  16.9069  16.9421
    17.2992  17.3395  17.3946  17.4102  17.4143  17.4199  17.4226  17.4607
    17.4937  17.5196  17.5211  17.6232  17.6481  17.6857  17.6864  17.7285
    17.7854  17.7981  17.8444  17.8586  17.8634  17.8685  17.9036  18.0001
    18.0204  18.2327  18.5002  18.5358  18.5697  18.6152  18.6261  18.6459
    18.6472  19.1451  19.3948  19.5992  19.6696  19.6866  20.9642  21.0991

          k =-0.4951-0.4951 0.0000 (  6196 PWs)   bands (ev):

   -69.5684 -69.5420 -69.5368 -69.5259 -69.5141 -69.4969 -69.4967 -69.4964
   -69.4963 -69.4923 -69.4915 -69.4779 -69.4495 -69.4492 -69.4459 -52.5150
   -35.7193 -35.7026 -35.6981 -35.6928 -35.6868 -35.6792 -35.6733 -35.6722
   -35.6715 -35.6613 -35.6599 -35.6300 -35.5796 -35.5679 -35.5587 -35.5570
   -35.5456 -35.5190 -35.5163 -35.5147 -35.5146 -35.5135 -35.5078 -35.5019
   -35.4962 -35.4946 -35.4898 -35.4882 -35.4817 -35.4754 -35.4614 -35.4425
   -35.4393 -35.3994 -35.3934 -35.3931 -35.3772 -35.3698 -35.3571 -35.3552
   -35.3398 -35.3385 -35.3247 -35.3182 -35.3035 -23.8633 -23.8546 -23.8471
    12.3116  12.3379  12.4010  12.4944  14.3166  14.3468  14.4217  14.5029
    14.5445  14.5561  14.5562  14.5563  14.5684  14.5900  14.6031  14.6913
    14.8777  14.8853  14.8994  15.0093  15.2208  15.2393  15.2617  15.3035
    15.3043  15.3161  15.3721  15.5150  15.7312  15.8292  15.8498  15.9114
    15.9152  15.9158  15.9493  15.9585  15.9680  15.9687  15.9786  16.0895
    16.1324  16.2308  16.2675  16.4776  16.6704  16.7313  16.8250  16.8689
    17.3147  17.3162  17.3287  17.3621  17.3712  17.4688  17.4823  17.4933
    17.5159  17.5352  17.5594  17.5630  17.5754  17.5815  17.6024  17.6079
    17.6089  17.6094  17.6631  17.6781  17.7774  17.8184  17.8370  17.9836
    17.9872  17.9899  17.9911  18.1747  18.1799  18.5294  18.8833  19.0265
    19.3170  19.4889  19.5053  19.5903  20.9541  20.9576  21.0595  21.0962

          k =-0.4951-0.4951 0.2500 (  6186 PWs)   bands (ev):

   -69.5669 -69.5395 -69.5347 -69.5297 -69.5131 -69.5068 -69.5046 -69.4979
   -69.4931 -69.4859 -69.4834 -69.4790 -69.4498 -69.4489 -69.4463 -52.5150
   -35.7057 -35.6936 -35.6856 -35.6788 -35.6763 -35.6659 -35.6650 -35.6597
   -35.6522 -35.6522 -35.6377 -35.6276 -35.6129 -35.5794 -35.5772 -35.5752
   -35.5707 -35.5648 -35.5608 -35.5598 -35.5597 -35.5419 -35.5280 -35.5260
   -35.4789 -35.4566 -35.4561 -35.4417 -35.4374 -35.4365 -35.4340 -35.4295
   -35.4196 -35.3935 -35.3912 -35.3881 -35.3843 -35.3672 -35.3622 -35.3580
   -35.3464 -35.3424 -35.3369 -35.3259 -35.3157 -23.8629 -23.8548 -23.8470
    12.5940  12.6207  12.6805  12.7733  14.1380  14.1430  14.1879  14.2636
    14.5110  14.5418  14.6111  14.6954  14.9159  14.9316  14.9367  14.9426
    14.9432  14.9645  14.9990  15.0328  15.1448  15.1607  15.2355  15.2830
    15.4005  15.4107  15.4527  15.5283  15.6071  15.6216  15.6293  15.6656
    15.6841  15.7214  15.7499  15.7709  15.7900  15.8044  15.8124  15.8265
    15.9241  15.9595  15.9762  16.0954  16.2351  16.3494  16.3518  16.3631
    17.4076  17.4454  17.5118  17.5273  17.5313  17.5703  17.5739  17.5986
    17.6190  17.6328  17.6529  17.6803  17.7056  17.7126  17.7141  17.7287
    17.7672  17.7894  17.7897  17.8301  17.8543  17.8899  17.9949  18.0544
    18.0708  18.0824  18.0949  18.2642  18.3031  18.5516  18.6886  18.7375
    19.1209  19.1999  19.4334  19.4379  19.8056  20.1184  20.1403  20.1688

          k =-0.4951-0.4951-0.5000 (  6136 PWs)   bands (ev):

   -69.5650 -69.5361 -69.5332 -69.5322 -69.5135 -69.5118 -69.5100 -69.4994
   -69.4896 -69.4828 -69.4805 -69.4793 -69.4499 -69.4486 -69.4467 -52.5150
   -35.6878 -35.6821 -35.6782 -35.6491 -35.6449 -35.6423 -35.6390 -35.6342
   -35.6307 -35.6286 -35.6280 -35.6273 -35.6226 -35.6201 -35.6176 -35.6099
   -35.6041 -35.6000 -35.5902 -35.5797 -35.5740 -35.5446 -35.5433 -35.5404
   -35.4528 -35.4499 -35.4428 -35.4307 -35.4275 -35.4104 -35.4024 -35.3941
   -35.3879 -35.3816 -35.3814 -35.3764 -35.3703 -35.3669 -35.3656 -35.3645
   -35.3632 -35.3613 -35.3497 -35.3376 -35.3375 -23.8627 -23.8542 -23.8465
    13.3357  13.3387  13.3426  13.3753  13.4118  13.4176  13.4210  13.6457
    15.0113  15.0124  15.0146  15.0168  15.0247  15.0310  15.0517  15.0572
    15.0871  15.0932  15.0967  15.1039  15.1080  15.1091  15.3173  15.3174
    15.5243  15.5315  15.5371  15.5524  15.5530  15.5559  15.5576  15.5578
    15.5615  15.5660  15.5707  15.5750  15.5755  15.5915  15.5982  15.5993
    15.6004  15.6114  15.6311  15.6719  15.6781  15.9641  15.9756  15.9841
    17.5460  17.5678  17.5692  17.5864  17.5899  17.6028  17.6102  17.6145
    17.6193  17.6237  17.6275  17.6370  17.6579  17.6697  17.9847  17.9861
    18.0472  18.0556  18.0571  18.0696  18.0696  18.0713  18.0998  18.1017
    18.1114  18.1194  18.1321  18.4165  18.4293  18.4470  18.7290  18.7428
    18.7621  18.7780  18.7871  19.4916  19.4927  19.7827  19.7869  19.7876

 ------ SPIN DOWN ----------


          k = 0.0000 0.0000 0.0000 (  6177 PWs)   bands (ev):

   -66.9692 -66.9189 -66.9175 -66.9157 -66.9127 -66.9121 -66.9095 -66.9048
   -66.8967 -66.8959 -66.8661 -66.7633 -66.7633 -66.7500 -66.5840 -53.9765
   -33.2369 -33.2240 -33.2190 -33.2131 -33.2088 -33.1964 -33.1030 -33.0853
   -33.0776 -33.0572 -33.0467 -33.0325 -33.0266 -33.0237 -33.0221 -33.0032
   -32.9907 -32.9885 -32.9873 -32.9768 -32.9689 -32.9670 -32.9516 -32.9463
   -32.9429 -32.9407 -32.9397 -32.9360 -32.9243 -32.9218 -32.8732 -32.8707
   -32.8646 -32.8139 -32.8125 -32.8096 -32.7361 -32.7336 -32.7326 -32.7185
   -32.7185 -32.7164 -32.6395 -32.6368 -32.6350 -25.2981 -25.2950 -25.2934
    10.1864  14.2894  14.2896  14.4320  14.4327  14.4343  14.4593  14.7149
    14.7227  14.7297  14.7852  14.7862  14.9145  15.4130  15.4219  16.4130
    16.4158  16.4309  16.7077  16.7111  16.7701  16.8530  16.8684  16.8782
    16.8997  16.9058  16.9512  17.4839  17.4842  17.7301  17.7309  17.7330
    17.8507  17.9882  18.1006  18.1960  18.4742  18.5140  18.5190  18.5408
    18.5524  18.5580  18.5593  18.5628  18.5888  18.5930  18.6195  18.6272
    18.9706  19.1379  19.1482  19.1507  19.1615  19.3338  19.4732  19.5101
    19.5179  19.5255  19.5264  19.5274  19.8354  19.8420  20.1225  20.1622
    20.1689  20.2032  20.2915  20.2997  20.4111  20.4250  20.5340  20.5472
    20.5477  20.6354  20.6455  20.6736  20.7615  20.7690  20.9495  20.9821
    21.0671  21.1872  21.2011  21.2052  21.2278  21.2487  21.2534  21.2553

          k = 0.0000 0.0000 0.2500 (  6205 PWs)   bands (ev):

   -66.9639 -66.9303 -66.9180 -66.9148 -66.9136 -66.9107 -66.9104 -66.9061
   -66.8967 -66.8876 -66.8674 -66.7633 -66.7616 -66.7517 -66.5841 -53.9766
   -33.2178 -33.2096 -33.2054 -33.1939 -33.1887 -33.1807 -33.1106 -33.0995
   -33.0898 -33.0855 -33.0687 -33.0681 -33.0634 -33.0532 -33.0478 -33.0357
   -33.0339 -33.0195 -33.0032 -32.9856 -32.9678 -32.9483 -32.9445 -32.9444
   -32.9395 -32.9272 -32.9199 -32.9162 -32.8757 -32.8672 -32.8558 -32.8482
   -32.8351 -32.8138 -32.8070 -32.8037 -32.7497 -32.7454 -32.7415 -32.7356
   -32.7336 -32.7313 -32.6406 -32.6383 -32.6355 -25.2985 -25.2957 -25.2939
    10.5167  12.8661  14.4107  14.5558  14.5594  14.5762  14.7774  14.7830
    14.8210  14.8562  14.9447  15.0394  15.4077  15.5641  15.5939  16.2283
    16.4010  16.4067  16.4233  16.7430  16.7737  16.7923  16.9078  16.9711
    16.9731  17.0506  17.0601  17.1265  17.2788  17.4974  17.4989  17.5459
    17.9455  17.9483  18.0480  18.1323  18.1354  18.2140  18.2366  18.3288
    18.3362  18.3838  18.3968  18.3993  18.4043  18.4239  18.5665  18.6521
    18.9386  18.9743  18.9754  18.9876  19.0007  19.0676  19.0894  19.7787
    19.9037  19.9277  19.9649  19.9767  20.0134  20.0270  20.0300  20.0682
    20.0946  20.1092  20.2159  20.3654  20.3958  20.4952  20.5429  20.5496
    20.5681  20.6101  20.6639  20.7345  20.8095  20.8685  20.9653  20.9700
    20.9992  21.0177  21.0995  21.1056  21.1064  21.1106  21.2127  21.2165

          k = 0.0000 0.0000-0.5000 (  6210 PWs)   bands (ev):

   -66.9522 -66.9467 -66.9158 -66.9158 -66.9126 -66.9126 -66.9085 -66.9082
   -66.8966 -66.8814 -66.8691 -66.7634 -66.7589 -66.7542 -66.5841 -53.9766
   -33.1965 -33.1845 -33.1743 -33.1578 -33.1538 -33.1343 -33.1332 -33.1322
   -33.1253 -33.1242 -33.1234 -33.1200 -33.0926 -33.0790 -33.0544 -33.0500
   -33.0197 -33.0175 -33.0164 -33.0126 -32.9586 -32.9584 -32.9415 -32.9415
   -32.9268 -32.9092 -32.9072 -32.8901 -32.8481 -32.8457 -32.8277 -32.8249
   -32.8067 -32.8062 -32.7837 -32.7761 -32.7748 -32.7671 -32.7665 -32.7596
   -32.7531 -32.7467 -32.6393 -32.6393 -32.6367 -25.2989 -25.2961 -25.2935
    11.4585  11.4595  14.5420  14.6710  14.6802  14.8392  14.8605  14.8639
    14.8648  14.8823  15.3538  15.3575  15.7317  15.7684  15.7914  15.8063
    15.9198  16.1762  16.4166  16.4519  16.7262  16.7681  17.1219  17.2082
    17.2595  17.2642  17.4548  17.5008  17.5085  17.5220  17.5430  17.5441
    17.5784  17.5895  17.6120  17.6206  17.6215  17.6401  17.6607  17.6614
    17.7322  17.8128  18.0263  18.1496  18.1920  18.3343  18.4843  18.6502
    19.0798  19.4409  19.4946  19.5181  19.5723  19.6106  19.6296  19.6335
    19.6366  19.6600  19.7576  19.8063  19.8711  19.9239  20.1220  20.2884
    20.3496  20.3604  20.4162  20.4720  20.5523  20.5626  20.5711  20.5971
    20.6015  20.6022  20.6259  20.6280  20.6320  20.6986  20.7083  20.7143
    20.7157  20.7273  21.1792  21.1835  21.2103  21.2116  21.2211  21.2245

          k =-0.0025 0.2500 0.0000 (  6191 PWs)   bands (ev):

   -66.9639 -66.9303 -66.9166 -66.9165 -66.9130 -66.9128 -66.9093 -66.9057
   -66.8961 -66.8877 -66.8674 -66.7634 -66.7615 -66.7517 -66.5840 -53.9766
   -33.2189 -33.2094 -33.2034 -33.1938 -33.1930 -33.1800 -33.1083 -33.0985
   -33.0957 -33.0809 -33.0675 -33.0656 -33.0552 -33.0497 -33.0456 -33.0429
   -33.0287 -33.0049 -33.0004 -32.9999 -32.9683 -32.9475 -32.9460 -32.9445
   -32.9411 -32.9242 -32.9214 -32.9147 -32.8692 -32.8687 -32.8527 -32.8525
   -32.8351 -32.8142 -32.8057 -32.8044 -32.7519 -32.7429 -32.7428 -32.7329
   -32.7323 -32.7303 -32.6407 -32.6374 -32.6350 -25.2983 -25.2954 -25.2938
    10.5155  12.8657  14.4086  14.5498  14.5568  14.5827  14.7663  14.7807
    14.8269  14.8591  14.9509  15.0428  15.4101  15.5633  15.5967  16.2392
    16.4128  16.4170  16.4204  16.7665  16.7715  16.7722  16.8987  16.9726
    16.9785  17.0508  17.0834  17.1031  17.2776  17.4892  17.4968  17.5531
    17.9188  18.0058  18.0279  18.1182  18.1671  18.1737  18.2650  18.2684
    18.2894  18.3777  18.3896  18.4013  18.5053  18.5221  18.5232  18.5737
    18.9364  18.9680  18.9787  18.9834  19.0002  19.0823  19.0886  19.7769
    19.9034  19.9297  19.9699  19.9732  20.0142  20.0280  20.0301  20.0731
    20.1115  20.1242  20.2270  20.3563  20.4095  20.5289  20.5318  20.5584
    20.6072  20.6200  20.6294  20.7413  20.8072  20.8959  20.9600  20.9675
    21.0058  21.0292  21.0744  21.0959  21.0963  21.1254  21.2086  21.2238

          k =-0.0025 0.2500 0.2500 (  6200 PWs)   bands (ev):

   -66.9592 -66.9310 -66.9251 -66.9159 -66.9150 -66.9115 -66.9107 -66.9069
   -66.8903 -66.8851 -66.8689 -66.7623 -66.7610 -66.7531 -66.5841 -53.9766
   -33.2078 -33.2043 -33.1970 -33.1785 -33.1698 -33.1579 -33.1235 -33.1140
   -33.1074 -33.1007 -33.0956 -33.0794 -33.0695 -33.0570 -33.0374 -33.0283
   -33.0189 -33.0071 -32.9974 -32.9855 -32.9819 -32.9627 -32.9582 -32.9520
   -32.9479 -32.9439 -32.9080 -32.8998 -32.8641 -32.8613 -32.8501 -32.8453
   -32.8385 -32.7977 -32.7941 -32.7813 -32.7750 -32.7525 -32.7465 -32.7446
   -32.7356 -32.7265 -32.6414 -32.6386 -32.6356 -25.2984 -25.2957 -25.2941
    10.8352  13.0997  13.1035  14.3068  14.6783  14.7289  14.9521  14.9832
    15.0431  15.0684  15.2359  15.5071  15.5293  15.7300  15.7327  16.1313
    16.2718  16.4698  16.5944  16.6744  16.7605  16.7877  16.8595  16.9210
    16.9680  16.9876  17.0366  17.0642  17.2305  17.2529  17.2827  17.7142
    17.7619  17.8139  17.8815  17.9039  17.9281  17.9335  17.9462  18.0102
    18.0276  18.0564  18.1035  18.1494  18.1717  18.5405  18.5757  18.6010
    19.0008  19.0525  19.1166  19.1499  19.1615  19.2426  19.4442  19.4915
    19.6498  19.8540  19.9217  20.0019  20.0483  20.0645  20.0966  20.1258
    20.2064  20.2857  20.2897  20.3447  20.3948  20.4183  20.4447  20.4818
    20.5301  20.5651  20.5765  20.6203  20.6362  20.7152  20.7293  20.7416
    20.7899  20.7925  21.0282  21.2161  21.3461  21.3922  22.0058  22.0306

          k =-0.0025 0.2500-0.5000 (  6212 PWs)   bands (ev):

   -66.9484 -66.9439 -66.9239 -66.9191 -66.9134 -66.9129 -66.9094 -66.9091
   -66.8884 -66.8801 -66.8714 -66.7619 -66.7588 -66.7555 -66.5841 -53.9766
   -33.1976 -33.1907 -33.1775 -33.1607 -33.1592 -33.1352 -33.1325 -33.1294
   -33.1250 -33.1154 -33.1029 -33.1026 -33.0753 -33.0750 -33.0458 -33.0351
   -33.0194 -33.0176 -33.0076 -32.9971 -32.9704 -32.9683 -32.9609 -32.9564
   -32.9445 -32.9232 -32.9043 -32.8903 -32.8736 -32.8736 -32.8460 -32.8360
   -32.8271 -32.7840 -32.7784 -32.7751 -32.7659 -32.7614 -32.7584 -32.7532
   -32.7403 -32.7384 -32.6413 -32.6405 -32.6360 -25.2986 -25.2965 -25.2941
    11.7473  11.7529  13.6719  13.7060  14.8903  14.9087  15.0586  15.0779
    15.4120  15.4431  15.5506  15.5672  15.7320  15.8031  15.8393  15.9439
    16.0139  16.2292  16.4979  16.5582  16.7391  16.8193  16.9257  16.9434
    17.0782  17.1677  17.1724  17.1813  17.2530  17.2894  17.3107  17.3565
    17.4164  17.4952  17.5538  17.5792  17.5845  17.6175  17.7644  17.7717
    17.7740  17.7774  17.9036  17.9143  18.0326  18.1002  18.9397  18.9869
    19.1553  19.2403  19.2745  19.3187  19.3875  19.5281  19.5306  19.6318
    19.6823  19.6910  19.7382  19.7472  19.7871  19.8051  20.0608  20.1185
    20.1347  20.2338  20.2496  20.2897  20.3603  20.4481  20.5137  20.5360
    20.5440  20.5606  20.5932  20.6005  20.6257  20.6674  20.6740  20.6945
    20.8649  20.9136  21.0099  21.0109  21.6833  21.7038  21.7429  21.7716

          k = 0.0050-0.5001 0.0000 (  6212 PWs)   bands (ev):

   -66.9522 -66.9466 -66.9148 -66.9146 -66.9146 -66.9145 -66.9077 -66.9077
   -66.8961 -66.8813 -66.8694 -66.7634 -66.7587 -66.7544 -66.5841 -53.9766
   -33.1998 -33.1801 -33.1747 -33.1539 -33.1407 -33.1395 -33.1360 -33.1357
   -33.1350 -33.1267 -33.1145 -33.1140 -33.0978 -33.0852 -33.0407 -33.0346
   -33.0326 -33.0283 -33.0153 -33.0151 -32.9591 -32.9588 -32.9417 -32.9415
   -32.9282 -32.9077 -32.9069 -32.8928 -32.8468 -32.8458 -32.8265 -32.8253
   -32.8098 -32.8067 -32.7801 -32.7801 -32.7789 -32.7662 -32.7636 -32.7562
   -32.7552 -32.7453 -32.6419 -32.6376 -32.6364 -25.2990 -25.2954 -25.2942
    11.4574  11.4583  14.5394  14.6745  14.6753  14.8188  14.8518  14.8606
    14.8833  14.8939  15.3600  15.3603  15.7525  15.7784  15.8016  15.8039
    15.9110  16.1641  16.4323  16.4323  16.7433  16.7435  17.1206  17.2014
    17.2617  17.2663  17.4610  17.4685  17.5005  17.5387  17.5482  17.5646
    17.5691  17.5887  17.6177  17.6205  17.6578  17.6601  17.6732  17.6899
    17.7182  17.7248  18.0916  18.0990  18.2247  18.2318  18.4979  18.6600
    19.0795  19.4381  19.5072  19.5073  19.5710  19.6118  19.6198  19.6338
    19.6431  19.6668  19.7761  19.7780  19.8908  19.8927  20.1367  20.2905
    20.3741  20.3885  20.4175  20.4633  20.5270  20.5780  20.5840  20.5928
    20.5943  20.5948  20.5986  20.6274  20.6327  20.6911  20.7030  20.7135
    20.7244  20.7358  21.1702  21.1814  21.2093  21.2189  21.2213  21.2236

          k = 0.0050-0.5001 0.2500 (  6204 PWs)   bands (ev):

   -66.9484 -66.9438 -66.9241 -66.9189 -66.9136 -66.9135 -66.9090 -66.9089
   -66.8882 -66.8799 -66.8717 -66.7620 -66.7586 -66.7556 -66.5841 -53.9766
   -33.1985 -33.1874 -33.1792 -33.1588 -33.1525 -33.1454 -33.1353 -33.1279
   -33.1178 -33.1177 -33.1039 -33.1006 -33.0750 -33.0745 -33.0373 -33.0370
   -33.0184 -33.0144 -33.0110 -33.0024 -32.9704 -32.9690 -32.9605 -32.9566
   -32.9445 -32.9222 -32.9049 -32.8903 -32.8739 -32.8728 -32.8446 -32.8378
   -32.8273 -32.7829 -32.7780 -32.7756 -32.7646 -32.7594 -32.7569 -32.7545
   -32.7399 -32.7380 -32.6418 -32.6387 -32.6365 -25.2989 -25.2958 -25.2942
    11.7479  11.7533  13.6702  13.7045  14.8761  14.9306  15.0264  15.1034
    15.4182  15.4367  15.5496  15.5670  15.7639  15.7686  15.8487  15.9451
    16.0129  16.2276  16.5022  16.5564  16.7485  16.8215  16.9262  16.9437
    17.0846  17.1542  17.1768  17.2015  17.2700  17.3018  17.3029  17.4035
    17.4214  17.4266  17.5094  17.5246  17.6386  17.6452  17.7676  17.7752
    17.7770  17.7797  17.9067  17.9229  18.0158  18.0802  18.9451  19.0001
    19.1555  19.2419  19.2763  19.3174  19.3889  19.5250  19.5278  19.6432
    19.6713  19.6861  19.7430  19.7506  19.7842  19.8019  20.0696  20.1109
    20.1304  20.2271  20.2701  20.2932  20.3486  20.4483  20.5140  20.5411
    20.5519  20.5643  20.5830  20.6098  20.6253  20.6692  20.6726  20.6941
    20.8667  20.9151  21.0148  21.0158  21.6990  21.7070  21.7439  21.7679

          k = 0.0050-0.5001-0.5000 (  6188 PWs)   bands (ev):

   -66.9397 -66.9396 -66.9363 -66.9243 -66.9115 -66.9114 -66.9111 -66.9111
   -66.8790 -66.8788 -66.8775 -66.7588 -66.7586 -66.7586 -66.5841 -53.9766
   -33.1966 -33.1952 -33.1752 -33.1589 -33.1494 -33.1463 -33.1359 -33.1249
   -33.1225 -33.1208 -33.1029 -33.0958 -33.0407 -33.0386 -33.0281 -33.0246
   -33.0037 -32.9976 -32.9882 -32.9878 -32.9866 -32.9855 -32.9773 -32.9745
   -32.9744 -32.9577 -32.8985 -32.8975 -32.8962 -32.8959 -32.8739 -32.8278
   -32.8277 -32.7766 -32.7718 -32.7682 -32.7632 -32.7618 -32.7454 -32.7441
   -32.7366 -32.7248 -32.6419 -32.6401 -32.6343 -25.2983 -25.2962 -25.2943
    12.5322  12.5747  12.5750  12.5751  15.2570  15.2884  15.3131  15.5170
    15.5179  15.5564  15.6201  15.6204  15.7839  15.9039  15.9062  16.0455
    16.0456  16.5696  16.5696  16.5992  16.6226  16.6245  16.7811  16.7976
    16.8696  16.8873  16.8886  16.9097  16.9184  17.2738  17.2822  17.2917
    17.2936  17.3940  17.4000  17.4093  17.4354  17.4634  17.5363  17.5636
    17.7897  17.8711  17.8901  17.8905  18.4530  18.4535  18.5025  18.5244
    19.1656  19.1980  19.2974  19.2975  19.4658  19.5066  19.5176  19.5731
    19.5989  19.7051  19.9335  19.9340  19.9414  19.9443  19.9596  19.9651
    19.9750  20.0252  20.0334  20.0996  20.3087  20.3154  20.4049  20.4053
    20.4705  20.5375  20.5425  20.5561  20.5634  20.6440  20.6446  20.6676
    21.1000  21.1026  21.1172  21.1486  22.5580  22.5583  22.5590  22.5697

          k = 0.2475 0.2475 0.0000 (  6188 PWs)   bands (ev):

   -66.9598 -66.9305 -66.9233 -66.9166 -66.9158 -66.9128 -66.9096 -66.9066
   -66.8890 -66.8870 -66.8687 -66.7622 -66.7613 -66.7529 -66.5841 -53.9766
   -33.2196 -33.2120 -33.1974 -33.1848 -33.1838 -33.1458 -33.1155 -33.1080
   -33.0979 -33.0903 -33.0796 -33.0763 -33.0631 -33.0500 -33.0452 -33.0260
   -33.0210 -33.0052 -32.9967 -32.9905 -32.9854 -32.9673 -32.9651 -32.9538
   -32.9509 -32.9481 -32.9123 -32.9003 -32.8628 -32.8625 -32.8522 -32.8456
   -32.8392 -32.7977 -32.7935 -32.7741 -32.7702 -32.7505 -32.7457 -32.7424
   -32.7343 -32.7276 -32.6403 -32.6386 -32.6350 -25.2983 -25.2958 -25.2938
    10.8219  13.1304  13.1361  14.2587  14.6858  14.7116  14.9652  14.9911
    15.0402  15.0642  15.2324  15.5091  15.5302  15.7165  15.7445  16.1215
    16.2610  16.4861  16.5742  16.7022  16.7619  16.8034  16.8563  16.9209
    16.9526  16.9630  16.9965  17.0080  17.2493  17.2957  17.2983  17.7808
    17.7920  17.8451  17.8785  17.9700  17.9717  17.9831  17.9925  18.0142
    18.0470  18.0480  18.0623  18.0673  18.1294  18.5249  18.5772  18.6738
    18.9636  19.0118  19.0906  19.1106  19.1359  19.1843  19.4032  19.4466
    19.6278  19.8726  19.9476  19.9885  20.0716  20.0985  20.1171  20.1660
    20.2088  20.2831  20.3018  20.3493  20.4093  20.4221  20.4279  20.4669
    20.5207  20.5703  20.6021  20.6175  20.6406  20.7054  20.7246  20.7301
    20.7664  20.7746  21.1005  21.2623  21.3438  21.3912  22.0627  22.0684

          k = 0.2475 0.2475 0.2500 (  6197 PWs)   bands (ev):

   -66.9554 -66.9291 -66.9288 -66.9179 -66.9150 -66.9146 -66.9109 -66.9082
   -66.8865 -66.8838 -66.8698 -66.7613 -66.7609 -66.7540 -66.5841 -53.9766
   -33.2079 -33.1971 -33.1891 -33.1784 -33.1546 -33.1391 -33.1222 -33.1147
   -33.1053 -33.1033 -33.0850 -33.0833 -33.0705 -33.0561 -33.0472 -33.0322
   -33.0217 -33.0187 -33.0141 -33.0078 -32.9994 -32.9964 -32.9665 -32.9638
   -32.9399 -32.9061 -32.9021 -32.8748 -32.8709 -32.8641 -32.8450 -32.8427
   -32.8395 -32.8038 -32.7778 -32.7735 -32.7697 -32.7506 -32.7503 -32.7439
   -32.7429 -32.7325 -32.6405 -32.6386 -32.6360 -25.2986 -25.2958 -25.2941
    11.1357  13.3357  13.3734  13.3774  14.5239  14.5756  14.6427  15.2891
    15.2910  15.4736  15.6251  15.6264  15.7689  15.8625  15.8858  16.0496
    16.2708  16.4582  16.4658  16.6948  16.7061  16.8133  16.8312  16.8447
    16.9719  16.9938  16.9943  17.0373  17.1264  17.1719  17.5289  17.5319
    17.5591  17.6381  17.6465  17.6696  17.6976  17.7402  17.7720  17.7992
    17.8131  17.8195  17.8482  17.9294  18.1299  18.1541  18.2008  18.9023
    19.1905  19.1913  19.3248  19.3487  19.3553  19.3859  19.4277  19.7591
    19.7833  19.8293  19.8471  19.8479  19.8921  20.0204  20.0297  20.1462
    20.1939  20.2385  20.3415  20.3620  20.4264  20.4529  20.5231  20.5512
    20.5534  20.5546  20.5851  20.6057  20.6804  20.7190  20.7235  20.7286
    20.7518  20.8167  20.8300  20.8410  21.2555  21.3006  21.3040  22.8274

          k = 0.2475 0.2475-0.5000 (  6190 PWs)   bands (ev):

   -66.9455 -66.9415 -66.9264 -66.9179 -66.9161 -66.9139 -66.9115 -66.9108
   -66.8860 -66.8788 -66.8717 -66.7613 -66.7588 -66.7560 -66.5841 -53.9766
   -33.1881 -33.1841 -33.1721 -33.1476 -33.1467 -33.1390 -33.1341 -33.1169
   -33.1150 -33.0980 -33.0898 -33.0891 -33.0830 -33.0818 -33.0678 -33.0551
   -33.0337 -33.0332 -33.0018 -32.9973 -32.9949 -32.9885 -32.9820 -32.9797
   -32.9364 -32.9018 -32.8920 -32.8851 -32.8644 -32.8534 -32.8356 -32.8323
   -32.8262 -32.7983 -32.7780 -32.7729 -32.7651 -32.7601 -32.7526 -32.7464
   -32.7414 -32.7409 -32.6394 -32.6391 -32.6358 -25.2987 -25.2962 -25.2938
    12.0244  12.0354  13.9616  13.9692  13.9746  14.0250  15.1887  15.3141
    15.4885  15.6113  15.7174  15.7258  15.8740  15.9766  16.0693  16.1100
    16.1556  16.2933  16.5469  16.6098  16.6389  16.8513  16.9017  16.9881
    17.0308  17.0393  17.0581  17.0587  17.1403  17.1601  17.2741  17.2894
    17.3538  17.3701  17.4116  17.5276  17.5393  17.5447  17.5627  17.5734
    17.5998  17.6069  17.7199  17.7693  17.7698  17.8035  18.5616  18.5893
    19.3326  19.3403  19.3476  19.4494  19.6226  19.6268  19.6935  19.7335
    19.8346  19.8454  19.8701  19.8816  19.9183  20.0112  20.0471  20.1786
    20.2225  20.2561  20.4094  20.4102  20.4191  20.4296  20.4623  20.4730
    20.4943  20.4954  20.5263  20.6339  20.6705  20.7092  20.7101  20.7357
    20.7414  20.7800  20.7899  20.7910  20.8150  20.8222  22.2941  22.3260

          k = 0.2550-0.5026 0.0000 (  6192 PWs)   bands (ev):

   -66.9486 -66.9435 -66.9249 -66.9178 -66.9139 -66.9139 -66.9085 -66.9085
   -66.8888 -66.8798 -66.8716 -66.7620 -66.7586 -66.7556 -66.5841 -53.9766
   -33.2007 -33.1928 -33.1745 -33.1589 -33.1475 -33.1443 -33.1378 -33.1285
   -33.1195 -33.1177 -33.1127 -33.0881 -33.0822 -33.0632 -33.0417 -33.0321
   -33.0288 -33.0135 -33.0101 -32.9968 -32.9714 -32.9702 -32.9576 -32.9542
   -32.9452 -32.9230 -32.9030 -32.8895 -32.8743 -32.8696 -32.8446 -32.8371
   -32.8265 -32.7837 -32.7754 -32.7746 -32.7645 -32.7586 -32.7564 -32.7534
   -32.7411 -32.7345 -32.6412 -32.6376 -32.6358 -25.2986 -25.2956 -25.2942
    11.7267  11.7765  13.6334  13.7423  14.8952  14.9125  15.0560  15.0747
    15.4171  15.4388  15.5495  15.5696  15.7591  15.7753  15.8383  15.9410
    16.0199  16.2308  16.5005  16.5548  16.7481  16.8195  16.9215  16.9427
    17.0760  17.1655  17.1698  17.2003  17.2701  17.2825  17.3343  17.4010
    17.4221  17.4430  17.5435  17.5775  17.5893  17.6043  17.7095  17.7187
    17.8263  17.8347  17.8803  17.9833  17.9908  18.1081  18.8856  19.0598
    19.1541  19.2417  19.2800  19.3213  19.3866  19.5297  19.5342  19.6220
    19.6777  19.7144  19.7325  19.7379  19.7766  19.8456  20.0716  20.0999
    20.1479  20.2151  20.2863  20.2933  20.3478  20.4451  20.5378  20.5452
    20.5488  20.5692  20.5943  20.6033  20.6229  20.6549  20.6830  20.7014
    20.8367  20.9495  20.9864  21.0457  21.7089  21.7148  21.7190  21.7563

          k = 0.2550-0.5026 0.2500 (  6194 PWs)   bands (ev):

   -66.9453 -66.9409 -66.9272 -66.9182 -66.9169 -66.9152 -66.9107 -66.9097
   -66.8845 -66.8785 -66.8729 -66.7610 -66.7586 -66.7564 -66.5841 -53.9766
   -33.1944 -33.1850 -33.1795 -33.1510 -33.1445 -33.1341 -33.1292 -33.1227
   -33.1182 -33.1057 -33.0906 -33.0826 -33.0773 -33.0633 -33.0458 -33.0420
   -33.0357 -33.0266 -33.0090 -33.0001 -32.9955 -32.9930 -32.9843 -32.9827
   -32.9391 -32.9082 -32.8954 -32.8901 -32.8660 -32.8584 -32.8416 -32.8340
   -32.8266 -32.7961 -32.7764 -32.7732 -32.7653 -32.7572 -32.7527 -32.7492
   -32.7428 -32.7387 -32.6412 -32.6385 -32.6362 -25.2988 -25.2960 -25.2942
    12.0157  12.0667  13.8950  13.9280  13.9701  14.0173  15.2144  15.3718
    15.5004  15.6194  15.7315  15.7488  15.8955  15.9692  16.0613  16.1140
    16.1596  16.2839  16.5677  16.6080  16.6383  16.8745  16.8849  16.9775
    16.9932  17.0333  17.0465  17.0698  17.1412  17.1678  17.2459  17.2737
    17.2900  17.3169  17.4038  17.4984  17.5236  17.5510  17.5669  17.6007
    17.6186  17.6710  17.6954  17.7838  17.8151  17.8589  18.5805  18.6091
    19.2743  19.3369  19.3526  19.4401  19.5835  19.5867  19.6805  19.7205
    19.8398  19.8585  19.8775  19.9277  19.9456  20.0195  20.0618  20.1774
    20.2150  20.2611  20.3537  20.3952  20.4220  20.4385  20.4610  20.4912
    20.5003  20.5085  20.5356  20.6105  20.6595  20.6985  20.7006  20.7274
    20.7358  20.7689  20.7718  20.7947  20.8051  20.8132  22.3193  22.4111

          k = 0.2550-0.5026-0.5000 (  6186 PWs)   bands (ev):

   -66.9375 -66.9375 -66.9351 -66.9226 -66.9157 -66.9147 -66.9128 -66.9120
   -66.8794 -66.8777 -66.8754 -66.7591 -66.7587 -66.7580 -66.5841 -53.9766
   -33.1863 -33.1838 -33.1712 -33.1473 -33.1347 -33.1316 -33.1241 -33.1174
   -33.1131 -33.1065 -33.0837 -33.0786 -33.0574 -33.0519 -33.0422 -33.0375
   -33.0358 -33.0326 -33.0283 -33.0216 -33.0205 -33.0191 -32.9979 -32.9979
   -32.9547 -32.9017 -32.8743 -32.8702 -32.8654 -32.8645 -32.8528 -32.8231
   -32.8227 -32.7887 -32.7782 -32.7697 -32.7696 -32.7600 -32.7497 -32.7482
   -32.7442 -32.7359 -32.6406 -32.6382 -32.6358 -25.2989 -25.2959 -25.2942
    12.8080  12.8381  12.8651  12.8839  14.5636  14.5696  14.6838  14.6928
    15.6762  15.9201  16.0277  16.0331  16.0442  16.2469  16.2472  16.2861
    16.2870  16.5916  16.5948  16.6411  16.6701  16.6744  16.7230  16.7307
    16.8206  16.9040  16.9082  17.0108  17.0690  17.1224  17.1545  17.1793
    17.2288  17.2666  17.3044  17.3111  17.3578  17.3740  17.4478  17.4816
    17.5495  17.6027  17.6316  17.6550  17.8852  17.8873  17.9282  17.9326
    19.5075  19.5496  19.6729  19.7500  19.7511  19.8698  19.8730  19.8949
    19.9597  19.9719  19.9770  19.9861  20.0219  20.0298  20.0530  20.0563
    20.0639  20.1138  20.1314  20.2179  20.2864  20.3070  20.3711  20.3833
    20.4481  20.4554  20.4705  20.4768  20.5023  20.5610  20.5773  20.6156
    20.7739  20.7760  20.7788  20.8200  21.4341  21.4626  21.5134  21.5336

          k = 0.2525-0.2525 0.0000 (  6206 PWs)   bands (ev):

   -66.9585 -66.9314 -66.9271 -66.9158 -66.9134 -66.9128 -66.9096 -66.9066
   -66.8915 -66.8838 -66.8693 -66.7625 -66.7605 -66.7534 -66.5841 -53.9766
   -33.1979 -33.1929 -33.1866 -33.1727 -33.1706 -33.1685 -33.1273 -33.1199
   -33.1189 -33.1132 -33.0919 -33.0874 -33.0777 -33.0593 -33.0520 -33.0285
   -33.0107 -33.0093 -32.9969 -32.9854 -32.9846 -32.9547 -32.9539 -32.9511
   -32.9472 -32.9369 -32.9033 -32.9004 -32.8631 -32.8570 -32.8471 -32.8411
   -32.8407 -32.7960 -32.7956 -32.7870 -32.7780 -32.7499 -32.7482 -32.7468
   -32.7375 -32.7267 -32.6416 -32.6376 -32.6364 -25.2988 -25.2955 -25.2941
    10.8509  13.0701  13.0718  14.3492  14.7008  14.7225  14.9543  14.9909
    15.0445  15.0641  15.2346  15.5097  15.5293  15.7276  15.7407  16.1464
    16.2742  16.4549  16.6213  16.6515  16.7626  16.7803  16.8778  16.9288
    16.9863  16.9963  17.0400  17.1137  17.2083  17.2162  17.2734  17.6845
    17.7108  17.7387  17.8276  17.8652  17.9053  17.9225  18.0090  18.0394
    18.0468  18.0544  18.0678  18.1833  18.2270  18.4875  18.5576  18.6080
    19.0316  19.1126  19.1448  19.1605  19.2159  19.2976  19.4882  19.5377
    19.6689  19.8440  19.8932  20.0009  20.0272  20.0393  20.0737  20.0862
    20.1943  20.2770  20.2961  20.3387  20.3740  20.4119  20.4594  20.4967
    20.5393  20.5487  20.5629  20.6207  20.6408  20.7050  20.7210  20.7484
    20.8077  20.8111  20.9582  21.1817  21.3352  21.3808  22.0467  22.0623

          k = 0.2525-0.2525 0.2500 (  6206 PWs)   bands (ev):

   -66.9543 -66.9298 -66.9295 -66.9205 -66.9145 -66.9122 -66.9122 -66.9076
   -66.8854 -66.8830 -66.8708 -66.7612 -66.7605 -66.7545 -66.5841 -53.9766
   -33.1924 -33.1918 -33.1910 -33.1656 -33.1572 -33.1473 -33.1380 -33.1244
   -33.1178 -33.1030 -33.1002 -33.0737 -33.0595 -33.0522 -33.0379 -33.0336
   -33.0190 -33.0101 -33.0098 -33.0082 -33.0054 -32.9869 -32.9669 -32.9667
   -32.9428 -32.9071 -32.9052 -32.8736 -32.8705 -32.8694 -32.8489 -32.8473
   -32.8391 -32.8012 -32.7807 -32.7747 -32.7707 -32.7554 -32.7545 -32.7411
   -32.7397 -32.7346 -32.6415 -32.6391 -32.6365 -25.2987 -25.2960 -25.2941
    11.1626  13.3093  13.3160  13.3537  14.5364  14.5663  14.6490  15.2991
    15.3039  15.4922  15.6325  15.6371  15.7889  15.8755  15.8916  16.1107
    16.2654  16.4587  16.4682  16.6729  16.6827  16.8043  16.8125  16.8333
    16.9702  16.9930  17.0182  17.0477  17.1405  17.1860  17.5077  17.5147
    17.5269  17.5785  17.6284  17.6293  17.6910  17.7006  17.7178  17.7557
    17.7729  17.8269  17.8989  17.9996  18.1672  18.2127  18.2374  18.7889
    19.2434  19.2476  19.3542  19.3598  19.3755  19.3976  19.5111  19.7570
    19.7685  19.8169  19.8563  19.8658  19.9069  19.9770  20.0022  20.0969
    20.1660  20.1937  20.3464  20.3482  20.4391  20.4750  20.5241  20.5375
    20.5447  20.5464  20.5810  20.5873  20.6555  20.6923  20.7248  20.7434
    20.7560  20.8206  20.8291  20.8435  21.2607  21.2628  21.3144  22.8693

          k = 0.2525-0.2525-0.5000 (  6206 PWs)   bands (ev):

   -66.9446 -66.9410 -66.9271 -66.9198 -66.9172 -66.9155 -66.9101 -66.9098
   -66.8822 -66.8788 -66.8741 -66.7605 -66.7588 -66.7567 -66.5841 -53.9766
   -33.1932 -33.1869 -33.1839 -33.1589 -33.1559 -33.1334 -33.1237 -33.1112
   -33.1108 -33.1100 -33.0980 -33.0757 -33.0735 -33.0609 -33.0371 -33.0308
   -33.0273 -33.0263 -33.0116 -33.0007 -32.9977 -32.9939 -32.9912 -32.9875
   -32.9411 -32.9122 -32.9027 -32.8941 -32.8684 -32.8649 -32.8487 -32.8341
   -32.8274 -32.7920 -32.7761 -32.7732 -32.7656 -32.7540 -32.7521 -32.7515
   -32.7420 -32.7400 -32.6418 -32.6399 -32.6366 -25.2987 -25.2962 -25.2944
    12.0466  12.0579  13.9008  13.9093  13.9138  13.9677  15.2594  15.4125
    15.5156  15.6258  15.7489  15.7742  15.9191  15.9681  16.0334  16.1278
    16.1480  16.2684  16.5901  16.6224  16.6248  16.8765  16.9004  16.9833
    16.9899  16.9967  17.0041  17.0836  17.1353  17.1800  17.2045  17.2475
    17.2541  17.2558  17.4038  17.4987  17.5037  17.5123  17.6048  17.6203
    17.6669  17.6812  17.7439  17.7518  17.8481  17.8955  18.5787  18.6071
    19.2833  19.3030  19.3298  19.4359  19.5548  19.5580  19.6824  19.7156
    19.8433  19.8979  19.9141  19.9168  19.9410  20.0048  20.0714  20.1616
    20.2143  20.2666  20.3018  20.3757  20.4387  20.4415  20.4541  20.5081
    20.5090  20.5301  20.5356  20.6079  20.6491  20.6897  20.6969  20.7173
    20.7352  20.7573  20.7607  20.7809  20.7916  20.7959  22.4132  22.4391

          k =-0.4951-0.4951 0.0000 (  6196 PWs)   bands (ev):

   -66.9410 -66.9382 -66.9370 -66.9235 -66.9128 -66.9128 -66.9096 -66.9096
   -66.8812 -66.8777 -66.8769 -66.7594 -66.7588 -66.7578 -66.5841 -53.9766
   -33.2053 -33.1989 -33.1717 -33.1656 -33.1519 -33.1424 -33.1352 -33.1255
   -33.1170 -33.1154 -33.1118 -33.0882 -33.0480 -33.0404 -33.0322 -33.0158
   -33.0049 -32.9979 -32.9934 -32.9865 -32.9856 -32.9834 -32.9826 -32.9806
   -32.9631 -32.9613 -32.9044 -32.8983 -32.8922 -32.8878 -32.8765 -32.8299
   -32.8260 -32.7781 -32.7718 -32.7683 -32.7677 -32.7603 -32.7474 -32.7439
   -32.7364 -32.7231 -32.6423 -32.6375 -32.6368 -25.2989 -25.2958 -25.2945
    12.5043  12.5288  12.6044  12.6233  15.2718  15.2844  15.3090  15.5456
    15.5469  15.5612  15.5731  15.5870  15.7740  15.9045  15.9098  15.9999
    16.0876  16.5320  16.5941  16.5967  16.6022  16.6510  16.7863  16.7927
    16.8590  16.8597  16.9154  16.9164  16.9293  17.2719  17.2974  17.3274
    17.3482  17.3507  17.3589  17.3805  17.4036  17.4611  17.5153  17.6540
    17.7576  17.8315  17.9126  17.9608  18.4484  18.4564  18.5009  18.5237
    19.1637  19.1967  19.2911  19.2969  19.4541  19.4717  19.5248  19.5676
    19.6575  19.6888  19.8788  19.8899  19.9149  19.9489  19.9783  19.9928
    20.0212  20.0387  20.0727  20.0896  20.2985  20.3164  20.3573  20.4389
    20.4709  20.5264  20.5323  20.5478  20.5620  20.6212  20.6321  20.6542
    21.0578  21.0928  21.1457  21.1725  22.5882  22.6014  22.6046  22.6082

          k =-0.4951-0.4951 0.2500 (  6186 PWs)   bands (ev):

   -66.9386 -66.9361 -66.9359 -66.9220 -66.9160 -66.9144 -66.9136 -66.9113
   -66.8802 -66.8771 -66.8753 -66.7593 -66.7588 -66.7577 -66.5841 -53.9766
   -33.1902 -33.1854 -33.1691 -33.1478 -33.1333 -33.1318 -33.1258 -33.1143
   -33.1041 -33.1033 -33.0969 -33.0722 -33.0610 -33.0469 -33.0457 -33.0431
   -33.0430 -33.0343 -33.0286 -33.0179 -33.0158 -33.0110 -33.0091 -32.9918
   -32.9550 -32.9012 -32.8737 -32.8696 -32.8685 -32.8617 -32.8510 -32.8243
   -32.8234 -32.7892 -32.7782 -32.7725 -32.7673 -32.7592 -32.7502 -32.7484
   -32.7450 -32.7347 -32.6403 -32.6383 -32.6360 -25.2988 -25.2960 -25.2941
    12.7921  12.8091  12.8930  12.9005  14.5663  14.6266  14.6276  14.6905
    15.6723  15.9219  16.0289  16.0337  16.0468  16.2028  16.2728  16.2858
    16.2913  16.5527  16.6346  16.6347  16.6366  16.7056  16.7236  16.7261
    16.8402  16.8895  16.9260  17.0089  17.0673  17.1428  17.1549  17.1757
    17.2443  17.2652  17.2854  17.2899  17.3384  17.3866  17.4017  17.5317
    17.5448  17.5978  17.6345  17.6490  17.8732  17.9005  17.9200  17.9449
    19.5026  19.5509  19.6751  19.7467  19.7513  19.8507  19.8821  19.8978
    19.9360  19.9362  19.9821  19.9894  20.0013  20.0265  20.0699  20.0821
    20.0985  20.1228  20.1624  20.1985  20.2965  20.3037  20.3504  20.3973
    20.4395  20.4722  20.4728  20.4744  20.5108  20.5568  20.5879  20.6089
    20.7518  20.7686  20.8073  20.8340  21.4468  21.4678  21.5007  21.5059

          k =-0.4951-0.4951-0.5000 (  6136 PWs)   bands (ev):

   -66.9352 -66.9345 -66.9332 -66.9198 -66.9197 -66.9182 -66.9161 -66.9136
   -66.8793 -66.8766 -66.8740 -66.7593 -66.7587 -66.7577 -66.5840 -53.9765
   -33.1738 -33.1679 -33.1606 -33.1242 -33.1077 -33.1016 -33.0960 -33.0939
   -33.0921 -33.0882 -33.0864 -33.0833 -33.0782 -33.0754 -33.0682 -33.0615
   -33.0584 -33.0523 -33.0499 -33.0497 -33.0386 -33.0316 -33.0165 -33.0099
   -32.9439 -32.8691 -32.8665 -32.8415 -32.8413 -32.8404 -32.8125 -32.8101
   -32.8093 -32.8061 -32.7807 -32.7799 -32.7789 -32.7566 -32.7560 -32.7557
   -32.7530 -32.7502 -32.6377 -32.6369 -32.6343 -25.2983 -25.2955 -25.2938
    13.5553  13.5799  13.5850  13.5975  13.6363  13.6693  13.6807  13.6986
    15.9395  15.9405  16.2858  16.3038  16.3126  16.6548  16.6636  16.6654
    16.6758  16.6963  16.7445  16.7493  16.7635  16.7648  16.7734  16.7863
    16.8056  16.8232  16.8416  17.1044  17.1113  17.1748  17.1825  17.1825
    17.2037  17.2059  17.2135  17.2336  17.2439  17.2527  17.2686  17.2707
    17.2854  17.2902  17.2977  17.2999  17.3096  17.3181  17.3222  17.3456
    19.6585  19.6615  20.0745  20.0794  20.0825  20.1902  20.2098  20.2108
    20.2184  20.2239  20.2455  20.2547  20.2723  20.2734  20.2805  20.2843
    20.2859  20.2924  20.3008  20.3060  20.3106  20.3144  20.3148  20.3227
    20.3246  20.3308  20.3331  20.3559  20.3632  20.3852  20.3937  20.4014
    20.6636  20.6649  20.6678  20.6760  20.7009  20.7123  20.7200  20.7238

     the Fermi energy is    18.7503 ev

!    total energy              =   -5186.29943020 Ry
     total all-electron energy =    -40284.280105 Ry
     estimated scf accuracy    <       0.00000069 Ry
     smearing contrib. (-TS)   =       0.00443518 Ry
     internal energy E=F+TS    =   -5186.30386538 Ry

     The total energy is F=E-TS. E is the sum of the following terms:
     one-electron contribution =   -1687.46012399 Ry
     hartree contribution      =    1006.49125471 Ry
     xc contribution           =    -438.67648812 Ry
     ewald contribution        =   -2750.76300201 Ry
     one-center paw contrib.   =   -1315.89550597 Ry

     total magnetization       =    31.02 Bohr mag/cell
     absolute magnetization    =    36.03 Bohr mag/cell

     convergence has been achieved in  39 iterations


     Computing stress (Cartesian axis) and pressure


     negative rho (up, down):  0.000E+00 3.080E-03
          total   stress  (Ry/bohr**3)                   (kbar)     P=     -825.26
  -0.00561217  -0.00018588   0.00000000         -825.58      -27.34        0.00
  -0.00018588  -0.00561217   0.00000000          -27.34     -825.58        0.00
   0.00000000   0.00000000  -0.00560558            0.00        0.00     -824.61


     Writing all to output data dir ./tmp/fe15cr01_shear_0.01.save/ :
     XML data file, charge density, pseudopotentials, collected wavefunctions

     init_run     :     71.49s CPU     73.13s WALL (       1 calls)
     electrons    :   8642.40s CPU   8827.31s WALL (       1 calls)
     stress       :    159.73s CPU    161.39s WALL (       1 calls)

     Called by init_run:
     wfcinit      :     66.46s CPU     66.77s WALL (       1 calls)
     potinit      :      3.25s CPU      4.07s WALL (       1 calls)
     hinit0       :      0.78s CPU      0.87s WALL (       1 calls)

     Called by electrons:
     c_bands      :   7802.10s CPU   7921.95s WALL (      39 calls)
     sum_band     :    676.73s CPU    703.17s WALL (      39 calls)
     v_of_rho     :      9.21s CPU      8.67s WALL (      40 calls)
     newd         :     35.49s CPU     52.28s WALL (      40 calls)
     PAW_pot      :    120.26s CPU    143.49s WALL (      40 calls)
     mix_rho      :      1.64s CPU      1.82s WALL (      39 calls)

     Called by c_bands:
     init_us_2    :     23.39s CPU     23.64s WALL (    3360 calls)
     cegterg      :   7738.59s CPU   7861.95s WALL (    1638 calls)

     Called by *egterg:
     cdiaghg      :    627.99s CPU    641.19s WALL (    6376 calls)
     h_psi        :   2550.44s CPU   2614.46s WALL (    6418 calls)
     s_psi        :    949.02s CPU    960.46s WALL (    6418 calls)
     g_psi        :      2.73s CPU      2.92s WALL (    4738 calls)

     Called by h_psi:
     h_psi:calbec :    961.96s CPU    972.80s WALL (    6418 calls)
     vloc_psi     :    636.65s CPU    678.42s WALL (    6418 calls)
                                        0.00s GPU  (    6418 calls)
     add_vuspsi   :    946.60s CPU    945.00s WALL (    6418 calls)

     General routines
     calbec       :   1559.05s CPU   1575.09s WALL (    8602 calls)
     fft          :      5.73s CPU      5.11s WALL (    1019 calls)
     ffts         :      0.26s CPU      0.29s WALL (     158 calls)
     fftw         :    729.95s CPU    776.34s WALL ( 1318252 calls)
     interpolate  :      0.62s CPU      0.70s WALL (      80 calls)

     Parallel routines

     PWSCF        :      2h27m CPU      2h31m WALL


   This run was terminated on:  14:48:28  24Apr2026            

=------------------------------------------------------------------------------=
   JOB DONE.
=------------------------------------------------------------------------------=
Note: The following floating-point exceptions are signalling: IEEE_DENORMAL
Note: The following floating-point exceptions are signalling: IEEE_DENORMAL
