
     Program PWSCF v.7.5 starts on 24Apr2026 at  8:57:13 

     This program is part of the open-source Quantum ESPRESSO suite
     for quantum simulation of materials; please cite
         "P. Giannozzi et al., J. Phys.:Condens. Matter 21 395502 (2009);
         "P. Giannozzi et al., J. Phys.:Condens. Matter 29 465901 (2017);
         "P. Giannozzi et al., J. Chem. Phys. 152 154105 (2020);
          URL http://www.quantum-espresso.org", 
     in publications or presentations arising from this work. More details at
     http://www.quantum-espresso.org/quote

     Parallel version (MPI), running on     4 processors

     MPI processes distributed on     1 nodes
     787 MiB available memory on the printing compute node when the environment starts

     Waiting for input...
     Reading input from standard input

     Current dimensions of program PWSCF are:
     Max number of different atomic species (ntypx) = 10
     Max number of k-points (npk) =  40000
     Max angular momentum in pseudopotentials (lmaxx) =  4
     file Fe.pbe-spn-kjpaw_psl.1.0.0.UPF: wavefunction(s)  3P 3D renormalized
     file Cr.pbe-spn-kjpaw_psl.1.0.0.UPF: wavefunction(s)  3S 3P 3D renormalized
     Message from routine setup:
     using ibrav=0 with symmetry is DISCOURAGED, use correct ibrav instead

     R & G space division:  proc/nbgrp/npool/nimage =       4
     Subspace diagonalization in iterative solution of the eigenvalue problem:
     one sub-group per band group will be used
     custom distributed-memory algorithm (size of sub-group:  2*  2 procs)


     Parallelization info
     --------------------
     sticks:   dense  smooth     PW     G-vecs:    dense   smooth      PW
     Min         818     406    119                35054    12376    1939
     Max         819     407    120                35055    12381    1942
     Sum        3275    1627    477               140219    49519    7761

     Using Slab Decomposition



     bravais-lattice index     =            0
     lattice parameter (alat)  =      10.6732  a.u.
     unit-cell volume          =    1215.5488 (a.u.)^3
     number of atoms/cell      =           16
     number of atomic types    =            2
     number of electrons       =       254.00
     number of Kohn-Sham states=          152
     kinetic-energy cutoff     =      45.0000  Ry
     charge density cutoff     =     360.0000  Ry
     scf convergence threshold =      1.0E-06
     mixing beta               =       0.3000
     number of iterations used =            8  plain     mixing
     Exchange-correlation= SLA  PW   PBX  PBC
                           (   1   4   3   4   0   0   0)

     celldm(1)=  10.673176  celldm(2)=   0.000000  celldm(3)=   0.000000
     celldm(4)=   0.000000  celldm(5)=   0.000000  celldm(6)=   0.000000

     crystal axes: (cart. coord. in units of alat)
               a(1) = (   0.999950  -0.009999   0.000000 )  
               a(2) = (  -0.009999   0.999950   0.000000 )  
               a(3) = (   0.000000   0.000000   0.999950 )  

     reciprocal axes: (cart. coord. in units 2 pi/alat)
               b(1) = (  1.000150  0.010001 -0.000000 )  
               b(2) = (  0.010001  1.000150 -0.000000 )  
               b(3) = ( -0.000000 -0.000000  1.000050 )  


     PseudoPot. # 1 for Fe read from file:
     ./pseudo/Fe.pbe-spn-kjpaw_psl.1.0.0.UPF
     MD5 check sum: fc81f059e5c5069939230b1155715ae8
     Pseudo is Projector augmented-wave + core cor, Zval = 16.0
     Generated using &quot;atomic&quot; code by A. Dal Corso  v.6.3
     Shape of augmentation charge: PSQ
     Using radial grid of 1191 points,  6 beta functions with: 
                l(1) =   0
                l(2) =   0
                l(3) =   1
                l(4) =   1
                l(5) =   2
                l(6) =   2
     Q(r) pseudized with 0 coefficients 


     PseudoPot. # 2 for Cr read from file:
     ./pseudo/Cr.pbe-spn-kjpaw_psl.1.0.0.UPF
     MD5 check sum: 198f1a2427a48552563eee314eba32ba
     Pseudo is Projector augmented-wave + core cor, Zval = 14.0
     Generated using &quot;atomic&quot; code by A. Dal Corso  v.6.3
     Shape of augmentation charge: PSQ
     Using radial grid of 1183 points,  6 beta functions with: 
                l(1) =   0
                l(2) =   0
                l(3) =   1
                l(4) =   1
                l(5) =   2
                l(6) =   2
     Q(r) pseudized with 0 coefficients 


     atomic species   valence    mass     pseudopotential
     Fe               16.00    55.84500     Fe( 1.00)
     Cr               14.00    51.99600     Cr( 1.00)

     Starting magnetic structure 
     atomic species   magnetization
     Fe              0.500
     Cr              0.300

      8 Sym. Ops., with inversion, found



   Cartesian axes

     site n.     atom                  positions (alat units)
         1        Cr     tau(   1) = (   0.0000000   0.0000000   0.0000000  )
         2        Fe     tau(   2) = (   0.2474876   0.2474876   0.2499875  )
         3        Fe     tau(   3) = (   0.0000000   0.0000000   0.4999750  )
         4        Fe     tau(   4) = (   0.2474876   0.2474876   0.7499625  )
         5        Fe     tau(   5) = (  -0.0049997   0.4999750   0.0000000  )
         6        Fe     tau(   6) = (   0.2424879   0.7474626   0.2499875  )
         7        Fe     tau(   7) = (  -0.0049997   0.4999750   0.4999750  )
         8        Fe     tau(   8) = (   0.2424879   0.7474626   0.7499625  )
         9        Fe     tau(   9) = (   0.4999750  -0.0049997   0.0000000  )
        10        Fe     tau(  10) = (   0.7474626   0.2424879   0.2499875  )
        11        Fe     tau(  11) = (   0.4999750  -0.0049997   0.4999750  )
        12        Fe     tau(  12) = (   0.7474626   0.2424879   0.7499625  )
        13        Fe     tau(  13) = (   0.4949753   0.4949753   0.0000000  )
        14        Fe     tau(  14) = (   0.7424629   0.7424629   0.2499875  )
        15        Fe     tau(  15) = (   0.4949753   0.4949753   0.4999750  )
        16        Fe     tau(  16) = (   0.7424629   0.7424629   0.7499625  )

     number of k points=    21  Marzari-Vanderbilt smearing, width (Ry)=  0.0200
                       cart. coord. in units 2pi/alat
        k(    1) = (   0.0000000   0.0000000   0.0000000), wk =   0.0156250
        k(    2) = (   0.0000000   0.0000000   0.2500125), wk =   0.0312500
        k(    3) = (   0.0000000   0.0000000  -0.5000250), wk =   0.0156250
        k(    4) = (   0.0025004   0.2500375   0.0000000), wk =   0.0625000
        k(    5) = (   0.0025004   0.2500375   0.2500125), wk =   0.1250000
        k(    6) = (   0.0025004   0.2500375  -0.5000250), wk =   0.0625000
        k(    7) = (  -0.0050007  -0.5000750   0.0000000), wk =   0.0312500
        k(    8) = (  -0.0050007  -0.5000750   0.2500125), wk =   0.0625000
        k(    9) = (  -0.0050007  -0.5000750  -0.5000250), wk =   0.0312500
        k(   10) = (   0.2525379   0.2525379   0.0000000), wk =   0.0312500
        k(   11) = (   0.2525379   0.2525379   0.2500125), wk =   0.0625000
        k(   12) = (   0.2525379   0.2525379  -0.5000250), wk =   0.0312500
        k(   13) = (   0.2450368  -0.4975746   0.0000000), wk =   0.0625000
        k(   14) = (   0.2450368  -0.4975746   0.2500125), wk =   0.1250000
        k(   15) = (   0.2450368  -0.4975746  -0.5000250), wk =   0.0625000
        k(   16) = (   0.2475371  -0.2475371   0.0000000), wk =   0.0312500
        k(   17) = (   0.2475371  -0.2475371   0.2500125), wk =   0.0625000
        k(   18) = (   0.2475371  -0.2475371  -0.5000250), wk =   0.0312500
        k(   19) = (  -0.5050757  -0.5050757   0.0000000), wk =   0.0156250
        k(   20) = (  -0.5050757  -0.5050757   0.2500125), wk =   0.0312500
        k(   21) = (  -0.5050757  -0.5050757  -0.5000250), wk =   0.0156250

     Dense  grid:   140219 G-vectors     FFT dimensions: (  72,  72,  72)

     Smooth grid:    49519 G-vectors     FFT dimensions: (  45,  45,  45)

     Estimated max dynamical RAM per process >     308.79 MB

     Estimated total dynamical RAM >       1.21 GB

     Check: negative core charge=   -0.000004
     Generating pointlists ...
     new r_m :   0.1774 (alat units)  1.8936 (a.u.) for type    1
     new r_m :   0.1774 (alat units)  1.8936 (a.u.) for type    2

     Initial potential from superposition of free atoms

     starting charge     253.9927, renormalised to     254.0000
     Starting wfcs are  160 randomized atomic wfcs
     Checking if some PAW data can be deallocated... 

     total cpu time spent up to now is       72.6 secs

     Self-consistent Calculation

     iteration #  1     ecut=    45.00 Ry     beta= 0.30
     Davidson diagonalization with overlap
     ethr =  1.00E-02,  avg # of iterations =  3.0

     total cpu time spent up to now is      338.2 secs

     total energy              =   -5181.11092553 Ry
     estimated scf accuracy    <      11.56107106 Ry

     total magnetization       =    49.98 Bohr mag/cell
     absolute magnetization    =    52.09 Bohr mag/cell

     iteration #  2     ecut=    45.00 Ry     beta= 0.30
     Davidson diagonalization with overlap
     ethr =  4.55E-03,  avg # of iterations =  6.7

     total cpu time spent up to now is      583.3 secs

     total energy              =   -5182.20825083 Ry
     estimated scf accuracy    <      22.73008400 Ry

     total magnetization       =    44.04 Bohr mag/cell
     absolute magnetization    =    45.63 Bohr mag/cell

     iteration #  3     ecut=    45.00 Ry     beta= 0.30
     Davidson diagonalization with overlap
     ethr =  4.55E-03,  avg # of iterations =  3.7

     negative rho (up, down):  0.000E+00 9.711E-04

     total cpu time spent up to now is      810.6 secs

     total energy              =   -5182.97379995 Ry
     estimated scf accuracy    <       7.77195000 Ry

     total magnetization       =    45.57 Bohr mag/cell
     absolute magnetization    =    47.28 Bohr mag/cell

     iteration #  4     ecut=    45.00 Ry     beta= 0.30
     Davidson diagonalization with overlap
     ethr =  3.06E-03,  avg # of iterations =  5.6

     negative rho (up, down):  0.000E+00 8.535E-03

     total cpu time spent up to now is     1064.1 secs

     total energy              =   -5186.24515952 Ry
     estimated scf accuracy    <      12.88649962 Ry

     total magnetization       =    48.12 Bohr mag/cell
     absolute magnetization    =    49.65 Bohr mag/cell

     iteration #  5     ecut=    45.00 Ry     beta= 0.30
     Davidson diagonalization with overlap
     ethr =  3.06E-03,  avg # of iterations =  3.2

     negative rho (up, down):  0.000E+00 8.624E-03

     total cpu time spent up to now is     1295.7 secs

     total energy              =   -5186.59079143 Ry
     estimated scf accuracy    <      23.12741993 Ry

     total magnetization       =    38.75 Bohr mag/cell
     absolute magnetization    =    41.14 Bohr mag/cell

     iteration #  6     ecut=    45.00 Ry     beta= 0.30
     Davidson diagonalization with overlap
     ethr =  3.06E-03,  avg # of iterations =  1.0

     negative rho (up, down):  0.000E+00 8.321E-03

     total cpu time spent up to now is     1480.4 secs

     total energy              =   -5186.35807784 Ry
     estimated scf accuracy    <      13.35415237 Ry

     total magnetization       =    38.87 Bohr mag/cell
     absolute magnetization    =    41.04 Bohr mag/cell

     iteration #  7     ecut=    45.00 Ry     beta= 0.30
     Davidson diagonalization with overlap
     ethr =  3.06E-03,  avg # of iterations =  1.0

     negative rho (up, down):  0.000E+00 7.663E-03

     total cpu time spent up to now is     1666.4 secs

     total energy              =   -5185.98389522 Ry
     estimated scf accuracy    <       7.30766625 Ry

     total magnetization       =    37.87 Bohr mag/cell
     absolute magnetization    =    40.15 Bohr mag/cell

     iteration #  8     ecut=    45.00 Ry     beta= 0.30
     Davidson diagonalization with overlap
     ethr =  2.88E-03,  avg # of iterations =  1.5

     negative rho (up, down):  0.000E+00 7.095E-03

     total cpu time spent up to now is     1868.0 secs

     total energy              =   -5186.22367952 Ry
     estimated scf accuracy    <       0.24602826 Ry

     total magnetization       =    34.36 Bohr mag/cell
     absolute magnetization    =    37.62 Bohr mag/cell

     iteration #  9     ecut=    45.00 Ry     beta= 0.30
     Davidson diagonalization with overlap
     ethr =  9.69E-05,  avg # of iterations =  4.6

     negative rho (up, down):  0.000E+00 6.152E-03

     total cpu time spent up to now is     2107.6 secs

     total energy              =   -5186.23331859 Ry
     estimated scf accuracy    <       0.52844370 Ry

     total magnetization       =    32.98 Bohr mag/cell
     absolute magnetization    =    36.73 Bohr mag/cell

     iteration # 10     ecut=    45.00 Ry     beta= 0.30
     Davidson diagonalization with overlap
     ethr =  9.69E-05,  avg # of iterations =  3.2

     negative rho (up, down):  0.000E+00 5.954E-03

     total cpu time spent up to now is     2331.1 secs

     total energy              =   -5186.25645139 Ry
     estimated scf accuracy    <       0.34630793 Ry

     total magnetization       =    32.23 Bohr mag/cell
     absolute magnetization    =    35.67 Bohr mag/cell

     iteration # 11     ecut=    45.00 Ry     beta= 0.30
     Davidson diagonalization with overlap
     ethr =  9.69E-05,  avg # of iterations =  2.6

     negative rho (up, down):  0.000E+00 5.553E-03

     total cpu time spent up to now is     2546.7 secs

     total energy              =   -5186.25128376 Ry
     estimated scf accuracy    <       0.47848211 Ry

     total magnetization       =    32.43 Bohr mag/cell
     absolute magnetization    =    35.44 Bohr mag/cell

     iteration # 12     ecut=    45.00 Ry     beta= 0.30
     Davidson diagonalization with overlap
     ethr =  9.69E-05,  avg # of iterations =  1.9

     negative rho (up, down):  0.000E+00 5.034E-03

     total cpu time spent up to now is     2750.2 secs

     total energy              =   -5186.27711922 Ry
     estimated scf accuracy    <       0.04424880 Ry

     total magnetization       =    31.84 Bohr mag/cell
     absolute magnetization    =    35.55 Bohr mag/cell

     iteration # 13     ecut=    45.00 Ry     beta= 0.30
     Davidson diagonalization with overlap
     ethr =  1.74E-05,  avg # of iterations =  4.1

     negative rho (up, down):  0.000E+00 4.118E-03

     total cpu time spent up to now is     2979.8 secs

     total energy              =   -5186.28389290 Ry
     estimated scf accuracy    <       0.09433961 Ry

     total magnetization       =    31.56 Bohr mag/cell
     absolute magnetization    =    35.38 Bohr mag/cell

     iteration # 14     ecut=    45.00 Ry     beta= 0.30
     Davidson diagonalization with overlap
     ethr =  1.74E-05,  avg # of iterations =  2.1

     negative rho (up, down):  0.000E+00 3.422E-03

     total cpu time spent up to now is     3189.2 secs

     total energy              =   -5186.29240992 Ry
     estimated scf accuracy    <       0.02982798 Ry

     total magnetization       =    31.08 Bohr mag/cell
     absolute magnetization    =    35.07 Bohr mag/cell

     iteration # 15     ecut=    45.00 Ry     beta= 0.30
     Davidson diagonalization with overlap
     ethr =  1.17E-05,  avg # of iterations =  2.7

     negative rho (up, down):  0.000E+00 3.246E-03

     total cpu time spent up to now is     3405.2 secs

     total energy              =   -5186.29308226 Ry
     estimated scf accuracy    <       0.02200167 Ry

     total magnetization       =    31.12 Bohr mag/cell
     absolute magnetization    =    35.17 Bohr mag/cell

     iteration # 16     ecut=    45.00 Ry     beta= 0.30
     Davidson diagonalization with overlap
     ethr =  8.66E-06,  avg # of iterations =  2.4

     negative rho (up, down):  0.000E+00 3.244E-03

     total cpu time spent up to now is     3621.2 secs

     total energy              =   -5186.29242342 Ry
     estimated scf accuracy    <       0.02757574 Ry

     total magnetization       =    31.11 Bohr mag/cell
     absolute magnetization    =    35.20 Bohr mag/cell

     iteration # 17     ecut=    45.00 Ry     beta= 0.30
     Davidson diagonalization with overlap
     ethr =  8.66E-06,  avg # of iterations =  1.6

     negative rho (up, down):  0.000E+00 2.929E-03

     total cpu time spent up to now is     3821.2 secs

     total energy              =   -5186.29524232 Ry
     estimated scf accuracy    <       0.01736021 Ry

     total magnetization       =    30.96 Bohr mag/cell
     absolute magnetization    =    35.02 Bohr mag/cell

     iteration # 18     ecut=    45.00 Ry     beta= 0.30
     Davidson diagonalization with overlap
     ethr =  6.83E-06,  avg # of iterations =  1.5

     negative rho (up, down):  0.000E+00 2.813E-03

     total cpu time spent up to now is     4020.5 secs

     total energy              =   -5186.29690714 Ry
     estimated scf accuracy    <       0.00210330 Ry

     total magnetization       =    31.02 Bohr mag/cell
     absolute magnetization    =    35.20 Bohr mag/cell

     iteration # 19     ecut=    45.00 Ry     beta= 0.30
     Davidson diagonalization with overlap
     ethr =  8.28E-07,  avg # of iterations =  6.5

     negative rho (up, down):  0.000E+00 2.838E-03

     total cpu time spent up to now is     4292.4 secs

     total energy              =   -5186.29693130 Ry
     estimated scf accuracy    <       0.00976995 Ry

     total magnetization       =    30.99 Bohr mag/cell
     absolute magnetization    =    35.28 Bohr mag/cell

     iteration # 20     ecut=    45.00 Ry     beta= 0.30
     Davidson diagonalization with overlap
     ethr =  8.28E-07,  avg # of iterations =  2.8

     negative rho (up, down):  0.000E+00 2.832E-03

     total cpu time spent up to now is     4515.4 secs

     total energy              =   -5186.29751712 Ry
     estimated scf accuracy    <       0.00282331 Ry

     total magnetization       =    31.01 Bohr mag/cell
     absolute magnetization    =    35.30 Bohr mag/cell

     iteration # 21     ecut=    45.00 Ry     beta= 0.30
     Davidson diagonalization with overlap
     ethr =  8.28E-07,  avg # of iterations =  1.2

     negative rho (up, down):  0.000E+00 2.691E-03

     total cpu time spent up to now is     4705.7 secs

     total energy              =   -5186.29801097 Ry
     estimated scf accuracy    <       0.00162897 Ry

     total magnetization       =    31.02 Bohr mag/cell
     absolute magnetization    =    35.35 Bohr mag/cell

     iteration # 22     ecut=    45.00 Ry     beta= 0.30
     Davidson diagonalization with overlap
     ethr =  6.41E-07,  avg # of iterations =  3.6

     negative rho (up, down):  0.000E+00 2.858E-03

     total cpu time spent up to now is     4942.6 secs

     total energy              =   -5186.29861694 Ry
     estimated scf accuracy    <       0.00048256 Ry

     total magnetization       =    30.98 Bohr mag/cell
     absolute magnetization    =    35.48 Bohr mag/cell

     iteration # 23     ecut=    45.00 Ry     beta= 0.30
     Davidson diagonalization with overlap
     ethr =  1.90E-07,  avg # of iterations =  5.7

     negative rho (up, down):  0.000E+00 2.901E-03

     total cpu time spent up to now is     5224.3 secs

     total energy              =   -5186.29873222 Ry
     estimated scf accuracy    <       0.00085746 Ry

     total magnetization       =    30.97 Bohr mag/cell
     absolute magnetization    =    35.68 Bohr mag/cell

     iteration # 24     ecut=    45.00 Ry     beta= 0.30
     Davidson diagonalization with overlap
     ethr =  1.90E-07,  avg # of iterations =  3.0

     negative rho (up, down):  0.000E+00 2.834E-03

     total cpu time spent up to now is     5461.2 secs

     total energy              =   -5186.29884333 Ry
     estimated scf accuracy    <       0.00180487 Ry

     total magnetization       =    30.98 Bohr mag/cell
     absolute magnetization    =    35.62 Bohr mag/cell

     iteration # 25     ecut=    45.00 Ry     beta= 0.30
     Davidson diagonalization with overlap
     ethr =  1.90E-07,  avg # of iterations =  2.9

     negative rho (up, down):  0.000E+00 3.031E-03

     total cpu time spent up to now is     5699.5 secs

     total energy              =   -5186.29916729 Ry
     estimated scf accuracy    <       0.00090073 Ry

     total magnetization       =    30.97 Bohr mag/cell
     absolute magnetization    =    35.71 Bohr mag/cell

     iteration # 26     ecut=    45.00 Ry     beta= 0.30
     Davidson diagonalization with overlap
     ethr =  1.90E-07,  avg # of iterations =  3.4

     negative rho (up, down):  0.000E+00 3.045E-03

     total cpu time spent up to now is     5936.4 secs

     total energy              =   -5186.29934397 Ry
     estimated scf accuracy    <       0.00008382 Ry

     total magnetization       =    30.97 Bohr mag/cell
     absolute magnetization    =    35.83 Bohr mag/cell

     iteration # 27     ecut=    45.00 Ry     beta= 0.30
     Davidson diagonalization with overlap
     ethr =  3.30E-08,  avg # of iterations =  5.0

     negative rho (up, down):  0.000E+00 3.073E-03

     total cpu time spent up to now is     6214.2 secs

     total energy              =   -5186.29937957 Ry
     estimated scf accuracy    <       0.00008729 Ry

     total magnetization       =    30.98 Bohr mag/cell
     absolute magnetization    =    35.90 Bohr mag/cell

     iteration # 28     ecut=    45.00 Ry     beta= 0.30
     Davidson diagonalization with overlap
     ethr =  3.30E-08,  avg # of iterations =  1.6

     negative rho (up, down):  0.000E+00 3.076E-03

     total cpu time spent up to now is     6420.7 secs

     total energy              =   -5186.29939617 Ry
     estimated scf accuracy    <       0.00007548 Ry

     total magnetization       =    30.98 Bohr mag/cell
     absolute magnetization    =    35.92 Bohr mag/cell

     iteration # 29     ecut=    45.00 Ry     beta= 0.30
     Davidson diagonalization with overlap
     ethr =  2.97E-08,  avg # of iterations =  3.3

     negative rho (up, down):  0.000E+00 3.073E-03

     total cpu time spent up to now is     6656.8 secs

     total energy              =   -5186.29941531 Ry
     estimated scf accuracy    <       0.00003207 Ry

     total magnetization       =    30.99 Bohr mag/cell
     absolute magnetization    =    35.97 Bohr mag/cell

     iteration # 30     ecut=    45.00 Ry     beta= 0.30
     Davidson diagonalization with overlap
     ethr =  1.26E-08,  avg # of iterations =  2.7

     negative rho (up, down):  0.000E+00 3.067E-03

     total cpu time spent up to now is     6888.8 secs

     total energy              =   -5186.29942159 Ry
     estimated scf accuracy    <       0.00003484 Ry

     total magnetization       =    31.00 Bohr mag/cell
     absolute magnetization    =    35.99 Bohr mag/cell

     iteration # 31     ecut=    45.00 Ry     beta= 0.30
     Davidson diagonalization with overlap
     ethr =  1.26E-08,  avg # of iterations =  3.2

     negative rho (up, down):  0.000E+00 3.066E-03

     total cpu time spent up to now is     7123.6 secs

     total energy              =   -5186.29942234 Ry
     estimated scf accuracy    <       0.00002802 Ry

     total magnetization       =    31.00 Bohr mag/cell
     absolute magnetization    =    36.02 Bohr mag/cell

     iteration # 32     ecut=    45.00 Ry     beta= 0.30
     Davidson diagonalization with overlap
     ethr =  1.10E-08,  avg # of iterations =  2.1

     negative rho (up, down):  0.000E+00 3.075E-03

     total cpu time spent up to now is     7342.6 secs

     total energy              =   -5186.29942275 Ry
     estimated scf accuracy    <       0.00004537 Ry

     total magnetization       =    31.00 Bohr mag/cell
     absolute magnetization    =    36.01 Bohr mag/cell

     iteration # 33     ecut=    45.00 Ry     beta= 0.30
     Davidson diagonalization with overlap
     ethr =  1.10E-08,  avg # of iterations =  2.0

     negative rho (up, down):  0.000E+00 3.069E-03

     total cpu time spent up to now is     7556.9 secs

     total energy              =   -5186.29942698 Ry
     estimated scf accuracy    <       0.00001131 Ry

     total magnetization       =    31.00 Bohr mag/cell
     absolute magnetization    =    36.03 Bohr mag/cell

     iteration # 34     ecut=    45.00 Ry     beta= 0.30
     Davidson diagonalization with overlap
     ethr =  4.45E-09,  avg # of iterations =  3.6

     negative rho (up, down):  0.000E+00 3.067E-03

     total cpu time spent up to now is     7797.4 secs

     total energy              =   -5186.29942924 Ry
     estimated scf accuracy    <       0.00000444 Ry

     total magnetization       =    31.01 Bohr mag/cell
     absolute magnetization    =    36.04 Bohr mag/cell

     iteration # 35     ecut=    45.00 Ry     beta= 0.30
     Davidson diagonalization with overlap
     ethr =  1.75E-09,  avg # of iterations =  2.7

     negative rho (up, down):  0.000E+00 3.072E-03

     total cpu time spent up to now is     8011.2 secs

     total energy              =   -5186.29942909 Ry
     estimated scf accuracy    <       0.00000318 Ry

     total magnetization       =    31.01 Bohr mag/cell
     absolute magnetization    =    36.04 Bohr mag/cell

     iteration # 36     ecut=    45.00 Ry     beta= 0.30
     Davidson diagonalization with overlap
     ethr =  1.25E-09,  avg # of iterations =  3.2

     negative rho (up, down):  0.000E+00 3.072E-03

     total cpu time spent up to now is     8253.2 secs

     total energy              =   -5186.29942976 Ry
     estimated scf accuracy    <       0.00000447 Ry

     total magnetization       =    31.01 Bohr mag/cell
     absolute magnetization    =    36.05 Bohr mag/cell

     iteration # 37     ecut=    45.00 Ry     beta= 0.30
     Davidson diagonalization with overlap
     ethr =  1.25E-09,  avg # of iterations =  1.5

     negative rho (up, down):  0.000E+00 3.075E-03

     total cpu time spent up to now is     8455.0 secs

     total energy              =   -5186.29943036 Ry
     estimated scf accuracy    <       0.00000108 Ry

     total magnetization       =    31.01 Bohr mag/cell
     absolute magnetization    =    36.05 Bohr mag/cell

     iteration # 38     ecut=    45.00 Ry     beta= 0.30
     Davidson diagonalization with overlap
     ethr =  4.26E-10,  avg # of iterations =  2.0

     negative rho (up, down):  0.000E+00 3.081E-03

     Magnetic moment per site  (integrated on atomic sphere of radius R)
     atom   1 (R=0.177)  charge= 12.0478  magn= -1.3925
     atom   2 (R=0.177)  charge= 14.3562  magn=  2.1732
     atom   3 (R=0.177)  charge= 14.3545  magn=  2.1607
     atom   4 (R=0.177)  charge= 14.3562  magn=  2.1732
     atom   5 (R=0.177)  charge= 14.3542  magn=  2.1604
     atom   6 (R=0.177)  charge= 14.3557  magn=  2.1765
     atom   7 (R=0.177)  charge= 14.3447  magn=  2.3144
     atom   8 (R=0.177)  charge= 14.3557  magn=  2.1765
     atom   9 (R=0.177)  charge= 14.3542  magn=  2.1604
     atom  10 (R=0.177)  charge= 14.3557  magn=  2.1765
     atom  11 (R=0.177)  charge= 14.3447  magn=  2.3144
     atom  12 (R=0.177)  charge= 14.3557  magn=  2.1765
     atom  13 (R=0.177)  charge= 14.3446  magn=  2.3131
     atom  14 (R=0.177)  charge= 14.3562  magn=  2.1732
     atom  15 (R=0.177)  charge= 14.3486  magn=  2.4979
     atom  16 (R=0.177)  charge= 14.3562  magn=  2.1732

     total cpu time spent up to now is     8664.6 secs

     End of self-consistent calculation

 ------ SPIN UP ------------


          k = 0.0000 0.0000 0.0000 (  6177 PWs)   bands (ev):

   -69.5842 -69.5425 -69.5164 -69.5162 -69.5024 -69.5021 -69.5018 -69.4966
   -69.4961 -69.4960 -69.4905 -69.4859 -69.4598 -69.4595 -69.4279 -52.5064
   -35.7531 -35.7514 -35.7499 -35.7381 -35.7363 -35.7344 -35.6389 -35.6261
   -35.6183 -35.5931 -35.5537 -35.5461 -35.5430 -35.5347 -35.5344 -35.5340
   -35.5330 -35.5320 -35.5257 -35.5246 -35.5168 -35.5159 -35.4991 -35.4941
   -35.4912 -35.4908 -35.4850 -35.4836 -35.4686 -35.4678 -35.4671 -35.4653
   -35.4652 -35.4652 -35.4608 -35.4601 -35.3905 -35.3883 -35.3870 -35.3271
   -35.3171 -35.3079 -35.3053 -35.2985 -35.2974 -23.8541 -23.8455 -23.8381
    10.0973  13.6649  13.6728  13.6730  13.6839  13.6924  13.6935  13.7641
    13.7734  13.9024  13.9026  13.9045  13.9332  13.9340  14.0521  15.2086
    15.2323  15.2426  15.2627  15.2679  15.2821  15.3788  15.3882  15.4613
    15.4899  15.5004  15.5508  15.5624  15.5651  15.5687  15.6029  15.7670
    15.7690  16.2980  16.3893  16.4612  16.7501  16.7523  16.7537  16.7670
    16.7680  16.7765  16.7776  16.7811  16.7822  17.0546  17.0661  17.0671
    17.4746  17.5395  17.5476  17.5684  17.5768  17.6115  17.6315  17.6359
    17.6647  17.7060  17.7085  17.7501  17.7770  17.7805  17.8059  17.8295
    17.8320  17.8577  17.8670  17.9493  17.9532  17.9535  18.4852  18.4915
    18.8587  18.8690  18.8760  18.8867  18.9112  18.9227  18.9904  19.0009
    19.0357  19.0528  19.0639  19.0954  19.0973  19.1250  19.1683  19.3089

          k = 0.0000 0.0000 0.2500 (  6205 PWs)   bands (ev):

   -69.5804 -69.5429 -69.5278 -69.5164 -69.5015 -69.5009 -69.4993 -69.4975
   -69.4969 -69.4941 -69.4916 -69.4835 -69.4596 -69.4545 -69.4316 -52.5065
   -35.7404 -35.7395 -35.7374 -35.7197 -35.7179 -35.7177 -35.6462 -35.6370
   -35.6230 -35.6100 -35.6094 -35.5972 -35.5902 -35.5827 -35.5796 -35.5792
   -35.5490 -35.5418 -35.5344 -35.5311 -35.5215 -35.5017 -35.4961 -35.4874
   -35.4775 -35.4659 -35.4655 -35.4647 -35.4643 -35.4604 -35.4592 -35.4265
   -35.4231 -35.4223 -35.4142 -35.4139 -35.3976 -35.3945 -35.3939 -35.3364
   -35.3340 -35.3220 -35.3187 -35.3161 -35.3131 -23.8545 -23.8461 -23.8385
    10.4251  12.6820  13.7559  13.7568  13.7745  13.7796  13.8898  13.8911
    13.8990  13.9125  13.9892  13.9900  14.0291  14.0899  14.4248  14.9145
    15.1032  15.1271  15.1785  15.1829  15.2482  15.2790  15.3723  15.4192
    15.4242  15.4782  15.5613  15.5633  15.6013  15.7415  15.8234  15.9473
    16.2908  16.3377  16.3496  16.3794  16.3829  16.3922  16.4649  16.5444
    16.6122  16.6351  16.9868  17.0377  17.0456  17.0483  17.0651  17.0850
    17.0861  17.1631  17.2449  17.3377  17.3733  17.4406  17.5826  17.5827
    17.6496  17.6583  17.6649  17.6911  17.7288  17.7436  17.7649  17.8114
    17.8172  17.8320  17.8322  17.9878  18.0092  18.0446  18.1594  18.2078
    18.2081  18.4940  18.6654  18.6691  18.7638  18.8070  18.9363  18.9631
    18.9642  19.1541  19.1651  19.2072  19.2289  19.5716  19.6290  19.8756

          k = 0.0000 0.0000-0.5000 (  6210 PWs)   bands (ev):

   -69.5756 -69.5444 -69.5361 -69.5163 -69.4995 -69.4995 -69.4990 -69.4989
   -69.4981 -69.4940 -69.4918 -69.4816 -69.4597 -69.4454 -69.4387 -52.5065
   -35.7266 -35.7243 -35.7176 -35.6786 -35.6721 -35.6719 -35.6711 -35.6707
   -35.6667 -35.6514 -35.6395 -35.6348 -35.6300 -35.6028 -35.5930 -35.5919
   -35.5642 -35.5582 -35.5389 -35.5343 -35.5245 -35.4978 -35.4947 -35.4785
   -35.4769 -35.4620 -35.4619 -35.4483 -35.4411 -35.4351 -35.4309 -35.4211
   -35.4153 -35.3889 -35.3808 -35.3764 -35.3742 -35.3695 -35.3683 -35.3611
   -35.3572 -35.3562 -35.3437 -35.3427 -35.3384 -23.8542 -23.8465 -23.8388
    11.3207  11.3825  13.9177  13.9313  13.9321  13.9401  13.9635  13.9648
    14.0033  14.0591  14.1930  14.2562  14.2604  14.3621  14.4390  14.4494
    14.5118  14.5129  15.1478  15.1526  15.2349  15.2352  15.7482  15.7485
    15.7525  15.7599  15.7760  15.8471  15.8632  16.0010  16.0073  16.0105
    16.0190  16.0197  16.0300  16.0305  16.0452  16.3071  16.4137  16.4316
    16.4561  16.4697  16.5136  16.6782  16.6930  16.6934  16.8140  16.8811
    16.9699  17.0603  17.3514  17.3538  17.3541  17.3684  17.3698  17.5266
    17.5267  17.5326  17.7110  17.7658  17.7738  17.7959  17.8072  17.8209
    17.8231  17.8302  17.8317  17.9544  18.1247  18.1906  18.4020  18.4889
    18.5270  18.5271  18.5273  18.5276  18.5313  18.5785  18.5850  19.0208
    19.0609  19.1426  19.1864  19.1866  19.1926  19.5610  19.6060  19.7930

          k = 0.0025 0.2500 0.0000 (  6191 PWs)   bands (ev):

   -69.5805 -69.5431 -69.5278 -69.5162 -69.5012 -69.5012 -69.4989 -69.4973
   -69.4961 -69.4954 -69.4915 -69.4834 -69.4598 -69.4542 -69.4316 -52.5065
   -35.7397 -35.7391 -35.7388 -35.7205 -35.7188 -35.7179 -35.6470 -35.6277
   -35.6258 -35.6073 -35.5998 -35.5994 -35.5892 -35.5813 -35.5788 -35.5781
   -35.5486 -35.5387 -35.5370 -35.5291 -35.5246 -35.4980 -35.4977 -35.4859
   -35.4781 -35.4667 -35.4651 -35.4648 -35.4614 -35.4601 -35.4601 -35.4240
   -35.4226 -35.4197 -35.4186 -35.4137 -35.3987 -35.3932 -35.3921 -35.3415
   -35.3275 -35.3234 -35.3192 -35.3147 -35.3111 -23.8544 -23.8458 -23.8383
    10.4237  12.6809  13.7485  13.7573  13.7722  13.7789  13.8915  13.8967
    13.9044  13.9192  13.9870  13.9895  14.0295  14.0900  14.4229  14.9074
    15.1263  15.1363  15.1863  15.1865  15.2586  15.2594  15.3658  15.4228
    15.4242  15.4838  15.5584  15.5599  15.5989  15.7407  15.8864  15.8869
    16.3056  16.3301  16.3382  16.3679  16.3806  16.4121  16.4351  16.5756
    16.5785  16.6462  16.9860  17.0361  17.0463  17.0471  17.0657  17.0885
    17.0908  17.1570  17.2446  17.3594  17.3620  17.4426  17.5808  17.6348
    17.6377  17.6477  17.6698  17.7292  17.7414  17.7634  17.7678  17.7897
    17.8193  17.8251  17.8396  17.9880  18.0134  18.0447  18.1705  18.1879
    18.2259  18.4974  18.6658  18.6799  18.7194  18.8497  18.9284  18.9628
    18.9742  19.1157  19.1604  19.2191  19.2647  19.5997  19.6038  19.8819

          k = 0.0025 0.2500 0.2500 (  6200 PWs)   bands (ev):

   -69.5773 -69.5426 -69.5303 -69.5227 -69.5046 -69.5004 -69.4979 -69.4964
   -69.4953 -69.4927 -69.4922 -69.4819 -69.4563 -69.4532 -69.4347 -52.5065
   -35.7319 -35.7302 -35.7299 -35.7096 -35.7048 -35.6899 -35.6498 -35.6480
   -35.6368 -35.6270 -35.6265 -35.6224 -35.6173 -35.5892 -35.5751 -35.5551
   -35.5417 -35.5371 -35.5253 -35.5217 -35.5133 -35.5099 -35.5038 -35.4958
   -35.4876 -35.4831 -35.4815 -35.4740 -35.4695 -35.4590 -35.4223 -35.4209
   -35.4167 -35.4154 -35.4121 -35.4053 -35.3869 -35.3770 -35.3714 -35.3637
   -35.3402 -35.3350 -35.3245 -35.3200 -35.3082 -23.8547 -23.8462 -23.8384
    10.7393  12.8551  12.9107  13.5786  13.9758  13.9815  13.9979  14.0023
    14.0082  14.0363  14.0513  14.1239  14.1953  14.4615  14.4921  14.9669
    14.9903  14.9983  15.0038  15.2948  15.3133  15.3286  15.3517  15.3713
    15.3903  15.4022  15.5184  15.5428  15.6694  15.7720  15.8614  16.0727
    16.1120  16.1486  16.1744  16.2105  16.2798  16.3480  16.3780  16.4250
    16.7471  16.8059  16.8203  16.8548  16.8765  16.8981  16.9166  16.9662
    17.0602  17.1138  17.2040  17.2091  17.2310  17.3282  17.4804  17.4979
    17.4997  17.5860  17.5913  17.6539  17.6573  17.6806  17.7286  17.7594
    17.7909  17.8398  17.8996  17.9736  17.9882  18.0627  18.0957  18.1345
    18.1541  18.2073  18.2384  18.2394  18.4521  18.5231  18.8519  18.9487
    18.9930  19.1534  19.3461  19.5241  19.6910  20.1474  20.4594  20.6325

          k = 0.0025 0.2500-0.5000 (  6212 PWs)   bands (ev):

   -69.5732 -69.5420 -69.5372 -69.5232 -69.5077 -69.4986 -69.4985 -69.4958
   -69.4958 -69.4930 -69.4908 -69.4803 -69.4553 -69.4463 -69.4410 -52.5065
   -35.7218 -35.7154 -35.7115 -35.6868 -35.6851 -35.6702 -35.6688 -35.6637
   -35.6629 -35.6577 -35.6516 -35.6325 -35.6008 -35.6002 -35.5923 -35.5631
   -35.5477 -35.5467 -35.5418 -35.5313 -35.5180 -35.5087 -35.4973 -35.4923
   -35.4804 -35.4789 -35.4671 -35.4647 -35.4533 -35.4475 -35.4427 -35.4290
   -35.4217 -35.4150 -35.4098 -35.3843 -35.3772 -35.3680 -35.3638 -35.3503
   -35.3501 -35.3368 -35.3363 -35.3311 -35.3202 -23.8547 -23.8469 -23.8385
    11.5998  11.6627  13.2696  13.3236  14.1379  14.1468  14.1919  14.2404
    14.2735  14.2956  14.2997  14.3898  14.4049  14.4931  14.5167  14.5422
    14.5789  14.6015  15.2211  15.2392  15.2815  15.3121  15.4890  15.4953
    15.5139  15.5253  15.5375  15.6259  15.7017  15.7351  16.0687  16.0743
    16.0804  16.0952  16.1132  16.1534  16.1752  16.1883  16.2373  16.2488
    16.2609  16.2860  16.3306  16.3549  16.3862  16.5344  17.0848  17.1350
    17.1678  17.1984  17.2805  17.2885  17.3644  17.3722  17.3960  17.4267
    17.4820  17.4849  17.5218  17.6183  17.6743  17.6756  17.7246  17.7399
    17.7426  17.7800  17.8503  17.8802  17.9036  17.9269  17.9307  18.0130
    18.0849  18.1478  18.1656  18.2899  18.3545  18.7371  18.7963  18.8192
    19.2108  19.3746  19.3844  19.4236  20.0847  20.1852  20.2582  20.5185

          k =-0.0050-0.5001 0.0000 (  6212 PWs)   bands (ev):

   -69.5756 -69.5451 -69.5357 -69.5162 -69.5000 -69.4993 -69.4993 -69.4988
   -69.4963 -69.4935 -69.4935 -69.4815 -69.4599 -69.4448 -69.4392 -52.5065
   -35.7231 -35.7230 -35.7184 -35.6794 -35.6718 -35.6689 -35.6686 -35.6682
   -35.6656 -35.6533 -35.6360 -35.6359 -35.6323 -35.6005 -35.5993 -35.5934
   -35.5642 -35.5635 -35.5353 -35.5344 -35.5294 -35.4952 -35.4950 -35.4774
   -35.4768 -35.4622 -35.4611 -35.4529 -35.4371 -35.4361 -35.4350 -35.4172
   -35.4164 -35.3887 -35.3834 -35.3769 -35.3744 -35.3718 -35.3658 -35.3641
   -35.3490 -35.3488 -35.3486 -35.3483 -35.3390 -23.8548 -23.8459 -23.8388
    11.3192  11.3812  13.9157  13.9296  13.9301  13.9417  13.9623  13.9628
    14.0022  14.0577  14.1896  14.2484  14.2539  14.3529  14.4569  14.4671
    14.5243  14.5287  15.1464  15.1465  15.2311  15.2316  15.7286  15.7448
    15.7479  15.7713  15.7920  15.8518  15.8635  15.9827  16.0050  16.0062
    16.0144  16.0152  16.0292  16.0439  16.0522  16.3495  16.3539  16.4476
    16.4565  16.4581  16.6037  16.6038  16.6776  16.7409  16.7418  16.8815
    16.9693  17.0605  17.3433  17.3532  17.3574  17.3696  17.3726  17.5247
    17.5266  17.5399  17.7513  17.7563  17.7865  17.8072  17.8118  17.8121
    17.8172  17.8290  17.8792  17.8868  18.1433  18.1517  18.3988  18.4782
    18.4901  18.5266  18.5282  18.5418  18.5649  18.5775  18.5815  19.0409
    19.0428  19.1381  19.1727  19.1887  19.2106  19.5838  19.5848  19.7980

          k =-0.0050-0.5001 0.2500 (  6204 PWs)   bands (ev):

   -69.5732 -69.5426 -69.5367 -69.5232 -69.5077 -69.4990 -69.4988 -69.4948
   -69.4946 -69.4929 -69.4923 -69.4802 -69.4556 -69.4457 -69.4414 -52.5065
   -35.7216 -35.7153 -35.7104 -35.6853 -35.6848 -35.6704 -35.6679 -35.6629
   -35.6629 -35.6564 -35.6514 -35.6322 -35.6013 -35.5997 -35.5922 -35.5632
   -35.5485 -35.5477 -35.5416 -35.5311 -35.5187 -35.5083 -35.4972 -35.4916
   -35.4798 -35.4773 -35.4680 -35.4639 -35.4559 -35.4455 -35.4442 -35.4285
   -35.4212 -35.4163 -35.4098 -35.3824 -35.3751 -35.3695 -35.3638 -35.3483
   -35.3482 -35.3360 -35.3358 -35.3310 -35.3204 -23.8548 -23.8462 -23.8388
    11.6005  11.6633  13.2669  13.3213  14.1393  14.1585  14.1856  14.2400
    14.2741  14.2952  14.2986  14.3898  14.4042  14.4926  14.5228  14.5279
    14.5955  14.5967  15.2221  15.2389  15.2913  15.3221  15.4906  15.4991
    15.5166  15.5260  15.5386  15.6281  15.6975  15.7310  16.0539  16.0647
    16.0737  16.0911  16.1386  16.1694  16.1873  16.2360  16.2426  16.2456
    16.2580  16.2768  16.2798  16.3446  16.3825  16.5242  17.0946  17.1443
    17.1627  17.1961  17.2802  17.2882  17.3777  17.3846  17.3851  17.4263
    17.4751  17.4935  17.5220  17.6173  17.6687  17.6763  17.7265  17.7369
    17.7498  17.7813  17.8562  17.8884  17.9004  17.9284  17.9288  18.0119
    18.0865  18.1452  18.1658  18.2897  18.3548  18.7377  18.7986  18.8248
    19.2104  19.3696  19.3969  19.4220  20.1089  20.1444  20.2867  20.5189

          k =-0.0050-0.5001-0.5000 (  6188 PWs)   bands (ev):

   -69.5702 -69.5395 -69.5388 -69.5276 -69.5139 -69.4975 -69.4973 -69.4964
   -69.4962 -69.4910 -69.4902 -69.4783 -69.4478 -69.4474 -69.4467 -52.5065
   -35.7182 -35.6960 -35.6951 -35.6860 -35.6848 -35.6842 -35.6838 -35.6675
   -35.6668 -35.6636 -35.6630 -35.6272 -35.5796 -35.5624 -35.5624 -35.5577
   -35.5463 -35.5182 -35.5176 -35.5160 -35.5156 -35.5145 -35.5066 -35.4977
   -35.4956 -35.4947 -35.4894 -35.4892 -35.4776 -35.4774 -35.4552 -35.4522
   -35.4379 -35.3981 -35.3979 -35.3894 -35.3743 -35.3713 -35.3598 -35.3457
   -35.3451 -35.3267 -35.3266 -35.3177 -35.3090 -23.8549 -23.8466 -23.8383
    12.3492  12.3545  12.3546  12.4802  14.3657  14.3704  14.3706  14.4878
    14.5257  14.5270  14.5416  14.5897  14.5903  14.5928  14.6143  14.7011
    14.8894  14.8921  14.8923  15.0122  15.2423  15.2657  15.2711  15.2802
    15.2873  15.3384  15.3400  15.5089  15.7838  15.7915  15.8700  15.8731
    15.8808  15.8986  15.9191  15.9502  15.9711  15.9959  16.0149  16.1005
    16.1738  16.1739  16.2623  16.4703  16.7013  16.7019  16.8463  16.8491
    17.3196  17.3199  17.3405  17.3631  17.4073  17.4078  17.5127  17.5135
    17.5210  17.5478  17.5496  17.5612  17.5652  17.5680  17.5784  17.5784
    17.6367  17.6470  17.6564  17.6574  17.7824  17.8319  17.8350  17.9909
    17.9959  18.0045  18.0074  18.1829  18.1840  18.5357  18.9536  18.9582
    19.3234  19.4997  19.5409  19.5522  20.8980  20.9437  21.0933  21.1484

          k = 0.2525 0.2525 0.0000 (  6206 PWs)   bands (ev):

   -69.5769 -69.5422 -69.5324 -69.5221 -69.5030 -69.5004 -69.4968 -69.4967
   -69.4961 -69.4939 -69.4925 -69.4814 -69.4569 -69.4519 -69.4354 -52.5065
   -35.7293 -35.7272 -35.7243 -35.7047 -35.7004 -35.6896 -35.6536 -35.6453
   -35.6382 -35.6313 -35.6312 -35.6277 -35.6240 -35.5935 -35.5820 -35.5587
   -35.5462 -35.5364 -35.5286 -35.5258 -35.5191 -35.5152 -35.5073 -35.4963
   -35.4819 -35.4817 -35.4755 -35.4746 -35.4696 -35.4610 -35.4182 -35.4155
   -35.4113 -35.4095 -35.4086 -35.4045 -35.3812 -35.3728 -35.3621 -35.3602
   -35.3376 -35.3343 -35.3303 -35.3299 -35.3209 -23.8547 -23.8460 -23.8387
    10.7554  12.8277  12.8852  13.6019  13.9884  13.9911  13.9975  14.0071
    14.0181  14.0448  14.0503  14.1335  14.2004  14.4482  14.4847  14.9691
    14.9965  14.9971  15.0052  15.2809  15.2905  15.3434  15.3673  15.3820
    15.4007  15.4044  15.4965  15.5508  15.6452  15.8112  15.8481  16.0249
    16.0827  16.1082  16.1485  16.2855  16.3126  16.3196  16.3524  16.4482
    16.7167  16.7859  16.8228  16.8665  16.8711  16.8744  16.8923  16.9897
    17.0768  17.1453  17.2167  17.2315  17.2566  17.3361  17.4668  17.4943
    17.5091  17.5743  17.5849  17.6421  17.6475  17.6597  17.7240  17.7378
    17.8064  17.8355  17.9042  17.9743  17.9967  18.0901  18.1105  18.1585
    18.1665  18.1912  18.2342  18.2619  18.4908  18.5677  18.8538  18.8659
    18.9932  19.1601  19.3446  19.4730  19.7034  20.1406  20.4797  20.5527

          k = 0.2525 0.2525 0.2500 (  6206 PWs)   bands (ev):

   -69.5743 -69.5414 -69.5308 -69.5287 -69.5061 -69.5031 -69.5006 -69.4966
   -69.4933 -69.4908 -69.4891 -69.4806 -69.4535 -69.4518 -69.4379 -52.5065
   -35.7214 -35.7203 -35.7183 -35.7010 -35.6817 -35.6772 -35.6653 -35.6523
   -35.6491 -35.6395 -35.6338 -35.6289 -35.5941 -35.5924 -35.5852 -35.5542
   -35.5516 -35.5515 -35.5391 -35.5367 -35.5335 -35.5305 -35.5095 -35.5066
   -35.4864 -35.4667 -35.4636 -35.4516 -35.4444 -35.4358 -35.4321 -35.4320
   -35.4273 -35.4178 -35.4156 -35.4145 -35.3919 -35.3627 -35.3548 -35.3482
   -35.3447 -35.3370 -35.3353 -35.3234 -35.3196 -23.8547 -23.8464 -23.8387
    11.0622  13.0454  13.0666  13.1427  13.8121  13.8281  13.8658  14.1577
    14.1766  14.2428  14.2437  14.2452  14.6275  14.6328  14.6479  14.9014
    14.9101  14.9680  14.9723  15.2274  15.2321  15.3534  15.4004  15.4160
    15.4298  15.5363  15.5363  15.5991  15.6007  15.6677  15.7759  15.8835
    15.8887  16.0171  16.0314  16.1566  16.1830  16.2094  16.2298  16.2904
    16.2904  16.4553  16.5387  16.5498  16.6759  16.7069  16.7953  17.0341
    17.1118  17.1576  17.1594  17.3859  17.4446  17.4470  17.4740  17.5086
    17.5279  17.5455  17.5540  17.5697  17.6441  17.6656  17.7309  17.7542
    17.7704  17.7709  17.8247  17.8457  17.8667  17.9059  17.9107  18.1519
    18.1552  18.1617  18.4051  18.4083  18.5005  18.5357  18.5573  18.9357
    18.9990  19.0520  19.5294  19.5321  19.7674  19.9292  19.9716  21.5367

          k = 0.2525 0.2525-0.5000 (  6206 PWs)   bands (ev):

   -69.5710 -69.5395 -69.5364 -69.5289 -69.5073 -69.5068 -69.5020 -69.4956
   -69.4948 -69.4869 -69.4869 -69.4804 -69.4518 -69.4471 -69.4433 -52.5065
   -35.7119 -35.7104 -35.7023 -35.6831 -35.6828 -35.6709 -35.6693 -35.6619
   -35.6574 -35.6479 -35.6230 -35.6218 -35.6136 -35.6039 -35.5915 -35.5622
   -35.5609 -35.5550 -35.5402 -35.5364 -35.5342 -35.5180 -35.5137 -35.5059
   -35.4827 -35.4756 -35.4650 -35.4606 -35.4518 -35.4416 -35.4303 -35.4238
   -35.4184 -35.4179 -35.4089 -35.4056 -35.3908 -35.3707 -35.3650 -35.3477
   -35.3449 -35.3311 -35.3289 -35.3237 -35.3217 -23.8550 -23.8466 -23.8386
    11.8925  11.9557  13.5001  13.5082  13.5092  13.6061  14.4460  14.4829
    14.4875  14.5083  14.5111  14.5222  14.5345  14.5705  14.5874  14.6271
    14.6869  14.7358  15.2573  15.3279  15.3388  15.3468  15.3521  15.3564
    15.4076  15.5216  15.5450  15.5665  15.5846  15.6560  15.8984  15.9134
    15.9228  15.9264  15.9632  15.9928  15.9932  15.9971  15.9975  16.0159
    16.0237  16.0574  16.0787  16.1640  16.2526  16.2711  16.9070  16.9423
    17.2989  17.3396  17.3943  17.4103  17.4145  17.4201  17.4225  17.4607
    17.4941  17.5199  17.5211  17.6230  17.6478  17.6862  17.6864  17.7282
    17.7855  17.7983  17.8441  17.8585  17.8636  17.8690  17.9034  18.0002
    18.0210  18.2330  18.5007  18.5363  18.5697  18.6155  18.6261  18.6459
    18.6473  19.1475  19.3992  19.6041  19.6737  19.6906  20.9649  21.1002

          k = 0.2450-0.4976 0.0000 (  6192 PWs)   bands (ev):

   -69.5731 -69.5429 -69.5367 -69.5227 -69.5075 -69.4984 -69.4984 -69.4948
   -69.4944 -69.4944 -69.4925 -69.4801 -69.4556 -69.4458 -69.4412 -52.5065
   -35.7222 -35.7163 -35.7108 -35.6873 -35.6846 -35.6741 -35.6672 -35.6638
   -35.6614 -35.6549 -35.6458 -35.6328 -35.6025 -35.5993 -35.5924 -35.5635
   -35.5471 -35.5459 -35.5395 -35.5307 -35.5191 -35.5097 -35.4956 -35.4879
   -35.4813 -35.4769 -35.4669 -35.4637 -35.4521 -35.4479 -35.4413 -35.4302
   -35.4202 -35.4183 -35.4057 -35.3814 -35.3754 -35.3667 -35.3605 -35.3525
   -35.3452 -35.3432 -35.3367 -35.3261 -35.3143 -23.8548 -23.8461 -23.8385
    11.5933  11.6727  13.2468  13.3419  14.1460  14.1515  14.1879  14.2380
    14.2638  14.2752  14.3289  14.3957  14.4110  14.4965  14.5239  14.5311
    14.5887  14.5904  15.2171  15.2290  15.2959  15.3224  15.4760  15.4868
    15.5007  15.5502  15.5540  15.6351  15.6801  15.7581  16.0452  16.0677
    16.0940  16.1120  16.1200  16.1518  16.1908  16.2147  16.2483  16.2483
    16.2661  16.2815  16.2897  16.3474  16.3902  16.5314  17.0755  17.1440
    17.1700  17.2070  17.2898  17.2970  17.3775  17.3818  17.3824  17.4296
    17.4876  17.4959  17.5265  17.6218  17.6767  17.6795  17.7180  17.7370
    17.7779  17.7867  17.8573  17.8833  17.8896  17.9268  17.9442  18.0149
    18.0882  18.1463  18.1684  18.2880  18.3591  18.7390  18.7399  18.8850
    19.2137  19.3638  19.3745  19.4484  20.1052  20.1613  20.2643  20.5135

          k = 0.2450-0.4976 0.2500 (  6194 PWs)   bands (ev):

   -69.5711 -69.5406 -69.5362 -69.5272 -69.5072 -69.5063 -69.5026 -69.4963
   -69.4941 -69.4886 -69.4861 -69.4798 -69.4531 -69.4464 -69.4428 -52.5065
   -35.7127 -35.7096 -35.7030 -35.6820 -35.6810 -35.6672 -35.6657 -35.6603
   -35.6517 -35.6495 -35.6266 -35.6240 -35.6189 -35.6074 -35.5947 -35.5643
   -35.5638 -35.5559 -35.5452 -35.5396 -35.5380 -35.5196 -35.5145 -35.5044
   -35.4826 -35.4774 -35.4662 -35.4518 -35.4496 -35.4368 -35.4270 -35.4205
   -35.4156 -35.4123 -35.4054 -35.3965 -35.3791 -35.3630 -35.3599 -35.3558
   -35.3451 -35.3388 -35.3373 -35.3238 -35.3216 -23.8548 -23.8464 -23.8386
    11.8735  11.9535  13.4999  13.5311  13.5605  13.6398  14.4457  14.4691
    14.4791  14.4841  14.4977  14.5143  14.5272  14.5588  14.5795  14.6226
    14.6907  14.7524  15.2532  15.3150  15.3234  15.3585  15.3786  15.3963
    15.4083  15.5461  15.5534  15.5756  15.6078  15.6722  15.8705  15.8845
    15.9279  15.9366  15.9542  15.9664  15.9703  15.9885  16.0021  16.0107
    16.0156  16.0695  16.0874  16.1552  16.2415  16.2581  16.8814  16.9345
    17.2649  17.3391  17.3754  17.3881  17.4120  17.4292  17.4353  17.4661
    17.5040  17.5178  17.5287  17.6579  17.6648  17.6868  17.7108  17.7551
    17.7845  17.7970  17.8346  17.8500  17.8775  17.8841  17.9553  17.9949
    18.0343  18.2498  18.4920  18.5197  18.5753  18.6192  18.6462  18.6662
    18.7085  19.1505  19.3861  19.5958  19.6811  19.7073  20.8528  21.0423

          k = 0.2450-0.4976-0.5000 (  6186 PWs)   bands (ev):

   -69.5688 -69.5374 -69.5365 -69.5308 -69.5130 -69.5054 -69.5053 -69.4977
   -69.4935 -69.4845 -69.4840 -69.4792 -69.4484 -69.4477 -69.4461 -52.5065
   -35.7075 -35.6910 -35.6902 -35.6715 -35.6707 -35.6698 -35.6688 -35.6597
   -35.6593 -35.6429 -35.6427 -35.6257 -35.6143 -35.5786 -35.5780 -35.5753
   -35.5689 -35.5644 -35.5627 -35.5603 -35.5587 -35.5413 -35.5270 -35.5263
   -35.4794 -35.4581 -35.4514 -35.4478 -35.4354 -35.4350 -35.4325 -35.4288
   -35.4258 -35.3920 -35.3912 -35.3874 -35.3855 -35.3662 -35.3648 -35.3525
   -35.3502 -35.3333 -35.3325 -35.3297 -35.3199 -23.8548 -23.8463 -23.8387
    12.6138  12.6336  12.6563  12.7643  14.1102  14.1456  14.2005  14.2763
    14.5531  14.5630  14.5699  14.6811  14.9215  14.9280  14.9382  14.9415
    14.9503  14.9570  15.0020  15.0338  15.1558  15.1852  15.2022  15.2773
    15.4010  15.4335  15.4343  15.5235  15.5937  15.6088  15.6429  15.6684
    15.7271  15.7337  15.7384  15.7423  15.7962  15.7984  15.8267  15.8302
    15.9407  15.9416  15.9789  16.0954  16.2333  16.3471  16.3577  16.3579
    17.4537  17.4546  17.4589  17.5167  17.5407  17.5489  17.5713  17.6073
    17.6181  17.6389  17.6542  17.6897  17.6996  17.7067  17.7109  17.7302
    17.7555  17.7753  17.7968  17.8412  17.8415  17.8918  17.9983  18.0566
    18.0627  18.0866  18.0873  18.2825  18.2828  18.5886  18.6467  18.7396
    19.1596  19.1627  19.4413  19.4442  19.8058  20.1140  20.1569  20.1814

          k = 0.2475-0.2475 0.0000 (  6188 PWs)   bands (ev):

   -69.5775 -69.5432 -69.5288 -69.5220 -69.5061 -69.5004 -69.4967 -69.4961
   -69.4949 -69.4939 -69.4925 -69.4820 -69.4562 -69.4538 -69.4341 -52.5065
   -35.7350 -35.7344 -35.7338 -35.7138 -35.7111 -35.6902 -35.6547 -35.6417
   -35.6275 -35.6253 -35.6201 -35.6190 -35.6154 -35.5866 -35.5676 -35.5536
   -35.5394 -35.5389 -35.5212 -35.5201 -35.5091 -35.5070 -35.5026 -35.4929
   -35.4924 -35.4869 -35.4813 -35.4721 -35.4708 -35.4592 -35.4250 -35.4237
   -35.4209 -35.4160 -35.4156 -35.4089 -35.3883 -35.3820 -35.3757 -35.3681
   -35.3366 -35.3320 -35.3221 -35.3119 -35.2997 -23.8544 -23.8463 -23.8382
    10.7261  12.8841  12.9373  13.5488  13.9838  13.9846  13.9872  13.9942
    14.0025  14.0166  14.0649  14.1235  14.1900  14.4841  14.5090  14.9603
    14.9811  15.0036  15.0062  15.3057  15.3089  15.3387  15.3489  15.3661
    15.3756  15.4188  15.5438  15.5473  15.6886  15.7592  15.7986  16.1057
    16.1418  16.1801  16.1804  16.2107  16.2745  16.3555  16.4004  16.4074
    16.7767  16.8389  16.8421  16.8641  16.8837  16.8947  16.9070  16.9452
    17.0382  17.0956  17.1811  17.1879  17.1907  17.3210  17.4938  17.5036
    17.5098  17.5972  17.6030  17.6622  17.6699  17.6850  17.7202  17.7851
    17.7896  17.8462  17.8938  17.9722  17.9792  18.0373  18.0788  18.1135
    18.1397  18.2045  18.2138  18.2245  18.4142  18.4768  18.8462  18.9802
    19.0459  19.1329  19.3516  19.5821  19.6780  20.1492  20.5326  20.6078

          k = 0.2475-0.2475 0.2500 (  6197 PWs)   bands (ev):

   -69.5748 -69.5423 -69.5289 -69.5276 -69.5063 -69.5041 -69.5016 -69.4967
   -69.4932 -69.4907 -69.4881 -69.4809 -69.4537 -69.4529 -69.4368 -52.5065
   -35.7266 -35.7235 -35.7193 -35.7059 -35.6844 -35.6798 -35.6583 -35.6503
   -35.6422 -35.6366 -35.6347 -35.6301 -35.5952 -35.5902 -35.5854 -35.5554
   -35.5545 -35.5520 -35.5387 -35.5366 -35.5358 -35.5309 -35.5147 -35.5109
   -35.4825 -35.4626 -35.4581 -35.4576 -35.4394 -35.4386 -35.4320 -35.4272
   -35.4235 -35.4112 -35.4111 -35.4071 -35.3885 -35.3767 -35.3613 -35.3603
   -35.3426 -35.3338 -35.3300 -35.3192 -35.3108 -23.8547 -23.8462 -23.8385
    11.0352  13.0766  13.1030  13.1712  13.8082  13.8395  13.8701  14.1455
    14.1709  14.2141  14.2302  14.2307  14.6190  14.6300  14.6444  14.9394
    14.9512  15.0048  15.0101  15.2357  15.2450  15.3248  15.3340  15.3883
    15.3999  15.5212  15.5231  15.5697  15.6025  15.6893  15.8009  15.9046
    15.9090  16.0866  16.0870  16.1272  16.1835  16.2105  16.2564  16.3230
    16.3322  16.4359  16.5126  16.5234  16.6085  16.6548  16.7456  17.0495
    17.0780  17.1038  17.1051  17.3956  17.4645  17.4648  17.4797  17.5303
    17.5505  17.5626  17.5693  17.5783  17.6683  17.6951  17.7533  17.7539
    17.7579  17.7940  17.8005  17.8243  17.8612  17.8979  17.9038  18.1614
    18.1734  18.1759  18.3854  18.3882  18.5347  18.5473  18.5944  18.9206
    19.0177  19.0699  19.5211  19.5252  19.7809  19.9411  19.9701  21.4855

          k = 0.2475-0.2475-0.5000 (  6190 PWs)   bands (ev):

   -69.5713 -69.5398 -69.5373 -69.5261 -69.5078 -69.5048 -69.5039 -69.4972
   -69.4934 -69.4890 -69.4859 -69.4795 -69.4536 -69.4469 -69.4421 -52.5065
   -35.7139 -35.7069 -35.7029 -35.6772 -35.6751 -35.6691 -35.6638 -35.6557
   -35.6519 -35.6503 -35.6332 -35.6276 -35.6242 -35.6149 -35.6035 -35.5679
   -35.5673 -35.5559 -35.5447 -35.5433 -35.5416 -35.5196 -35.5175 -35.5089
   -35.4817 -35.4809 -35.4629 -35.4535 -35.4424 -35.4290 -35.4224 -35.4155
   -35.4107 -35.4095 -35.4038 -35.3881 -35.3691 -35.3611 -35.3555 -35.3532
   -35.3490 -35.3419 -35.3353 -35.3347 -35.3255 -23.8544 -23.8466 -23.8386
    11.8712  11.9345  13.5540  13.5632  13.5651  13.6574  14.4541  14.4580
    14.4747  14.4850  14.4855  14.4973  14.5082  14.5331  14.5636  14.6164
    14.6953  14.7496  15.2525  15.3150  15.3215  15.3642  15.4086  15.4110
    15.4210  15.5668  15.5733  15.5907  15.6143  15.6816  15.8311  15.8426
    15.9158  15.9185  15.9414  15.9690  15.9755  15.9769  15.9977  16.0057
    16.0178  16.0771  16.1044  16.1494  16.2237  16.2407  16.8493  16.8924
    17.2595  17.3119  17.3752  17.4000  17.4062  17.4191  17.4261  17.4653
    17.5186  17.5191  17.5367  17.6653  17.6999  17.7139  17.7358  17.7827
    17.7945  17.8179  17.8209  17.8479  17.8925  17.8953  17.9760  17.9947
    18.0347  18.2685  18.5026  18.5176  18.5916  18.5924  18.6691  18.7094
    18.7153  19.1510  19.3699  19.5911  19.6844  19.7219  20.7886  20.9480

          k =-0.5051-0.5051 0.0000 (  6196 PWs)   bands (ev):

   -69.5702 -69.5420 -69.5368 -69.5267 -69.5138 -69.4968 -69.4967 -69.4963
   -69.4961 -69.4922 -69.4913 -69.4781 -69.4485 -69.4484 -69.4450 -52.5065
   -35.7203 -35.7035 -35.6979 -35.6927 -35.6880 -35.6790 -35.6735 -35.6719
   -35.6712 -35.6613 -35.6596 -35.6297 -35.5803 -35.5678 -35.5587 -35.5570
   -35.5454 -35.5188 -35.5160 -35.5146 -35.5144 -35.5133 -35.5073 -35.5017
   -35.4957 -35.4942 -35.4896 -35.4880 -35.4816 -35.4753 -35.4625 -35.4436
   -35.4403 -35.3992 -35.3933 -35.3932 -35.3767 -35.3694 -35.3563 -35.3546
   -35.3392 -35.3381 -35.3242 -35.3178 -35.3030 -23.8551 -23.8463 -23.8387
    12.3113  12.3376  12.4008  12.4942  14.3166  14.3465  14.4217  14.5030
    14.5446  14.5560  14.5561  14.5562  14.5686  14.5898  14.6029  14.6913
    14.8776  14.8848  14.8993  15.0095  15.2209  15.2392  15.2614  15.3036
    15.3045  15.3161  15.3720  15.5157  15.7315  15.8292  15.8503  15.9115
    15.9154  15.9158  15.9495  15.9583  15.9678  15.9687  15.9781  16.0899
    16.1324  16.2309  16.2672  16.4780  16.6706  16.7316  16.8254  16.8692
    17.3149  17.3164  17.3281  17.3623  17.3707  17.4690  17.4824  17.4935
    17.5152  17.5354  17.5597  17.5630  17.5756  17.5817  17.6027  17.6082
    17.6091  17.6092  17.6631  17.6782  17.7777  17.8180  17.8366  17.9837
    17.9875  17.9902  17.9913  18.1753  18.1803  18.5317  18.8839  19.0270
    19.3222  19.4914  19.5093  19.5925  20.9541  20.9578  21.0596  21.0964

          k =-0.5051-0.5051 0.2500 (  6186 PWs)   bands (ev):

   -69.5688 -69.5396 -69.5348 -69.5302 -69.5128 -69.5065 -69.5043 -69.4978
   -69.4932 -69.4859 -69.4834 -69.4791 -69.4487 -69.4482 -69.4453 -52.5065
   -35.7067 -35.6946 -35.6868 -35.6786 -35.6762 -35.6657 -35.6647 -35.6597
   -35.6522 -35.6521 -35.6377 -35.6272 -35.6135 -35.5791 -35.5770 -35.5749
   -35.5703 -35.5645 -35.5606 -35.5594 -35.5592 -35.5420 -35.5279 -35.5259
   -35.4793 -35.4572 -35.4563 -35.4415 -35.4385 -35.4374 -35.4337 -35.4293
   -35.4193 -35.3934 -35.3911 -35.3880 -35.3842 -35.3666 -35.3616 -35.3575
   -35.3458 -35.3419 -35.3364 -35.3254 -35.3152 -23.8547 -23.8465 -23.8387
    12.5938  12.6203  12.6803  12.7731  14.1379  14.1428  14.1878  14.2635
    14.5110  14.5414  14.6112  14.6955  14.9159  14.9311  14.9366  14.9424
    14.9431  14.9644  14.9991  15.0330  15.1448  15.1605  15.2355  15.2832
    15.4006  15.4106  15.4525  15.5289  15.6073  15.6211  15.6295  15.6655
    15.6845  15.7215  15.7499  15.7713  15.7900  15.8046  15.8121  15.8267
    15.9244  15.9598  15.9762  16.0958  16.2352  16.3499  16.3523  16.3637
    17.4077  17.4450  17.5119  17.5274  17.5309  17.5704  17.5739  17.5988
    17.6191  17.6323  17.6528  17.6804  17.7058  17.7129  17.7143  17.7285
    17.7672  17.7891  17.7894  17.8305  17.8547  17.8904  17.9949  18.0546
    18.0709  18.0822  18.0947  18.2643  18.3033  18.5522  18.6891  18.7393
    19.1224  19.2013  19.4364  19.4431  19.8080  20.1214  20.1428  20.1715

          k =-0.5051-0.5051-0.5000 (  6136 PWs)   bands (ev):

   -69.5670 -69.5362 -69.5335 -69.5323 -69.5132 -69.5115 -69.5097 -69.4993
   -69.4898 -69.4828 -69.4806 -69.4793 -69.4488 -69.4479 -69.4457 -52.5064
   -35.6890 -35.6833 -35.6795 -35.6492 -35.6451 -35.6426 -35.6391 -35.6342
   -35.6308 -35.6287 -35.6273 -35.6269 -35.6221 -35.6201 -35.6178 -35.6092
   -35.6034 -35.5994 -35.5897 -35.5791 -35.5736 -35.5447 -35.5434 -35.5405
   -35.4531 -35.4509 -35.4438 -35.4317 -35.4270 -35.4104 -35.4023 -35.3941
   -35.3878 -35.3817 -35.3814 -35.3757 -35.3696 -35.3669 -35.3649 -35.3645
   -35.3626 -35.3606 -35.3490 -35.3368 -35.3368 -23.8544 -23.8459 -23.8382
    13.3354  13.3385  13.3424  13.3751  13.4114  13.4173  13.4208  13.6456
    15.0114  15.0120  15.0144  15.0165  15.0245  15.0310  15.0514  15.0570
    15.0869  15.0929  15.0968  15.1035  15.1079  15.1091  15.3176  15.3176
    15.5234  15.5305  15.5362  15.5523  15.5529  15.5557  15.5581  15.5584
    15.5620  15.5659  15.5712  15.5750  15.5760  15.5914  15.5987  15.5998
    15.6009  15.6118  15.6310  15.6724  15.6786  15.9653  15.9767  15.9851
    17.5455  17.5677  17.5695  17.5856  17.5901  17.6026  17.6107  17.6144
    17.6191  17.6234  17.6279  17.6366  17.6578  17.6702  17.9849  17.9862
    18.0467  18.0551  18.0570  18.0695  18.0695  18.0708  18.1005  18.1024
    18.1120  18.1198  18.1326  18.4167  18.4296  18.4472  18.7294  18.7431
    18.7620  18.7782  18.7873  19.4970  19.4981  19.7868  19.7911  19.7920

 ------ SPIN DOWN ----------


          k = 0.0000 0.0000 0.0000 (  6177 PWs)   bands (ev):

   -66.9686 -66.9183 -66.9169 -66.9152 -66.9121 -66.9116 -66.9090 -66.9043
   -66.8961 -66.8956 -66.8657 -66.7629 -66.7627 -66.7495 -66.5831 -53.9839
   -33.2364 -33.2235 -33.2186 -33.2126 -33.2083 -33.1959 -33.1024 -33.0846
   -33.0770 -33.0566 -33.0460 -33.0319 -33.0260 -33.0233 -33.0216 -33.0026
   -32.9902 -32.9880 -32.9869 -32.9763 -32.9684 -32.9665 -32.9511 -32.9458
   -32.9425 -32.9403 -32.9393 -32.9355 -32.9238 -32.9213 -32.8727 -32.8701
   -32.8642 -32.8134 -32.8120 -32.8091 -32.7355 -32.7331 -32.7321 -32.7181
   -32.7180 -32.7159 -32.6386 -32.6360 -32.6341 -25.3055 -25.3023 -25.3007
    10.1868  14.2892  14.2894  14.4325  14.4331  14.4348  14.4591  14.7145
    14.7222  14.7292  14.7852  14.7862  14.9147  15.4133  15.4222  16.4114
    16.4141  16.4292  16.7081  16.7115  16.7705  16.8534  16.8688  16.8786
    16.9000  16.9062  16.9514  17.4826  17.4830  17.7307  17.7315  17.7336
    17.8515  17.9877  18.0998  18.1950  18.4739  18.5145  18.5187  18.5413
    18.5524  18.5584  18.5597  18.5633  18.5892  18.5932  18.6199  18.6274
    18.9709  19.1387  19.1486  19.1512  19.1615  19.3342  19.4738  19.5099
    19.5182  19.5258  19.5261  19.5272  19.8329  19.8394  20.1230  20.1627
    20.1693  20.2038  20.2921  20.3004  20.4116  20.4254  20.5346  20.5478
    20.5483  20.6360  20.6461  20.6744  20.7621  20.7696  20.9496  20.9822
    21.0673  21.1877  21.2016  21.2057  21.2278  21.2488  21.2536  21.2554

          k = 0.0000 0.0000 0.2500 (  6205 PWs)   bands (ev):

   -66.9634 -66.9298 -66.9174 -66.9143 -66.9131 -66.9102 -66.9099 -66.9055
   -66.8961 -66.8873 -66.8669 -66.7627 -66.7611 -66.7511 -66.5831 -53.9840
   -33.2173 -33.2092 -33.2048 -33.1934 -33.1883 -33.1803 -33.1099 -33.0989
   -33.0893 -33.0849 -33.0681 -33.0676 -33.0629 -33.0528 -33.0474 -33.0351
   -33.0332 -33.0190 -33.0025 -32.9851 -32.9674 -32.9480 -32.9441 -32.9440
   -32.9390 -32.9267 -32.9194 -32.9157 -32.8753 -32.8669 -32.8554 -32.8477
   -32.8345 -32.8133 -32.8065 -32.8032 -32.7492 -32.7449 -32.7411 -32.7351
   -32.7331 -32.7308 -32.6397 -32.6375 -32.6347 -25.3059 -25.3030 -25.3012
    10.5170  12.8665  14.4103  14.5559  14.5596  14.5761  14.7772  14.7828
    14.8212  14.8559  14.9441  15.0392  15.4078  15.5643  15.5944  16.2274
    16.4014  16.4053  16.4218  16.7432  16.7737  16.7923  16.9075  16.9712
    16.9733  17.0510  17.0605  17.1270  17.2777  17.4977  17.4992  17.5464
    17.9447  17.9479  18.0479  18.1327  18.1359  18.2143  18.2365  18.3289
    18.3362  18.3842  18.3969  18.3998  18.4049  18.4247  18.5659  18.6524
    18.9388  18.9745  18.9754  18.9876  19.0008  19.0678  19.0896  19.7770
    19.9025  19.9275  19.9648  19.9765  20.0138  20.0274  20.0303  20.0684
    20.0949  20.1098  20.2163  20.3660  20.3959  20.4956  20.5433  20.5501
    20.5683  20.6107  20.6642  20.7351  20.8101  20.8687  20.9658  20.9705
    20.9995  21.0183  21.0995  21.1057  21.1065  21.1110  21.2133  21.2170

          k = 0.0000 0.0000-0.5000 (  6210 PWs)   bands (ev):

   -66.9516 -66.9462 -66.9153 -66.9153 -66.9121 -66.9121 -66.9080 -66.9077
   -66.8960 -66.8812 -66.8685 -66.7628 -66.7585 -66.7536 -66.5831 -53.9840
   -33.1961 -33.1839 -33.1738 -33.1572 -33.1533 -33.1339 -33.1327 -33.1319
   -33.1248 -33.1236 -33.1228 -33.1194 -33.0920 -33.0784 -33.0537 -33.0495
   -33.0191 -33.0169 -33.0157 -33.0121 -32.9582 -32.9579 -32.9411 -32.9411
   -32.9265 -32.9086 -32.9067 -32.8896 -32.8478 -32.8454 -32.8271 -32.8244
   -32.8061 -32.8056 -32.7832 -32.7756 -32.7745 -32.7667 -32.7660 -32.7591
   -32.7526 -32.7461 -32.6384 -32.6384 -32.6359 -25.3062 -25.3034 -25.3008
    11.4588  11.4599  14.5413  14.6706  14.6798  14.8396  14.8609  14.8643
    14.8653  14.8822  15.3523  15.3560  15.7321  15.7689  15.7918  15.8068
    15.9196  16.1768  16.4151  16.4504  16.7266  16.7685  17.1204  17.2066
    17.2587  17.2634  17.4551  17.5012  17.5089  17.5224  17.5435  17.5445
    17.5788  17.5900  17.6125  17.6212  17.6222  17.6404  17.6610  17.6621
    17.7326  17.8131  18.0265  18.1500  18.1919  18.3347  18.4840  18.6507
    19.0771  19.4404  19.4941  19.5178  19.5729  19.6112  19.6300  19.6341
    19.6370  19.6605  19.7577  19.8063  19.8715  19.9243  20.1211  20.2877
    20.3502  20.3601  20.4160  20.4726  20.5530  20.5632  20.5716  20.5969
    20.6013  20.6025  20.6262  20.6286  20.6322  20.6991  20.7090  20.7147
    20.7162  20.7278  21.1794  21.1836  21.2108  21.2121  21.2216  21.2251

          k = 0.0025 0.2500 0.0000 (  6191 PWs)   bands (ev):

   -66.9634 -66.9298 -66.9161 -66.9159 -66.9124 -66.9123 -66.9088 -66.9052
   -66.8957 -66.8872 -66.8670 -66.7629 -66.7609 -66.7512 -66.5831 -53.9840
   -33.2183 -33.2089 -33.2030 -33.1933 -33.1925 -33.1796 -33.1077 -33.0978
   -33.0951 -33.0803 -33.0670 -33.0651 -33.0546 -33.0492 -33.0452 -33.0423
   -33.0280 -33.0042 -32.9999 -32.9993 -32.9678 -32.9470 -32.9456 -32.9441
   -32.9406 -32.9237 -32.9210 -32.9142 -32.8687 -32.8682 -32.8523 -32.8519
   -32.8347 -32.8136 -32.8052 -32.8039 -32.7513 -32.7425 -32.7423 -32.7324
   -32.7319 -32.7298 -32.6398 -32.6366 -32.6342 -25.3057 -25.3027 -25.3011
    10.5158  12.8660  14.4082  14.5500  14.5569  14.5826  14.7662  14.7805
    14.8270  14.8588  14.9502  15.0427  15.4101  15.5635  15.5972  16.2383
    16.4122  16.4156  16.4199  16.7665  16.7716  16.7723  16.8985  16.9728
    16.9786  17.0511  17.0839  17.1035  17.2766  17.4895  17.4972  17.5536
    17.9182  18.0055  18.0274  18.1185  18.1675  18.1740  18.2652  18.2687
    18.2898  18.3780  18.3899  18.4017  18.5057  18.5224  18.5235  18.5732
    18.9367  18.9681  18.9787  18.9835  19.0004  19.0826  19.0889  19.7752
    19.9024  19.9294  19.9698  19.9730  20.0145  20.0284  20.0305  20.0733
    20.1120  20.1245  20.2275  20.3569  20.4095  20.5293  20.5323  20.5590
    20.6074  20.6206  20.6296  20.7420  20.8077  20.8961  20.9605  20.9680
    21.0062  21.0297  21.0746  21.0961  21.0964  21.1256  21.2092  21.2243

          k = 0.0025 0.2500 0.2500 (  6200 PWs)   bands (ev):

   -66.9587 -66.9305 -66.9246 -66.9153 -66.9144 -66.9110 -66.9101 -66.9063
   -66.8898 -66.8848 -66.8684 -66.7618 -66.7605 -66.7526 -66.5831 -53.9840
   -33.2073 -33.2038 -33.1965 -33.1781 -33.1694 -33.1574 -33.1229 -33.1134
   -33.1069 -33.1001 -33.0949 -33.0789 -33.0690 -33.0564 -33.0367 -33.0277
   -33.0184 -33.0064 -32.9968 -32.9850 -32.9815 -32.9622 -32.9578 -32.9515
   -32.9474 -32.9435 -32.9074 -32.8994 -32.8637 -32.8608 -32.8497 -32.8448
   -32.8380 -32.7972 -32.7936 -32.7808 -32.7745 -32.7520 -32.7460 -32.7441
   -32.7351 -32.7260 -32.6405 -32.6378 -32.6348 -25.3058 -25.3030 -25.3014
    10.8355  13.0998  13.1040  14.3067  14.6781  14.7289  14.9515  14.9826
    15.0428  15.0682  15.2358  15.5070  15.5291  15.7305  15.7332  16.1304
    16.2717  16.4683  16.5929  16.6743  16.7605  16.7880  16.8593  16.9212
    16.9684  16.9878  17.0370  17.0646  17.2306  17.2528  17.2831  17.7138
    17.7613  17.8139  17.8817  17.9043  17.9283  17.9337  17.9464  18.0106
    18.0278  18.0568  18.1039  18.1499  18.1721  18.5405  18.5759  18.6013
    18.9999  19.0520  19.1164  19.1503  19.1614  19.2431  19.4441  19.4918
    19.6497  19.8527  19.9212  20.0013  20.0488  20.0649  20.0972  20.1264
    20.2062  20.2862  20.2902  20.3452  20.3953  20.4184  20.4451  20.4818
    20.5303  20.5656  20.5771  20.6208  20.6367  20.7158  20.7297  20.7420
    20.7905  20.7931  21.0284  21.2163  21.3466  21.3926  22.0059  22.0308

          k = 0.0025 0.2500-0.5000 (  6212 PWs)   bands (ev):

   -66.9478 -66.9434 -66.9234 -66.9185 -66.9129 -66.9124 -66.9088 -66.9085
   -66.8878 -66.8799 -66.8708 -66.7613 -66.7584 -66.7549 -66.5831 -53.9840
   -33.1973 -33.1901 -33.1770 -33.1602 -33.1587 -33.1347 -33.1319 -33.1289
   -33.1246 -33.1148 -33.1023 -33.1020 -33.0748 -33.0744 -33.0452 -33.0345
   -33.0187 -33.0170 -33.0070 -32.9967 -32.9699 -32.9679 -32.9604 -32.9560
   -32.9442 -32.9228 -32.9037 -32.8898 -32.8733 -32.8730 -32.8455 -32.8357
   -32.8266 -32.7834 -32.7780 -32.7746 -32.7655 -32.7609 -32.7579 -32.7527
   -32.7398 -32.7379 -32.6404 -32.6397 -32.6351 -25.3059 -25.3038 -25.3014
    11.7478  11.7531  13.6722  13.7062  14.8898  14.9080  15.0587  15.0783
    15.4107  15.4418  15.5502  15.5666  15.7324  15.8034  15.8397  15.9444
    16.0139  16.2296  16.4964  16.5567  16.7389  16.8194  16.9256  16.9424
    17.0779  17.1678  17.1729  17.1819  17.2532  17.2897  17.3107  17.3568
    17.4166  17.4956  17.5541  17.5795  17.5848  17.6178  17.7645  17.7717
    17.7744  17.7777  17.9040  17.9148  18.0327  18.1005  18.9396  18.9871
    19.1534  19.2402  19.2747  19.3186  19.3863  19.5282  19.5304  19.6319
    19.6826  19.6914  19.7388  19.7478  19.7876  19.8056  20.0605  20.1184
    20.1347  20.2342  20.2501  20.2894  20.3609  20.4488  20.5143  20.5365
    20.5444  20.5611  20.5936  20.6011  20.6260  20.6681  20.6746  20.6949
    20.8650  20.9139  21.0101  21.0111  21.6835  21.7042  21.7431  21.7719

          k =-0.0050-0.5001 0.0000 (  6212 PWs)   bands (ev):

   -66.9517 -66.9461 -66.9142 -66.9141 -66.9141 -66.9140 -66.9072 -66.9072
   -66.8957 -66.8807 -66.8690 -66.7629 -66.7581 -66.7539 -66.5831 -53.9840
   -33.1992 -33.1796 -33.1744 -33.1535 -33.1401 -33.1389 -33.1354 -33.1352
   -33.1345 -33.1261 -33.1139 -33.1135 -33.0972 -33.0846 -33.0401 -33.0341
   -33.0321 -33.0278 -33.0146 -33.0144 -32.9586 -32.9583 -32.9413 -32.9410
   -32.9277 -32.9072 -32.9066 -32.8924 -32.8462 -32.8452 -32.8262 -32.8248
   -32.8093 -32.8063 -32.7796 -32.7796 -32.7784 -32.7657 -32.7630 -32.7557
   -32.7547 -32.7448 -32.6410 -32.6367 -32.6355 -25.3063 -25.3027 -25.3015
    11.4577  11.4588  14.5385  14.6741  14.6749  14.8192  14.8523  14.8610
    14.8831  14.8944  15.3585  15.3587  15.7529  15.7788  15.8021  15.8045
    15.9108  16.1647  16.4308  16.4308  16.7437  16.7439  17.1191  17.2000
    17.2609  17.2655  17.4612  17.4690  17.5010  17.5392  17.5485  17.5649
    17.5696  17.5892  17.6181  17.6210  17.6583  17.6606  17.6738  17.6904
    17.7185  17.7251  18.0916  18.0990  18.2251  18.2323  18.4976  18.6605
    19.0768  19.4375  19.5067  19.5069  19.5716  19.6124  19.6204  19.6343
    19.6436  19.6674  19.7760  19.7780  19.8913  19.8932  20.1358  20.2899
    20.3736  20.3891  20.4173  20.4640  20.5276  20.5785  20.5846  20.5935
    20.5947  20.5947  20.5984  20.6276  20.6329  20.6916  20.7036  20.7140
    20.7249  20.7364  21.1705  21.1816  21.2099  21.2194  21.2218  21.2241

          k =-0.0050-0.5001 0.2500 (  6204 PWs)   bands (ev):

   -66.9480 -66.9432 -66.9236 -66.9183 -66.9130 -66.9129 -66.9084 -66.9084
   -66.8879 -66.8794 -66.8712 -66.7615 -66.7580 -66.7551 -66.5831 -53.9840
   -33.1979 -33.1871 -33.1787 -33.1583 -33.1519 -33.1449 -33.1347 -33.1274
   -33.1173 -33.1171 -33.1032 -33.0999 -33.0744 -33.0740 -33.0367 -33.0364
   -33.0178 -33.0138 -33.0104 -33.0019 -32.9699 -32.9686 -32.9600 -32.9562
   -32.9441 -32.9219 -32.9044 -32.8899 -32.8734 -32.8723 -32.8442 -32.8372
   -32.8271 -32.7824 -32.7775 -32.7752 -32.7641 -32.7589 -32.7564 -32.7539
   -32.7395 -32.7376 -32.6409 -32.6378 -32.6356 -25.3063 -25.3031 -25.3015
    11.7483  11.7535  13.6704  13.7046  14.8755  14.9299  15.0267  15.1037
    15.4170  15.4354  15.5493  15.5664  15.7643  15.7689  15.8491  15.9457
    16.0128  16.2281  16.5007  16.5549  16.7483  16.8217  16.9261  16.9429
    17.0843  17.1545  17.1773  17.2018  17.2701  17.3020  17.3031  17.4040
    17.4218  17.4270  17.5097  17.5249  17.6388  17.6454  17.7678  17.7753
    17.7773  17.7799  17.9071  17.9233  18.0160  18.0805  18.9450  19.0003
    19.1536  19.2418  19.2764  19.3173  19.3876  19.5250  19.5277  19.6434
    19.6716  19.6865  19.7436  19.7511  19.7848  19.8024  20.0694  20.1107
    20.1305  20.2275  20.2706  20.2928  20.3493  20.4489  20.5146  20.5415
    20.5524  20.5648  20.5836  20.6104  20.6255  20.6698  20.6733  20.6946
    20.8668  20.9155  21.0150  21.0160  21.6993  21.7073  21.7442  21.7681

          k =-0.0050-0.5001-0.5000 (  6188 PWs)   bands (ev):

   -66.9393 -66.9390 -66.9357 -66.9238 -66.9110 -66.9109 -66.9106 -66.9106
   -66.8787 -66.8782 -66.8769 -66.7584 -66.7580 -66.7580 -66.5831 -53.9840
   -33.1961 -33.1949 -33.1747 -33.1584 -33.1489 -33.1457 -33.1353 -33.1244
   -33.1222 -33.1201 -33.1022 -33.0951 -33.0401 -33.0379 -33.0274 -33.0240
   -33.0031 -32.9971 -32.9877 -32.9873 -32.9862 -32.9850 -32.9769 -32.9741
   -32.9740 -32.9573 -32.8981 -32.8969 -32.8958 -32.8953 -32.8734 -32.8274
   -32.8272 -32.7761 -32.7713 -32.7677 -32.7628 -32.7613 -32.7449 -32.7436
   -32.7361 -32.7244 -32.6409 -32.6393 -32.6335 -25.3057 -25.3035 -25.3016
    12.5324  12.5746  12.5755  12.5756  15.2555  15.2873  15.3117  15.5174
    15.5183  15.5567  15.6204  15.6208  15.7837  15.9032  15.9034  16.0461
    16.0462  16.5701  16.5702  16.5997  16.6214  16.6233  16.7786  16.7981
    16.8701  16.8877  16.8891  16.9101  16.9189  17.2742  17.2826  17.2919
    17.2938  17.3941  17.4004  17.4095  17.4355  17.4637  17.5366  17.5639
    17.7899  17.8712  17.8904  17.8909  18.4529  18.4535  18.5028  18.5248
    19.1642  19.1977  19.2978  19.2978  19.4635  19.5062  19.5168  19.5734
    19.5993  19.7045  19.9341  19.9342  19.9420  19.9445  19.9600  19.9656
    19.9755  20.0259  20.0340  20.1001  20.3092  20.3155  20.4056  20.4059
    20.4711  20.5379  20.5429  20.5566  20.5639  20.6446  20.6451  20.6678
    21.1000  21.1027  21.1174  21.1489  22.5579  22.5583  22.5592  22.5697

          k = 0.2525 0.2525 0.0000 (  6206 PWs)   bands (ev):

   -66.9580 -66.9308 -66.9266 -66.9152 -66.9128 -66.9122 -66.9090 -66.9061
   -66.8912 -66.8832 -66.8688 -66.7620 -66.7600 -66.7529 -66.5831 -53.9840
   -33.1973 -33.1923 -33.1863 -33.1723 -33.1701 -33.1680 -33.1267 -33.1193
   -33.1183 -33.1126 -33.0914 -33.0869 -33.0771 -33.0586 -33.0514 -33.0278
   -33.0101 -33.0086 -32.9964 -32.9850 -32.9842 -32.9541 -32.9534 -32.9507
   -32.9467 -32.9364 -32.9030 -32.9001 -32.8626 -32.8565 -32.8466 -32.8408
   -32.8401 -32.7956 -32.7951 -32.7865 -32.7775 -32.7495 -32.7477 -32.7463
   -32.7371 -32.7262 -32.6406 -32.6367 -32.6356 -25.3061 -25.3028 -25.3014
    10.8512  13.0701  13.0723  14.3491  14.7005  14.7225  14.9536  14.9903
    15.0444  15.0639  15.2345  15.5096  15.5290  15.7281  15.7411  16.1456
    16.2741  16.4534  16.6198  16.6515  16.7626  16.7805  16.8775  16.9290
    16.9867  16.9967  17.0404  17.1138  17.2083  17.2164  17.2739  17.6842
    17.7102  17.7388  17.8280  17.8657  17.9056  17.9228  18.0089  18.0398
    18.0473  18.0546  18.0676  18.1836  18.2274  18.4878  18.5575  18.6084
    19.0307  19.1120  19.1444  19.1610  19.2158  19.2982  19.4880  19.5381
    19.6688  19.8428  19.8928  20.0006  20.0279  20.0397  20.0739  20.0869
    20.1941  20.2774  20.2965  20.3390  20.3746  20.4118  20.4599  20.4967
    20.5396  20.5492  20.5635  20.6212  20.6413  20.7057  20.7215  20.7489
    20.8082  20.8117  20.9583  21.1818  21.3356  21.3811  22.0505  22.0538

          k = 0.2525 0.2525 0.2500 (  6206 PWs)   bands (ev):

   -66.9538 -66.9294 -66.9290 -66.9200 -66.9140 -66.9117 -66.9117 -66.9071
   -66.8850 -66.8824 -66.8703 -66.7607 -66.7599 -66.7540 -66.5831 -53.9840
   -33.1919 -33.1915 -33.1905 -33.1651 -33.1568 -33.1468 -33.1374 -33.1239
   -33.1173 -33.1023 -33.0996 -33.0731 -33.0589 -33.0516 -33.0373 -33.0330
   -33.0185 -33.0096 -33.0093 -33.0075 -33.0050 -32.9864 -32.9665 -32.9662
   -32.9423 -32.9067 -32.9047 -32.8730 -32.8701 -32.8690 -32.8485 -32.8467
   -32.8386 -32.8007 -32.7801 -32.7742 -32.7702 -32.7549 -32.7540 -32.7407
   -32.7392 -32.7342 -32.6406 -32.6382 -32.6356 -25.3061 -25.3033 -25.3014
    11.1630  13.3097  13.3162  13.3539  14.5364  14.5662  14.6489  15.2980
    15.3027  15.4920  15.6321  15.6367  15.7889  15.8760  15.8921  16.1101
    16.2657  16.4573  16.4667  16.6728  16.6826  16.8044  16.8131  16.8333
    16.9694  16.9934  17.0186  17.0480  17.1407  17.1863  17.5074  17.5146
    17.5268  17.5786  17.6288  17.6292  17.6916  17.7011  17.7181  17.7562
    17.7734  17.8273  17.8990  17.9996  18.1674  18.2129  18.2378  18.7891
    19.2422  19.2464  19.3538  19.3596  19.3756  19.3979  19.5116  19.7569
    19.7684  19.8171  19.8561  19.8656  19.9073  19.9770  20.0021  20.0974
    20.1667  20.1944  20.3466  20.3487  20.4395  20.4755  20.5241  20.5380
    20.5449  20.5466  20.5816  20.5879  20.6558  20.6926  20.7253  20.7438
    20.7566  20.8211  20.8294  20.8439  21.2609  21.2629  21.3146  22.8803

          k = 0.2525 0.2525-0.5000 (  6206 PWs)   bands (ev):

   -66.9441 -66.9406 -66.9265 -66.9192 -66.9166 -66.9150 -66.9095 -66.9093
   -66.8816 -66.8786 -66.8735 -66.7599 -66.7584 -66.7561 -66.5831 -53.9840
   -33.1929 -33.1864 -33.1833 -33.1584 -33.1554 -33.1328 -33.1233 -33.1106
   -33.1103 -33.1093 -33.0973 -33.0751 -33.0730 -33.0605 -33.0365 -33.0301
   -33.0267 -33.0258 -33.0112 -33.0001 -32.9973 -32.9934 -32.9907 -32.9871
   -32.9406 -32.9118 -32.9021 -32.8936 -32.8679 -32.8646 -32.8482 -32.8339
   -32.8269 -32.7915 -32.7756 -32.7728 -32.7651 -32.7534 -32.7516 -32.7510
   -32.7415 -32.7396 -32.6409 -32.6390 -32.6358 -25.3061 -25.3035 -25.3017
    12.0470  12.0581  13.9010  13.9095  13.9141  13.9677  15.2586  15.4128
    15.5140  15.6239  15.7481  15.7736  15.9193  15.9680  16.0337  16.1284
    16.1483  16.2688  16.5888  16.6215  16.6234  16.8761  16.9007  16.9840
    16.9902  16.9965  17.0047  17.0837  17.1353  17.1803  17.2047  17.2479
    17.2545  17.2562  17.4038  17.4990  17.5042  17.5127  17.6049  17.6205
    17.6672  17.6815  17.7443  17.7523  17.8484  17.8958  18.5789  18.6073
    19.2832  19.3030  19.3277  19.4345  19.5548  19.5582  19.6819  19.7157
    19.8431  19.8984  19.9147  19.9172  19.9415  20.0052  20.0715  20.1617
    20.2148  20.2666  20.3024  20.3764  20.4393  20.4416  20.4542  20.5084
    20.5096  20.5306  20.5360  20.6084  20.6492  20.6900  20.6971  20.7178
    20.7355  20.7577  20.7612  20.7814  20.7920  20.7964  22.4133  22.4394

          k = 0.2450-0.4976 0.0000 (  6192 PWs)   bands (ev):

   -66.9481 -66.9430 -66.9244 -66.9173 -66.9133 -66.9133 -66.9080 -66.9080
   -66.8884 -66.8793 -66.8712 -66.7615 -66.7580 -66.7551 -66.5831 -53.9840
   -33.2002 -33.1922 -33.1742 -33.1585 -33.1469 -33.1438 -33.1374 -33.1279
   -33.1190 -33.1171 -33.1120 -33.0875 -33.0816 -33.0627 -33.0410 -33.0315
   -33.0282 -33.0129 -33.0094 -32.9963 -32.9710 -32.9697 -32.9571 -32.9537
   -32.9447 -32.9225 -32.9026 -32.8891 -32.8738 -32.8692 -32.8441 -32.8366
   -32.8259 -32.7832 -32.7749 -32.7741 -32.7640 -32.7581 -32.7560 -32.7530
   -32.7406 -32.7340 -32.6403 -32.6367 -32.6350 -25.3060 -25.3029 -25.3015
    11.7270  11.7768  13.6337  13.7425  14.8946  14.9117  15.0562  15.0752
    15.4158  15.4375  15.5491  15.5690  15.7596  15.7756  15.8387  15.9414
    16.0199  16.2313  16.4990  16.5534  16.7479  16.8196  16.9214  16.9418
    17.0758  17.1655  17.1701  17.2008  17.2705  17.2827  17.3343  17.4014
    17.4225  17.4433  17.5437  17.5778  17.5896  17.6046  17.7099  17.7187
    17.8263  17.8350  17.8808  17.9837  17.9910  18.1084  18.8857  19.0598
    19.1521  19.2415  19.2801  19.3212  19.3854  19.5296  19.5343  19.6221
    19.6782  19.7147  19.7330  19.7384  19.7771  19.8461  20.0714  20.0998
    20.1479  20.2155  20.2868  20.2928  20.3484  20.4456  20.5384  20.5456
    20.5493  20.5697  20.5948  20.6038  20.6231  20.6556  20.6835  20.7020
    20.8368  20.9497  20.9866  21.0459  21.7091  21.7150  21.7194  21.7565

          k = 0.2450-0.4976 0.2500 (  6194 PWs)   bands (ev):

   -66.9448 -66.9403 -66.9267 -66.9176 -66.9164 -66.9147 -66.9102 -66.9092
   -66.8841 -66.8780 -66.8725 -66.7605 -66.7580 -66.7559 -66.5831 -53.9840
   -33.1939 -33.1845 -33.1791 -33.1506 -33.1439 -33.1336 -33.1286 -33.1222
   -33.1176 -33.1052 -33.0900 -33.0820 -33.0768 -33.0628 -33.0452 -33.0414
   -33.0351 -33.0260 -33.0085 -32.9996 -32.9949 -32.9925 -32.9839 -32.9822
   -32.9386 -32.9078 -32.8950 -32.8897 -32.8656 -32.8578 -32.8411 -32.8334
   -32.8262 -32.7956 -32.7759 -32.7726 -32.7648 -32.7568 -32.7522 -32.7487
   -32.7423 -32.7382 -32.6403 -32.6377 -32.6354 -25.3061 -25.3033 -25.3015
    12.0161  12.0670  13.8952  13.9283  13.9703  14.0174  15.2138  15.3720
    15.4989  15.6175  15.7308  15.7483  15.8957  15.9690  16.0615  16.1145
    16.1600  16.2843  16.5664  16.6066  16.6372  16.8749  16.8846  16.9777
    16.9933  17.0338  17.0469  17.0701  17.1413  17.1679  17.2462  17.2739
    17.2903  17.3173  17.4039  17.4987  17.5239  17.5512  17.5672  17.6009
    17.6189  17.6714  17.6958  17.7841  17.8154  17.8592  18.5807  18.6093
    19.2742  19.3348  19.3524  19.4385  19.5837  19.5867  19.6804  19.7207
    19.8401  19.8586  19.8780  19.9280  19.9461  20.0200  20.0621  20.1775
    20.2153  20.2610  20.3544  20.3958  20.4223  20.4385  20.4616  20.4917
    20.5007  20.5091  20.5360  20.6111  20.6595  20.6987  20.7007  20.7278
    20.7361  20.7694  20.7724  20.7951  20.8056  20.8137  22.3194  22.4113

          k = 0.2450-0.4976-0.5000 (  6186 PWs)   bands (ev):

   -66.9371 -66.9370 -66.9345 -66.9220 -66.9151 -66.9141 -66.9122 -66.9115
   -66.8788 -66.8775 -66.8748 -66.7585 -66.7583 -66.7574 -66.5831 -53.9840
   -33.1858 -33.1835 -33.1707 -33.1468 -33.1343 -33.1311 -33.1236 -33.1168
   -33.1125 -33.1060 -33.0831 -33.0780 -33.0568 -33.0513 -33.0416 -33.0369
   -33.0353 -33.0321 -33.0278 -33.0210 -33.0201 -33.0187 -32.9974 -32.9974
   -32.9542 -32.9013 -32.8738 -32.8698 -32.8648 -32.8639 -32.8524 -32.8228
   -32.8221 -32.7882 -32.7777 -32.7693 -32.7691 -32.7595 -32.7492 -32.7477
   -32.7437 -32.7354 -32.6397 -32.6374 -32.6350 -25.3062 -25.3032 -25.3015
    12.8083  12.8384  12.8655  12.8841  14.5637  14.5697  14.6841  14.6928
    15.6741  15.9172  16.0262  16.0315  16.0427  16.2475  16.2478  16.2865
    16.2873  16.5919  16.5951  16.6414  16.6700  16.6742  16.7215  16.7313
    16.8211  16.9042  16.9083  17.0111  17.0694  17.1226  17.1549  17.1795
    17.2292  17.2670  17.3045  17.3113  17.3580  17.3743  17.4480  17.4820
    17.5498  17.6030  17.6320  17.6553  17.8855  17.8876  17.9284  17.9330
    19.5051  19.5470  19.6723  19.7499  19.7509  19.8694  19.8726  19.8951
    19.9601  19.9723  19.9775  19.9866  20.0223  20.0302  20.0535  20.0569
    20.0644  20.1144  20.1320  20.2184  20.2867  20.3077  20.3717  20.3839
    20.4486  20.4558  20.4709  20.4772  20.5028  20.5615  20.5780  20.6161
    20.7741  20.7762  20.7790  20.8203  21.4341  21.4628  21.5135  21.5339

          k = 0.2475-0.2475 0.0000 (  6188 PWs)   bands (ev):

   -66.9593 -66.9299 -66.9228 -66.9160 -66.9152 -66.9122 -66.9090 -66.9061
   -66.8887 -66.8864 -66.8683 -66.7617 -66.7608 -66.7523 -66.5831 -53.9840
   -33.2191 -33.2114 -33.1970 -33.1843 -33.1834 -33.1453 -33.1148 -33.1074
   -33.0973 -33.0899 -33.0792 -33.0757 -33.0626 -33.0493 -33.0446 -33.0254
   -33.0204 -33.0045 -32.9963 -32.9900 -32.9849 -32.9669 -32.9645 -32.9533
   -32.9504 -32.9477 -32.9120 -32.9000 -32.8623 -32.8620 -32.8517 -32.8450
   -32.8388 -32.7972 -32.7930 -32.7736 -32.7697 -32.7500 -32.7453 -32.7418
   -32.7338 -32.7271 -32.6394 -32.6377 -32.6342 -25.3057 -25.3031 -25.3011
    10.8223  13.1305  13.1366  14.2587  14.6856  14.7117  14.9646  14.9905
    15.0400  15.0640  15.2324  15.5090  15.5300  15.7170  15.7450  16.1207
    16.2609  16.4845  16.5726  16.7021  16.7618  16.8038  16.8561  16.9212
    16.9530  16.9634  16.9968  17.0085  17.2494  17.2961  17.2981  17.7800
    17.7916  17.8451  17.8784  17.9704  17.9715  17.9833  17.9931  18.0145
    18.0476  18.0487  18.0625  18.0678  18.1298  18.5247  18.5776  18.6740
    18.9628  19.0114  19.0904  19.1106  19.1363  19.1849  19.4031  19.4471
    19.6277  19.8711  19.9469  19.9879  20.0720  20.0989  20.1177  20.1666
    20.2087  20.2836  20.3022  20.3497  20.4099  20.4226  20.4279  20.4668
    20.5209  20.5708  20.6026  20.6180  20.6411  20.7060  20.7251  20.7305
    20.7670  20.7751  21.1007  21.2625  21.3442  21.3915  22.0625  22.0686

          k = 0.2475-0.2475 0.2500 (  6197 PWs)   bands (ev):

   -66.9549 -66.9286 -66.9282 -66.9174 -66.9144 -66.9141 -66.9104 -66.9076
   -66.8859 -66.8835 -66.8693 -66.7607 -66.7604 -66.7535 -66.5831 -53.9840
   -33.2074 -33.1967 -33.1886 -33.1779 -33.1542 -33.1386 -33.1216 -33.1140
   -33.1048 -33.1028 -33.0845 -33.0826 -33.0699 -33.0556 -33.0466 -33.0317
   -33.0211 -33.0181 -33.0135 -33.0073 -32.9988 -32.9960 -32.9660 -32.9634
   -32.9394 -32.9056 -32.9017 -32.8744 -32.8703 -32.8637 -32.8444 -32.8423
   -32.8390 -32.8032 -32.7773 -32.7731 -32.7693 -32.7501 -32.7498 -32.7433
   -32.7424 -32.7320 -32.6396 -32.6378 -32.6352 -25.3060 -25.3031 -25.3014
    11.1360  13.3360  13.3738  13.3774  14.5238  14.5755  14.6427  15.2879
    15.2899  15.4734  15.6247  15.6262  15.7690  15.8630  15.8863  16.0492
    16.2707  16.4566  16.4643  16.6947  16.7061  16.8134  16.8312  16.8454
    16.9711  16.9942  16.9946  17.0377  17.1267  17.1721  17.5288  17.5315
    17.5589  17.6379  17.6469  17.6696  17.6982  17.7408  17.7725  17.7996
    17.8135  17.8197  17.8486  17.9295  18.1301  18.1544  18.2012  18.9024
    19.1895  19.1902  19.3247  19.3484  19.3554  19.3863  19.4283  19.7588
    19.7829  19.8295  19.8469  19.8478  19.8925  20.0204  20.0294  20.1466
    20.1945  20.2392  20.3419  20.3624  20.4269  20.4534  20.5231  20.5513
    20.5540  20.5549  20.5857  20.6063  20.6807  20.7194  20.7241  20.7289
    20.7523  20.8172  20.8304  20.8414  21.2557  21.3008  21.3042  22.8273

          k = 0.2475-0.2475-0.5000 (  6190 PWs)   bands (ev):

   -66.9450 -66.9410 -66.9259 -66.9173 -66.9156 -66.9134 -66.9109 -66.9103
   -66.8854 -66.8786 -66.8711 -66.7607 -66.7584 -66.7554 -66.5831 -53.9840
   -33.1878 -33.1835 -33.1715 -33.1471 -33.1462 -33.1385 -33.1336 -33.1164
   -33.1144 -33.0975 -33.0891 -33.0886 -33.0825 -33.0812 -33.0673 -33.0544
   -33.0330 -33.0326 -33.0013 -32.9968 -32.9944 -32.9879 -32.9816 -32.9793
   -32.9360 -32.9014 -32.8915 -32.8846 -32.8638 -32.8531 -32.8351 -32.8320
   -32.8256 -32.7978 -32.7775 -32.7724 -32.7646 -32.7595 -32.7522 -32.7459
   -32.7409 -32.7405 -32.6385 -32.6382 -32.6350 -25.3060 -25.3036 -25.3011
    12.0249  12.0356  13.9619  13.9694  13.9750  14.0250  15.1880  15.3143
    15.4870  15.6093  15.7168  15.7253  15.8743  15.9763  16.0695  16.1106
    16.1559  16.2936  16.5457  16.6083  16.6377  16.8517  16.9015  16.9880
    17.0310  17.0400  17.0585  17.0593  17.1404  17.1599  17.2745  17.2896
    17.3539  17.3705  17.4115  17.5279  17.5396  17.5449  17.5631  17.5738
    17.6002  17.6074  17.7202  17.7697  17.7701  17.8039  18.5618  18.5895
    19.3325  19.3403  19.3454  19.4477  19.6227  19.6268  19.6934  19.7339
    19.8347  19.8459  19.8707  19.8821  19.9185  20.0116  20.0473  20.1791
    20.2223  20.2561  20.4100  20.4104  20.4192  20.4304  20.4628  20.4735
    20.4949  20.4959  20.5268  20.6344  20.6705  20.7093  20.7103  20.7360
    20.7418  20.7804  20.7904  20.7915  20.8156  20.8227  22.2941  22.3262

          k =-0.5051-0.5051 0.0000 (  6196 PWs)   bands (ev):

   -66.9404 -66.9376 -66.9365 -66.9230 -66.9123 -66.9122 -66.9091 -66.9090
   -66.8806 -66.8775 -66.8763 -66.7588 -66.7584 -66.7572 -66.5831 -53.9840
   -33.2048 -33.1983 -33.1714 -33.1652 -33.1513 -33.1418 -33.1347 -33.1252
   -33.1165 -33.1148 -33.1111 -33.0875 -33.0472 -33.0398 -33.0315 -33.0152
   -33.0043 -32.9974 -32.9929 -32.9860 -32.9852 -32.9829 -32.9822 -32.9800
   -32.9626 -32.9607 -32.9041 -32.8977 -32.8916 -32.8876 -32.8762 -32.8293
   -32.8255 -32.7775 -32.7712 -32.7679 -32.7672 -32.7598 -32.7470 -32.7435
   -32.7359 -32.7226 -32.6414 -32.6367 -32.6359 -25.3062 -25.3031 -25.3018
    12.5044  12.5294  12.6044  12.6238  15.2700  15.2832  15.3078  15.5460
    15.5473  15.5616  15.5736  15.5874  15.7738  15.9017  15.9091  16.0005
    16.0883  16.5326  16.5930  16.5972  16.6028  16.6498  16.7837  16.7931
    16.8595  16.8602  16.9158  16.9169  16.9298  17.2721  17.2977  17.3278
    17.3484  17.3511  17.3593  17.3807  17.4040  17.4615  17.5151  17.6544
    17.7577  17.8320  17.9127  17.9612  18.4483  18.4563  18.5013  18.5242
    19.1623  19.1963  19.2916  19.2974  19.4536  19.4690  19.5253  19.5670
    19.6579  19.6883  19.8795  19.8900  19.9154  19.9497  19.9785  19.9929
    20.0220  20.0392  20.0734  20.0900  20.2989  20.3162  20.3580  20.4396
    20.4715  20.5268  20.5327  20.5483  20.5625  20.6219  20.6329  20.6543
    21.0577  21.0931  21.1457  21.1730  22.5885  22.6012  22.6047  22.6086

          k =-0.5051-0.5051 0.2500 (  6186 PWs)   bands (ev):

   -66.9380 -66.9355 -66.9355 -66.9214 -66.9154 -66.9138 -66.9130 -66.9107
   -66.8796 -66.8769 -66.8747 -66.7588 -66.7584 -66.7571 -66.5831 -53.9840
   -33.1896 -33.1848 -33.1688 -33.1473 -33.1327 -33.1312 -33.1253 -33.1139
   -33.1035 -33.1028 -33.0963 -33.0716 -33.0603 -33.0463 -33.0451 -33.0426
   -33.0424 -33.0338 -33.0281 -33.0174 -33.0153 -33.0105 -33.0086 -32.9913
   -32.9544 -32.9007 -32.8734 -32.8690 -32.8682 -32.8614 -32.8504 -32.8238
   -32.8229 -32.7887 -32.7777 -32.7720 -32.7668 -32.7588 -32.7498 -32.7479
   -32.7445 -32.7342 -32.6394 -32.6374 -32.6352 -25.3062 -25.3034 -25.3014
    12.7923  12.8096  12.8930  12.9011  14.5664  14.6268  14.6278  14.6906
    15.6702  15.9190  16.0273  16.0322  16.0453  16.2034  16.2732  16.2865
    16.2917  16.5531  16.6348  16.6351  16.6365  16.7054  16.7242  16.7244
    16.8407  16.8895  16.9264  17.0093  17.0677  17.1432  17.1550  17.1761
    17.2446  17.2653  17.2857  17.2902  17.3388  17.3870  17.4016  17.5319
    17.5452  17.5982  17.6348  17.6494  17.8734  17.9009  17.9202  17.9453
    19.5003  19.5483  19.6745  19.7464  19.7512  19.8505  19.8825  19.8973
    19.9365  19.9367  19.9825  19.9900  20.0017  20.0269  20.0704  20.0824
    20.0992  20.1234  20.1631  20.1990  20.2966  20.3041  20.3511  20.3980
    20.4401  20.4726  20.4730  20.4749  20.5113  20.5575  20.5886  20.6093
    20.7519  20.7689  20.8075  20.8345  21.4469  21.4680  21.5009  21.5062

          k =-0.5051-0.5051-0.5000 (  6136 PWs)   bands (ev):

   -66.9347 -66.9342 -66.9326 -66.9193 -66.9192 -66.9177 -66.9155 -66.9131
   -66.8787 -66.8764 -66.8734 -66.7587 -66.7583 -66.7571 -66.5831 -53.9839
   -33.1732 -33.1675 -33.1601 -33.1237 -33.1072 -33.1009 -33.0955 -33.0934
   -33.0914 -33.0877 -33.0858 -33.0829 -33.0777 -33.0749 -33.0677 -33.0610
   -33.0578 -33.0518 -33.0494 -33.0492 -33.0380 -33.0310 -33.0159 -33.0093
   -32.9434 -32.8687 -32.8660 -32.8410 -32.8409 -32.8400 -32.8121 -32.8097
   -32.8087 -32.8056 -32.7802 -32.7794 -32.7784 -32.7562 -32.7555 -32.7552
   -32.7525 -32.7497 -32.6367 -32.6361 -32.6335 -25.3056 -25.3028 -25.3011
    13.5556  13.5801  13.5853  13.5981  13.6366  13.6697  13.6813  13.6981
    15.9365  15.9375  16.2828  16.3006  16.3094  16.6553  16.6642  16.6660
    16.6762  16.6969  16.7451  16.7500  16.7641  16.7652  16.7739  16.7869
    16.8054  16.8232  16.8418  17.1047  17.1117  17.1751  17.1829  17.1829
    17.2041  17.2063  17.2138  17.2339  17.2443  17.2531  17.2689  17.2711
    17.2857  17.2906  17.2983  17.3003  17.3100  17.3185  17.3227  17.3461
    19.6556  19.6586  20.0732  20.0780  20.0810  20.1907  20.2104  20.2112
    20.2189  20.2245  20.2462  20.2553  20.2729  20.2741  20.2809  20.2847
    20.2863  20.2929  20.3014  20.3066  20.3112  20.3149  20.3153  20.3232
    20.3251  20.3314  20.3336  20.3564  20.3639  20.3857  20.3943  20.4020
    20.6637  20.6651  20.6683  20.6762  20.7013  20.7127  20.7204  20.7242

     the Fermi energy is    18.7508 ev

!    total energy              =   -5186.29943035 Ry
     total all-electron energy =    -40284.280105 Ry
     estimated scf accuracy    <       0.00000081 Ry
     smearing contrib. (-TS)   =       0.00442954 Ry
     internal energy E=F+TS    =   -5186.30385989 Ry

     The total energy is F=E-TS. E is the sum of the following terms:
     one-electron contribution =   -1687.46422263 Ry
     hartree contribution      =    1006.49707026 Ry
     xc contribution           =    -438.67826383 Ry
     ewald contribution        =   -2750.76300201 Ry
     one-center paw contrib.   =   -1315.89544169 Ry

     total magnetization       =    31.02 Bohr mag/cell
     absolute magnetization    =    36.05 Bohr mag/cell

     convergence has been achieved in  38 iterations


     Computing stress (Cartesian axis) and pressure


     negative rho (up, down):  0.000E+00 3.081E-03
          total   stress  (Ry/bohr**3)                   (kbar)     P=     -824.80
  -0.00560905   0.00018589   0.00000000         -825.12       27.35        0.00
   0.00018589  -0.00560905   0.00000000           27.35     -825.12        0.00
   0.00000000   0.00000000  -0.00560249            0.00        0.00     -824.16


     Writing all to output data dir ./tmp/fe15cr01_shear_-0.01.save/ :
     XML data file, charge density, pseudopotentials, collected wavefunctions

     init_run     :     70.68s CPU     72.16s WALL (       1 calls)
     electrons    :   8437.65s CPU   8592.14s WALL (       1 calls)
     stress       :    159.39s CPU    160.96s WALL (       1 calls)

     Called by init_run:
     wfcinit      :     65.62s CPU     67.10s WALL (       1 calls)
     potinit      :      3.36s CPU      4.20s WALL (       1 calls)
     hinit0       :      0.76s CPU     -0.56s WALL (       1 calls)

     Called by electrons:
     c_bands      :   7619.09s CPU   7719.36s WALL (      38 calls)
     sum_band     :    652.52s CPU    686.05s WALL (      38 calls)
     v_of_rho     :      8.84s CPU      9.90s WALL (      39 calls)
     newd         :     35.45s CPU     44.64s WALL (      39 calls)
     PAW_pot      :    123.27s CPU    134.66s WALL (      39 calls)
     mix_rho      :      1.61s CPU      1.76s WALL (      38 calls)

     Called by c_bands:
     init_us_2    :     22.26s CPU     23.61s WALL (    3276 calls)
     cegterg      :   7551.74s CPU   7650.60s WALL (    1596 calls)

     Called by *egterg:
     cdiaghg      :    608.96s CPU    621.24s WALL (    6404 calls)
     h_psi        :   2449.42s CPU   2504.13s WALL (    6446 calls)
     s_psi        :    885.70s CPU    888.46s WALL (    6446 calls)
     g_psi        :      2.69s CPU      2.86s WALL (    4808 calls)

     Called by h_psi:
     h_psi:calbec :    933.57s CPU    935.02s WALL (    6446 calls)
     vloc_psi     :    615.38s CPU    658.05s WALL (    6446 calls)
                                        0.00s GPU  (    6446 calls)
     add_vuspsi   :    895.65s CPU    896.41s WALL (    6446 calls)

     General routines
     calbec       :   1514.13s CPU   1516.87s WALL (    8588 calls)
     fft          :      5.63s CPU      3.56s WALL (     994 calls)
     ffts         :      0.24s CPU      0.26s WALL (     154 calls)
     fftw         :    706.17s CPU    756.05s WALL ( 1285484 calls)
     interpolate  :      0.60s CPU      0.69s WALL (      78 calls)

     Parallel routines

     PWSCF        :      2h24m CPU      2h27m WALL


   This run was terminated on:  11:24:25  24Apr2026            

=------------------------------------------------------------------------------=
   JOB DONE.
=------------------------------------------------------------------------------=
Note: The following floating-point exceptions are signalling: IEEE_DENORMAL
Note: The following floating-point exceptions are signalling: IEEE_DENORMAL
