
     Program PWSCF v.7.5 starts on 24Apr2026 at  3:24: 7 

     This program is part of the open-source Quantum ESPRESSO suite
     for quantum simulation of materials; please cite
         "P. Giannozzi et al., J. Phys.:Condens. Matter 21 395502 (2009);
         "P. Giannozzi et al., J. Phys.:Condens. Matter 29 465901 (2017);
         "P. Giannozzi et al., J. Chem. Phys. 152 154105 (2020);
          URL http://www.quantum-espresso.org", 
     in publications or presentations arising from this work. More details at
     http://www.quantum-espresso.org/quote

     Parallel version (MPI), running on     4 processors

     MPI processes distributed on     1 nodes
     714 MiB available memory on the printing compute node when the environment starts

     Waiting for input...
     Reading input from standard input

     Current dimensions of program PWSCF are:
     Max number of different atomic species (ntypx) = 10
     Max number of k-points (npk) =  40000
     Max angular momentum in pseudopotentials (lmaxx) =  4
     file Fe.pbe-spn-kjpaw_psl.1.0.0.UPF: wavefunction(s)  3P 3D renormalized
     file Cr.pbe-spn-kjpaw_psl.1.0.0.UPF: wavefunction(s)  3S 3P 3D renormalized
     Message from routine setup:
     using ibrav=0 with symmetry is DISCOURAGED, use correct ibrav instead

     R & G space division:  proc/nbgrp/npool/nimage =       4
     Subspace diagonalization in iterative solution of the eigenvalue problem:
     one sub-group per band group will be used
     custom distributed-memory algorithm (size of sub-group:  2*  2 procs)


     Parallelization info
     --------------------
     sticks:   dense  smooth     PW     G-vecs:    dense   smooth      PW
     Min         829     412    121                36099    12720    2006
     Max         830     414    124                36100    12723    2007
     Sum        3317    1653    489               144397    50883    8025

     Using Slab Decomposition



     bravais-lattice index     =            0
     lattice parameter (alat)  =      10.7794  a.u.
     unit-cell volume          =    1252.5063 (a.u.)^3
     number of atoms/cell      =           16
     number of atomic types    =            2
     number of electrons       =       254.00
     number of Kohn-Sham states=          152
     kinetic-energy cutoff     =      45.0000  Ry
     charge density cutoff     =     360.0000  Ry
     scf convergence threshold =      1.0E-06
     mixing beta               =       0.3000
     number of iterations used =            8  plain     mixing
     Exchange-correlation= SLA  PW   PBX  PBC
                           (   1   4   3   4   0   0   0)

     celldm(1)=  10.779368  celldm(2)=   0.000000  celldm(3)=   0.000000
     celldm(4)=   0.000000  celldm(5)=   0.000000  celldm(6)=   0.000000

     crystal axes: (cart. coord. in units of alat)
               a(1) = (   1.000000   0.000000   0.000000 )  
               a(2) = (   0.000000   1.000000   0.000000 )  
               a(3) = (   0.000000   0.000000   1.000000 )  

     reciprocal axes: (cart. coord. in units 2 pi/alat)
               b(1) = (  1.000000  0.000000  0.000000 )  
               b(2) = (  0.000000  1.000000  0.000000 )  
               b(3) = (  0.000000  0.000000  1.000000 )  


     PseudoPot. # 1 for Fe read from file:
     ./pseudo/Fe.pbe-spn-kjpaw_psl.1.0.0.UPF
     MD5 check sum: fc81f059e5c5069939230b1155715ae8
     Pseudo is Projector augmented-wave + core cor, Zval = 16.0
     Generated using &quot;atomic&quot; code by A. Dal Corso  v.6.3
     Shape of augmentation charge: PSQ
     Using radial grid of 1191 points,  6 beta functions with: 
                l(1) =   0
                l(2) =   0
                l(3) =   1
                l(4) =   1
                l(5) =   2
                l(6) =   2
     Q(r) pseudized with 0 coefficients 


     PseudoPot. # 2 for Cr read from file:
     ./pseudo/Cr.pbe-spn-kjpaw_psl.1.0.0.UPF
     MD5 check sum: 198f1a2427a48552563eee314eba32ba
     Pseudo is Projector augmented-wave + core cor, Zval = 14.0
     Generated using &quot;atomic&quot; code by A. Dal Corso  v.6.3
     Shape of augmentation charge: PSQ
     Using radial grid of 1183 points,  6 beta functions with: 
                l(1) =   0
                l(2) =   0
                l(3) =   1
                l(4) =   1
                l(5) =   2
                l(6) =   2
     Q(r) pseudized with 0 coefficients 


     atomic species   valence    mass     pseudopotential
     Fe               16.00    55.84500     Fe( 1.00)
     Cr               14.00    51.99600     Cr( 1.00)

     Starting magnetic structure 
     atomic species   magnetization
     Fe              0.500
     Cr              0.300

     48 Sym. Ops., with inversion, found



   Cartesian axes

     site n.     atom                  positions (alat units)
         1        Cr     tau(   1) = (   0.0000000   0.0000000   0.0000000  )
         2        Fe     tau(   2) = (   0.2500000   0.2500000   0.2500000  )
         3        Fe     tau(   3) = (   0.0000000   0.0000000   0.5000000  )
         4        Fe     tau(   4) = (   0.2500000   0.2500000   0.7500000  )
         5        Fe     tau(   5) = (   0.0000000   0.5000000   0.0000000  )
         6        Fe     tau(   6) = (   0.2500000   0.7500000   0.2500000  )
         7        Fe     tau(   7) = (   0.0000000   0.5000000   0.5000000  )
         8        Fe     tau(   8) = (   0.2500000   0.7500000   0.7500000  )
         9        Fe     tau(   9) = (   0.5000000   0.0000000   0.0000000  )
        10        Fe     tau(  10) = (   0.7500000   0.2500000   0.2500000  )
        11        Fe     tau(  11) = (   0.5000000   0.0000000   0.5000000  )
        12        Fe     tau(  12) = (   0.7500000   0.2500000   0.7500000  )
        13        Fe     tau(  13) = (   0.5000000   0.5000000   0.0000000  )
        14        Fe     tau(  14) = (   0.7500000   0.7500000   0.2500000  )
        15        Fe     tau(  15) = (   0.5000000   0.5000000   0.5000000  )
        16        Fe     tau(  16) = (   0.7500000   0.7500000   0.7500000  )

     number of k points=    10  Marzari-Vanderbilt smearing, width (Ry)=  0.0200
                       cart. coord. in units 2pi/alat
        k(    1) = (   0.0000000   0.0000000   0.0000000), wk =   0.0156250
        k(    2) = (   0.0000000   0.0000000   0.2500000), wk =   0.0937500
        k(    3) = (   0.0000000   0.0000000  -0.5000000), wk =   0.0468750
        k(    4) = (   0.0000000   0.2500000   0.2500000), wk =   0.1875000
        k(    5) = (   0.0000000   0.2500000  -0.5000000), wk =   0.1875000
        k(    6) = (   0.0000000  -0.5000000  -0.5000000), wk =   0.0468750
        k(    7) = (   0.2500000   0.2500000   0.2500000), wk =   0.1250000
        k(    8) = (   0.2500000   0.2500000  -0.5000000), wk =   0.1875000
        k(    9) = (   0.2500000  -0.5000000  -0.5000000), wk =   0.0937500
        k(   10) = (  -0.5000000  -0.5000000  -0.5000000), wk =   0.0156250

     Dense  grid:   144397 G-vectors     FFT dimensions: (  72,  72,  72)

     Smooth grid:    50883 G-vectors     FFT dimensions: (  48,  48,  48)

     Estimated max dynamical RAM per process >     236.25 MB

     Estimated total dynamical RAM >     945.01 MB

     Check: negative core charge=   -0.000004
     Generating pointlists ...
     new r_m :   0.1786 (alat units)  1.9254 (a.u.) for type    1
     new r_m :   0.1786 (alat units)  1.9254 (a.u.) for type    2

     Initial potential from superposition of free atoms

     starting charge     253.9927, renormalised to     254.0000
     Starting wfcs are  160 randomized atomic wfcs
     Checking if some PAW data can be deallocated... 

     total cpu time spent up to now is       38.3 secs

     Self-consistent Calculation

     iteration #  1     ecut=    45.00 Ry     beta= 0.30
     Davidson diagonalization with overlap
     ethr =  1.00E-02,  avg # of iterations =  3.0

     total cpu time spent up to now is      170.2 secs

     total energy              =   -5181.22537124 Ry
     estimated scf accuracy    <      11.29924640 Ry

     total magnetization       =    49.97 Bohr mag/cell
     absolute magnetization    =    52.24 Bohr mag/cell

     iteration #  2     ecut=    45.00 Ry     beta= 0.30
     Davidson diagonalization with overlap
     ethr =  4.45E-03,  avg # of iterations =  6.8

     total cpu time spent up to now is      293.6 secs

     total energy              =   -5182.24984694 Ry
     estimated scf accuracy    <      22.60321866 Ry

     total magnetization       =    44.27 Bohr mag/cell
     absolute magnetization    =    45.95 Bohr mag/cell

     iteration #  3     ecut=    45.00 Ry     beta= 0.30
     Davidson diagonalization with overlap
     ethr =  4.45E-03,  avg # of iterations =  3.6

     negative rho (up, down):  0.000E+00 1.041E-03

     total cpu time spent up to now is      408.4 secs

     total energy              =   -5183.10032262 Ry
     estimated scf accuracy    <       7.27727888 Ry

     total magnetization       =    46.51 Bohr mag/cell
     absolute magnetization    =    48.26 Bohr mag/cell

     iteration #  4     ecut=    45.00 Ry     beta= 0.30
     Davidson diagonalization with overlap
     ethr =  2.87E-03,  avg # of iterations =  5.7

     negative rho (up, down):  0.000E+00 8.404E-03

     total cpu time spent up to now is      535.1 secs

     total energy              =   -5186.18680642 Ry
     estimated scf accuracy    <      13.96216659 Ry

     total magnetization       =    48.27 Bohr mag/cell
     absolute magnetization    =    49.95 Bohr mag/cell

     iteration #  5     ecut=    45.00 Ry     beta= 0.30
     Davidson diagonalization with overlap
     ethr =  2.87E-03,  avg # of iterations =  2.9

     negative rho (up, down):  0.000E+00 8.528E-03

     total cpu time spent up to now is      651.4 secs

     total energy              =   -5186.53089411 Ry
     estimated scf accuracy    <      21.43216203 Ry

     total magnetization       =    39.68 Bohr mag/cell
     absolute magnetization    =    42.24 Bohr mag/cell

     iteration #  6     ecut=    45.00 Ry     beta= 0.30
     Davidson diagonalization with overlap
     ethr =  2.87E-03,  avg # of iterations =  1.0

     negative rho (up, down):  0.000E+00 8.413E-03

     total cpu time spent up to now is      744.7 secs

     total energy              =   -5186.42099128 Ry
     estimated scf accuracy    <      12.05409338 Ry

     total magnetization       =    39.68 Bohr mag/cell
     absolute magnetization    =    42.02 Bohr mag/cell

     iteration #  7     ecut=    45.00 Ry     beta= 0.30
     Davidson diagonalization with overlap
     ethr =  2.87E-03,  avg # of iterations =  1.0

     negative rho (up, down):  0.000E+00 8.228E-03

     total cpu time spent up to now is      839.0 secs

     total energy              =   -5186.23194802 Ry
     estimated scf accuracy    <       7.79536581 Ry

     total magnetization       =    39.04 Bohr mag/cell
     absolute magnetization    =    41.40 Bohr mag/cell

     iteration #  8     ecut=    45.00 Ry     beta= 0.30
     Davidson diagonalization with overlap
     ethr =  2.87E-03,  avg # of iterations =  1.1

     negative rho (up, down):  0.000E+00 7.894E-03

     total cpu time spent up to now is      934.3 secs

     total energy              =   -5186.16642640 Ry
     estimated scf accuracy    <       3.28304638 Ry

     total magnetization       =    37.71 Bohr mag/cell
     absolute magnetization    =    40.21 Bohr mag/cell

     iteration #  9     ecut=    45.00 Ry     beta= 0.30
     Davidson diagonalization with overlap
     ethr =  1.29E-03,  avg # of iterations =  1.4

     negative rho (up, down):  0.000E+00 7.726E-03

     total cpu time spent up to now is     1032.8 secs

     total energy              =   -5186.22346118 Ry
     estimated scf accuracy    <       0.39681830 Ry

     total magnetization       =    35.26 Bohr mag/cell
     absolute magnetization    =    38.13 Bohr mag/cell

     iteration # 10     ecut=    45.00 Ry     beta= 0.30
     Davidson diagonalization with overlap
     ethr =  1.56E-04,  avg # of iterations =  2.5

     negative rho (up, down):  0.000E+00 6.190E-03

     total cpu time spent up to now is     1135.7 secs

     total energy              =   -5186.15866133 Ry
     estimated scf accuracy    <       0.46061506 Ry

     total magnetization       =    35.04 Bohr mag/cell
     absolute magnetization    =    37.85 Bohr mag/cell

     iteration # 11     ecut=    45.00 Ry     beta= 0.30
     Davidson diagonalization with overlap
     ethr =  1.56E-04,  avg # of iterations =  4.7

     negative rho (up, down):  0.000E+00 4.868E-03

     total cpu time spent up to now is     1252.6 secs

     total energy              =   -5186.27282279 Ry
     estimated scf accuracy    <       1.68263229 Ry

     total magnetization       =    32.31 Bohr mag/cell
     absolute magnetization    =    36.35 Bohr mag/cell

     iteration # 12     ecut=    45.00 Ry     beta= 0.30
     Davidson diagonalization with overlap
     ethr =  1.56E-04,  avg # of iterations =  1.1

     negative rho (up, down):  0.000E+00 4.101E-03

     total cpu time spent up to now is     1347.9 secs

     total energy              =   -5186.26427082 Ry
     estimated scf accuracy    <       0.68694250 Ry

     total magnetization       =    32.53 Bohr mag/cell
     absolute magnetization    =    36.47 Bohr mag/cell

     iteration # 13     ecut=    45.00 Ry     beta= 0.30
     Davidson diagonalization with overlap
     ethr =  1.56E-04,  avg # of iterations =  1.4

     negative rho (up, down):  0.000E+00 3.694E-03

     total cpu time spent up to now is     1444.2 secs

     total energy              =   -5186.27957293 Ry
     estimated scf accuracy    <       0.15502983 Ry

     total magnetization       =    32.25 Bohr mag/cell
     absolute magnetization    =    36.26 Bohr mag/cell

     iteration # 14     ecut=    45.00 Ry     beta= 0.30
     Davidson diagonalization with overlap
     ethr =  6.10E-05,  avg # of iterations =  1.5

     negative rho (up, down):  0.000E+00 3.408E-03

     total cpu time spent up to now is     1545.8 secs

     total energy              =   -5186.27854726 Ry
     estimated scf accuracy    <       0.14854839 Ry

     total magnetization       =    32.12 Bohr mag/cell
     absolute magnetization    =    36.26 Bohr mag/cell

     iteration # 15     ecut=    45.00 Ry     beta= 0.30
     Davidson diagonalization with overlap
     ethr =  5.85E-05,  avg # of iterations =  1.5

     negative rho (up, down):  0.000E+00 3.311E-03

     total cpu time spent up to now is     1648.9 secs

     total energy              =   -5186.28353375 Ry
     estimated scf accuracy    <       0.02841937 Ry

     total magnetization       =    31.78 Bohr mag/cell
     absolute magnetization    =    36.27 Bohr mag/cell

     iteration # 16     ecut=    45.00 Ry     beta= 0.30
     Davidson diagonalization with overlap
     ethr =  1.12E-05,  avg # of iterations =  4.8

     negative rho (up, down):  0.000E+00 3.198E-03

     total cpu time spent up to now is     1764.0 secs

     total energy              =   -5186.28559604 Ry
     estimated scf accuracy    <       0.01073069 Ry

     total magnetization       =    31.81 Bohr mag/cell
     absolute magnetization    =    36.29 Bohr mag/cell

     iteration # 17     ecut=    45.00 Ry     beta= 0.30
     Davidson diagonalization with overlap
     ethr =  4.22E-06,  avg # of iterations =  4.3

     negative rho (up, down):  0.000E+00 3.244E-03

     total cpu time spent up to now is     1877.7 secs

     total energy              =   -5186.28743102 Ry
     estimated scf accuracy    <       0.00255162 Ry

     total magnetization       =    31.65 Bohr mag/cell
     absolute magnetization    =    36.35 Bohr mag/cell

     iteration # 18     ecut=    45.00 Ry     beta= 0.30
     Davidson diagonalization with overlap
     ethr =  1.00E-06,  avg # of iterations =  5.7

     negative rho (up, down):  0.000E+00 3.356E-03

     total cpu time spent up to now is     2000.1 secs

     total energy              =   -5186.28858059 Ry
     estimated scf accuracy    <       0.00714179 Ry

     total magnetization       =    31.61 Bohr mag/cell
     absolute magnetization    =    36.45 Bohr mag/cell

     iteration # 19     ecut=    45.00 Ry     beta= 0.30
     Davidson diagonalization with overlap
     ethr =  1.00E-06,  avg # of iterations =  3.1

     negative rho (up, down):  0.000E+00 3.196E-03

     total cpu time spent up to now is     2109.1 secs

     total energy              =   -5186.28753477 Ry
     estimated scf accuracy    <       0.01641999 Ry

     total magnetization       =    31.62 Bohr mag/cell
     absolute magnetization    =    36.59 Bohr mag/cell

     iteration # 20     ecut=    45.00 Ry     beta= 0.30
     Davidson diagonalization with overlap
     ethr =  1.00E-06,  avg # of iterations =  4.7

     negative rho (up, down):  0.000E+00 3.384E-03

     total cpu time spent up to now is     2236.8 secs

     total energy              =   -5186.29014816 Ry
     estimated scf accuracy    <       0.00067108 Ry

     total magnetization       =    31.57 Bohr mag/cell
     absolute magnetization    =    36.91 Bohr mag/cell

     iteration # 21     ecut=    45.00 Ry     beta= 0.30
     Davidson diagonalization with overlap
     ethr =  2.64E-07,  avg # of iterations =  4.4

     negative rho (up, down):  0.000E+00 3.415E-03

     total cpu time spent up to now is     2366.0 secs

     total energy              =   -5186.29040551 Ry
     estimated scf accuracy    <       0.00050833 Ry

     total magnetization       =    31.65 Bohr mag/cell
     absolute magnetization    =    37.15 Bohr mag/cell

     iteration # 22     ecut=    45.00 Ry     beta= 0.30
     Davidson diagonalization with overlap
     ethr =  2.00E-07,  avg # of iterations =  2.6

     negative rho (up, down):  0.000E+00 3.415E-03

     total cpu time spent up to now is     2478.1 secs

     total energy              =   -5186.29045381 Ry
     estimated scf accuracy    <       0.00010359 Ry

     total magnetization       =    31.66 Bohr mag/cell
     absolute magnetization    =    37.20 Bohr mag/cell

     iteration # 23     ecut=    45.00 Ry     beta= 0.30
     Davidson diagonalization with overlap
     ethr =  4.08E-08,  avg # of iterations =  4.2

     negative rho (up, down):  0.000E+00 3.425E-03

     total cpu time spent up to now is     2601.4 secs

     total energy              =   -5186.29048407 Ry
     estimated scf accuracy    <       0.00005481 Ry

     total magnetization       =    31.65 Bohr mag/cell
     absolute magnetization    =    37.22 Bohr mag/cell

     iteration # 24     ecut=    45.00 Ry     beta= 0.30
     Davidson diagonalization with overlap
     ethr =  2.16E-08,  avg # of iterations =  4.7

     negative rho (up, down):  0.000E+00 3.423E-03

     total cpu time spent up to now is     2734.7 secs

     total energy              =   -5186.29050571 Ry
     estimated scf accuracy    <       0.00004491 Ry

     total magnetization       =    31.65 Bohr mag/cell
     absolute magnetization    =    37.28 Bohr mag/cell

     iteration # 25     ecut=    45.00 Ry     beta= 0.30
     Davidson diagonalization with overlap
     ethr =  1.77E-08,  avg # of iterations =  2.9

     negative rho (up, down):  0.000E+00 3.416E-03

     total cpu time spent up to now is     2850.2 secs

     total energy              =   -5186.29051787 Ry
     estimated scf accuracy    <       0.00001258 Ry

     total magnetization       =    31.66 Bohr mag/cell
     absolute magnetization    =    37.32 Bohr mag/cell

     iteration # 26     ecut=    45.00 Ry     beta= 0.30
     Davidson diagonalization with overlap
     ethr =  4.95E-09,  avg # of iterations =  4.3

     negative rho (up, down):  0.000E+00 3.411E-03

     total cpu time spent up to now is     2972.9 secs

     total energy              =   -5186.29051900 Ry
     estimated scf accuracy    <       0.00003212 Ry

     total magnetization       =    31.66 Bohr mag/cell
     absolute magnetization    =    37.32 Bohr mag/cell

     iteration # 27     ecut=    45.00 Ry     beta= 0.30
     Davidson diagonalization with overlap
     ethr =  4.95E-09,  avg # of iterations =  3.5

     negative rho (up, down):  0.000E+00 3.409E-03

     total cpu time spent up to now is     3093.9 secs

     total energy              =   -5186.29052208 Ry
     estimated scf accuracy    <       0.00000293 Ry

     total magnetization       =    31.66 Bohr mag/cell
     absolute magnetization    =    37.33 Bohr mag/cell

     iteration # 28     ecut=    45.00 Ry     beta= 0.30
     Davidson diagonalization with overlap
     ethr =  1.15E-09,  avg # of iterations =  5.3

     negative rho (up, down):  0.000E+00 3.409E-03

     Magnetic moment per site  (integrated on atomic sphere of radius R)
     atom   1 (R=0.179)  charge= 12.1113  magn= -1.6204
     atom   2 (R=0.179)  charge= 14.4210  magn=  2.2457
     atom   3 (R=0.179)  charge= 14.4201  magn=  2.2221
     atom   4 (R=0.179)  charge= 14.4210  magn=  2.2457
     atom   5 (R=0.179)  charge= 14.4201  magn=  2.2221
     atom   6 (R=0.179)  charge= 14.4210  magn=  2.2457
     atom   7 (R=0.179)  charge= 14.4092  magn=  2.3827
     atom   8 (R=0.179)  charge= 14.4210  magn=  2.2457
     atom   9 (R=0.179)  charge= 14.4201  magn=  2.2221
     atom  10 (R=0.179)  charge= 14.4210  magn=  2.2457
     atom  11 (R=0.179)  charge= 14.4092  magn=  2.3827
     atom  12 (R=0.179)  charge= 14.4210  magn=  2.2457
     atom  13 (R=0.179)  charge= 14.4092  magn=  2.3827
     atom  14 (R=0.179)  charge= 14.4210  magn=  2.2457
     atom  15 (R=0.179)  charge= 14.4121  magn=  2.5537
     atom  16 (R=0.179)  charge= 14.4210  magn=  2.2457

     total cpu time spent up to now is     3232.1 secs

     End of self-consistent calculation

 ------ SPIN UP ------------


          k = 0.0000 0.0000 0.0000 (  6403 PWs)   bands (ev):

   -70.2429 -70.2059 -70.1786 -70.1786 -70.1727 -70.1727 -70.1727 -70.1677
   -70.1677 -70.1677 -70.1633 -70.1496 -70.1100 -70.1100 -70.0903 -53.0582
   -36.3949 -36.3949 -36.3949 -36.3688 -36.3688 -36.3688 -36.2936 -36.2936
   -36.2936 -36.2645 -36.2355 -36.2355 -36.2355 -36.1957 -36.1943 -36.1943
   -36.1943 -36.1913 -36.1913 -36.1839 -36.1839 -36.1839 -36.1586 -36.1586
   -36.1586 -36.1538 -36.1538 -36.1538 -36.1318 -36.1318 -36.1318 -36.1219
   -36.1219 -36.1219 -36.1217 -36.1217 -36.0593 -36.0593 -36.0593 -35.9881
   -35.9881 -35.9881 -35.9727 -35.9727 -35.9727 -24.3951 -24.3951 -24.3951
     9.6039  13.1629  13.1629  13.1629  13.1711  13.1780  13.1780  13.2393
    13.2393  13.3479  13.3479  13.3479  13.3878  13.3878  13.4956  14.6841
    14.6841  14.6841  14.6943  14.6943  14.6943  14.7755  14.7755  14.7755
    14.9213  14.9213  14.9213  14.9850  14.9850  14.9850  15.0358  15.1891
    15.1891  15.7757  15.7757  15.7757  16.0981  16.0981  16.0981  16.1323
    16.1323  16.1323  16.1340  16.1340  16.1340  16.4231  16.4231  16.4231
    16.7906  16.8670  16.8670  16.9035  16.9035  16.9478  16.9478  16.9478
    16.9580  17.0050  17.0050  17.0715  17.0715  17.0782  17.0782  17.0782
    17.0840  17.0840  17.1130  17.2664  17.2664  17.2664  17.7794  17.7794
    18.1435  18.1435  18.1435  18.1447  18.1447  18.1447  18.2574  18.3342
    18.3342  18.3342  18.3947  18.3947  18.3947  18.4934  18.4934  18.4934

          k = 0.0000 0.0000 0.2500 (  6383 PWs)   bands (ev):

   -70.2402 -70.2057 -70.1909 -70.1786 -70.1720 -70.1720 -70.1685 -70.1685
   -70.1671 -70.1644 -70.1637 -70.1486 -70.1101 -70.1073 -70.0925 -53.0582
   -36.3895 -36.3889 -36.3889 -36.3594 -36.3572 -36.3572 -36.2989 -36.2786
   -36.2786 -36.2645 -36.2631 -36.2631 -36.2470 -36.2396 -36.2331 -36.2331
   -36.2198 -36.2036 -36.2021 -36.2021 -36.1851 -36.1626 -36.1626 -36.1493
   -36.1367 -36.1323 -36.1308 -36.1285 -36.1285 -36.1259 -36.1219 -36.0947
   -36.0947 -36.0857 -36.0857 -36.0809 -36.0675 -36.0610 -36.0610 -36.0090
   -35.9993 -35.9993 -35.9858 -35.9858 -35.9833 -24.3950 -24.3949 -24.3949
     9.9202  12.1375  13.2323  13.2323  13.2471  13.2501  13.3767  13.3782
    13.3883  13.4015  13.4331  13.4331  13.4843  13.5349  13.8594  14.3558
    14.5190  14.5471  14.6231  14.6231  14.6972  14.6972  14.8087  14.8552
    14.8552  14.9096  14.9775  14.9775  15.0252  15.1588  15.2929  15.2929
    15.7017  15.7017  15.7127  15.7665  15.7775  15.7794  15.7794  15.9560
    15.9560  16.0137  16.3269  16.3847  16.3916  16.3916  16.4188  16.4297
    16.4297  16.5110  16.5847  16.6852  16.6852  16.7780  16.9057  16.9624
    16.9666  16.9666  16.9864  17.0098  17.0269  17.0846  17.0910  17.0910
    17.1046  17.1088  17.1092  17.2879  17.3111  17.3616  17.4908  17.4908
    17.5011  17.7965  17.9703  17.9981  17.9981  18.0728  18.1883  18.2234
    18.2234  18.4358  18.4565  18.5034  18.5034  18.9270  18.9270  19.2064

          k = 0.0000 0.0000-0.5000 (  6432 PWs)   bands (ev):

   -70.2369 -70.2056 -70.1993 -70.1786 -70.1703 -70.1703 -70.1703 -70.1703
   -70.1655 -70.1655 -70.1612 -70.1478 -70.1102 -70.1023 -70.0971 -53.0583
   -36.3789 -36.3789 -36.3707 -36.3231 -36.3205 -36.3182 -36.3182 -36.3155
   -36.3155 -36.2919 -36.2900 -36.2900 -36.2782 -36.2526 -36.2524 -36.2524
   -36.2221 -36.2221 -36.2139 -36.2136 -36.1877 -36.1617 -36.1617 -36.1439
   -36.1438 -36.1310 -36.1310 -36.1143 -36.1120 -36.1070 -36.1070 -36.0970
   -36.0970 -36.0563 -36.0563 -36.0543 -36.0484 -36.0454 -36.0368 -36.0368
   -36.0198 -36.0198 -36.0168 -36.0168 -36.0008 -24.3958 -24.3958 -24.3955
    10.7966  10.8540  13.3776  13.3905  13.3905  13.4041  13.4280  13.4280
    13.4700  13.5171  13.6673  13.7326  13.7426  13.8430  13.8862  13.8896
    13.9514  13.9697  14.5754  14.5754  14.6638  14.6638  15.1557  15.1557
    15.1560  15.1678  15.1885  15.2620  15.2620  15.3993  15.3993  15.4156
    15.4167  15.4203  15.4298  15.4298  15.4557  15.7192  15.7192  15.8219
    15.8219  15.8442  15.9578  15.9578  16.0331  16.1123  16.1123  16.2361
    16.3150  16.4049  16.6725  16.6811  16.6811  16.6917  16.6974  16.8501
    16.8528  16.8528  17.0299  17.0322  17.0769  17.0778  17.0780  17.0922
    17.1011  17.1100  17.1931  17.1931  17.4561  17.4561  17.6698  17.7599
    17.7871  17.7871  17.7898  17.7926  17.8306  17.8502  17.8908  18.3174
    18.3174  18.4152  18.4509  18.4519  18.4519  18.9217  18.9217  19.1355

          k = 0.0000 0.2500 0.2500 (  6408 PWs)   bands (ev):

   -70.2379 -70.2052 -70.1932 -70.1859 -70.1727 -70.1713 -70.1679 -70.1679
   -70.1644 -70.1644 -70.1617 -70.1486 -70.1084 -70.1065 -70.0947 -53.0582
   -36.3834 -36.3827 -36.3787 -36.3511 -36.3472 -36.3373 -36.3053 -36.2998
   -36.2861 -36.2813 -36.2787 -36.2737 -36.2692 -36.2455 -36.2377 -36.2294
   -36.2108 -36.2039 -36.1954 -36.1817 -36.1723 -36.1690 -36.1682 -36.1552
   -36.1534 -36.1513 -36.1474 -36.1373 -36.1345 -36.1307 -36.0921 -36.0913
   -36.0886 -36.0841 -36.0835 -36.0816 -36.0540 -36.0466 -36.0397 -36.0322
   -36.0092 -36.0015 -35.9944 -35.9925 -35.9833 -24.3956 -24.3953 -24.3952
    10.2289  12.3100  12.3625  13.0494  13.4510  13.4545  13.4614  13.4618
    13.4869  13.5132  13.5441  13.5677  13.6372  13.9135  13.9376  14.3987
    14.4251  14.4450  14.4452  14.7261  14.7461  14.7570  14.7892  14.7919
    14.8058  14.8328  14.9473  14.9744  15.0632  15.1769  15.2258  15.4580
    15.5088  15.5393  15.5661  15.6208  15.6631  15.7113  15.7404  15.8037
    16.0916  16.1580  16.1907  16.2223  16.2254  16.2391  16.2528  16.3256
    16.4076  16.4449  16.5283  16.5452  16.5677  16.6619  16.8160  16.8213
    16.8255  16.9081  16.9087  16.9664  16.9745  16.9876  17.0455  17.0502
    17.0942  17.1252  17.2111  17.2716  17.3076  17.3549  17.4021  17.4358
    17.4453  17.4756  17.5225  17.5230  17.7320  17.7814  18.1557  18.2043
    18.3116  18.4175  18.6890  18.8137  19.0229  19.4684  19.7425  19.8134

          k = 0.0000 0.2500-0.5000 (  6380 PWs)   bands (ev):

   -70.2351 -70.2036 -70.1998 -70.1864 -70.1752 -70.1696 -70.1695 -70.1661
   -70.1661 -70.1626 -70.1588 -70.1485 -70.1078 -70.1025 -70.0986 -53.0582
   -36.3725 -36.3676 -36.3633 -36.3319 -36.3296 -36.3162 -36.3106 -36.3096
   -36.3083 -36.2994 -36.2988 -36.2846 -36.2537 -36.2497 -36.2470 -36.2275
   -36.2213 -36.2086 -36.2019 -36.2007 -36.1753 -36.1690 -36.1574 -36.1561
   -36.1447 -36.1431 -36.1354 -36.1276 -36.1240 -36.1179 -36.1148 -36.1026
   -36.0910 -36.0836 -36.0834 -36.0543 -36.0452 -36.0384 -36.0274 -36.0148
   -36.0144 -36.0068 -36.0065 -36.0042 -35.9886 -24.3952 -24.3952 -24.3950
    11.0732  11.1315  12.7298  12.7790  13.6038  13.6075  13.6492  13.6970
    13.7487  13.7623  13.7634  13.8597  13.8800  13.9684  13.9806  13.9811
    14.0398  14.0484  14.6544  14.6702  14.7134  14.7483  14.9079  14.9161
    14.9351  14.9419  14.9586  15.0419  15.1151  15.1486  15.4598  15.4710
    15.4726  15.4822  15.5111  15.5550  15.5669  15.6150  15.6177  15.6201
    15.6514  15.6603  15.6629  15.7278  15.7677  15.9126  16.4297  16.4776
    16.5029  16.5386  16.6189  16.6233  16.7117  16.7134  16.7200  16.7489
    16.8102  16.8201  16.8475  16.9460  16.9869  16.9918  17.0178  17.0527
    17.0610  17.0922  17.1655  17.1843  17.2090  17.2274  17.2350  17.3207
    17.3806  17.4327  17.4435  17.5780  17.6357  18.0606  18.0803  18.0823
    18.5251  18.6791  18.7120  18.7274  19.3855  19.4255  19.5404  19.8092

          k = 0.0000-0.5000-0.5000 (  6304 PWs)   bands (ev):

   -70.2328 -70.2009 -70.2009 -70.1907 -70.1796 -70.1678 -70.1678 -70.1678
   -70.1678 -70.1574 -70.1574 -70.1497 -70.1029 -70.1026 -70.1026 -53.0581
   -36.3701 -36.3450 -36.3450 -36.3346 -36.3336 -36.3192 -36.3179 -36.3089
   -36.3089 -36.3074 -36.3074 -36.2813 -36.2337 -36.2290 -36.2290 -36.2158
   -36.2054 -36.1824 -36.1743 -36.1743 -36.1671 -36.1671 -36.1609 -36.1595
   -36.1584 -36.1508 -36.1505 -36.1477 -36.1377 -36.1377 -36.1266 -36.1266
   -36.1192 -36.0656 -36.0656 -36.0606 -36.0407 -36.0392 -36.0211 -36.0105
   -36.0105 -35.9935 -35.9935 -35.9891 -35.9765 -24.3944 -24.3944 -24.3942
    11.8158  11.8189  11.8189  11.9365  13.8499  13.8592  13.8592  13.9682
    14.0017  14.0017  14.0046  14.0122  14.0217  14.0508  14.0508  14.1383
    14.3426  14.3444  14.3444  14.4669  14.6717  14.6918  14.6979  14.6979
    14.7096  14.7698  14.7698  14.9416  15.2028  15.2121  15.2885  15.2885
    15.3124  15.3341  15.3341  15.3459  15.3533  15.3533  15.3749  15.5043
    15.5745  15.5745  15.6606  15.8634  16.0592  16.0619  16.2102  16.2102
    16.6371  16.6371  16.6610  16.6886  16.7445  16.7445  16.8543  16.8570
    16.8570  16.8686  16.8710  16.8983  16.9044  16.9044  16.9056  16.9180
    16.9725  16.9786  16.9826  16.9826  17.1023  17.1455  17.1455  17.2907
    17.2972  17.3033  17.3033  17.4976  17.4976  17.8973  18.2322  18.2359
    18.7015  18.8473  18.8473  18.8502  20.1868  20.2204  20.2204  20.2777

          k = 0.2500 0.2500 0.2500 (  6388 PWs)   bands (ev):

   -70.2358 -70.2042 -70.1920 -70.1920 -70.1740 -70.1713 -70.1713 -70.1677
   -70.1650 -70.1596 -70.1596 -70.1487 -70.1064 -70.1064 -70.0964 -53.0582
   -36.3738 -36.3738 -36.3716 -36.3451 -36.3252 -36.3252 -36.3144 -36.2939
   -36.2939 -36.2931 -36.2856 -36.2856 -36.2495 -36.2495 -36.2417 -36.2205
   -36.2115 -36.2115 -36.2034 -36.1935 -36.1935 -36.1886 -36.1740 -36.1740
   -36.1546 -36.1342 -36.1342 -36.1267 -36.1060 -36.1060 -36.1006 -36.0953
   -36.0953 -36.0859 -36.0859 -36.0775 -36.0612 -36.0314 -36.0232 -36.0232
   -36.0088 -36.0088 -35.9992 -35.9992 -35.9911 -24.3953 -24.3952 -24.3952
    10.5311  12.5282  12.5282  12.6028  13.2924  13.2924  13.3255  13.6477
    13.6477  13.6982  13.7035  13.7035  14.0572  14.0788  14.0788  14.3670
    14.3834  14.4358  14.4358  14.6630  14.6630  14.7724  14.7802  14.8300
    14.8300  14.9526  14.9526  14.9954  15.0471  15.0471  15.1921  15.3002
    15.3002  15.4567  15.4567  15.5613  15.5613  15.5756  15.6054  15.6753
    15.6753  15.8070  15.8999  15.8999  16.0315  16.0315  16.1255  16.4082
    16.4427  16.4805  16.4805  16.7171  16.7813  16.7813  16.7926  16.8554
    16.8554  16.8737  16.8822  16.8822  16.9710  16.9710  17.0543  17.0543
    17.0600  17.0716  17.1412  17.1412  17.1769  17.2200  17.2200  17.4710
    17.4710  17.4716  17.6733  17.6733  17.8152  17.8266  17.8266  18.2313
    18.3248  18.3248  18.8670  18.8670  19.0634  19.2647  19.2647  20.7267

          k = 0.2500 0.2500-0.5000 (  6364 PWs)   bands (ev):

   -70.2335 -70.2016 -70.1994 -70.1905 -70.1745 -70.1740 -70.1713 -70.1675
   -70.1656 -70.1582 -70.1559 -70.1492 -70.1063 -70.1026 -70.0998 -53.0582
   -36.3640 -36.3614 -36.3567 -36.3277 -36.3246 -36.3146 -36.3117 -36.3037
   -36.3006 -36.2984 -36.2797 -36.2791 -36.2701 -36.2575 -36.2435 -36.2297
   -36.2273 -36.2267 -36.2028 -36.1945 -36.1939 -36.1837 -36.1815 -36.1755
   -36.1446 -36.1418 -36.1328 -36.1273 -36.1202 -36.0991 -36.0939 -36.0885
   -36.0812 -36.0809 -36.0705 -36.0688 -36.0560 -36.0271 -36.0259 -36.0204
   -36.0155 -36.0083 -36.0023 -35.9970 -35.9917 -24.3951 -24.3950 -24.3950
    11.3496  11.4082  12.9826  12.9904  12.9954  13.0829  13.9191  13.9266
    13.9384  13.9520  13.9610  13.9679  13.9803  13.9981  14.0269  14.0821
    14.1500  14.2025  14.6720  14.7461  14.7558  14.7849  14.8054  14.8167
    14.8208  14.9659  14.9843  15.0010  15.0208  15.0910  15.2812  15.2872
    15.3383  15.3528  15.3550  15.3777  15.3781  15.3839  15.3846  15.3879
    15.4159  15.4675  15.4685  15.5522  15.6355  15.6520  16.2238  16.2629
    16.6133  16.6629  16.7210  16.7372  16.7461  16.7477  16.7553  16.7855
    16.8311  16.8409  16.8506  16.9694  16.9760  17.0034  17.0168  17.0644
    17.1046  17.1053  17.1329  17.1546  17.1843  17.2032  17.2418  17.2926
    17.3331  17.5447  17.7740  17.8059  17.8509  17.8774  17.9206  17.9520
    17.9591  18.4651  18.7328  18.9494  19.0286  19.0413  20.1071  20.2576

          k = 0.2500-0.5000-0.5000 (  6360 PWs)   bands (ev):

   -70.2317 -70.1991 -70.1991 -70.1939 -70.1787 -70.1730 -70.1730 -70.1689
   -70.1648 -70.1540 -70.1540 -70.1507 -70.1029 -70.1028 -70.1028 -53.0582
   -36.3585 -36.3458 -36.3458 -36.3209 -36.3180 -36.3149 -36.3147 -36.3026
   -36.3026 -36.2916 -36.2916 -36.2800 -36.2711 -36.2387 -36.2387 -36.2322
   -36.2186 -36.2153 -36.2153 -36.2136 -36.2116 -36.2090 -36.1872 -36.1872
   -36.1533 -36.1266 -36.1260 -36.1260 -36.1152 -36.1024 -36.1024 -36.0933
   -36.0900 -36.0607 -36.0582 -36.0582 -36.0580 -36.0350 -36.0280 -36.0194
   -36.0194 -36.0032 -36.0017 -36.0017 -35.9889 -24.3953 -24.3949 -24.3949
    12.0926  12.0944  12.0944  12.2096  13.5842  13.5991  13.5991  13.6870
    14.0198  14.0268  14.0268  14.1402  14.3784  14.3784  14.3799  14.3811
    14.3914  14.3914  14.4382  14.4808  14.6099  14.6266  14.6266  14.7090
    14.8274  14.8559  14.8559  14.9542  15.0179  15.0204  15.0204  15.0675
    15.1443  15.1523  15.1641  15.1641  15.2017  15.2017  15.2202  15.2382
    15.3427  15.3427  15.3758  15.4876  15.6006  15.7291  15.7353  15.7353
    16.7862  16.7889  16.7889  16.8639  16.8731  16.8755  16.8755  16.9284
    16.9532  16.9611  16.9611  17.0059  17.0156  17.0156  17.0188  17.0264
    17.0789  17.0789  17.0804  17.1481  17.1481  17.2012  17.3005  17.3566
    17.3580  17.3810  17.3810  17.5705  17.5705  17.8610  17.9103  18.0566
    18.4455  18.4455  18.7399  18.8081  19.1033  19.4298  19.4448  19.4448

          k =-0.5000-0.5000-0.5000 (  6272 PWs)   bands (ev):

   -70.2303 -70.1966 -70.1966 -70.1966 -70.1773 -70.1773 -70.1773 -70.1702
   -70.1620 -70.1518 -70.1518 -70.1518 -70.1027 -70.1027 -70.1027 -53.0581
   -36.3394 -36.3394 -36.3394 -36.2947 -36.2947 -36.2935 -36.2843 -36.2843
   -36.2843 -36.2772 -36.2748 -36.2748 -36.2748 -36.2690 -36.2690 -36.2485
   -36.2485 -36.2485 -36.2215 -36.2215 -36.2215 -36.2092 -36.2092 -36.2092
   -36.1292 -36.1187 -36.1187 -36.1187 -36.0962 -36.0730 -36.0730 -36.0730
   -36.0511 -36.0511 -36.0433 -36.0433 -36.0433 -36.0300 -36.0300 -36.0300
   -36.0281 -36.0281 -36.0031 -36.0031 -36.0031 -24.3939 -24.3939 -24.3939
    12.8127  12.8171  12.8171  12.8171  12.8276  12.8276  12.8276  13.0665
    14.4824  14.4824  14.4932  14.4932  14.4932  14.4977  14.4977  14.4977
    14.4991  14.4991  14.4991  14.5018  14.5018  14.5018  14.7535  14.7535
    14.9439  14.9439  14.9439  14.9763  14.9763  14.9763  14.9866  14.9866
    14.9866  14.9936  14.9936  14.9936  15.0034  15.0034  15.0034  15.0111
    15.0285  15.0288  15.0288  15.0969  15.0969  15.3990  15.3990  15.3990
    16.9193  16.9193  16.9237  16.9237  16.9237  16.9411  16.9411  16.9411
    16.9540  16.9540  16.9540  16.9723  16.9723  16.9723  17.2906  17.2906
    17.3454  17.3454  17.3454  17.3546  17.3546  17.3546  17.4035  17.4035
    17.4035  17.4208  17.4208  17.7309  17.7309  17.7309  18.0328  18.0440
    18.0557  18.0557  18.0557  18.8666  18.8666  19.1408  19.1408  19.1408

 ------ SPIN DOWN ----------


          k = 0.0000 0.0000 0.0000 (  6403 PWs)   bands (ev):

   -67.5524 -67.5109 -67.5109 -67.5109 -67.5055 -67.5055 -67.5055 -67.5004
   -67.4812 -67.4812 -67.4569 -67.3512 -67.3512 -67.3412 -67.1905 -54.7627
   -33.7877 -33.7877 -33.7877 -33.7713 -33.7713 -33.7713 -33.6762 -33.6762
   -33.6762 -33.6746 -33.6430 -33.6430 -33.6430 -33.6084 -33.6084 -33.5958
   -33.5763 -33.5763 -33.5763 -33.5676 -33.5676 -33.5676 -33.5401 -33.5401
   -33.5401 -33.5289 -33.5289 -33.5207 -33.5207 -33.5207 -33.4552 -33.4552
   -33.4552 -33.4019 -33.4019 -33.4019 -33.3354 -33.3354 -33.3354 -33.3201
   -33.3201 -33.3201 -33.2475 -33.2475 -33.2475 -26.0759 -26.0759 -26.0759
     9.6783  13.7224  13.7224  13.8639  13.8639  13.8639  13.8736  14.2146
    14.2146  14.2146  14.2834  14.2834  14.4177  14.9209  14.9209  15.8337
    15.8337  15.8337  16.1534  16.1534  16.1534  16.3479  16.3479  16.3479
    16.4206  16.4206  16.4206  16.9041  16.9041  17.1970  17.1970  17.1970
    17.3263  17.5211  17.5211  17.5211  17.9299  17.9299  17.9299  17.9636
    17.9636  17.9636  17.9866  17.9866  17.9866  18.0356  18.0356  18.0356
    18.4643  18.4643  18.4643  18.4650  18.4650  18.4650  18.8712  18.9080
    18.9080  18.9080  18.9222  18.9222  19.1243  19.1243  19.5141  19.5141
    19.5141  19.5454  19.6688  19.6688  19.7684  19.7684  19.8929  19.8929
    19.8929  19.8964  19.8964  20.0286  20.0533  20.0533  20.2611  20.2611
    20.2611  20.5082  20.5082  20.5082  20.5614  20.5719  20.5719  20.5719

          k = 0.0000 0.0000 0.2500 (  6383 PWs)   bands (ev):

   -67.5479 -67.5200 -67.5101 -67.5101 -67.5064 -67.5064 -67.5048 -67.5011
   -67.4812 -67.4754 -67.4582 -67.3513 -67.3499 -67.3424 -67.1905 -54.7627
   -33.7838 -33.7767 -33.7767 -33.7606 -33.7574 -33.7574 -33.6856 -33.6818
   -33.6818 -33.6705 -33.6479 -33.6456 -33.6399 -33.6399 -33.6292 -33.6292
   -33.6250 -33.6044 -33.5942 -33.5942 -33.5594 -33.5404 -33.5388 -33.5368
   -33.5333 -33.5181 -33.5181 -33.4951 -33.4642 -33.4642 -33.4412 -33.4412
   -33.4279 -33.4065 -33.3988 -33.3988 -33.3527 -33.3438 -33.3438 -33.3336
   -33.3336 -33.3293 -33.2478 -33.2472 -33.2472 -26.0759 -26.0758 -26.0758
     9.9975  12.3048  13.8456  13.9895  13.9895  14.0009  14.2539  14.2539
    14.3050  14.3353  14.4209  14.5250  14.8788  15.0865  15.0944  15.6646
    15.8485  15.8485  15.8577  16.2430  16.2545  16.2545  16.3721  16.4496
    16.4496  16.5529  16.5529  16.5597  16.7052  16.9564  16.9564  17.0077
    17.3608  17.4299  17.4299  17.5734  17.6144  17.6144  17.6830  17.7389
    17.7389  17.7669  17.7669  17.7760  17.7940  17.8789  17.8789  17.9668
    18.3340  18.3698  18.3698  18.3818  18.4166  18.4675  18.4675  19.1023
    19.2275  19.2746  19.3302  19.3302  19.3866  19.4041  19.4041  19.4428
    19.4715  19.4948  19.5584  19.7146  19.7477  19.8634  19.8639  19.9009
    19.9323  19.9726  19.9726  20.0719  20.1615  20.2010  20.2855  20.2855
    20.3237  20.3429  20.4098  20.4230  20.4230  20.4340  20.5193  20.5193

          k = 0.0000 0.0000-0.5000 (  6432 PWs)   bands (ev):

   -67.5379 -67.5335 -67.5083 -67.5083 -67.5083 -67.5083 -67.5030 -67.5030
   -67.4812 -67.4699 -67.4604 -67.3513 -67.3478 -67.3444 -67.1905 -54.7627
   -33.7713 -33.7550 -33.7550 -33.7235 -33.7235 -33.7221 -33.7079 -33.7079
   -33.7009 -33.6991 -33.6991 -33.6962 -33.6776 -33.6594 -33.6289 -33.6289
   -33.6165 -33.6164 -33.6154 -33.6154 -33.5533 -33.5533 -33.5387 -33.5387
   -33.5224 -33.5059 -33.5059 -33.4837 -33.4427 -33.4427 -33.4262 -33.4262
   -33.4042 -33.4013 -33.3774 -33.3774 -33.3767 -33.3650 -33.3650 -33.3600
   -33.3600 -33.3418 -33.2502 -33.2502 -33.2494 -26.0767 -26.0767 -26.0764
    10.9120  10.9243  13.9879  14.1200  14.1200  14.3015  14.3185  14.3185
    14.3265  14.3306  14.7880  14.8032  15.2150  15.2547  15.2688  15.3060
    15.4138  15.6953  15.8588  15.8588  16.2316  16.2316  16.5345  16.6045
    16.6913  16.6913  16.9298  16.9726  16.9726  16.9968  16.9968  17.0161
    17.0185  17.0476  17.0476  17.0559  17.0756  17.0756  17.0818  17.0964
    17.1078  17.1078  17.5312  17.5312  17.6687  17.6687  17.8995  18.0742
    18.3938  18.7928  18.8675  18.8675  18.9633  19.0046  19.0190  19.0190
    19.0220  19.0515  19.1472  19.1472  19.2692  19.2692  19.4516  19.5972
    19.6881  19.7182  19.7414  19.7973  19.8667  19.8929  19.8966  19.9241
    19.9241  19.9289  19.9534  19.9609  19.9718  20.0348  20.0382  20.0470
    20.0470  20.0532  20.4790  20.4853  20.5158  20.5158  20.5249  20.5249

          k = 0.0000 0.2500 0.2500 (  6408 PWs)   bands (ev):

   -67.5439 -67.5203 -67.5161 -67.5094 -67.5084 -67.5056 -67.5056 -67.5019
   -67.4774 -67.4736 -67.4597 -67.3505 -67.3495 -67.3435 -67.1905 -54.7627
   -33.7779 -33.7736 -33.7676 -33.7503 -33.7452 -33.7321 -33.6988 -33.6918
   -33.6896 -33.6840 -33.6752 -33.6639 -33.6504 -33.6357 -33.6330 -33.6309
   -33.6086 -33.6068 -33.5879 -33.5774 -33.5726 -33.5531 -33.5520 -33.5461
   -33.5426 -33.5337 -33.4990 -33.4939 -33.4589 -33.4515 -33.4458 -33.4356
   -33.4338 -33.3926 -33.3904 -33.3768 -33.3757 -33.3514 -33.3469 -33.3424
   -33.3369 -33.3306 -33.2497 -33.2488 -33.2479 -26.0765 -26.0762 -26.0760
    10.3102  12.5307  12.5449  13.7675  14.1187  14.1451  14.4185  14.4616
    14.5089  14.5398  14.7178  14.9717  14.9835  15.2293  15.2321  15.5744
    15.7349  15.8916  16.0052  16.1408  16.2298  16.2658  16.3316  16.3990
    16.4070  16.4670  16.4847  16.5487  16.6956  16.7051  16.7557  17.1627
    17.1629  17.2017  17.3486  17.3587  17.3696  17.3799  17.4012  17.4199
    17.4393  17.4446  17.4461  17.5008  17.6020  17.9447  17.9785  18.0124
    18.3654  18.4306  18.4951  18.5391  18.5398  18.6526  18.8286  18.8894
    19.0236  19.1828  19.2665  19.3374  19.4364  19.4381  19.4396  19.4988
    19.5386  19.6391  19.6496  19.6829  19.7491  19.7572  19.7992  19.8203
    19.8810  19.8967  19.9161  19.9572  19.9807  20.0537  20.0594  20.0642
    20.1463  20.1482  20.3375  20.5403  20.6425  20.6896  21.3178  21.3256

          k = 0.0000 0.2500-0.5000 (  6380 PWs)   bands (ev):

   -67.5347 -67.5310 -67.5146 -67.5116 -67.5075 -67.5075 -67.5037 -67.5037
   -67.4761 -67.4691 -67.4624 -67.3503 -67.3478 -67.3454 -67.1905 -54.7627
   -33.7694 -33.7606 -33.7484 -33.7290 -33.7245 -33.7109 -33.7107 -33.7016
   -33.6971 -33.6958 -33.6854 -33.6820 -33.6540 -33.6509 -33.6300 -33.6247
   -33.6143 -33.6085 -33.6017 -33.5933 -33.5621 -33.5599 -33.5526 -33.5500
   -33.5351 -33.5197 -33.4905 -33.4884 -33.4623 -33.4621 -33.4377 -33.4318
   -33.4232 -33.3781 -33.3764 -33.3741 -33.3619 -33.3571 -33.3564 -33.3518
   -33.3408 -33.3371 -33.2488 -33.2484 -33.2479 -26.0761 -26.0760 -26.0760
    11.2029  11.2089  13.1165  13.1421  14.3345  14.3500  14.5028  14.5356
    14.8712  14.8754  15.0051  15.0164  15.2393  15.2513  15.3242  15.4479
    15.5073  15.7388  15.9238  15.9809  16.2073  16.2952  16.3794  16.3813
    16.5213  16.6266  16.6298  16.6430  16.7090  16.7543  16.7618  16.8418
    16.8498  16.8599  16.9788  17.0313  17.0350  17.0433  17.2099  17.2120
    17.2209  17.2258  17.3637  17.3718  17.4415  17.5151  18.3389  18.3934
    18.4867  18.6312  18.6728  18.7006  18.7294  18.9053  18.9057  19.0217
    19.0687  19.0700  19.1206  19.1332  19.1727  19.1882  19.4240  19.4594
    19.4858  19.5969  19.6281  19.6363  19.7165  19.7946  19.8498  19.8796
    19.8933  19.9137  19.9391  19.9458  19.9536  20.0137  20.0247  20.0366
    20.1941  20.2460  20.3392  20.3403  20.9948  21.0025  21.0105  21.0433

          k = 0.0000-0.5000-0.5000 (  6304 PWs)   bands (ev):

   -67.5272 -67.5272 -67.5244 -67.5162 -67.5056 -67.5056 -67.5056 -67.5056
   -67.4684 -67.4684 -67.4677 -67.3477 -67.3477 -67.3477 -67.1905 -54.7626
   -33.7683 -33.7573 -33.7441 -33.7284 -33.7087 -33.7087 -33.7083 -33.6993
   -33.6986 -33.6986 -33.6845 -33.6845 -33.6293 -33.6293 -33.6177 -33.6128
   -33.5975 -33.5804 -33.5747 -33.5747 -33.5709 -33.5709 -33.5684 -33.5627
   -33.5626 -33.5428 -33.4850 -33.4793 -33.4793 -33.4791 -33.4748 -33.4216
   -33.4216 -33.3706 -33.3685 -33.3663 -33.3577 -33.3577 -33.3407 -33.3407
   -33.3326 -33.3241 -33.2461 -33.2461 -33.2444 -26.0753 -26.0753 -26.0750
    11.9838  12.0041  12.0271  12.0271  14.7013  14.7188  14.7188  15.0092
    15.0215  15.0215  15.0269  15.0369  15.2543  15.3109  15.3698  15.5633
    15.5633  16.0432  16.0432  16.0474  16.0474  16.0781  16.1676  16.2743
    16.3457  16.3572  16.3572  16.3833  16.3939  16.7345  16.7345  16.7847
    16.7911  16.8102  16.8102  16.8565  16.9107  16.9107  17.0265  17.0545
    17.2398  17.3236  17.3485  17.3485  17.8684  17.8684  17.9289  17.9534
    18.5029  18.5674  18.6796  18.6796  18.7851  18.8826  18.8826  18.9792
    19.0065  19.0536  19.3198  19.3198  19.3337  19.3349  19.3349  19.3522
    19.3791  19.4006  19.4006  19.4767  19.6604  19.6860  19.7830  19.7830
    19.8438  19.8822  19.8822  19.9103  19.9187  19.9933  19.9933  20.0059
    20.4312  20.4312  20.4708  20.5028  21.8535  21.8653  21.8725  21.8764

          k = 0.2500 0.2500 0.2500 (  6388 PWs)   bands (ev):

   -67.5402 -67.5188 -67.5188 -67.5123 -67.5075 -67.5075 -67.5066 -67.5028
   -67.4733 -67.4733 -67.4611 -67.3495 -67.3495 -67.3444 -67.1905 -54.7627
   -33.7674 -33.7674 -33.7628 -33.7442 -33.7209 -33.7209 -33.7082 -33.6940
   -33.6940 -33.6818 -33.6716 -33.6716 -33.6407 -33.6407 -33.6344 -33.6206
   -33.6056 -33.6056 -33.6017 -33.5950 -33.5950 -33.5792 -33.5582 -33.5582
   -33.5394 -33.5008 -33.5008 -33.4648 -33.4648 -33.4568 -33.4385 -33.4385
   -33.4322 -33.3969 -33.3738 -33.3676 -33.3676 -33.3508 -33.3508 -33.3455
   -33.3455 -33.3376 -33.2489 -33.2489 -33.2478 -26.0762 -26.0761 -26.0761
    10.6169  12.7741  12.7811  12.7811  14.0102  14.0102  14.0882  14.7548
    14.7548  14.9553  15.0854  15.0854  15.2200  15.3744  15.3744  15.5038
    15.7246  15.8876  15.8876  16.1604  16.1604  16.2856  16.2856  16.3203
    16.4113  16.4771  16.4771  16.5165  16.6321  16.6321  16.9545  16.9733
    16.9733  17.0310  17.0310  17.0913  17.1249  17.1575  17.1575  17.2120
    17.2385  17.2385  17.3572  17.3572  17.5956  17.5956  17.6351  18.2603
    18.5744  18.5744  18.7211  18.7211  18.7332  18.7810  18.8810  19.1342
    19.1342  19.1897  19.2200  19.2200  19.2771  19.3600  19.3600  19.4754
    19.5685  19.5685  19.7053  19.7053  19.8040  19.8040  19.8483  19.8913
    19.8913  19.8945  19.9268  19.9268  20.0287  20.0287  20.0835  20.0835
    20.1103  20.1609  20.1753  20.1753  20.5882  20.5927  20.5927  22.0676

          k = 0.2500 0.2500-0.5000 (  6364 PWs)   bands (ev):

   -67.5318 -67.5287 -67.5165 -67.5110 -67.5101 -67.5091 -67.5049 -67.5049
   -67.4729 -67.4684 -67.4637 -67.3495 -67.3477 -67.3460 -67.1905 -54.7626
   -33.7636 -33.7546 -33.7511 -33.7229 -33.7187 -33.7058 -33.7036 -33.7001
   -33.6921 -33.6827 -33.6759 -33.6605 -33.6585 -33.6480 -33.6326 -33.6293
   -33.6281 -33.6279 -33.5934 -33.5911 -33.5848 -33.5830 -33.5782 -33.5731
   -33.5340 -33.4992 -33.4858 -33.4831 -33.4551 -33.4480 -33.4326 -33.4288
   -33.4240 -33.3905 -33.3712 -33.3685 -33.3609 -33.3594 -33.3496 -33.3469
   -33.3426 -33.3388 -33.2484 -33.2476 -33.2470 -26.0760 -26.0759 -26.0759
    11.4911  11.4915  13.3729  13.3796  13.3828  13.4208  14.6447  14.7990
    14.9407  15.0541  15.1806  15.2023  15.3636  15.4393  15.5420  15.6124
    15.6421  15.7750  15.9983  16.0315  16.0599  16.3497  16.3525  16.4425
    16.4721  16.4724  16.4898  16.5251  16.6061  16.6189  16.6970  16.7436
    16.7458  16.7578  16.8600  16.9819  16.9900  16.9943  17.0171  17.0542
    17.0951  17.1026  17.2150  17.2331  17.2400  17.2823  17.9787  18.0060
    18.6564  18.6855  18.6886  18.7729  18.9601  18.9685  19.0534  19.1022
    19.2020  19.2640  19.2845  19.2859  19.3115  19.3784  19.4362  19.5382
    19.5725  19.6096  19.7148  19.7539  19.7759  19.7801  19.8035  19.8464
    19.8591  19.8675  19.8766  19.9615  19.9851  20.0282  20.0291  20.0696
    20.0774  20.1042  20.1115  20.1282  20.1312  20.1452  21.6128  21.6497

          k = 0.2500-0.5000-0.5000 (  6360 PWs)   bands (ev):

   -67.5252 -67.5252 -67.5235 -67.5148 -67.5083 -67.5083 -67.5071 -67.5069
   -67.4677 -67.4677 -67.4674 -67.3477 -67.3477 -67.3477 -67.1905 -54.7626
   -33.7562 -33.7550 -33.7439 -33.7130 -33.7027 -33.7017 -33.7017 -33.6933
   -33.6933 -33.6892 -33.6675 -33.6675 -33.6412 -33.6412 -33.6326 -33.6288
   -33.6144 -33.6128 -33.6112 -33.6090 -33.6090 -33.6008 -33.5868 -33.5868
   -33.5563 -33.4957 -33.4732 -33.4635 -33.4569 -33.4569 -33.4428 -33.4180
   -33.4180 -33.3878 -33.3747 -33.3657 -33.3657 -33.3605 -33.3477 -33.3477
   -33.3417 -33.3376 -33.2478 -33.2473 -33.2473 -26.0762 -26.0758 -26.0758
    12.2634  12.2900  12.3001  12.3001  14.0195  14.0195  14.0758  14.0807
    15.1061  15.3241  15.4500  15.4500  15.4750  15.7419  15.7419  15.7567
    15.7593  16.0596  16.0596  16.1130  16.1238  16.1238  16.1395  16.2101
    16.2964  16.3687  16.3687  16.4908  16.5504  16.6077  16.6233  16.6233
    16.7062  16.7427  16.7471  16.7471  16.8285  16.8285  16.9341  16.9671
    17.0036  17.0828  17.0852  17.0852  17.3280  17.3280  17.3480  17.3578
    18.8118  18.8511  19.0162  19.0979  19.0979  19.2265  19.2265  19.2602
    19.3385  19.3541  19.3606  19.3606  19.3985  19.4004  19.4344  19.4344
    19.4424  19.5090  19.5090  19.5765  19.6418  19.6795  19.7458  19.7458
    19.8047  19.8148  19.8167  19.8167  19.8570  19.9197  19.9197  19.9438
    20.0978  20.0978  20.1111  20.1557  20.7448  20.7783  20.7783  20.7990

          k =-0.5000-0.5000-0.5000 (  6272 PWs)   bands (ev):

   -67.5223 -67.5223 -67.5223 -67.5118 -67.5118 -67.5118 -67.5100 -67.5083
   -67.4670 -67.4670 -67.4670 -67.3476 -67.3476 -67.3476 -67.1904 -54.7625
   -33.7423 -33.7423 -33.7301 -33.6864 -33.6864 -33.6864 -33.6739 -33.6739
   -33.6739 -33.6687 -33.6523 -33.6523 -33.6523 -33.6473 -33.6473 -33.6451
   -33.6451 -33.6451 -33.6286 -33.6286 -33.6286 -33.6036 -33.6036 -33.6036
   -33.5469 -33.4651 -33.4651 -33.4349 -33.4349 -33.4349 -33.4040 -33.4040
   -33.4040 -33.4024 -33.3732 -33.3732 -33.3732 -33.3533 -33.3533 -33.3474
   -33.3474 -33.3474 -33.2436 -33.2436 -33.2436 -26.0748 -26.0748 -26.0748
    13.0288  13.0288  13.0288  13.0476  13.0691  13.0691  13.0691  13.0746
    15.3410  15.3410  15.6747  15.6747  15.6747  16.1696  16.1696  16.1696
    16.1790  16.1790  16.1790  16.1972  16.1972  16.2131  16.2131  16.2131
    16.2802  16.2802  16.2802  16.6090  16.6090  16.6090  16.6244  16.6586
    16.7089  16.7089  16.7089  16.7130  16.7130  16.7130  16.7522  16.7522
    16.7719  16.7719  16.7821  16.7821  16.7821  16.7945  16.7945  16.7945
    18.9499  18.9499  19.3870  19.3870  19.3870  19.5781  19.5781  19.5781
    19.6119  19.6119  19.6119  19.6500  19.6500  19.6514  19.6514  19.6514
    19.6687  19.6687  19.6748  19.6748  19.6748  19.6896  19.6896  19.6896
    19.6970  19.6970  19.6970  19.7319  19.7319  19.7319  19.7545  19.7545
    20.0165  20.0165  20.0165  20.0294  20.0593  20.0701  20.0701  20.0701

     the Fermi energy is    18.0690 ev

!    total energy              =   -5186.29052377 Ry
     total all-electron energy =    -40284.271198 Ry
     estimated scf accuracy    <       0.00000094 Ry
     smearing contrib. (-TS)   =       0.00610198 Ry
     internal energy E=F+TS    =   -5186.29662576 Ry

     The total energy is F=E-TS. E is the sum of the following terms:
     one-electron contribution =   -1730.62559033 Ry
     hartree contribution      =    1022.19786872 Ry
     xc contribution           =    -438.43936878 Ry
     ewald contribution        =   -2723.54809473 Ry
     one-center paw contrib.   =   -1315.88144064 Ry

     total magnetization       =    31.67 Bohr mag/cell
     absolute magnetization    =    37.35 Bohr mag/cell

     convergence has been achieved in  28 iterations


     Computing stress (Cartesian axis) and pressure


     negative rho (up, down):  0.000E+00 3.409E-03
          total   stress  (Ry/bohr**3)                   (kbar)     P=     -864.44
  -0.00587633   0.00000000   0.00000000         -864.44        0.00        0.00
   0.00000000  -0.00587633   0.00000000            0.00     -864.44        0.00
   0.00000000   0.00000000  -0.00587633            0.00        0.00     -864.44


     Writing all to output data dir ./tmp/fe15cr01_hydro_0.01.save/ :
     XML data file, charge density, pseudopotentials, collected wavefunctions

     init_run     :     37.21s CPU     37.92s WALL (       1 calls)
     electrons    :   3109.13s CPU   3193.88s WALL (       1 calls)
     stress       :     81.70s CPU     82.52s WALL (       1 calls)

     Called by init_run:
     wfcinit      :     32.31s CPU     32.78s WALL (       1 calls)
     potinit      :      3.13s CPU      2.86s WALL (       1 calls)
     hinit0       :      0.74s CPU      0.80s WALL (       1 calls)

     Called by electrons:
     c_bands      :   2738.44s CPU   2781.46s WALL (      28 calls)
     sum_band     :    256.76s CPU    272.14s WALL (      28 calls)
     v_of_rho     :      6.29s CPU      6.83s WALL (      29 calls)
     newd         :     26.41s CPU     39.32s WALL (      29 calls)
     PAW_pot      :     83.13s CPU     95.96s WALL (      29 calls)
     mix_rho      :      1.13s CPU      1.22s WALL (      28 calls)

     Called by c_bands:
     init_us_2    :      8.07s CPU      8.48s WALL (    1160 calls)
     cegterg      :   2714.98s CPU   2756.76s WALL (     560 calls)

     Called by *egterg:
     cdiaghg      :    223.30s CPU    230.27s WALL (    2430 calls)
     h_psi        :    886.51s CPU    902.83s WALL (    2450 calls)
     s_psi        :    323.13s CPU    323.33s WALL (    2450 calls)
     g_psi        :      0.99s CPU      1.04s WALL (    1870 calls)

     Called by h_psi:
     h_psi:calbec :    341.22s CPU    341.93s WALL (    2450 calls)
     vloc_psi     :    214.74s CPU    229.13s WALL (    2450 calls)
                                        0.00s GPU  (    2450 calls)
     add_vuspsi   :    328.72s CPU    325.17s WALL (    2450 calls)

     General routines
     calbec       :    570.83s CPU    570.39s WALL (    3270 calls)
     fft          :      4.27s CPU      3.70s WALL (     744 calls)
     ffts         :      0.35s CPU      0.38s WALL (     114 calls)
     fftw         :    244.30s CPU    261.83s WALL (  457288 calls)
     interpolate  :      0.64s CPU      0.71s WALL (      58 calls)

     Parallel routines

     PWSCF        :  53m48.60s CPU  55m15.84s WALL


   This run was terminated on:   4:19:23  24Apr2026            

=------------------------------------------------------------------------------=
   JOB DONE.
=------------------------------------------------------------------------------=
Note: The following floating-point exceptions are signalling: IEEE_DENORMAL
Note: The following floating-point exceptions are signalling: IEEE_DENORMAL
Note: The following floating-point exceptions are signalling: IEEE_DENORMAL
