
     Program PWSCF v.7.5 starts on 24Apr2026 at  7: 0: 5 

     This program is part of the open-source Quantum ESPRESSO suite
     for quantum simulation of materials; please cite
         "P. Giannozzi et al., J. Phys.:Condens. Matter 21 395502 (2009);
         "P. Giannozzi et al., J. Phys.:Condens. Matter 29 465901 (2017);
         "P. Giannozzi et al., J. Chem. Phys. 152 154105 (2020);
          URL http://www.quantum-espresso.org", 
     in publications or presentations arising from this work. More details at
     http://www.quantum-espresso.org/quote

     Parallel version (MPI), running on     4 processors

     MPI processes distributed on     1 nodes
     720 MiB available memory on the printing compute node when the environment starts

     Waiting for input...
     Reading input from standard input

     Current dimensions of program PWSCF are:
     Max number of different atomic species (ntypx) = 10
     Max number of k-points (npk) =  40000
     Max angular momentum in pseudopotentials (lmaxx) =  4
     file Fe.pbe-spn-kjpaw_psl.1.0.0.UPF: wavefunction(s)  3P 3D renormalized
     file Cr.pbe-spn-kjpaw_psl.1.0.0.UPF: wavefunction(s)  3S 3P 3D renormalized
     Message from routine setup:
     using ibrav=0 with symmetry is DISCOURAGED, use correct ibrav instead

     R & G space division:  proc/nbgrp/npool/nimage =       4
     Subspace diagonalization in iterative solution of the eigenvalue problem:
     one sub-group per band group will be used
     custom distributed-memory algorithm (size of sub-group:  2*  2 procs)


     Parallelization info
     --------------------
     sticks:   dense  smooth     PW     G-vecs:    dense   smooth      PW
     Min         810     404    118                35068    12393    1926
     Max         811     405    119                35069    12394    1927
     Sum        3241    1617    473               140273    49575    7705

     Using Slab Decomposition



     bravais-lattice index     =            0
     lattice parameter (alat)  =      10.6197  a.u.
     unit-cell volume          =    1215.6702 (a.u.)^3
     number of atoms/cell      =           16
     number of atomic types    =            2
     number of electrons       =       254.00
     number of Kohn-Sham states=          152
     kinetic-energy cutoff     =      45.0000  Ry
     charge density cutoff     =     360.0000  Ry
     scf convergence threshold =      1.0E-06
     mixing beta               =       0.3000
     number of iterations used =            8  plain     mixing
     Exchange-correlation= SLA  PW   PBX  PBC
                           (   1   4   3   4   0   0   0)

     celldm(1)=  10.619675  celldm(2)=   0.000000  celldm(3)=   0.000000
     celldm(4)=   0.000000  celldm(5)=   0.000000  celldm(6)=   0.000000

     crystal axes: (cart. coord. in units of alat)
               a(1) = (   1.000000   0.000000   0.000000 )  
               a(2) = (   0.000000   1.000000   0.000000 )  
               a(3) = (   0.000000   0.000000   1.015037 )  

     reciprocal axes: (cart. coord. in units 2 pi/alat)
               b(1) = (  1.000000  0.000000  0.000000 )  
               b(2) = (  0.000000  1.000000  0.000000 )  
               b(3) = (  0.000000  0.000000  0.985185 )  


     PseudoPot. # 1 for Fe read from file:
     ./pseudo/Fe.pbe-spn-kjpaw_psl.1.0.0.UPF
     MD5 check sum: fc81f059e5c5069939230b1155715ae8
     Pseudo is Projector augmented-wave + core cor, Zval = 16.0
     Generated using &quot;atomic&quot; code by A. Dal Corso  v.6.3
     Shape of augmentation charge: PSQ
     Using radial grid of 1191 points,  6 beta functions with: 
                l(1) =   0
                l(2) =   0
                l(3) =   1
                l(4) =   1
                l(5) =   2
                l(6) =   2
     Q(r) pseudized with 0 coefficients 


     PseudoPot. # 2 for Cr read from file:
     ./pseudo/Cr.pbe-spn-kjpaw_psl.1.0.0.UPF
     MD5 check sum: 198f1a2427a48552563eee314eba32ba
     Pseudo is Projector augmented-wave + core cor, Zval = 14.0
     Generated using &quot;atomic&quot; code by A. Dal Corso  v.6.3
     Shape of augmentation charge: PSQ
     Using radial grid of 1183 points,  6 beta functions with: 
                l(1) =   0
                l(2) =   0
                l(3) =   1
                l(4) =   1
                l(5) =   2
                l(6) =   2
     Q(r) pseudized with 0 coefficients 


     atomic species   valence    mass     pseudopotential
     Fe               16.00    55.84500     Fe( 1.00)
     Cr               14.00    51.99600     Cr( 1.00)

     Starting magnetic structure 
     atomic species   magnetization
     Fe              0.500
     Cr              0.300

     16 Sym. Ops., with inversion, found



   Cartesian axes

     site n.     atom                  positions (alat units)
         1        Cr     tau(   1) = (   0.0000000   0.0000000   0.0000000  )
         2        Fe     tau(   2) = (   0.2500000   0.2500000   0.2537594  )
         3        Fe     tau(   3) = (   0.0000000   0.0000000   0.5075187  )
         4        Fe     tau(   4) = (   0.2500000   0.2500000   0.7612781  )
         5        Fe     tau(   5) = (   0.0000000   0.5000000   0.0000000  )
         6        Fe     tau(   6) = (   0.2500000   0.7500000   0.2537594  )
         7        Fe     tau(   7) = (   0.0000000   0.5000000   0.5075187  )
         8        Fe     tau(   8) = (   0.2500000   0.7500000   0.7612781  )
         9        Fe     tau(   9) = (   0.5000000   0.0000000   0.0000000  )
        10        Fe     tau(  10) = (   0.7500000   0.2500000   0.2537594  )
        11        Fe     tau(  11) = (   0.5000000   0.0000000   0.5075187  )
        12        Fe     tau(  12) = (   0.7500000   0.2500000   0.7612781  )
        13        Fe     tau(  13) = (   0.5000000   0.5000000   0.0000000  )
        14        Fe     tau(  14) = (   0.7500000   0.7500000   0.2537594  )
        15        Fe     tau(  15) = (   0.5000000   0.5000000   0.5075187  )
        16        Fe     tau(  16) = (   0.7500000   0.7500000   0.7612781  )

     number of k points=    18  Marzari-Vanderbilt smearing, width (Ry)=  0.0200
                       cart. coord. in units 2pi/alat
        k(    1) = (   0.0000000   0.0000000   0.0000000), wk =   0.0156250
        k(    2) = (   0.0000000   0.0000000   0.2462963), wk =   0.0312500
        k(    3) = (   0.0000000   0.0000000  -0.4925926), wk =   0.0156250
        k(    4) = (   0.0000000   0.2500000   0.0000000), wk =   0.0625000
        k(    5) = (   0.0000000   0.2500000   0.2462963), wk =   0.1250000
        k(    6) = (   0.0000000   0.2500000  -0.4925926), wk =   0.0625000
        k(    7) = (   0.0000000  -0.5000000   0.0000000), wk =   0.0312500
        k(    8) = (   0.0000000  -0.5000000   0.2462963), wk =   0.0625000
        k(    9) = (   0.0000000  -0.5000000  -0.4925926), wk =   0.0312500
        k(   10) = (   0.2500000   0.2500000   0.0000000), wk =   0.0625000
        k(   11) = (   0.2500000   0.2500000   0.2462963), wk =   0.1250000
        k(   12) = (   0.2500000   0.2500000  -0.4925926), wk =   0.0625000
        k(   13) = (   0.2500000  -0.5000000   0.0000000), wk =   0.0625000
        k(   14) = (   0.2500000  -0.5000000   0.2462963), wk =   0.1250000
        k(   15) = (   0.2500000  -0.5000000  -0.4925926), wk =   0.0625000
        k(   16) = (  -0.5000000  -0.5000000   0.0000000), wk =   0.0156250
        k(   17) = (  -0.5000000  -0.5000000   0.2462963), wk =   0.0312500
        k(   18) = (  -0.5000000  -0.5000000  -0.4925926), wk =   0.0156250

     Dense  grid:   140273 G-vectors     FFT dimensions: (  72,  72,  72)

     Smooth grid:    49575 G-vectors     FFT dimensions: (  45,  45,  48)

     Estimated max dynamical RAM per process >     287.29 MB

     Estimated total dynamical RAM >       1.12 GB

     Check: negative core charge=   -0.000004
     Generating pointlists ...
     new r_m :   0.1795 (alat units)  1.9064 (a.u.) for type    1
     new r_m :   0.1795 (alat units)  1.9064 (a.u.) for type    2

     Initial potential from superposition of free atoms

     starting charge     253.9927, renormalised to     254.0000
     Starting wfcs are  160 randomized atomic wfcs
     Checking if some PAW data can be deallocated... 

     total cpu time spent up to now is       63.8 secs

     Self-consistent Calculation

     iteration #  1     ecut=    45.00 Ry     beta= 0.30
     Davidson diagonalization with overlap
     ethr =  1.00E-02,  avg # of iterations =  3.0

     total cpu time spent up to now is      293.6 secs

     total energy              =   -5181.17873376 Ry
     estimated scf accuracy    <      11.32822025 Ry

     total magnetization       =    49.97 Bohr mag/cell
     absolute magnetization    =    51.98 Bohr mag/cell

     iteration #  2     ecut=    45.00 Ry     beta= 0.30
     Davidson diagonalization with overlap
     ethr =  4.46E-03,  avg # of iterations =  6.7

     total cpu time spent up to now is      505.6 secs

     total energy              =   -5182.18996186 Ry
     estimated scf accuracy    <      22.38446548 Ry

     total magnetization       =    44.00 Bohr mag/cell
     absolute magnetization    =    45.57 Bohr mag/cell

     iteration #  3     ecut=    45.00 Ry     beta= 0.30
     Davidson diagonalization with overlap
     ethr =  4.46E-03,  avg # of iterations =  3.5

     negative rho (up, down):  0.000E+00 1.043E-03

     total cpu time spent up to now is      703.6 secs

     total energy              =   -5183.05015565 Ry
     estimated scf accuracy    <       7.36575577 Ry

     total magnetization       =    45.86 Bohr mag/cell
     absolute magnetization    =    47.52 Bohr mag/cell

     iteration #  4     ecut=    45.00 Ry     beta= 0.30
     Davidson diagonalization with overlap
     ethr =  2.90E-03,  avg # of iterations =  5.5

     negative rho (up, down):  0.000E+00 8.193E-03

     total cpu time spent up to now is      926.9 secs

     total energy              =   -5186.26604986 Ry
     estimated scf accuracy    <      13.97015963 Ry

     total magnetization       =    48.09 Bohr mag/cell
     absolute magnetization    =    49.59 Bohr mag/cell

     iteration #  5     ecut=    45.00 Ry     beta= 0.30
     Davidson diagonalization with overlap
     ethr =  2.90E-03,  avg # of iterations =  2.9

     negative rho (up, down):  0.000E+00 8.291E-03

     total cpu time spent up to now is     1125.8 secs

     total energy              =   -5186.66849945 Ry
     estimated scf accuracy    <      22.97855345 Ry

     total magnetization       =    38.03 Bohr mag/cell
     absolute magnetization    =    40.52 Bohr mag/cell

     iteration #  6     ecut=    45.00 Ry     beta= 0.30
     Davidson diagonalization with overlap
     ethr =  2.90E-03,  avg # of iterations =  1.1

     negative rho (up, down):  0.000E+00 8.190E-03

     total cpu time spent up to now is     1286.3 secs

     total energy              =   -5186.53990211 Ry
     estimated scf accuracy    <      13.77550086 Ry

     total magnetization       =    38.04 Bohr mag/cell
     absolute magnetization    =    40.31 Bohr mag/cell

     iteration #  7     ecut=    45.00 Ry     beta= 0.30
     Davidson diagonalization with overlap
     ethr =  2.90E-03,  avg # of iterations =  1.0

     negative rho (up, down):  0.000E+00 7.985E-03

     total cpu time spent up to now is     1447.4 secs

     total energy              =   -5186.25941186 Ry
     estimated scf accuracy    <       9.51836774 Ry

     total magnetization       =    37.48 Bohr mag/cell
     absolute magnetization    =    39.77 Bohr mag/cell

     iteration #  8     ecut=    45.00 Ry     beta= 0.30
     Davidson diagonalization with overlap
     ethr =  2.90E-03,  avg # of iterations =  1.0

     negative rho (up, down):  0.000E+00 7.627E-03

     total cpu time spent up to now is     1607.9 secs

     total energy              =   -5186.16309132 Ry
     estimated scf accuracy    <       3.92452156 Ry

     total magnetization       =    36.21 Bohr mag/cell
     absolute magnetization    =    38.63 Bohr mag/cell

     iteration #  9     ecut=    45.00 Ry     beta= 0.30
     Davidson diagonalization with overlap
     ethr =  1.55E-03,  avg # of iterations =  1.2

     negative rho (up, down):  0.000E+00 7.431E-03

     total cpu time spent up to now is     1775.1 secs

     total energy              =   -5186.23915077 Ry
     estimated scf accuracy    <       0.34619596 Ry

     total magnetization       =    34.03 Bohr mag/cell
     absolute magnetization    =    36.83 Bohr mag/cell

     iteration # 10     ecut=    45.00 Ry     beta= 0.30
     Davidson diagonalization with overlap
     ethr =  1.36E-04,  avg # of iterations =  3.0

     negative rho (up, down):  0.000E+00 6.339E-03

     total cpu time spent up to now is     1960.6 secs

     total energy              =   -5186.24371326 Ry
     estimated scf accuracy    <       0.30038127 Ry

     total magnetization       =    33.80 Bohr mag/cell
     absolute magnetization    =    36.55 Bohr mag/cell

     iteration # 11     ecut=    45.00 Ry     beta= 0.30
     Davidson diagonalization with overlap
     ethr =  1.18E-04,  avg # of iterations =  1.8

     negative rho (up, down):  0.000E+00 5.486E-03

     total cpu time spent up to now is     2138.2 secs

     total energy              =   -5186.26338568 Ry
     estimated scf accuracy    <       0.07019108 Ry

     total magnetization       =    32.25 Bohr mag/cell
     absolute magnetization    =    35.34 Bohr mag/cell

     iteration # 12     ecut=    45.00 Ry     beta= 0.30
     Davidson diagonalization with overlap
     ethr =  2.76E-05,  avg # of iterations =  4.9

     negative rho (up, down):  0.000E+00 5.234E-03

     total cpu time spent up to now is     2341.7 secs

     total energy              =   -5186.27360113 Ry
     estimated scf accuracy    <       0.18146917 Ry

     total magnetization       =    31.69 Bohr mag/cell
     absolute magnetization    =    35.21 Bohr mag/cell

     iteration # 13     ecut=    45.00 Ry     beta= 0.30
     Davidson diagonalization with overlap
     ethr =  2.76E-05,  avg # of iterations =  1.4

     negative rho (up, down):  0.000E+00 4.208E-03

     total cpu time spent up to now is     2511.5 secs

     total energy              =   -5186.28869515 Ry
     estimated scf accuracy    <       0.13690547 Ry

     total magnetization       =    31.51 Bohr mag/cell
     absolute magnetization    =    35.05 Bohr mag/cell

     iteration # 14     ecut=    45.00 Ry     beta= 0.30
     Davidson diagonalization with overlap
     ethr =  2.76E-05,  avg # of iterations =  2.1

     negative rho (up, down):  0.000E+00 3.519E-03

     total cpu time spent up to now is     2687.4 secs

     total energy              =   -5186.28726330 Ry
     estimated scf accuracy    <       0.18392270 Ry

     total magnetization       =    31.18 Bohr mag/cell
     absolute magnetization    =    34.90 Bohr mag/cell

     iteration # 15     ecut=    45.00 Ry     beta= 0.30
     Davidson diagonalization with overlap
     ethr =  2.76E-05,  avg # of iterations =  1.2

     negative rho (up, down):  0.000E+00 3.013E-03

     total cpu time spent up to now is     2855.3 secs

     total energy              =   -5186.29414590 Ry
     estimated scf accuracy    <       0.02416504 Ry

     total magnetization       =    31.25 Bohr mag/cell
     absolute magnetization    =    34.99 Bohr mag/cell

     iteration # 16     ecut=    45.00 Ry     beta= 0.30
     Davidson diagonalization with overlap
     ethr =  9.51E-06,  avg # of iterations =  2.3

     negative rho (up, down):  0.000E+00 2.932E-03

     total cpu time spent up to now is     3038.5 secs

     total energy              =   -5186.29561457 Ry
     estimated scf accuracy    <       0.01416663 Ry

     total magnetization       =    31.12 Bohr mag/cell
     absolute magnetization    =    35.01 Bohr mag/cell

     iteration # 17     ecut=    45.00 Ry     beta= 0.30
     Davidson diagonalization with overlap
     ethr =  5.58E-06,  avg # of iterations =  2.8

     negative rho (up, down):  0.000E+00 2.747E-03

     total cpu time spent up to now is     3217.1 secs

     total energy              =   -5186.29653279 Ry
     estimated scf accuracy    <       0.01121431 Ry

     total magnetization       =    31.14 Bohr mag/cell
     absolute magnetization    =    35.07 Bohr mag/cell

     iteration # 18     ecut=    45.00 Ry     beta= 0.30
     Davidson diagonalization with overlap
     ethr =  4.42E-06,  avg # of iterations =  2.1

     negative rho (up, down):  0.000E+00 2.717E-03

     total cpu time spent up to now is     3402.5 secs

     total energy              =   -5186.29797856 Ry
     estimated scf accuracy    <       0.00274926 Ry

     total magnetization       =    31.03 Bohr mag/cell
     absolute magnetization    =    35.15 Bohr mag/cell

     iteration # 19     ecut=    45.00 Ry     beta= 0.30
     Davidson diagonalization with overlap
     c_bands:  1 eigenvalues not converged
     ethr =  1.08E-06,  avg # of iterations =  4.6

     negative rho (up, down):  0.000E+00 2.650E-03

     total cpu time spent up to now is     3604.8 secs

     total energy              =   -5186.29872439 Ry
     estimated scf accuracy    <       0.00325871 Ry

     total magnetization       =    31.04 Bohr mag/cell
     absolute magnetization    =    35.22 Bohr mag/cell

     iteration # 20     ecut=    45.00 Ry     beta= 0.30
     Davidson diagonalization with overlap
     ethr =  1.08E-06,  avg # of iterations =  3.3

     negative rho (up, down):  0.000E+00 2.597E-03

     total cpu time spent up to now is     3804.2 secs

     total energy              =   -5186.29930011 Ry
     estimated scf accuracy    <       0.00192051 Ry

     total magnetization       =    30.96 Bohr mag/cell
     absolute magnetization    =    35.28 Bohr mag/cell

     iteration # 21     ecut=    45.00 Ry     beta= 0.30
     Davidson diagonalization with overlap
     ethr =  7.56E-07,  avg # of iterations =  3.4

     negative rho (up, down):  0.000E+00 2.876E-03

     total cpu time spent up to now is     4002.2 secs

     total energy              =   -5186.29990451 Ry
     estimated scf accuracy    <       0.00193920 Ry

     total magnetization       =    30.90 Bohr mag/cell
     absolute magnetization    =    35.32 Bohr mag/cell

     iteration # 22     ecut=    45.00 Ry     beta= 0.30
     Davidson diagonalization with overlap
     ethr =  7.56E-07,  avg # of iterations =  3.7

     negative rho (up, down):  0.000E+00 2.907E-03

     total cpu time spent up to now is     4199.5 secs

     total energy              =   -5186.30033706 Ry
     estimated scf accuracy    <       0.00036670 Ry

     total magnetization       =    30.90 Bohr mag/cell
     absolute magnetization    =    35.50 Bohr mag/cell

     iteration # 23     ecut=    45.00 Ry     beta= 0.30
     Davidson diagonalization with overlap
     ethr =  1.44E-07,  avg # of iterations =  5.3

     negative rho (up, down):  0.000E+00 2.924E-03

     total cpu time spent up to now is     4432.0 secs

     total energy              =   -5186.30048526 Ry
     estimated scf accuracy    <       0.00108786 Ry

     total magnetization       =    30.90 Bohr mag/cell
     absolute magnetization    =    35.64 Bohr mag/cell

     iteration # 24     ecut=    45.00 Ry     beta= 0.30
     Davidson diagonalization with overlap
     ethr =  1.44E-07,  avg # of iterations =  2.4

     negative rho (up, down):  0.000E+00 3.102E-03

     total cpu time spent up to now is     4621.6 secs

     total energy              =   -5186.30063593 Ry
     estimated scf accuracy    <       0.00029696 Ry

     total magnetization       =    30.89 Bohr mag/cell
     absolute magnetization    =    35.65 Bohr mag/cell

     iteration # 25     ecut=    45.00 Ry     beta= 0.30
     Davidson diagonalization with overlap
     ethr =  1.17E-07,  avg # of iterations =  4.1

     negative rho (up, down):  0.000E+00 3.132E-03

     total cpu time spent up to now is     4839.8 secs

     total energy              =   -5186.30075037 Ry
     estimated scf accuracy    <       0.00018651 Ry

     total magnetization       =    30.94 Bohr mag/cell
     absolute magnetization    =    35.81 Bohr mag/cell

     iteration # 26     ecut=    45.00 Ry     beta= 0.30
     Davidson diagonalization with overlap
     ethr =  7.34E-08,  avg # of iterations =  2.9

     negative rho (up, down):  0.000E+00 3.108E-03

     total cpu time spent up to now is     5038.6 secs

     total energy              =   -5186.30078305 Ry
     estimated scf accuracy    <       0.00018996 Ry

     total magnetization       =    30.96 Bohr mag/cell
     absolute magnetization    =    35.85 Bohr mag/cell

     iteration # 27     ecut=    45.00 Ry     beta= 0.30
     Davidson diagonalization with overlap
     ethr =  7.34E-08,  avg # of iterations =  2.4

     negative rho (up, down):  0.000E+00 3.098E-03

     total cpu time spent up to now is     5233.5 secs

     total energy              =   -5186.30081784 Ry
     estimated scf accuracy    <       0.00003791 Ry

     total magnetization       =    30.96 Bohr mag/cell
     absolute magnetization    =    35.89 Bohr mag/cell

     iteration # 28     ecut=    45.00 Ry     beta= 0.30
     Davidson diagonalization with overlap
     ethr =  1.49E-08,  avg # of iterations =  4.7

     negative rho (up, down):  0.000E+00 3.084E-03

     total cpu time spent up to now is     5453.6 secs

     total energy              =   -5186.30083162 Ry
     estimated scf accuracy    <       0.00006423 Ry

     total magnetization       =    30.97 Bohr mag/cell
     absolute magnetization    =    35.93 Bohr mag/cell

     iteration # 29     ecut=    45.00 Ry     beta= 0.30
     Davidson diagonalization with overlap
     ethr =  1.49E-08,  avg # of iterations =  3.6

     negative rho (up, down):  0.000E+00 3.081E-03

     total cpu time spent up to now is     5665.3 secs

     total energy              =   -5186.30083856 Ry
     estimated scf accuracy    <       0.00009272 Ry

     total magnetization       =    30.98 Bohr mag/cell
     absolute magnetization    =    35.97 Bohr mag/cell

     iteration # 30     ecut=    45.00 Ry     beta= 0.30
     Davidson diagonalization with overlap
     ethr =  1.49E-08,  avg # of iterations =  1.8

     negative rho (up, down):  0.000E+00 3.078E-03

     total cpu time spent up to now is     5851.2 secs

     total energy              =   -5186.30084409 Ry
     estimated scf accuracy    <       0.00002094 Ry

     total magnetization       =    30.99 Bohr mag/cell
     absolute magnetization    =    35.98 Bohr mag/cell

     iteration # 31     ecut=    45.00 Ry     beta= 0.30
     Davidson diagonalization with overlap
     ethr =  8.25E-09,  avg # of iterations =  2.3

     negative rho (up, down):  0.000E+00 3.072E-03

     total cpu time spent up to now is     6042.2 secs

     total energy              =   -5186.30084741 Ry
     estimated scf accuracy    <       0.00001262 Ry

     total magnetization       =    30.99 Bohr mag/cell
     absolute magnetization    =    35.99 Bohr mag/cell

     iteration # 32     ecut=    45.00 Ry     beta= 0.30
     Davidson diagonalization with overlap
     ethr =  4.97E-09,  avg # of iterations =  2.8

     negative rho (up, down):  0.000E+00 3.077E-03

     total cpu time spent up to now is     6239.2 secs

     total energy              =   -5186.30084870 Ry
     estimated scf accuracy    <       0.00000320 Ry

     total magnetization       =    30.99 Bohr mag/cell
     absolute magnetization    =    36.00 Bohr mag/cell

     iteration # 33     ecut=    45.00 Ry     beta= 0.30
     Davidson diagonalization with overlap
     ethr =  1.26E-09,  avg # of iterations =  5.1

     negative rho (up, down):  0.000E+00 3.068E-03

     total cpu time spent up to now is     6489.4 secs

     total energy              =   -5186.30085139 Ry
     estimated scf accuracy    <       0.00000544 Ry

     total magnetization       =    30.99 Bohr mag/cell
     absolute magnetization    =    36.02 Bohr mag/cell

     iteration # 34     ecut=    45.00 Ry     beta= 0.30
     Davidson diagonalization with overlap
     ethr =  1.26E-09,  avg # of iterations =  2.3

     negative rho (up, down):  0.000E+00 3.070E-03

     total cpu time spent up to now is     6685.5 secs

     total energy              =   -5186.30085211 Ry
     estimated scf accuracy    <       0.00000177 Ry

     total magnetization       =    30.98 Bohr mag/cell
     absolute magnetization    =    36.01 Bohr mag/cell

     iteration # 35     ecut=    45.00 Ry     beta= 0.30
     Davidson diagonalization with overlap
     ethr =  6.98E-10,  avg # of iterations =  2.8

     negative rho (up, down):  0.000E+00 3.072E-03

     Magnetic moment per site  (integrated on atomic sphere of radius R)
     atom   1 (R=0.180)  charge= 12.0881  magn= -1.3967
     atom   2 (R=0.180)  charge= 14.3966  magn=  2.1754
     atom   3 (R=0.180)  charge= 14.3945  magn=  2.1611
     atom   4 (R=0.180)  charge= 14.3966  magn=  2.1754
     atom   5 (R=0.180)  charge= 14.3956  magn=  2.1552
     atom   6 (R=0.180)  charge= 14.3966  magn=  2.1754
     atom   7 (R=0.180)  charge= 14.3852  magn=  2.3139
     atom   8 (R=0.180)  charge= 14.3966  magn=  2.1754
     atom   9 (R=0.180)  charge= 14.3956  magn=  2.1552
     atom  10 (R=0.180)  charge= 14.3966  magn=  2.1754
     atom  11 (R=0.180)  charge= 14.3852  magn=  2.3139
     atom  12 (R=0.180)  charge= 14.3966  magn=  2.1754
     atom  13 (R=0.180)  charge= 14.3853  magn=  2.3079
     atom  14 (R=0.180)  charge= 14.3966  magn=  2.1754
     atom  15 (R=0.180)  charge= 14.3887  magn=  2.4986
     atom  16 (R=0.180)  charge= 14.3966  magn=  2.1754

     total cpu time spent up to now is     6881.8 secs

     End of self-consistent calculation

 ------ SPIN UP ------------


          k = 0.0000 0.0000 0.0000 (  6179 PWs)   bands (ev):

   -69.5858 -69.5438 -69.5188 -69.5160 -69.5055 -69.5043 -69.5043 -69.4994
   -69.4994 -69.4983 -69.4931 -69.4876 -69.4635 -69.4594 -69.4299 -52.5138
   -35.7534 -35.7527 -35.7527 -35.7410 -35.7388 -35.7388 -35.6337 -35.6234
   -35.6234 -35.5954 -35.5491 -35.5484 -35.5484 -35.5370 -35.5370 -35.5348
   -35.5318 -35.5318 -35.5266 -35.5237 -35.5190 -35.5190 -35.4989 -35.4947
   -35.4947 -35.4908 -35.4908 -35.4855 -35.4759 -35.4713 -35.4713 -35.4649
   -35.4649 -35.4649 -35.4642 -35.4615 -35.3930 -35.3912 -35.3912 -35.3218
   -35.3209 -35.3209 -35.3058 -35.3058 -35.3046 -23.8612 -23.8489 -23.8489
    10.0953  13.6652  13.6680  13.6680  13.6839  13.6872  13.6873  13.7552
    13.7857  13.8469  13.8976  13.9339  13.9339  13.9628  14.0626  15.1839
    15.1839  15.2672  15.2900  15.2902  15.2902  15.3831  15.4408  15.4408
    15.5009  15.5316  15.5316  15.5318  15.5809  15.5809  15.5999  15.7583
    15.7790  16.3558  16.3558  16.4257  16.6897  16.7140  16.7457  16.7457
    16.7669  16.7669  16.7815  16.7968  16.7968  17.0491  17.0491  17.0807
    17.4698  17.5274  17.5286  17.5590  17.5860  17.5860  17.5905  17.6402
    17.6406  17.6737  17.7398  17.7542  17.7542  17.7870  17.7936  17.8026
    17.8031  17.8659  17.9100  17.9403  17.9403  17.9807  18.4384  18.5392
    18.7618  18.9054  18.9438  18.9438  18.9481  18.9481  19.0023  19.0094
    19.0463  19.0463  19.0532  19.0674  19.0674  19.1199  19.2174  19.2174

          k = 0.0000 0.0000 0.2463 (  6215 PWs)   bands (ev):

   -69.5822 -69.5442 -69.5293 -69.5187 -69.5036 -69.5036 -69.5002 -69.5002
   -69.4985 -69.4976 -69.4940 -69.4865 -69.4595 -69.4583 -69.4335 -52.5139
   -35.7437 -35.7437 -35.7435 -35.7255 -35.7239 -35.7239 -35.6521 -35.6242
   -35.6242 -35.6120 -35.6018 -35.6018 -35.5955 -35.5910 -35.5799 -35.5799
   -35.5484 -35.5370 -35.5370 -35.5332 -35.5293 -35.4986 -35.4986 -35.4842
   -35.4804 -35.4721 -35.4642 -35.4642 -35.4623 -35.4615 -35.4611 -35.4281
   -35.4281 -35.4222 -35.4222 -35.4216 -35.4037 -35.3961 -35.3961 -35.3405
   -35.3312 -35.3312 -35.3203 -35.3203 -35.3191 -23.8618 -23.8494 -23.8494
    10.4152  12.6333  13.7534  13.7534  13.7727  13.7778  13.8770  13.8843
    13.9015  13.9088  14.0047  14.0047  14.0445  14.1004  14.3546  14.9008
    15.0859  15.1022  15.1480  15.1480  15.2282  15.2282  15.4069  15.4500
    15.4500  15.5098  15.5677  15.5677  15.6080  15.7445  15.9176  15.9176
    16.3327  16.3327  16.3469  16.3529  16.4075  16.4075  16.4165  16.5886
    16.5886  16.6615  16.9445  16.9956  16.9990  16.9990  17.0163  17.0588
    17.0588  17.1794  17.2154  17.3782  17.3782  17.3969  17.5744  17.6422
    17.6422  17.6637  17.6726  17.7528  17.7551  17.7910  17.7910  17.8082
    17.8200  17.8461  17.8744  17.9881  18.0136  18.0169  18.1911  18.1911
    18.2117  18.5189  18.6654  18.7241  18.7241  18.7978  18.9145  19.0110
    19.0110  19.1484  19.1599  19.1997  19.1997  19.5853  19.5853  19.8736

          k = 0.0000 0.0000-0.4926 (  6192 PWs)   bands (ev):

   -69.5775 -69.5456 -69.5378 -69.5186 -69.5018 -69.5018 -69.5018 -69.5018
   -69.4963 -69.4958 -69.4958 -69.4854 -69.4595 -69.4501 -69.4397 -52.5138
   -35.7255 -35.7255 -35.7189 -35.6799 -35.6716 -35.6716 -35.6697 -35.6697
   -35.6679 -35.6527 -35.6415 -35.6357 -35.6357 -35.6016 -35.5998 -35.5998
   -35.5619 -35.5619 -35.5349 -35.5344 -35.5301 -35.4927 -35.4927 -35.4755
   -35.4754 -35.4581 -35.4581 -35.4507 -35.4397 -35.4334 -35.4334 -35.4204
   -35.4204 -35.3901 -35.3843 -35.3802 -35.3802 -35.3769 -35.3659 -35.3659
   -35.3529 -35.3529 -35.3508 -35.3508 -35.3404 -23.8615 -23.8491 -23.8491
    11.2932  11.3566  13.9229  13.9376  13.9376  13.9453  13.9696  13.9696
    14.0083  14.0641  14.1502  14.2180  14.2475  14.3547  14.4318  14.4425
    14.5034  14.5036  15.1215  15.1215  15.2058  15.2058  15.7792  15.7814
    15.7814  15.7901  15.8084  15.8842  15.8842  16.0093  16.0093  16.0151
    16.0224  16.0330  16.0330  16.0507  16.0524  16.3561  16.3561  16.4507
    16.4653  16.4653  16.6445  16.6445  16.7191  16.7746  16.7746  16.9237
    16.9253  17.0226  17.3327  17.3338  17.3338  17.3463  17.3509  17.5170
    17.5170  17.5278  17.7453  17.7730  17.7745  17.7940  17.8329  17.8331
    17.8371  17.8477  17.9095  17.9095  18.1722  18.1722  18.3848  18.4783
    18.5250  18.5277  18.5277  18.5311  18.5409  18.5679  18.5880  19.0620
    19.0620  19.1553  19.1992  19.2032  19.2032  19.5684  19.5684  19.7986

          k = 0.0000 0.2500 0.0000 (  6203 PWs)   bands (ev):

   -69.5819 -69.5446 -69.5295 -69.5165 -69.5046 -69.5034 -69.5006 -69.5003
   -69.4992 -69.4984 -69.4943 -69.4848 -69.4630 -69.4549 -69.4336 -52.5139
   -35.7424 -35.7414 -35.7397 -35.7238 -35.7193 -35.7179 -35.6450 -35.6373
   -35.6234 -35.6084 -35.6054 -35.6050 -35.5889 -35.5850 -35.5813 -35.5767
   -35.5530 -35.5460 -35.5383 -35.5288 -35.5246 -35.5018 -35.4976 -35.4907
   -35.4805 -35.4704 -35.4670 -35.4660 -35.4657 -35.4643 -35.4624 -35.4289
   -35.4265 -35.4219 -35.4210 -35.4162 -35.3991 -35.3962 -35.3951 -35.3367
   -35.3310 -35.3305 -35.3195 -35.3189 -35.3171 -23.8613 -23.8497 -23.8492
    10.4264  12.7020  13.7440  13.7597  13.7637  13.7801  13.8756  13.9056
    13.9068  13.9250  13.9426  14.0076  14.0143  14.0941  14.4444  14.9165
    15.1321  15.1422  15.1909  15.1929  15.2731  15.2913  15.3456  15.3738
    15.4599  15.4867  15.5434  15.5705  15.5960  15.7389  15.8601  15.8627
    16.2926  16.3145  16.3706  16.3736  16.3826  16.3949  16.4427  16.5344
    16.6016  16.6198  16.9997  17.0341  17.0488  17.0786  17.0805  17.0826
    17.1019  17.1418  17.2502  17.3192  17.3617  17.4495  17.5717  17.5973
    17.6242  17.6536  17.6705  17.6768  17.6933  17.7406  17.7544  17.7716
    17.7857  17.8108  17.8524  17.9934  18.0099  18.0502  18.1791  18.1861
    18.2103  18.4733  18.6710  18.7034  18.7086  18.8267  18.8696  18.9395
    19.0224  19.0955  19.1676  19.2237  19.2715  19.5932  19.6136  19.8745

          k = 0.0000 0.2500 0.2463 (  6211 PWs)   bands (ev):

   -69.5788 -69.5440 -69.5318 -69.5246 -69.5069 -69.5027 -69.4993 -69.4985
   -69.4980 -69.4959 -69.4950 -69.4842 -69.4586 -69.4549 -69.4365 -52.5139
   -35.7347 -35.7335 -35.7322 -35.7124 -35.7079 -35.6953 -35.6532 -35.6471
   -35.6406 -35.6291 -35.6265 -35.6211 -35.6205 -35.5908 -35.5781 -35.5567
   -35.5459 -35.5377 -35.5257 -35.5249 -35.5142 -35.5134 -35.5080 -35.4976
   -35.4867 -35.4859 -35.4833 -35.4775 -35.4740 -35.4599 -35.4213 -35.4198
   -35.4193 -35.4173 -35.4133 -35.4109 -35.3892 -35.3801 -35.3747 -35.3650
   -35.3406 -35.3371 -35.3309 -35.3259 -35.3134 -23.8616 -23.8497 -23.8494
    10.7345  12.8322  12.9096  13.5700  13.9762  13.9845  13.9869  13.9993
    14.0060  14.0340  14.0525  14.1407  14.2038  14.4242  14.4996  14.9546
    14.9782  14.9831  14.9969  15.2756  15.2898  15.3210  15.3399  15.3831
    15.3902  15.4110  15.5192  15.5530  15.7047  15.8089  15.8441  16.0543
    16.1333  16.1498  16.1970  16.2458  16.2615  16.3346  16.3527  16.4018
    16.7582  16.8129  16.8342  16.8469  16.8896  16.9033  16.9095  16.9486
    17.0461  17.1054  17.1893  17.1993  17.2007  17.3109  17.4590  17.4804
    17.5077  17.5883  17.5988  17.6428  17.6761  17.6828  17.7201  17.7231
    17.7882  17.8756  17.8980  17.9689  17.9993  18.0761  18.0883  18.1491
    18.1659  18.2169  18.2323  18.2585  18.4424  18.5177  18.8737  18.9465
    18.9829  19.1785  19.3300  19.5240  19.6922  20.1632  20.5149  20.5914

          k = 0.0000 0.2500-0.4926 (  6184 PWs)   bands (ev):

   -69.5749 -69.5430 -69.5392 -69.5254 -69.5096 -69.5010 -69.5010 -69.4970
   -69.4967 -69.4967 -69.4929 -69.4835 -69.4554 -69.4510 -69.4418 -52.5138
   -35.7231 -35.7167 -35.7136 -35.6889 -35.6851 -35.6693 -35.6670 -35.6661
   -35.6651 -35.6575 -35.6522 -35.6327 -35.6031 -35.6025 -35.5908 -35.5610
   -35.5512 -35.5466 -35.5431 -35.5313 -35.5204 -35.5079 -35.4963 -35.4908
   -35.4818 -35.4793 -35.4678 -35.4664 -35.4517 -35.4482 -35.4453 -35.4312
   -35.4223 -35.4128 -35.4112 -35.3841 -35.3772 -35.3677 -35.3651 -35.3530
   -35.3516 -35.3392 -35.3386 -35.3335 -35.3226 -23.8614 -23.8496 -23.8492
    11.5787  11.6430  13.2679  13.3235  14.1461  14.1524  14.1891  14.2411
    14.2594  14.2912  14.3066  14.3825  14.3938  14.4907  14.5075  14.5146
    14.5730  14.5736  15.1918  15.2081  15.2542  15.2837  15.4946  15.4983
    15.5208  15.5314  15.5497  15.6327  15.7271  15.7619  16.0901  16.0905
    16.1003  16.1219  16.1283  16.1594  16.2183  16.2468  16.2513  16.2765
    16.2819  16.3067  16.3127  16.3744  16.3827  16.5361  17.1078  17.1365
    17.1604  17.1764  17.2628  17.2739  17.3552  17.3638  17.3841  17.4032
    17.4664  17.5021  17.5039  17.6248  17.6857  17.6887  17.7092  17.7399
    17.7488  17.7980  17.8879  17.9130  17.9244  17.9402  17.9597  18.0285
    18.1065  18.1529  18.1748  18.2948  18.3662  18.7470  18.7964  18.8168
    19.2144  19.3725  19.3926  19.4220  20.0980  20.1624  20.2659  20.5273

          k = 0.0000-0.5000 0.0000 (  6218 PWs)   bands (ev):

   -69.5767 -69.5473 -69.5369 -69.5165 -69.5025 -69.5024 -69.5015 -69.5014
   -69.4995 -69.4963 -69.4963 -69.4828 -69.4630 -69.4455 -69.4414 -52.5139
   -35.7260 -35.7226 -35.7194 -35.6807 -35.6724 -35.6710 -35.6706 -35.6697
   -35.6696 -35.6548 -35.6415 -35.6360 -35.6254 -35.6077 -35.5993 -35.5896
   -35.5727 -35.5633 -35.5366 -35.5361 -35.5256 -35.5043 -35.4913 -35.4812
   -35.4811 -35.4637 -35.4637 -35.4521 -35.4460 -35.4356 -35.4353 -35.4205
   -35.4198 -35.3866 -35.3823 -35.3802 -35.3783 -35.3768 -35.3715 -35.3689
   -35.3533 -35.3525 -35.3524 -35.3517 -35.3428 -23.8617 -23.8499 -23.8494
    11.3302  11.3912  13.9118  13.9201  13.9364  13.9403  13.9502  13.9702
    13.9972  14.0559  14.2099  14.2487  14.2714  14.3502  14.4665  14.4760
    14.5327  14.5371  15.1776  15.1796  15.2551  15.2658  15.6914  15.6948
    15.7560  15.7911  15.7951  15.7964  15.8959  15.9765  15.9901  16.0045
    16.0127  16.0182  16.0316  16.0374  16.0452  16.3118  16.3966  16.4179
    16.4527  16.4845  16.5834  16.5864  16.6518  16.7192  16.7344  16.8547
    16.9761  17.0636  17.3266  17.3312  17.3676  17.3791  17.3868  17.4967
    17.5327  17.5478  17.7050  17.7052  17.7489  17.8036  17.8075  17.8081
    17.8153  17.8380  17.8741  17.8817  18.1251  18.1566  18.3892  18.4767
    18.5086  18.5096  18.5179  18.5395  18.5409  18.5630  18.5864  18.9697
    19.0749  19.0838  19.1094  19.2171  19.2387  19.5657  19.6070  19.7888

          k = 0.0000-0.5000 0.2463 (  6208 PWs)   bands (ev):

   -69.5744 -69.5450 -69.5377 -69.5245 -69.5103 -69.5006 -69.5006 -69.4972
   -69.4971 -69.4959 -69.4955 -69.4822 -69.4587 -69.4464 -69.4437 -52.5139
   -35.7223 -35.7177 -35.7136 -35.6877 -35.6876 -35.6690 -35.6680 -35.6658
   -35.6646 -35.6585 -35.6553 -35.6314 -35.6028 -35.6018 -35.5906 -35.5619
   -35.5510 -35.5479 -35.5476 -35.5327 -35.5196 -35.5079 -35.4991 -35.4927
   -35.4847 -35.4826 -35.4711 -35.4667 -35.4536 -35.4503 -35.4487 -35.4315
   -35.4266 -35.4169 -35.4114 -35.3824 -35.3771 -35.3684 -35.3653 -35.3538
   -35.3507 -35.3396 -35.3392 -35.3340 -35.3229 -23.8616 -23.8500 -23.8495
    11.6053  11.6672  13.2470  13.3022  14.1497  14.1545  14.1909  14.2383
    14.2803  14.2911  14.2935  14.3959  14.4035  14.4841  14.5328  14.5393
    14.5934  14.5958  15.2364  15.2559  15.2909  15.3305  15.4665  15.4707
    15.4894  15.5107  15.5300  15.5944  15.7345  15.7614  16.0833  16.0901
    16.1034  16.1129  16.1176  16.1571  16.1862  16.2194  16.2255  16.2292
    16.2366  16.2578  16.2992  16.3415  16.3687  16.5075  17.0951  17.1385
    17.1540  17.1844  17.2715  17.2715  17.3941  17.3988  17.3995  17.4167
    17.4604  17.4915  17.5221  17.6056  17.6476  17.6499  17.7311  17.7377
    17.7439  17.7479  17.8671  17.8692  17.8912  17.9129  17.9360  18.0243
    18.1168  18.1558  18.1921  18.3001  18.3710  18.7529  18.7877  18.8115
    19.2159  19.3559  19.3881  19.4353  20.1328  20.1766  20.2739  20.5437

          k = 0.0000-0.5000-0.4926 (  6212 PWs)   bands (ev):

   -69.5717 -69.5421 -69.5395 -69.5294 -69.5161 -69.4989 -69.4989 -69.4989
   -69.4989 -69.4948 -69.4917 -69.4811 -69.4522 -69.4483 -69.4473 -52.5139
   -35.7213 -35.6984 -35.6972 -35.6885 -35.6869 -35.6865 -35.6856 -35.6699
   -35.6687 -35.6676 -35.6650 -35.6295 -35.5809 -35.5644 -35.5642 -35.5602
   -35.5496 -35.5213 -35.5195 -35.5187 -35.5179 -35.5154 -35.5109 -35.5031
   -35.5004 -35.4991 -35.4938 -35.4935 -35.4829 -35.4818 -35.4572 -35.4537
   -35.4424 -35.3981 -35.3960 -35.3921 -35.3742 -35.3741 -35.3616 -35.3520
   -35.3496 -35.3306 -35.3303 -35.3216 -35.3127 -23.8617 -23.8504 -23.8496
    12.3377  12.3421  12.3442  12.4695  14.3602  14.3660  14.3660  14.4863
    14.5399  14.5428  14.5472  14.5517  14.5558  14.5855  14.5900  14.6788
    14.8736  14.8739  14.8783  14.9972  15.2363  15.2580  15.2677  15.2696
    15.2726  15.3287  15.3360  15.4988  15.8106  15.8182  15.8932  15.8974
    15.9204  15.9327  15.9348  15.9553  15.9623  15.9651  15.9815  16.0902
    16.1622  16.1629  16.2498  16.4592  16.7129  16.7139  16.8577  16.8639
    17.3033  17.3055  17.3230  17.3375  17.3782  17.3789  17.5119  17.5125
    17.5139  17.5238  17.5258  17.5613  17.5638  17.5654  17.5769  17.5906
    17.6252  17.6427  17.6460  17.6478  17.7873  17.8339  17.8527  18.0277
    18.0320  18.0342  18.0348  18.2018  18.2020  18.5434  18.9409  18.9453
    19.3149  19.5168  19.5345  19.5411  20.9876  21.0218  21.0220  21.0916

          k = 0.2500 0.2500 0.0000 (  6186 PWs)   bands (ev):

   -69.5786 -69.5442 -69.5327 -69.5223 -69.5071 -69.5036 -69.4994 -69.4994
   -69.4974 -69.4966 -69.4952 -69.4829 -69.4603 -69.4530 -69.4366 -52.5138
   -35.7333 -35.7327 -35.7321 -35.7134 -35.7096 -35.6896 -35.6480 -35.6434
   -35.6341 -35.6335 -35.6243 -35.6243 -35.6200 -35.5939 -35.5752 -35.5598
   -35.5432 -35.5429 -35.5268 -35.5230 -35.5193 -35.5119 -35.5018 -35.4931
   -35.4913 -35.4815 -35.4803 -35.4713 -35.4689 -35.4656 -35.4216 -35.4210
   -35.4187 -35.4181 -35.4121 -35.4093 -35.3877 -35.3785 -35.3739 -35.3651
   -35.3416 -35.3355 -35.3273 -35.3240 -35.3106 -23.8613 -23.8496 -23.8492
    10.7446  12.8797  12.9337  13.5870  13.9870  13.9895  13.9972  13.9979
    14.0026  14.0279  14.0704  14.0964  14.1698  14.4834  14.5154  14.9781
    15.0035  15.0085  15.0130  15.3116  15.3434  15.3458  15.3617  15.3937
    15.3960  15.4194  15.5153  15.5335  15.6070  15.7583  15.8024  16.0805
    16.0809  16.1495  16.1585  16.2089  16.3012  16.3402  16.4022  16.4450
    16.7102  16.7769  16.8122  16.8436  16.8617  16.8705  16.8776  16.9937
    17.0819  17.1369  17.2206  17.2236  17.2793  17.3539  17.4954  17.5002
    17.5268  17.5592  17.5600  17.6323  17.6384  17.6503  17.7424  17.7796
    17.7930  17.8313  17.9087  17.9470  17.9978  18.0442  18.1038  18.1071
    18.1190  18.1823  18.1894  18.2200  18.4546  18.5216  18.8063  18.9623
    18.9886  19.0881  19.3606  19.5159  19.6768  20.1002  20.4835  20.5530

          k = 0.2500 0.2500 0.2463 (  6196 PWs)   bands (ev):

   -69.5760 -69.5434 -69.5314 -69.5298 -69.5085 -69.5048 -69.5047 -69.4990
   -69.4958 -69.4925 -69.4918 -69.4827 -69.4570 -69.4530 -69.4391 -52.5139
   -35.7250 -35.7244 -35.7200 -35.7064 -35.6827 -35.6822 -35.6640 -35.6519
   -35.6450 -35.6397 -35.6367 -35.6330 -35.5957 -35.5903 -35.5860 -35.5578
   -35.5551 -35.5546 -35.5415 -35.5368 -35.5361 -35.5331 -35.5144 -35.5117
   -35.4844 -35.4646 -35.4632 -35.4558 -35.4406 -35.4391 -35.4382 -35.4303
   -35.4290 -35.4156 -35.4155 -35.4131 -35.3925 -35.3710 -35.3577 -35.3543
   -35.3434 -35.3432 -35.3299 -35.3288 -35.3175 -23.8616 -23.8496 -23.8494
    11.0464  13.0544  13.0890  13.1567  13.8268  13.8286  13.8645  14.1455
    14.1780  14.2231  14.2396  14.2403  14.5947  14.6522  14.6585  14.9187
    14.9295  14.9864  14.9887  15.2244  15.2395  15.3295  15.3767  15.4066
    15.4219  15.5050  15.5579  15.5855  15.6139  15.6649  15.7889  15.8957
    15.8967  16.0470  16.0778  16.1544  16.1925  16.1986  16.2174  16.2835
    16.3236  16.4411  16.5213  16.5429  16.6455  16.6789  16.7742  17.0483
    17.0752  17.1247  17.1288  17.3793  17.4434  17.4517  17.4725  17.5067
    17.5343  17.5523  17.5566  17.5783  17.6347  17.6945  17.7454  17.7596
    17.7665  17.7803  17.8037  17.8553  17.8627  17.9000  17.9184  18.1553
    18.1659  18.1675  18.3807  18.4039  18.5253  18.5304  18.5678  18.9279
    19.0249  19.0351  19.5131  19.5315  19.7741  19.9419  19.9479  21.3865

          k = 0.2500 0.2500-0.4926 (  6198 PWs)   bands (ev):

   -69.5727 -69.5405 -69.5390 -69.5298 -69.5089 -69.5083 -69.5057 -69.4986
   -69.4964 -69.4906 -69.4879 -69.4830 -69.4530 -69.4517 -69.4434 -52.5139
   -35.7150 -35.7112 -35.7055 -35.6832 -35.6816 -35.6711 -35.6693 -35.6600
   -35.6555 -35.6514 -35.6270 -35.6264 -35.6204 -35.6075 -35.5974 -35.5700
   -35.5639 -35.5575 -35.5441 -35.5441 -35.5394 -35.5194 -35.5171 -35.5080
   -35.4821 -35.4775 -35.4656 -35.4542 -35.4532 -35.4358 -35.4269 -35.4209
   -35.4164 -35.4163 -35.4067 -35.3986 -35.3838 -35.3665 -35.3585 -35.3578
   -35.3517 -35.3390 -35.3375 -35.3319 -35.3286 -23.8616 -23.8499 -23.8496
    11.8624  11.9273  13.5267  13.5352  13.5386  13.6329  14.4461  14.4585
    14.4707  14.4832  14.4927  14.5118  14.5239  14.5365  14.5689  14.6257
    14.6709  14.7247  15.2146  15.2882  15.3032  15.3461  15.3713  15.3760
    15.3822  15.5345  15.5848  15.6018  15.6214  15.6940  15.9085  15.9228
    15.9617  15.9638  15.9698  15.9753  15.9809  15.9906  15.9976  16.0023
    16.0058  16.0549  16.0881  16.1686  16.2418  16.2547  16.8849  16.9255
    17.2571  17.3055  17.3646  17.3871  17.3898  17.4186  17.4295  17.4497
    17.4965  17.5169  17.5259  17.6536  17.6676  17.6977  17.7062  17.7802
    17.7951  17.8192  17.8361  17.8673  17.8674  17.8934  17.9815  18.0254
    18.0666  18.2777  18.4936  18.5185  18.5743  18.5931  18.6427  18.6743
    18.6799  19.1520  19.3882  19.5974  19.6696  19.6994  20.8791  21.0235

          k = 0.2500-0.5000 0.0000 (  6204 PWs)   bands (ev):

   -69.5742 -69.5447 -69.5385 -69.5230 -69.5104 -69.5016 -69.5015 -69.4973
   -69.4973 -69.4964 -69.4951 -69.4813 -69.4588 -69.4463 -69.4435 -52.5139
   -35.7222 -35.7168 -35.7107 -35.6852 -35.6849 -35.6708 -35.6706 -35.6700
   -35.6643 -35.6555 -35.6509 -35.6387 -35.6024 -35.6021 -35.6009 -35.5717
   -35.5525 -35.5459 -35.5392 -35.5350 -35.5178 -35.5130 -35.4988 -35.4961
   -35.4823 -35.4811 -35.4671 -35.4651 -35.4586 -35.4481 -35.4442 -35.4324
   -35.4245 -35.4223 -35.4107 -35.3838 -35.3731 -35.3712 -35.3620 -35.3507
   -35.3493 -35.3396 -35.3375 -35.3325 -35.3230 -23.8616 -23.8501 -23.8495
    11.6157  11.6774  13.2855  13.3377  14.1396  14.1451  14.1783  14.2344
    14.2759  14.2990  14.3048  14.3917  14.4223  14.5069  14.5392  14.5456
    14.6017  14.6050  15.2450  15.2613  15.3054  15.3300  15.5098  15.5191
    15.5354  15.5357  15.5423  15.6446  15.6528  15.6919  16.0335  16.0466
    16.0626  16.0688  16.1054  16.1432  16.1462  16.2114  16.2354  16.2496
    16.2498  16.2719  16.2915  16.3106  16.3955  16.5365  17.0789  17.1281
    17.1894  17.2214  17.2960  17.3128  17.3643  17.3651  17.3789  17.4449
    17.4621  17.5082  17.5293  17.6196  17.6682  17.6775  17.7047  17.7393
    17.7490  17.7865  17.8224  17.8272  17.8978  17.9124  17.9403  17.9877
    18.0373  18.1212  18.1243  18.2687  18.3251  18.7075  18.7971  18.8226
    19.1999  19.3654  19.3802  19.3971  20.0850  20.1397  20.2394  20.4586

          k = 0.2500-0.5000 0.2463 (  6208 PWs)   bands (ev):

   -69.5723 -69.5425 -69.5378 -69.5282 -69.5099 -69.5087 -69.5050 -69.4990
   -69.4967 -69.4901 -69.4897 -69.4815 -69.4563 -69.4469 -69.4451 -52.5139
   -35.7139 -35.7106 -35.7050 -35.6827 -35.6816 -35.6700 -35.6694 -35.6599
   -35.6560 -35.6533 -35.6299 -35.6264 -35.6208 -35.6118 -35.5999 -35.5692
   -35.5659 -35.5594 -35.5459 -35.5425 -35.5411 -35.5225 -35.5174 -35.5092
   -35.4831 -35.4792 -35.4669 -35.4539 -35.4527 -35.4390 -35.4285 -35.4193
   -35.4188 -35.4160 -35.4084 -35.4000 -35.3821 -35.3647 -35.3597 -35.3560
   -35.3524 -35.3383 -35.3371 -35.3300 -35.3288 -23.8618 -23.8501 -23.8496
    11.8894  11.9517  13.5146  13.5325  13.5448  13.6309  14.4420  14.4770
    14.4826  14.4949  14.4991  14.4997  14.5156  14.5572  14.5747  14.6130
    14.7067  14.7554  15.2663  15.3343  15.3429  15.3651  15.3877  15.3931
    15.4065  15.5394  15.5476  15.5493  15.6150  15.6688  15.8509  15.8602
    15.9239  15.9364  15.9398  15.9662  15.9676  15.9695  15.9930  16.0061
    16.0139  16.0628  16.0866  16.1449  16.2278  16.2574  16.8691  16.9091
    17.2901  17.3328  17.3883  17.4113  17.4209  17.4252  17.4316  17.4638
    17.5041  17.5156  17.5262  17.6413  17.6578  17.6939  17.7025  17.7525
    17.7627  17.7828  17.7838  17.8581  17.8711  17.8861  17.9233  17.9827
    18.0155  18.2327  18.4858  18.5373  18.5716  18.6138  18.6482  18.6805
    18.6849  19.1422  19.3747  19.5887  19.6765  19.7020  20.8635  21.0098

          k = 0.2500-0.5000-0.4926 (  6176 PWs)   bands (ev):

   -69.5701 -69.5398 -69.5371 -69.5331 -69.5149 -69.5084 -69.5072 -69.5003
   -69.4956 -69.4873 -69.4854 -69.4821 -69.4524 -69.4480 -69.4475 -52.5139
   -35.7068 -35.6914 -35.6910 -35.6729 -35.6718 -35.6690 -35.6686 -35.6593
   -35.6587 -35.6476 -35.6457 -35.6272 -35.6136 -35.5770 -35.5770 -35.5762
   -35.5717 -35.5650 -35.5644 -35.5636 -35.5614 -35.5437 -35.5294 -35.5283
   -35.4786 -35.4559 -35.4509 -35.4484 -35.4381 -35.4373 -35.4357 -35.4320
   -35.4286 -35.3911 -35.3910 -35.3893 -35.3883 -35.3669 -35.3643 -35.3572
   -35.3549 -35.3369 -35.3361 -35.3333 -35.3235 -23.8612 -23.8497 -23.8496
    12.6241  12.6274  12.6295  12.7532  14.1444  14.1580  14.1616  14.2548
    14.5641  14.5686  14.5690  14.6886  14.9273  14.9293  14.9355  14.9356
    14.9399  14.9463  14.9946  15.0251  15.1664  15.1841  15.1871  15.2686
    15.3947  15.4212  15.4358  15.5133  15.6097  15.6199  15.6217  15.6641
    15.7467  15.7548  15.7582  15.7596  15.7991  15.8197  15.8237  15.8281
    15.9279  15.9501  15.9706  16.0953  16.2551  16.3628  16.3711  16.3732
    17.4302  17.4314  17.4392  17.5326  17.5387  17.5451  17.5452  17.5944
    17.6305  17.6373  17.6375  17.6775  17.6882  17.7017  17.7034  17.7305
    17.7776  17.7841  17.8007  17.8417  17.8490  17.8928  17.9968  18.0655
    18.0864  18.0940  18.1064  18.2940  18.2965  18.5826  18.6394  18.7475
    19.1506  19.1607  19.4312  19.4486  19.8040  20.1342  20.1399  20.1461

          k =-0.5000-0.5000 0.0000 (  6200 PWs)   bands (ev):

   -69.5712 -69.5415 -69.5415 -69.5268 -69.5168 -69.4995 -69.4994 -69.4994
   -69.4994 -69.4938 -69.4938 -69.4793 -69.4533 -69.4471 -69.4471 -52.5139
   -35.7183 -35.6955 -35.6955 -35.6873 -35.6861 -35.6849 -35.6834 -35.6683
   -35.6683 -35.6664 -35.6664 -35.6341 -35.5851 -35.5684 -35.5684 -35.5605
   -35.5486 -35.5227 -35.5196 -35.5196 -35.5185 -35.5185 -35.5059 -35.4985
   -35.4960 -35.4941 -35.4902 -35.4899 -35.4780 -35.4780 -35.4547 -35.4547
   -35.4469 -35.4053 -35.4053 -35.3895 -35.3802 -35.3703 -35.3572 -35.3481
   -35.3481 -35.3321 -35.3321 -35.3248 -35.3159 -23.8615 -23.8501 -23.8501
    12.3665  12.3712  12.3712  12.4948  14.3695  14.3724  14.3724  14.4835
    14.5647  14.5647  14.5681  14.5750  14.5786  14.6104  14.6104  14.7076
    14.9070  14.9098  14.9098  15.0272  15.2514  15.2731  15.2857  15.2857
    15.2878  15.3395  15.3395  15.5237  15.7264  15.7343  15.8225  15.8225
    15.9067  15.9185  15.9185  15.9420  15.9420  15.9457  15.9616  16.0876
    16.1907  16.1907  16.2781  16.4790  16.6528  16.6530  16.7996  16.7996
    17.3327  17.3327  17.3570  17.3936  17.4439  17.4439  17.5365  17.5393
    17.5393  17.5494  17.5522  17.5536  17.5687  17.5695  17.5695  17.5832
    17.6238  17.6250  17.6276  17.6276  17.7616  17.8004  17.8004  17.9279
    17.9347  17.9347  17.9355  18.1435  18.1435  18.5100  18.9664  18.9716
    19.3163  19.4848  19.5337  19.5337  20.9442  20.9771  20.9771  21.0389

          k =-0.5000-0.5000 0.2463 (  6160 PWs)   bands (ev):

   -69.5698 -69.5393 -69.5393 -69.5304 -69.5158 -69.5078 -69.5078 -69.5006
   -69.4959 -69.4872 -69.4872 -69.4804 -69.4530 -69.4474 -69.4474 -52.5138
   -35.7062 -35.6900 -35.6900 -35.6695 -35.6693 -35.6689 -35.6688 -35.6605
   -35.6605 -35.6448 -35.6448 -35.6323 -35.6169 -35.5814 -35.5814 -35.5806
   -35.5673 -35.5631 -35.5631 -35.5625 -35.5596 -35.5435 -35.5299 -35.5299
   -35.4780 -35.4562 -35.4485 -35.4485 -35.4375 -35.4349 -35.4349 -35.4269
   -35.4243 -35.3922 -35.3922 -35.3896 -35.3893 -35.3684 -35.3619 -35.3547
   -35.3547 -35.3360 -35.3360 -35.3308 -35.3209 -23.8614 -23.8494 -23.8494
    12.6471  12.6515  12.6515  12.7725  14.1479  14.1631  14.1631  14.2600
    14.5573  14.5593  14.5593  14.6715  14.9511  14.9563  14.9563  14.9580
    14.9638  14.9638  15.0164  15.0483  15.1793  15.1982  15.1982  15.2826
    15.3988  15.4294  15.4294  15.5287  15.6251  15.6251  15.6295  15.6623
    15.6882  15.6993  15.7201  15.7201  15.7770  15.7770  15.7934  15.8222
    15.9593  15.9593  15.9989  16.1057  16.2263  16.3396  16.3489  16.3489
    17.4936  17.4968  17.4968  17.5394  17.5534  17.5534  17.5642  17.5995
    17.6217  17.6279  17.6279  17.7018  17.7043  17.7043  17.7213  17.7273
    17.7322  17.7418  17.7418  17.8316  17.8316  17.8673  17.9785  18.0206
    18.0305  18.0547  18.0547  18.2706  18.2706  18.6220  18.6835  18.7246
    19.1742  19.1742  19.4238  19.4373  19.8127  20.1433  20.1465  20.1465

          k =-0.5000-0.5000-0.4926 (  6144 PWs)   bands (ev):

   -69.5682 -69.5366 -69.5366 -69.5338 -69.5147 -69.5135 -69.5135 -69.5019
   -69.4922 -69.4837 -69.4837 -69.4821 -69.4527 -69.4477 -69.4477 -52.5138
   -35.6851 -35.6840 -35.6840 -35.6473 -35.6448 -35.6421 -35.6375 -35.6375
   -35.6351 -35.6286 -35.6262 -35.6256 -35.6229 -35.6229 -35.6209 -35.6074
   -35.6074 -35.6030 -35.5836 -35.5836 -35.5825 -35.5460 -35.5454 -35.5454
   -35.4558 -35.4452 -35.4452 -35.4444 -35.4310 -35.4072 -35.4052 -35.4052
   -35.3846 -35.3831 -35.3773 -35.3773 -35.3760 -35.3720 -35.3720 -35.3714
   -35.3682 -35.3622 -35.3467 -35.3467 -35.3427 -23.8610 -23.8495 -23.8495
    13.3672  13.3734  13.3770  13.3770  13.3793  13.3793  13.3795  13.6375
    15.0278  15.0390  15.0390  15.0390  15.0390  15.0404  15.0424  15.0678
    15.0756  15.0784  15.0784  15.0840  15.0875  15.0875  15.2945  15.3272
    15.5107  15.5107  15.5243  15.5304  15.5419  15.5524  15.5524  15.5655
    15.5655  15.5702  15.5770  15.5770  15.5832  15.5849  15.5849  15.5893
    15.5983  15.6147  15.6255  15.6486  15.6900  15.9675  15.9675  15.9843
    17.5739  17.5811  17.5811  17.5921  17.6023  17.6023  17.6035  17.6040
    17.6154  17.6306  17.6306  17.6339  17.6415  17.6415  17.9573  18.0058
    18.0170  18.0395  18.0395  18.0456  18.0456  18.0805  18.0959  18.1095
    18.1095  18.1393  18.1546  18.4043  18.4415  18.4415  18.7409  18.7596
    18.7632  18.7638  18.7638  19.4922  19.4950  19.7812  19.7812  19.7880

 ------ SPIN DOWN ----------


          k = 0.0000 0.0000 0.0000 (  6179 PWs)   bands (ev):

   -66.9728 -66.9209 -66.9197 -66.9197 -66.9143 -66.9143 -66.9131 -66.9077
   -66.9033 -66.9022 -66.8714 -66.7689 -66.7671 -66.7545 -66.5860 -53.9856
   -33.2226 -33.2222 -33.2222 -33.2182 -33.2170 -33.2170 -33.0858 -33.0851
   -33.0777 -33.0777 -33.0349 -33.0349 -33.0346 -33.0277 -33.0274 -33.0030
   -32.9957 -32.9941 -32.9941 -32.9753 -32.9753 -32.9691 -32.9532 -32.9532
   -32.9462 -32.9451 -32.9425 -32.9319 -32.9310 -32.9310 -32.8807 -32.8730
   -32.8730 -32.8198 -32.8165 -32.8165 -32.7393 -32.7393 -32.7391 -32.7256
   -32.7256 -32.7225 -32.6414 -32.6414 -32.6365 -25.3108 -25.3012 -25.3012
    10.1832  14.2490  14.3140  14.3636  14.4662  14.4662  14.4663  14.7161
    14.7161  14.7254  14.7784  14.7811  14.9085  15.4035  15.4313  16.4156
    16.4156  16.4168  16.7054  16.7561  16.7561  16.8340  16.8340  16.8956
    16.9301  16.9301  16.9489  17.4615  17.4996  17.6874  17.7547  17.7547
    17.8519  18.0611  18.0611  18.1544  18.4609  18.4640  18.4640  18.4786
    18.5465  18.5686  18.5686  18.5876  18.5876  18.6002  18.6002  18.6365
    19.0924  19.1027  19.1027  19.1127  19.2352  19.2352  19.4592  19.4956
    19.4956  19.4966  19.5530  19.5579  19.8199  19.8261  20.0973  20.0973
    20.1734  20.2199  20.2398  20.3493  20.3895  20.4393  20.5289  20.5289
    20.5635  20.5838  20.6638  20.6790  20.7186  20.7928  20.9881  21.0149
    21.0149  21.0941  21.1577  21.2395  21.2432  21.2435  21.2473  21.2604

          k = 0.0000 0.0000 0.2463 (  6215 PWs)   bands (ev):

   -66.9677 -66.9341 -66.9189 -66.9189 -66.9151 -66.9151 -66.9124 -66.9087
   -66.9032 -66.8929 -66.8728 -66.7673 -66.7671 -66.7560 -66.5860 -53.9857
   -33.2151 -33.2085 -33.2085 -33.2019 -33.1997 -33.1997 -33.0986 -33.0967
   -33.0965 -33.0965 -33.0755 -33.0689 -33.0546 -33.0546 -33.0512 -33.0512
   -33.0330 -33.0093 -33.0035 -33.0035 -32.9673 -32.9532 -32.9502 -32.9443
   -32.9426 -32.9283 -32.9283 -32.9176 -32.8772 -32.8772 -32.8567 -32.8567
   -32.8438 -32.8227 -32.8104 -32.8104 -32.7564 -32.7480 -32.7480 -32.7405
   -32.7405 -32.7348 -32.6423 -32.6423 -32.6376 -25.3115 -25.3017 -25.3017
    10.5057  12.8135  14.4242  14.5753  14.5753  14.5937  14.7765  14.7765
    14.8191  14.8557  14.9396  15.0281  15.3617  15.5532  15.5774  16.2123
    16.3801  16.3900  16.3900  16.7226  16.7226  16.7528  16.9435  16.9865
    16.9865  17.1024  17.1198  17.1198  17.2796  17.4985  17.4985  17.5460
    17.9769  18.0118  18.0118  18.1591  18.1818  18.1818  18.3014  18.3037
    18.3037  18.3682  18.3682  18.3828  18.3914  18.5136  18.5831  18.5831
    18.8760  18.9144  18.9236  18.9236  19.0320  19.1098  19.1098  19.7462
    19.8661  19.9253  19.9387  19.9387  20.0058  20.0058  20.0091  20.0429
    20.0863  20.1361  20.2766  20.3960  20.4053  20.5388  20.5408  20.5707
    20.6382  20.6382  20.6470  20.7573  20.7825  20.8763  20.9515  20.9515
    20.9880  21.0085  21.0770  21.0842  21.0842  21.0867  21.2648  21.2648

          k = 0.0000 0.0000-0.4926 (  6192 PWs)   bands (ev):

   -66.9564 -66.9502 -66.9170 -66.9170 -66.9170 -66.9170 -66.9105 -66.9105
   -66.9032 -66.8860 -66.8750 -66.7671 -66.7650 -66.7581 -66.5860 -53.9857
   -33.1973 -33.1786 -33.1786 -33.1564 -33.1451 -33.1451 -33.1390 -33.1390
   -33.1273 -33.1255 -33.1255 -33.1215 -33.1018 -33.0899 -33.0396 -33.0396
   -33.0342 -33.0342 -33.0167 -33.0166 -32.9578 -32.9578 -32.9396 -32.9396
   -32.9307 -32.9108 -32.9108 -32.8985 -32.8488 -32.8488 -32.8305 -32.8305
   -32.8145 -32.8104 -32.7835 -32.7829 -32.7829 -32.7707 -32.7707 -32.7597
   -32.7597 -32.7484 -32.6411 -32.6411 -32.6370 -25.3111 -25.3014 -25.3014
    11.4303  11.4305  14.5445  14.6792  14.6792  14.8449  14.8694  14.8694
    14.8712  14.8896  15.3200  15.3428  15.7343  15.7530  15.7603  15.7846
    15.9096  16.1593  16.3951  16.3951  16.7049  16.7049  17.1604  17.2040
    17.2890  17.2890  17.4942  17.5434  17.5434  17.5754  17.5754  17.5834
    17.5842  17.6188  17.6188  17.6189  17.6591  17.6593  17.6977  17.6977
    17.7666  17.7666  18.0992  18.0992  18.2308  18.2308  18.5452  18.7107
    19.0363  19.3854  19.4658  19.4658  19.5064  19.5556  19.5900  19.5906
    19.5906  19.6148  19.7978  19.7978  19.9145  19.9145  20.1612  20.3154
    20.3827  20.4258  20.4275  20.5011  20.5219  20.5775  20.5893  20.5954
    20.5954  20.5968  20.5972  20.6289  20.6300  20.6999  20.7068  20.7153
    20.7153  20.7455  21.1994  21.1995  21.2318  21.2318  21.2432  21.2432

          k = 0.0000 0.2500 0.0000 (  6203 PWs)   bands (ev):

   -66.9675 -66.9335 -66.9199 -66.9187 -66.9153 -66.9141 -66.9133 -66.9088
   -66.9024 -66.8936 -66.8726 -66.7687 -66.7655 -66.7562 -66.5860 -53.9857
   -33.2134 -33.2075 -33.2055 -33.1987 -33.1970 -33.1932 -33.1009 -33.0980
   -33.0969 -33.0900 -33.0673 -33.0668 -33.0596 -33.0522 -33.0520 -33.0504
   -33.0393 -33.0106 -33.0047 -33.0039 -32.9739 -32.9531 -32.9487 -32.9474
   -32.9434 -32.9275 -32.9271 -32.9246 -32.8766 -32.8763 -32.8597 -32.8567
   -32.8401 -32.8168 -32.8111 -32.8098 -32.7543 -32.7480 -32.7471 -32.7392
   -32.7364 -32.7356 -32.6429 -32.6421 -32.6357 -25.3109 -25.3021 -25.3015
    10.5167  12.8870  14.3885  14.4995  14.5679  14.5849  14.7591  14.7920
    14.8159  14.8538  14.9471  15.0410  15.4240  15.5543  15.6158  16.2397
    16.4173  16.4197  16.4203  16.7719  16.7779  16.8015  16.8747  16.9406
    16.9950  17.0433  17.0651  17.0900  17.2733  17.4792  17.5142  17.5449
    17.9152  17.9504  18.0555  18.1233  18.1277  18.2287  18.2417  18.2964
    18.3213  18.3436  18.3572  18.4500  18.4540  18.4838  18.4870  18.5839
    18.9544  18.9660  18.9710  18.9951  19.0098  19.0227  19.0907  19.7733
    19.9093  19.9248  19.9420  20.0028  20.0049  20.0195  20.0568  20.0786
    20.0886  20.1437  20.1733  20.3335  20.4012  20.4927  20.5008  20.5428
    20.5959  20.6054  20.6086  20.7189  20.8119  20.8874  20.9312  20.9704
    21.0093  21.0461  21.0928  21.0951  21.1076  21.1090  21.1219  21.1962

          k = 0.0000 0.2500 0.2463 (  6211 PWs)   bands (ev):

   -66.9629 -66.9345 -66.9286 -66.9180 -66.9180 -66.9142 -66.9133 -66.9096
   -66.8962 -66.8905 -66.8742 -66.7673 -66.7654 -66.7575 -66.5860 -53.9857
   -33.2063 -33.2060 -33.1957 -33.1865 -33.1816 -33.1654 -33.1189 -33.1155
   -33.1079 -33.1029 -33.0975 -33.0851 -33.0787 -33.0483 -33.0449 -33.0388
   -33.0233 -33.0103 -32.9954 -32.9942 -32.9854 -32.9656 -32.9656 -32.9563
   -32.9495 -32.9484 -32.9131 -32.9048 -32.8696 -32.8672 -32.8553 -32.8469
   -32.8464 -32.8005 -32.8001 -32.7847 -32.7800 -32.7552 -32.7531 -32.7510
   -32.7418 -32.7322 -32.6436 -32.6422 -32.6369 -25.3112 -25.3021 -25.3017
    10.8290  13.0562  13.1169  14.2926  14.7085  14.7346  14.9550  14.9871
    15.0400  15.0605  15.2320  15.4711  15.5354  15.7004  15.7469  16.1205
    16.2524  16.4630  16.5821  16.6680  16.7476  16.7838  16.8297  16.9272
    16.9511  16.9910  17.0410  17.0838  17.2310  17.2806  17.2935  17.7294
    17.7600  17.7878  17.9058  17.9296  17.9402  17.9449  17.9719  17.9884
    18.0241  18.0553  18.0992  18.0995  18.1247  18.5617  18.5907  18.6232
    18.9755  19.0458  19.0773  19.1412  19.1499  19.2202  19.4477  19.5078
    19.6148  19.8397  19.8961  19.9851  20.0492  20.0547  20.0909  20.1121
    20.2013  20.2856  20.3079  20.3431  20.3965  20.4253  20.4387  20.4755
    20.5238  20.5615  20.6006  20.6285  20.6631  20.7128  20.7376  20.7494
    20.7657  20.8008  21.0216  21.2120  21.3795  21.4233  22.0421  22.0720

          k = 0.0000 0.2500-0.4926 (  6184 PWs)   bands (ev):

   -66.9526 -66.9472 -66.9276 -66.9215 -66.9161 -66.9161 -66.9115 -66.9115
   -66.8943 -66.8846 -66.8773 -66.7657 -66.7650 -66.7593 -66.5860 -53.9857
   -33.1983 -33.1898 -33.1749 -33.1637 -33.1517 -33.1440 -33.1383 -33.1364
   -33.1244 -33.1242 -33.1036 -33.1030 -33.0787 -33.0774 -33.0386 -33.0331
   -33.0254 -33.0134 -33.0133 -33.0091 -32.9714 -32.9698 -32.9623 -32.9572
   -32.9478 -32.9258 -32.9084 -32.8929 -32.8784 -32.8780 -32.8479 -32.8405
   -32.8319 -32.7872 -32.7818 -32.7784 -32.7702 -32.7634 -32.7606 -32.7595
   -32.7426 -32.7414 -32.6427 -32.6413 -32.6362 -25.3110 -25.3019 -25.3015
    11.7240  11.7305  13.6697  13.7047  14.8976  14.9165  15.0591  15.0784
    15.3999  15.4274  15.5532  15.5609  15.7507  15.7665  15.8199  15.9120
    16.0148  16.2254  16.4662  16.5186  16.7159  16.7758  16.9087  16.9615
    17.0955  17.1729  17.1774  17.1873  17.2960  17.3278  17.3315  17.4475
    17.4629  17.4726  17.5509  17.5894  17.5998  17.6038  17.7583  17.7647
    17.8029  17.8102  17.9488  17.9599  18.0022  18.0786  18.9632  19.0234
    19.1266  19.2697  19.2898  19.3025  19.3517  19.5087  19.5336  19.6093
    19.6537  19.6740  19.6934  19.6985  19.7459  19.7654  20.0834  20.1186
    20.1330  20.2593  20.2985  20.3137  20.3764  20.4528  20.5132  20.5646
    20.5808  20.5968  20.6098  20.6184  20.6327  20.6818  20.6865  20.7157
    20.8766  20.9225  21.0015  21.0016  21.7073  21.7130  21.7176  21.7572

          k = 0.0000-0.5000 0.0000 (  6218 PWs)   bands (ev):

   -66.9557 -66.9501 -66.9176 -66.9176 -66.9165 -66.9164 -66.9110 -66.9110
   -66.9024 -66.8873 -66.8743 -66.7686 -66.7624 -66.7591 -66.5860 -53.9857
   -33.2005 -33.1781 -33.1774 -33.1582 -33.1436 -33.1428 -33.1394 -33.1381
   -33.1289 -33.1272 -33.1259 -33.1213 -33.0904 -33.0770 -33.0473 -33.0438
   -33.0393 -33.0342 -33.0189 -33.0186 -32.9640 -32.9639 -32.9450 -32.9450
   -32.9327 -32.9138 -32.9117 -32.8961 -32.8574 -32.8488 -32.8332 -32.8298
   -32.8134 -32.8127 -32.7856 -32.7854 -32.7790 -32.7718 -32.7705 -32.7613
   -32.7589 -32.7527 -32.6441 -32.6418 -32.6374 -25.3112 -25.3023 -25.3017
    11.4665  11.4683  14.5340  14.6470  14.6910  14.8164  14.8285  14.8750
    14.8758  14.8817  15.3623  15.3738  15.7551  15.7860  15.8041  15.8249
    15.9090  16.1656  16.4537  16.4566  16.7773  16.7801  17.0961  17.2034
    17.2068  17.3026  17.4280  17.4505  17.4652  17.5167  17.5503  17.5788
    17.5808  17.5929  17.6182  17.6302  17.6319  17.6320  17.6537  17.6823
    17.6906  17.6957  18.0467  18.1605  18.1764  18.2958  18.4478  18.6111
    19.0826  19.4556  19.4830  19.5479  19.5875  19.6101  19.6224  19.6230
    19.6748  19.6929  19.7403  19.7894  19.8557  19.9040  20.1063  20.2597
    20.3452  20.3620  20.3983  20.4207  20.5274  20.5616  20.5692  20.5737
    20.5798  20.6040  20.6051  20.6121  20.6371  20.6727  20.6844  20.7185
    20.7209  20.7311  21.1093  21.1358  21.1489  21.2143  21.2439  21.2596

          k = 0.0000-0.5000 0.2463 (  6208 PWs)   bands (ev):

   -66.9520 -66.9474 -66.9277 -66.9219 -66.9156 -66.9156 -66.9119 -66.9119
   -66.8937 -66.8858 -66.8766 -66.7672 -66.7624 -66.7603 -66.5860 -53.9857
   -33.2007 -33.1893 -33.1748 -33.1646 -33.1520 -33.1453 -33.1393 -33.1344
   -33.1244 -33.1201 -33.1056 -33.1029 -33.0776 -33.0767 -33.0386 -33.0335
   -33.0288 -33.0148 -33.0144 -33.0124 -32.9732 -32.9718 -32.9649 -32.9606
   -32.9501 -32.9274 -32.9102 -32.8945 -32.8799 -32.8792 -32.8518 -32.8423
   -32.8317 -32.7878 -32.7825 -32.7803 -32.7708 -32.7626 -32.7617 -32.7580
   -32.7439 -32.7415 -32.6441 -32.6422 -32.6369 -25.3112 -25.3024 -25.3018
    11.7517  11.7561  13.6406  13.6742  14.9066  14.9200  15.0710  15.0915
    15.4180  15.4400  15.5283  15.5592  15.7614  15.7768  15.8451  15.9604
    16.0007  16.2195  16.5178  16.5692  16.7458  16.8274  16.9226  16.9231
    17.0433  17.1414  17.1560  17.1666  17.2606  17.3076  17.3188  17.3969
    17.4056  17.4157  17.5480  17.5738  17.5755  17.6077  17.7496  17.7545
    17.8049  17.8128  17.9482  17.9604  17.9727  18.0485  18.9451  18.9839
    19.1365  19.2598  19.2949  19.2955  19.3994  19.4903  19.5014  19.6588
    19.6735  19.7186  19.7405  19.7474  19.7697  19.7796  20.0470  20.1153
    20.1367  20.2041  20.2346  20.3071  20.3114  20.4396  20.5149  20.5644
    20.5718  20.5808  20.5924  20.6248  20.6343  20.6489  20.6770  20.7056
    20.8561  20.9050  21.0060  21.0071  21.7308  21.7334  21.7374  21.7769

          k = 0.0000-0.5000-0.4926 (  6212 PWs)   bands (ev):

   -66.9436 -66.9430 -66.9404 -66.9272 -66.9138 -66.9138 -66.9138 -66.9138
   -66.8846 -66.8834 -66.8832 -66.7650 -66.7624 -66.7624 -66.5860 -53.9857
   -33.1985 -33.1969 -33.1726 -33.1571 -33.1516 -33.1482 -33.1474 -33.1331
   -33.1329 -33.1199 -33.1038 -33.1029 -33.0402 -33.0396 -33.0361 -33.0294
   -33.0054 -32.9957 -32.9947 -32.9947 -32.9913 -32.9910 -32.9848 -32.9792
   -32.9791 -32.9632 -32.9068 -32.9035 -32.9021 -32.9017 -32.8810 -32.8329
   -32.8326 -32.7826 -32.7771 -32.7711 -32.7693 -32.7692 -32.7514 -32.7494
   -32.7406 -32.7293 -32.6459 -32.6416 -32.6370 -25.3113 -25.3028 -25.3019
    12.5186  12.5601  12.5611  12.5622  15.2675  15.2919  15.2954  15.5446
    15.5600  15.5623  15.5745  15.5760  15.7789  15.8921  15.8960  16.0362
    16.0366  16.5520  16.5534  16.5829  16.6042  16.6328  16.7721  16.7858
    16.8601  16.8771  16.8784  16.9068  16.9087  17.2726  17.3017  17.3204
    17.3407  17.3454  17.3487  17.3966  17.4562  17.4700  17.5719  17.5995
    17.7632  17.8500  17.8649  17.8667  18.4741  18.4761  18.5219  18.5440
    19.1416  19.1717  19.2693  19.2703  19.4660  19.5119  19.5167  19.5810
    19.6065  19.6690  19.9094  19.9119  19.9156  19.9363  19.9380  19.9593
    19.9852  19.9969  19.9980  20.0858  20.3067  20.3394  20.4103  20.4105
    20.4767  20.5691  20.5698  20.5916  20.5999  20.6639  20.6644  20.6908
    21.0891  21.0925  21.1051  21.1361  22.6142  22.6313  22.6332  22.6363

          k = 0.2500 0.2500 0.0000 (  6186 PWs)   bands (ev):

   -66.9628 -66.9343 -66.9278 -66.9190 -66.9171 -66.9143 -66.9143 -66.9098
   -66.8956 -66.8910 -66.8740 -66.7678 -66.7647 -66.7576 -66.5860 -53.9857
   -33.2061 -33.2058 -33.1949 -33.1870 -33.1822 -33.1608 -33.1172 -33.1103
   -33.1099 -33.0978 -33.0918 -33.0843 -33.0758 -33.0563 -33.0421 -33.0408
   -33.0203 -33.0092 -33.0011 -32.9931 -32.9906 -32.9626 -32.9626 -32.9544
   -32.9515 -32.9484 -32.9107 -32.9033 -32.8689 -32.8635 -32.8547 -32.8479
   -32.8448 -32.8012 -32.7995 -32.7851 -32.7785 -32.7550 -32.7520 -32.7461
   -32.7403 -32.7311 -32.6431 -32.6414 -32.6354 -25.3109 -25.3019 -25.3015
    10.8391  13.1234  13.1283  14.3236  14.6499  14.6697  14.9527  14.9838
    15.0306  15.0587  15.2320  15.5290  15.5445  15.7373  15.7554  16.1468
    16.2872  16.4717  16.6015  16.6857  16.7651  16.7967  16.8935  16.9337
    16.9439  17.0112  17.0188  17.0276  17.1834  17.2238  17.2758  17.6937
    17.7779  17.8384  17.8402  17.9137  17.9421  17.9525  17.9708  18.0054
    18.0140  18.0301  18.0372  18.1558  18.2046  18.4747  18.5188  18.5417
    19.0328  19.0791  19.1486  19.1686  19.1819  19.2713  19.4270  19.4725
    19.6947  19.8478  19.9368  19.9772  20.0345  20.0414  20.0949  20.1813
    20.2026  20.2364  20.2831  20.3429  20.3892  20.4125  20.4567  20.4697
    20.5199  20.5297  20.5840  20.5846  20.6039  20.6712  20.6863  20.7279
    20.7969  20.7985  21.0303  21.2173  21.2755  21.3205  22.0469  22.0525

          k = 0.2500 0.2500 0.2463 (  6196 PWs)   bands (ev):

   -66.9586 -66.9328 -66.9327 -66.9221 -66.9166 -66.9163 -66.9150 -66.9107
   -66.8903 -66.8896 -66.8755 -66.7666 -66.7647 -66.7586 -66.5860 -53.9857
   -33.1974 -33.1963 -33.1897 -33.1807 -33.1539 -33.1528 -33.1335 -33.1192
   -33.1162 -33.0967 -33.0940 -33.0914 -33.0571 -33.0547 -33.0532 -33.0295
   -33.0234 -33.0220 -33.0164 -33.0106 -33.0089 -32.9976 -32.9720 -32.9692
   -32.9458 -32.9086 -32.9073 -32.8786 -32.8758 -32.8732 -32.8507 -32.8503
   -32.8447 -32.8065 -32.7834 -32.7774 -32.7746 -32.7571 -32.7569 -32.7463
   -32.7459 -32.7365 -32.6431 -32.6419 -32.6364 -25.3112 -25.3020 -25.3018
    11.1456  13.3050  13.3577  13.3622  14.5479  14.5609  14.6372  15.2891
    15.2967  15.4810  15.6085  15.6446  15.7768  15.8635  15.8958  16.0832
    16.2558  16.4503  16.4694  16.6847  16.6888  16.8172  16.8185  16.8279
    16.9621  16.9873  17.0110  17.0504  17.1343  17.1808  17.5099  17.5357
    17.5443  17.6142  17.6259  17.6308  17.7123  17.7325  17.7472  17.7654
    17.8063  17.8130  17.8818  17.9383  18.1465  18.1718  18.2209  18.8347
    19.2092  19.2135  19.3339  19.3440  19.3583  19.3880  19.4596  19.7511
    19.7619  19.8149  19.8410  19.8682  19.9009  19.9794  20.0141  20.1305
    20.1384  20.2446  20.3413  20.3665  20.4412  20.4714  20.5116  20.5397
    20.5511  20.5539  20.5727  20.5918  20.6642  20.7054  20.7181  20.7384
    20.7470  20.8100  20.8210  20.8418  21.2749  21.2790  21.2803  22.7211

          k = 0.2500 0.2500-0.4926 (  6198 PWs)   bands (ev):

   -66.9493 -66.9446 -66.9306 -66.9208 -66.9194 -66.9183 -66.9130 -66.9130
   -66.8896 -66.8833 -66.8786 -66.7649 -66.7647 -66.7602 -66.5860 -53.9857
   -33.1923 -33.1839 -33.1803 -33.1562 -33.1490 -33.1397 -33.1314 -33.1276
   -33.1199 -33.1054 -33.0973 -33.0835 -33.0816 -33.0721 -33.0459 -33.0431
   -33.0383 -33.0368 -33.0107 -33.0026 -32.9979 -32.9967 -32.9871 -32.9870
   -32.9416 -32.9092 -32.9010 -32.8948 -32.8708 -32.8640 -32.8444 -32.8392
   -32.8334 -32.7986 -32.7814 -32.7783 -32.7706 -32.7628 -32.7572 -32.7552
   -32.7456 -32.7452 -32.6435 -32.6424 -32.6365 -25.3112 -25.3022 -25.3019
    12.0142  12.0264  13.9312  13.9382  13.9447  13.9965  15.2158  15.3609
    15.5062  15.5958  15.7314  15.7507  15.8950  15.9593  16.0403  16.0898
    16.1543  16.2836  16.5351  16.5862  16.6244  16.8246  16.8600  17.0031
    17.0051  17.0073  17.0222  17.0813  17.1682  17.1892  17.2933  17.2951
    17.3138  17.3429  17.4016  17.5086  17.5098  17.5148  17.5726  17.6161
    17.6437  17.6517  17.7710  17.7737  17.7876  17.8106  18.5780  18.6065
    19.3195  19.3329  19.3382  19.4166  19.5676  19.5708  19.6688  19.6931
    19.8119  19.8479  19.8582  19.8753  19.9388  20.0418  20.0621  20.2163
    20.2189  20.2783  20.3983  20.4043  20.4395  20.4499  20.4531  20.5034
    20.5201  20.5285  20.5367  20.6201  20.6562  20.6978  20.6989  20.7233
    20.7265  20.7691  20.7709  20.7725  20.7934  20.8047  22.3442  22.3746

          k = 0.2500-0.5000 0.0000 (  6204 PWs)   bands (ev):

   -66.9519 -66.9472 -66.9269 -66.9210 -66.9167 -66.9167 -66.9121 -66.9120
   -66.8936 -66.8858 -66.8765 -66.7672 -66.7624 -66.7603 -66.5860 -53.9857
   -33.1989 -33.1895 -33.1755 -33.1595 -33.1533 -33.1434 -33.1410 -33.1358
   -33.1231 -33.1219 -33.1023 -33.1022 -33.0788 -33.0778 -33.0452 -33.0417
   -33.0224 -33.0192 -33.0179 -33.0053 -32.9778 -32.9755 -32.9651 -32.9625
   -32.9500 -32.9269 -32.9082 -32.8936 -32.8780 -32.8774 -32.8508 -32.8453
   -32.8327 -32.7873 -32.7786 -32.7780 -32.7675 -32.7633 -32.7599 -32.7594
   -32.7456 -32.7404 -32.6439 -32.6421 -32.6360 -25.3112 -25.3025 -25.3018
    11.7619  11.7663  13.6942  13.7279  14.8712  14.8927  15.0290  15.0470
    15.4255  15.4394  15.5625  15.5782  15.7636  15.7795  15.8460  15.9585
    16.0184  16.2379  16.5108  16.5723  16.7666  16.8406  16.9417  16.9435
    17.1014  17.1588  17.1971  17.1976  17.2439  17.2647  17.2728  17.3668
    17.3922  17.3945  17.5358  17.5818  17.5948  17.5997  17.7097  17.7185
    17.7953  17.8019  17.8510  17.8542  18.0615  18.1413  18.9128  18.9682
    19.1796  19.1858  19.2207  19.3578  19.3962  19.5446  19.5580  19.6319
    19.6806  19.7142  19.7221  19.7820  19.8121  19.8484  20.0672  20.0923
    20.1094  20.2184  20.2599  20.2630  20.3333  20.4452  20.5037  20.5053
    20.5150  20.5230  20.5574  20.5764  20.5831  20.6401  20.6410  20.6815
    20.8582  20.9081  21.0046  21.0050  21.6840  21.6908  21.6944  21.7254

          k = 0.2500-0.5000 0.2463 (  6208 PWs)   bands (ev):

   -66.9486 -66.9447 -66.9303 -66.9210 -66.9194 -66.9183 -66.9134 -66.9134
   -66.8891 -66.8844 -66.8779 -66.7663 -66.7624 -66.7611 -66.5860 -53.9857
   -33.1944 -33.1829 -33.1796 -33.1556 -33.1484 -33.1388 -33.1306 -33.1265
   -33.1195 -33.1048 -33.0970 -33.0843 -33.0813 -33.0738 -33.0518 -33.0465
   -33.0375 -33.0373 -33.0128 -33.0026 -32.9997 -32.9984 -32.9907 -32.9888
   -32.9428 -32.9117 -32.9027 -32.8935 -32.8723 -32.8639 -32.8468 -32.8392
   -32.8319 -32.8000 -32.7811 -32.7779 -32.7694 -32.7616 -32.7566 -32.7551
   -32.7472 -32.7441 -32.6438 -32.6427 -32.6368 -25.3114 -25.3025 -25.3020
    12.0422  12.0523  13.9085  13.9312  13.9536  13.9993  15.2218  15.3576
    15.4918  15.6261  15.7172  15.7504  15.8904  15.9751  16.0592  16.1298
    16.1427  16.2738  16.5752  16.6247  16.6311  16.8879  16.8925  16.9822
    17.0106  17.0183  17.0391  17.0549  17.1333  17.1375  17.2472  17.2508
    17.2591  17.3005  17.4049  17.5235  17.5431  17.5440  17.5484  17.5808
    17.6329  17.6362  17.7213  17.7312  17.8115  17.8556  18.5567  18.5840
    19.3054  19.3089  19.3396  19.4492  19.5819  19.6027  19.6820  19.7336
    19.8361  19.8611  19.8990  19.9142  19.9343  19.9864  20.0566  20.1682
    20.1818  20.2533  20.3269  20.3902  20.4121  20.4191  20.4498  20.4780
    20.4995  20.5057  20.5154  20.6018  20.6545  20.6774  20.7098  20.7160
    20.7389  20.7646  20.7809  20.7818  20.7979  20.8093  22.3419  22.3708

          k = 0.2500-0.5000-0.4926 (  6176 PWs)   bands (ev):

   -66.9413 -66.9407 -66.9394 -66.9253 -66.9175 -66.9175 -66.9157 -66.9154
   -66.8832 -66.8825 -66.8821 -66.7649 -66.7623 -66.7623 -66.5860 -53.9857
   -33.1861 -33.1825 -33.1702 -33.1387 -33.1351 -33.1323 -33.1319 -33.1207
   -33.1205 -33.1073 -33.0880 -33.0873 -33.0519 -33.0519 -33.0445 -33.0426
   -33.0375 -33.0304 -33.0298 -33.0296 -33.0268 -33.0246 -33.0032 -33.0031
   -32.9573 -32.9053 -32.8780 -32.8733 -32.8697 -32.8691 -32.8576 -32.8288
   -32.8281 -32.7919 -32.7824 -32.7741 -32.7740 -32.7636 -32.7554 -32.7535
   -32.7479 -32.7402 -32.6426 -32.6420 -32.6353 -25.3109 -25.3021 -25.3020
    12.8075  12.8429  12.8448  12.8566  14.5976  14.5984  14.6545  14.6680
    15.6762  15.9117  16.0297  16.0328  16.0412  16.2475  16.2482  16.2831
    16.2897  16.5843  16.5889  16.6303  16.6558  16.6806  16.7173  16.7246
    16.8145  16.8927  16.9108  17.0000  17.0639  17.1218  17.1479  17.1679
    17.2454  17.2852  17.2883  17.3007  17.3661  17.3838  17.4748  17.4986
    17.5407  17.6001  17.6123  17.6226  17.9143  17.9192  17.9416  17.9420
    19.4955  19.5434  19.6704  19.7374  19.7473  19.8698  19.8728  19.8800
    19.9578  19.9707  19.9724  19.9755  20.0150  20.0182  20.0190  20.0196
    20.0306  20.1262  20.1296  20.2021  20.2893  20.3188  20.3845  20.3881
    20.4502  20.4941  20.4946  20.4960  20.5325  20.5823  20.5825  20.6179
    20.7696  20.7700  20.7728  20.8143  21.4398  21.4709  21.4727  21.4901

          k =-0.5000-0.5000 0.0000 (  6200 PWs)   bands (ev):

   -66.9431 -66.9431 -66.9394 -66.9267 -66.9144 -66.9144 -66.9144 -66.9144
   -66.8845 -66.8845 -66.8819 -66.7650 -66.7623 -66.7623 -66.5860 -53.9857
   -33.1983 -33.1969 -33.1702 -33.1557 -33.1489 -33.1458 -33.1458 -33.1316
   -33.1316 -33.1193 -33.1020 -33.1020 -33.0414 -33.0414 -33.0358 -33.0287
   -33.0095 -33.0032 -32.9945 -32.9945 -32.9928 -32.9928 -32.9826 -32.9766
   -32.9765 -32.9636 -32.9023 -32.9007 -32.9007 -32.8997 -32.8807 -32.8364
   -32.8364 -32.7802 -32.7757 -32.7726 -32.7662 -32.7662 -32.7512 -32.7512
   -32.7455 -32.7329 -32.6449 -32.6449 -32.6356 -25.3110 -25.3025 -25.3025
    12.5498  12.5910  12.5930  12.5930  15.2733  15.2908  15.2908  15.5381
    15.5487  15.5487  15.5606  15.5626  15.7770  15.9070  15.9223  16.0526
    16.0526  16.5896  16.5896  16.6171  16.6171  16.6204  16.7850  16.8037
    16.8739  16.8935  16.8935  16.9161  16.9229  17.2716  17.2716  17.3327
    17.3469  17.3558  17.3558  17.3945  17.3945  17.4052  17.4663  17.4949
    17.8145  17.9023  17.9193  17.9193  18.3810  18.3810  18.4307  18.4532
    19.1866  19.2280  19.3291  19.3291  19.4782  19.4782  19.4797  19.5425
    19.5689  19.7446  19.9395  19.9395  19.9646  19.9751  19.9751  19.9920
    20.0179  20.0350  20.0350  20.0865  20.2720  20.2749  20.3639  20.3639
    20.4297  20.4805  20.4805  20.5013  20.5091  20.5783  20.5783  20.6064
    21.1050  21.1050  21.1206  21.1532  22.5951  22.6141  22.6147  22.6211

          k =-0.5000-0.5000 0.2463 (  6160 PWs)   bands (ev):

   -66.9410 -66.9410 -66.9385 -66.9250 -66.9178 -66.9178 -66.9161 -66.9157
   -66.8831 -66.8831 -66.8813 -66.7649 -66.7623 -66.7623 -66.5860 -53.9856
   -33.1853 -33.1846 -33.1678 -33.1390 -33.1325 -33.1312 -33.1312 -33.1204
   -33.1204 -33.1065 -33.0856 -33.0856 -33.0535 -33.0535 -33.0467 -33.0449
   -33.0364 -33.0352 -33.0299 -33.0299 -33.0262 -33.0214 -33.0052 -33.0052
   -32.9575 -32.9033 -32.8764 -32.8731 -32.8685 -32.8685 -32.8542 -32.8280
   -32.8280 -32.7915 -32.7820 -32.7719 -32.7719 -32.7644 -32.7535 -32.7535
   -32.7478 -32.7384 -32.6413 -32.6413 -32.6351 -25.3110 -25.3018 -25.3018
    12.8318  12.8694  12.8694  12.8793  14.5832  14.5832  14.6351  14.6525
    15.6687  15.9397  16.0280  16.0280  16.0494  16.2473  16.2473  16.2768
    16.2815  16.6103  16.6103  16.6641  16.6785  16.6785  16.7320  16.7461
    16.8321  16.9016  16.9016  17.0000  17.0593  17.1659  17.1752  17.1752
    17.2515  17.2669  17.2669  17.2876  17.3315  17.3315  17.3980  17.4313
    17.5747  17.6578  17.6578  17.6633  17.8730  17.8730  17.9016  17.9064
    19.5051  19.5559  19.6615  19.7368  19.7368  19.8590  19.8590  19.8784
    19.9366  19.9850  19.9921  19.9921  20.0332  20.0468  20.0948  20.0948
    20.1240  20.1373  20.1373  20.1880  20.2711  20.2813  20.3462  20.3462
    20.4098  20.4231  20.4266  20.4266  20.4620  20.5219  20.5219  20.5587
    20.8038  20.8038  20.8053  20.8503  21.4677  21.5030  21.5030  21.5181

          k =-0.5000-0.5000-0.4926 (  6144 PWs)   bands (ev):

   -66.9382 -66.9382 -66.9376 -66.9219 -66.9218 -66.9218 -66.9192 -66.9171
   -66.8820 -66.8820 -66.8809 -66.7648 -66.7623 -66.7623 -66.5860 -53.9856
   -33.1708 -33.1697 -33.1599 -33.1069 -33.1066 -33.1066 -33.1034 -33.1034
   -33.1024 -33.0897 -33.0738 -33.0724 -33.0724 -33.0702 -33.0699 -33.0697
   -33.0684 -33.0684 -33.0569 -33.0567 -33.0567 -33.0251 -33.0244 -33.0244
   -32.9503 -32.8726 -32.8725 -32.8482 -32.8472 -32.8472 -32.8166 -32.8166
   -32.8160 -32.8109 -32.7867 -32.7851 -32.7851 -32.7619 -32.7588 -32.7588
   -32.7586 -32.7583 -32.6413 -32.6413 -32.6345 -25.3106 -25.3019 -25.3019
    13.5911  13.5930  13.5930  13.6120  13.6336  13.6368  13.6368  13.6791
    15.9220  15.9575  16.2940  16.2940  16.2996  16.6833  16.6833  16.6855
    16.7085  16.7271  16.7271  16.7274  16.7302  16.7302  16.7540  16.7642
    16.8160  16.8239  16.8239  17.1327  17.1327  17.1357  17.1493  17.1820
    17.1913  17.2216  17.2216  17.2236  17.2236  17.2270  17.2420  17.2481
    17.2572  17.2913  17.3085  17.3094  17.3094  17.3109  17.3109  17.3428
    19.6542  19.6558  20.0480  20.0808  20.0808  20.1868  20.1868  20.2213
    20.2213  20.2247  20.2414  20.2543  20.2641  20.2641  20.2772  20.2848
    20.2868  20.2943  20.2951  20.3020  20.3020  20.3025  20.3025  20.3156
    20.3330  20.3448  20.3448  20.3477  20.3607  20.3607  20.3729  20.4018
    20.6562  20.6684  20.6722  20.6722  20.6965  20.7159  20.7159  20.7186

     the Fermi energy is    18.7462 ev

!    total energy              =   -5186.30085244 Ry
     total all-electron energy =    -40284.281527 Ry
     estimated scf accuracy    <       0.00000059 Ry
     smearing contrib. (-TS)   =       0.00468465 Ry
     internal energy E=F+TS    =   -5186.30553709 Ry

     The total energy is F=E-TS. E is the sum of the following terms:
     one-electron contribution =   -1687.40430796 Ry
     hartree contribution      =    1006.43743548 Ry
     xc contribution           =    -438.66930016 Ry
     ewald contribution        =   -2750.77328155 Ry
     one-center paw contrib.   =   -1315.89608290 Ry

     total magnetization       =    30.98 Bohr mag/cell
     absolute magnetization    =    36.02 Bohr mag/cell

     convergence has been achieved in  35 iterations


     Computing stress (Cartesian axis) and pressure


     negative rho (up, down):  0.000E+00 3.072E-03
          total   stress  (Ry/bohr**3)                   (kbar)     P=     -825.82
  -0.00556109   0.00000000   0.00000000         -818.06        0.00        0.00
   0.00000000  -0.00556109   0.00000000            0.00     -818.06        0.00
   0.00000000   0.00000000  -0.00571927            0.00        0.00     -841.33


     Writing all to output data dir ./tmp/fe15cr01_tetra_0.01.save/ :
     XML data file, charge density, pseudopotentials, collected wavefunctions

     init_run     :     61.27s CPU     63.35s WALL (       1 calls)
     electrons    :   6672.04s CPU   6818.01s WALL (       1 calls)
     stress       :    138.80s CPU    140.91s WALL (       1 calls)

     Called by init_run:
     wfcinit      :     56.32s CPU     57.13s WALL (       1 calls)
     potinit      :      3.16s CPU      3.95s WALL (       1 calls)
     hinit0       :      0.74s CPU      0.87s WALL (       1 calls)

     Called by electrons:
     c_bands      :   6004.74s CPU   6093.45s WALL (      35 calls)
     sum_band     :    525.96s CPU    553.03s WALL (      35 calls)
     v_of_rho     :      8.04s CPU      7.68s WALL (      36 calls)
     newd         :     31.87s CPU     44.32s WALL (      36 calls)
     PAW_pot      :    103.05s CPU    122.00s WALL (      36 calls)
     mix_rho      :      1.44s CPU      1.55s WALL (      35 calls)

     Called by c_bands:
     init_us_2    :     17.90s CPU     17.69s WALL (    2592 calls)
     cegterg      :   5955.77s CPU   6041.44s WALL (    1260 calls)

     Called by *egterg:
     cdiaghg      :    470.87s CPU    478.46s WALL (    5049 calls)
     h_psi        :   1953.22s CPU   1983.03s WALL (    5085 calls)
     s_psi        :    705.64s CPU    707.42s WALL (    5085 calls)
     g_psi        :      2.15s CPU      2.29s WALL (    3789 calls)

     Called by h_psi:
     h_psi:calbec :    741.78s CPU    727.88s WALL (    5085 calls)
     vloc_psi     :    491.09s CPU    527.85s WALL (    5085 calls)
                                        0.00s GPU  (    5085 calls)
     add_vuspsi   :    716.21s CPU    712.34s WALL (    5085 calls)

     General routines
     calbec       :   1215.02s CPU   1207.89s WALL (    6813 calls)
     fft          :      5.18s CPU      4.58s WALL (     919 calls)
     ffts         :      0.29s CPU      0.31s WALL (     142 calls)
     fftw         :    563.69s CPU    600.48s WALL ( 1014724 calls)
     interpolate  :      0.61s CPU      0.68s WALL (      72 calls)

     Parallel routines

     PWSCF        :      1h54m CPU      1h57m WALL


   This run was terminated on:   8:57:12  24Apr2026            

=------------------------------------------------------------------------------=
   JOB DONE.
=------------------------------------------------------------------------------=
Note: The following floating-point exceptions are signalling: IEEE_DENORMAL
