
     Program PWSCF v.7.5 starts on 23Apr2026 at 17:50:32 

     This program is part of the open-source Quantum ESPRESSO suite
     for quantum simulation of materials; please cite
         "P. Giannozzi et al., J. Phys.:Condens. Matter 21 395502 (2009);
         "P. Giannozzi et al., J. Phys.:Condens. Matter 29 465901 (2017);
         "P. Giannozzi et al., J. Chem. Phys. 152 154105 (2020);
          URL http://www.quantum-espresso.org", 
     in publications or presentations arising from this work. More details at
     http://www.quantum-espresso.org/quote

     Parallel version (MPI), running on     4 processors

     MPI processes distributed on     1 nodes
     1472 MiB available memory on the printing compute node when the environment starts

     Waiting for input...
     Reading input from standard input

     Current dimensions of program PWSCF are:
     Max number of different atomic species (ntypx) = 10
     Max number of k-points (npk) =  40000
     Max angular momentum in pseudopotentials (lmaxx) =  4
     file Fe.pbe-spn-kjpaw_psl.1.0.0.UPF: wavefunction(s)  3P 3D renormalized
     Found identity + (  0.2500  0.2500  0.2500) symmetry
     This is a supercell, fractional translations are disabled
     Message from routine setup:
     using ibrav=0 with symmetry is DISCOURAGED, use correct ibrav instead

     R & G space division:  proc/nbgrp/npool/nimage =       4
     Subspace diagonalization in iterative solution of the eigenvalue problem:
     one sub-group per band group will be used
     custom distributed-memory algorithm (size of sub-group:  2*  2 procs)


     Parallelization info
     --------------------
     sticks:   dense  smooth     PW     G-vecs:    dense   smooth      PW
     Min         824     412    120                35034    12380    1934
     Max         825     413    121                35039    12383    1935
     Sum        3297    1649    481               140143    49525    7737

     Using Slab Decomposition



     bravais-lattice index     =            0
     lattice parameter (alat)  =      10.7249  a.u.
     unit-cell volume          =    1215.1416 (a.u.)^3
     number of atoms/cell      =           16
     number of atomic types    =            1
     number of electrons       =       256.00
     number of Kohn-Sham states=          154
     kinetic-energy cutoff     =      45.0000  Ry
     charge density cutoff     =     360.0000  Ry
     scf convergence threshold =      1.0E-06
     mixing beta               =       0.3000
     number of iterations used =            8  plain     mixing
     Exchange-correlation= SLA  PW   PBX  PBC
                           (   1   4   3   4   0   0   0)

     celldm(1)=  10.724853  celldm(2)=   0.000000  celldm(3)=   0.000000
     celldm(4)=   0.000000  celldm(5)=   0.000000  celldm(6)=   0.000000

     crystal axes: (cart. coord. in units of alat)
               a(1) = (   1.000000   0.000000   0.000000 )  
               a(2) = (   0.000000   1.000000   0.000000 )  
               a(3) = (   0.000000   0.000000   0.985038 )  

     reciprocal axes: (cart. coord. in units 2 pi/alat)
               b(1) = (  1.000000  0.000000  0.000000 )  
               b(2) = (  0.000000  1.000000  0.000000 )  
               b(3) = (  0.000000  0.000000  1.015190 )  


     PseudoPot. # 1 for Fe read from file:
     ./pseudo/Fe.pbe-spn-kjpaw_psl.1.0.0.UPF
     MD5 check sum: fc81f059e5c5069939230b1155715ae8
     Pseudo is Projector augmented-wave + core cor, Zval = 16.0
     Generated using &quot;atomic&quot; code by A. Dal Corso  v.6.3
     Shape of augmentation charge: PSQ
     Using radial grid of 1191 points,  6 beta functions with: 
                l(1) =   0
                l(2) =   0
                l(3) =   1
                l(4) =   1
                l(5) =   2
                l(6) =   2
     Q(r) pseudized with 0 coefficients 


     atomic species   valence    mass     pseudopotential
     Fe               16.00    55.84500     Fe( 1.00)

     Starting magnetic structure 
     atomic species   magnetization
     Fe              0.500

     16 Sym. Ops., with inversion, found



   Cartesian axes

     site n.     atom                  positions (alat units)
         1        Fe     tau(   1) = (   0.0000000   0.0000000   0.0000000  )
         2        Fe     tau(   2) = (   0.2500000   0.2500000   0.2462594  )
         3        Fe     tau(   3) = (   0.0000000   0.0000000   0.4925188  )
         4        Fe     tau(   4) = (   0.2500000   0.2500000   0.7387782  )
         5        Fe     tau(   5) = (   0.0000000   0.5000000   0.0000000  )
         6        Fe     tau(   6) = (   0.2500000   0.7500000   0.2462594  )
         7        Fe     tau(   7) = (   0.0000000   0.5000000   0.4925188  )
         8        Fe     tau(   8) = (   0.2500000   0.7500000   0.7387782  )
         9        Fe     tau(   9) = (   0.5000000   0.0000000   0.0000000  )
        10        Fe     tau(  10) = (   0.7500000   0.2500000   0.2462594  )
        11        Fe     tau(  11) = (   0.5000000   0.0000000   0.4925188  )
        12        Fe     tau(  12) = (   0.7500000   0.2500000   0.7387782  )
        13        Fe     tau(  13) = (   0.5000000   0.5000000   0.0000000  )
        14        Fe     tau(  14) = (   0.7500000   0.7500000   0.2462594  )
        15        Fe     tau(  15) = (   0.5000000   0.5000000   0.4925188  )
        16        Fe     tau(  16) = (   0.7500000   0.7500000   0.7387782  )

     number of k points=    18  Marzari-Vanderbilt smearing, width (Ry)=  0.0200
                       cart. coord. in units 2pi/alat
        k(    1) = (   0.0000000   0.0000000   0.0000000), wk =   0.0156250
        k(    2) = (   0.0000000   0.0000000   0.2537974), wk =   0.0312500
        k(    3) = (   0.0000000   0.0000000  -0.5075949), wk =   0.0156250
        k(    4) = (   0.0000000   0.2500000   0.0000000), wk =   0.0625000
        k(    5) = (   0.0000000   0.2500000   0.2537974), wk =   0.1250000
        k(    6) = (   0.0000000   0.2500000  -0.5075949), wk =   0.0625000
        k(    7) = (   0.0000000  -0.5000000   0.0000000), wk =   0.0312500
        k(    8) = (   0.0000000  -0.5000000   0.2537974), wk =   0.0625000
        k(    9) = (   0.0000000  -0.5000000  -0.5075949), wk =   0.0312500
        k(   10) = (   0.2500000   0.2500000   0.0000000), wk =   0.0625000
        k(   11) = (   0.2500000   0.2500000   0.2537974), wk =   0.1250000
        k(   12) = (   0.2500000   0.2500000  -0.5075949), wk =   0.0625000
        k(   13) = (   0.2500000  -0.5000000   0.0000000), wk =   0.0625000
        k(   14) = (   0.2500000  -0.5000000   0.2537974), wk =   0.1250000
        k(   15) = (   0.2500000  -0.5000000  -0.5075949), wk =   0.0625000
        k(   16) = (  -0.5000000  -0.5000000   0.0000000), wk =   0.0156250
        k(   17) = (  -0.5000000  -0.5000000   0.2537974), wk =   0.0312500
        k(   18) = (  -0.5000000  -0.5000000  -0.5075949), wk =   0.0156250

     Dense  grid:   140143 G-vectors     FFT dimensions: (  72,  72,  64)

     Smooth grid:    49525 G-vectors     FFT dimensions: (  45,  45,  45)

     Estimated max dynamical RAM per process >     285.39 MB

     Estimated total dynamical RAM >       1.11 GB

     Check: negative core charge=   -0.000004
     Generating pointlists ...
     new r_m :   0.1777 (alat units)  1.9061 (a.u.) for type    1

     Initial potential from superposition of free atoms

     starting charge     255.9930, renormalised to     256.0000
     Starting wfcs are  160 randomized atomic wfcs
     Checking if some PAW data can be deallocated... 

     total cpu time spent up to now is       63.8 secs

     Self-consistent Calculation

     iteration #  1     ecut=    45.00 Ry     beta= 0.30
     Davidson diagonalization with overlap
     ethr =  1.00E-02,  avg # of iterations =  3.3

     total cpu time spent up to now is      294.6 secs

     total energy              =   -5263.14197645 Ry
     estimated scf accuracy    <       9.57045568 Ry

     total magnetization       =    51.50 Bohr mag/cell
     absolute magnetization    =    53.03 Bohr mag/cell

     iteration #  2     ecut=    45.00 Ry     beta= 0.30
     Davidson diagonalization with overlap
     ethr =  3.74E-03,  avg # of iterations =  1.3

     negative rho (up, down):  0.000E+00 1.047E-02

     total cpu time spent up to now is      461.6 secs

     total energy              =   -5266.59579865 Ry
     estimated scf accuracy    <       5.06619746 Ry

     total magnetization       =    49.18 Bohr mag/cell
     absolute magnetization    =    51.30 Bohr mag/cell

     iteration #  3     ecut=    45.00 Ry     beta= 0.30
     Davidson diagonalization with overlap
     ethr =  1.98E-03,  avg # of iterations =  1.7

     negative rho (up, down):  0.000E+00 1.029E-02

     total cpu time spent up to now is      646.8 secs

     total energy              =   -5267.10485546 Ry
     estimated scf accuracy    <       1.38381416 Ry

     total magnetization       =    40.01 Bohr mag/cell
     absolute magnetization    =    43.46 Bohr mag/cell

     iteration #  4     ecut=    45.00 Ry     beta= 0.30
     Davidson diagonalization with overlap
     ethr =  5.41E-04,  avg # of iterations =  2.2

     negative rho (up, down):  0.000E+00 9.030E-03

     total cpu time spent up to now is      831.9 secs

     total energy              =   -5267.16458805 Ry
     estimated scf accuracy    <       0.18774874 Ry

     total magnetization       =    39.88 Bohr mag/cell
     absolute magnetization    =    42.97 Bohr mag/cell

     iteration #  5     ecut=    45.00 Ry     beta= 0.30
     Davidson diagonalization with overlap
     ethr =  7.33E-05,  avg # of iterations =  3.9

     negative rho (up, down):  0.000E+00 8.229E-03

     total cpu time spent up to now is     1066.1 secs

     total energy              =   -5267.23652267 Ry
     estimated scf accuracy    <       0.49772791 Ry

     total magnetization       =    36.16 Bohr mag/cell
     absolute magnetization    =    39.18 Bohr mag/cell

     iteration #  6     ecut=    45.00 Ry     beta= 0.30
     Davidson diagonalization with overlap
     ethr =  7.33E-05,  avg # of iterations =  2.4

     negative rho (up, down):  0.000E+00 8.824E-03

     total cpu time spent up to now is     1264.9 secs

     total energy              =   -5267.19825887 Ry
     estimated scf accuracy    <       0.24576992 Ry

     total magnetization       =    34.53 Bohr mag/cell
     absolute magnetization    =    37.45 Bohr mag/cell

     iteration #  7     ecut=    45.00 Ry     beta= 0.30
     Davidson diagonalization with overlap
     ethr =  7.33E-05,  avg # of iterations =  3.3

     negative rho (up, down):  0.000E+00 8.453E-03

     total cpu time spent up to now is     1493.0 secs

     total energy              =   -5267.25345222 Ry
     estimated scf accuracy    <       0.05132196 Ry

     total magnetization       =    36.22 Bohr mag/cell
     absolute magnetization    =    39.17 Bohr mag/cell

     iteration #  8     ecut=    45.00 Ry     beta= 0.30
     Davidson diagonalization with overlap
     ethr =  2.00E-05,  avg # of iterations =  4.2

     negative rho (up, down):  0.000E+00 5.748E-03

     total cpu time spent up to now is     1711.1 secs

     total energy              =   -5267.27826135 Ry
     estimated scf accuracy    <       0.08576396 Ry

     total magnetization       =    36.25 Bohr mag/cell
     absolute magnetization    =    39.05 Bohr mag/cell

     iteration #  9     ecut=    45.00 Ry     beta= 0.30
     Davidson diagonalization with overlap
     ethr =  2.00E-05,  avg # of iterations =  3.4

     negative rho (up, down):  0.000E+00 4.836E-03

     total cpu time spent up to now is     1918.8 secs

     total energy              =   -5267.28788423 Ry
     estimated scf accuracy    <       0.13767480 Ry

     total magnetization       =    34.64 Bohr mag/cell
     absolute magnetization    =    37.14 Bohr mag/cell

     iteration # 10     ecut=    45.00 Ry     beta= 0.30
     Davidson diagonalization with overlap
     ethr =  2.00E-05,  avg # of iterations =  1.4

     negative rho (up, down):  0.000E+00 3.936E-03

     total cpu time spent up to now is     2093.8 secs

     total energy              =   -5267.27107704 Ry
     estimated scf accuracy    <       0.06349070 Ry

     total magnetization       =    34.11 Bohr mag/cell
     absolute magnetization    =    36.52 Bohr mag/cell

     iteration # 11     ecut=    45.00 Ry     beta= 0.30
     Davidson diagonalization with overlap
     ethr =  2.00E-05,  avg # of iterations =  4.0

     negative rho (up, down):  0.000E+00 3.818E-03

     total cpu time spent up to now is     2329.8 secs

     total energy              =   -5267.28617359 Ry
     estimated scf accuracy    <       0.01881227 Ry

     total magnetization       =    34.01 Bohr mag/cell
     absolute magnetization    =    36.32 Bohr mag/cell

     iteration # 12     ecut=    45.00 Ry     beta= 0.30
     Davidson diagonalization with overlap
     ethr =  7.35E-06,  avg # of iterations =  1.8

     negative rho (up, down):  0.000E+00 3.603E-03

     total cpu time spent up to now is     2516.4 secs

     total energy              =   -5267.28620724 Ry
     estimated scf accuracy    <       0.01078875 Ry

     total magnetization       =    34.06 Bohr mag/cell
     absolute magnetization    =    36.36 Bohr mag/cell

     iteration # 13     ecut=    45.00 Ry     beta= 0.30
     Davidson diagonalization with overlap
     ethr =  4.21E-06,  avg # of iterations =  1.6

     negative rho (up, down):  0.000E+00 3.567E-03

     total cpu time spent up to now is     2697.2 secs

     total energy              =   -5267.28650641 Ry
     estimated scf accuracy    <       0.00188970 Ry

     total magnetization       =    33.92 Bohr mag/cell
     absolute magnetization    =    36.18 Bohr mag/cell

     iteration # 14     ecut=    45.00 Ry     beta= 0.30
     Davidson diagonalization with overlap
     ethr =  7.38E-07,  avg # of iterations =  3.8

     negative rho (up, down):  0.000E+00 3.568E-03

     total cpu time spent up to now is     2927.5 secs

     total energy              =   -5267.28688931 Ry
     estimated scf accuracy    <       0.00113066 Ry

     total magnetization       =    33.87 Bohr mag/cell
     absolute magnetization    =    36.08 Bohr mag/cell

     iteration # 15     ecut=    45.00 Ry     beta= 0.30
     Davidson diagonalization with overlap
     ethr =  4.42E-07,  avg # of iterations =  1.2

     negative rho (up, down):  0.000E+00 3.484E-03

     total cpu time spent up to now is     3094.5 secs

     total energy              =   -5267.28709791 Ry
     estimated scf accuracy    <       0.00033192 Ry

     total magnetization       =    33.85 Bohr mag/cell
     absolute magnetization    =    36.07 Bohr mag/cell

     iteration # 16     ecut=    45.00 Ry     beta= 0.30
     Davidson diagonalization with overlap
     ethr =  1.30E-07,  avg # of iterations =  2.6

     negative rho (up, down):  0.000E+00 3.314E-03

     total cpu time spent up to now is     3304.1 secs

     total energy              =   -5267.28713970 Ry
     estimated scf accuracy    <       0.00106860 Ry

     total magnetization       =    33.81 Bohr mag/cell
     absolute magnetization    =    36.00 Bohr mag/cell

     iteration # 17     ecut=    45.00 Ry     beta= 0.30
     Davidson diagonalization with overlap
     ethr =  1.30E-07,  avg # of iterations =  3.7

     negative rho (up, down):  0.000E+00 3.406E-03

     total cpu time spent up to now is     3526.7 secs

     total energy              =   -5267.28727189 Ry
     estimated scf accuracy    <       0.00002726 Ry

     total magnetization       =    33.73 Bohr mag/cell
     absolute magnetization    =    35.87 Bohr mag/cell

     iteration # 18     ecut=    45.00 Ry     beta= 0.30
     Davidson diagonalization with overlap
     ethr =  1.06E-08,  avg # of iterations =  3.9

     negative rho (up, down):  0.000E+00 3.370E-03

     total cpu time spent up to now is     3733.5 secs

     total energy              =   -5267.28727528 Ry
     estimated scf accuracy    <       0.00003388 Ry

     total magnetization       =    33.74 Bohr mag/cell
     absolute magnetization    =    35.88 Bohr mag/cell

     iteration # 19     ecut=    45.00 Ry     beta= 0.30
     Davidson diagonalization with overlap
     ethr =  1.06E-08,  avg # of iterations =  2.7

     negative rho (up, down):  0.000E+00 3.408E-03

     total cpu time spent up to now is     3938.9 secs

     total energy              =   -5267.28727928 Ry
     estimated scf accuracy    <       0.00008731 Ry

     total magnetization       =    33.72 Bohr mag/cell
     absolute magnetization    =    35.85 Bohr mag/cell

     iteration # 20     ecut=    45.00 Ry     beta= 0.30
     Davidson diagonalization with overlap
     ethr =  1.06E-08,  avg # of iterations =  1.8

     negative rho (up, down):  0.000E+00 3.383E-03

     total cpu time spent up to now is     4117.7 secs

     total energy              =   -5267.28728162 Ry
     estimated scf accuracy    <       0.00004198 Ry

     total magnetization       =    33.72 Bohr mag/cell
     absolute magnetization    =    35.86 Bohr mag/cell

     iteration # 21     ecut=    45.00 Ry     beta= 0.30
     Davidson diagonalization with overlap
     ethr =  1.06E-08,  avg # of iterations =  1.4

     negative rho (up, down):  0.000E+00 3.395E-03

     total cpu time spent up to now is     4294.1 secs

     total energy              =   -5267.28728453 Ry
     estimated scf accuracy    <       0.00002075 Ry

     total magnetization       =    33.72 Bohr mag/cell
     absolute magnetization    =    35.85 Bohr mag/cell

     iteration # 22     ecut=    45.00 Ry     beta= 0.30
     Davidson diagonalization with overlap
     ethr =  8.11E-09,  avg # of iterations =  1.6

     negative rho (up, down):  0.000E+00 3.420E-03

     total cpu time spent up to now is     4473.9 secs

     total energy              =   -5267.28728532 Ry
     estimated scf accuracy    <       0.00002694 Ry

     total magnetization       =    33.71 Bohr mag/cell
     absolute magnetization    =    35.84 Bohr mag/cell

     iteration # 23     ecut=    45.00 Ry     beta= 0.30
     Davidson diagonalization with overlap
     ethr =  8.11E-09,  avg # of iterations =  1.0

     negative rho (up, down):  0.000E+00 3.409E-03

     total cpu time spent up to now is     4634.6 secs

     total energy              =   -5267.28728651 Ry
     estimated scf accuracy    <       0.00000389 Ry

     total magnetization       =    33.72 Bohr mag/cell
     absolute magnetization    =    35.85 Bohr mag/cell

     iteration # 24     ecut=    45.00 Ry     beta= 0.30
     Davidson diagonalization with overlap
     ethr =  1.52E-09,  avg # of iterations =  3.5

     negative rho (up, down):  0.000E+00 3.411E-03

     total cpu time spent up to now is     4849.6 secs

     total energy              =   -5267.28728793 Ry
     estimated scf accuracy    <       0.00000531 Ry

     total magnetization       =    33.70 Bohr mag/cell
     absolute magnetization    =    35.83 Bohr mag/cell

     iteration # 25     ecut=    45.00 Ry     beta= 0.30
     Davidson diagonalization with overlap
     ethr =  1.52E-09,  avg # of iterations =  1.2

     negative rho (up, down):  0.000E+00 3.414E-03

     Magnetic moment per site  (integrated on atomic sphere of radius R)
     atom   1 (R=0.178)  charge= 14.3853  magn=  2.1625
     atom   2 (R=0.178)  charge= 14.3852  magn=  2.1629
     atom   3 (R=0.178)  charge= 14.3854  magn=  2.1632
     atom   4 (R=0.178)  charge= 14.3852  magn=  2.1629
     atom   5 (R=0.178)  charge= 14.3850  magn=  2.1630
     atom   6 (R=0.178)  charge= 14.3852  magn=  2.1629
     atom   7 (R=0.178)  charge= 14.3850  magn=  2.1630
     atom   8 (R=0.178)  charge= 14.3852  magn=  2.1629
     atom   9 (R=0.178)  charge= 14.3850  magn=  2.1630
     atom  10 (R=0.178)  charge= 14.3852  magn=  2.1629
     atom  11 (R=0.178)  charge= 14.3850  magn=  2.1630
     atom  12 (R=0.178)  charge= 14.3852  magn=  2.1629
     atom  13 (R=0.178)  charge= 14.3853  magn=  2.1633
     atom  14 (R=0.178)  charge= 14.3852  magn=  2.1629
     atom  15 (R=0.178)  charge= 14.3852  magn=  2.1637
     atom  16 (R=0.178)  charge= 14.3852  magn=  2.1629

     total cpu time spent up to now is     5017.9 secs

     End of self-consistent calculation

 ------ SPIN UP ------------


          k = 0.0000 0.0000 0.0000 (  6219 PWs)   bands (ev):

   -69.6723 -69.5966 -69.5962 -69.5962 -69.5960 -69.5952 -69.5950 -69.5910
   -69.5909 -69.5901 -69.5897 -69.5897 -69.5895 -69.5843 -69.5842 -69.5297
   -35.8538 -35.8538 -35.8499 -35.8498 -35.8498 -35.8496 -35.7227 -35.7227
   -35.7096 -35.6490 -35.6490 -35.6489 -35.6489 -35.6475 -35.6474 -35.6237
   -35.6237 -35.6236 -35.6236 -35.6171 -35.6170 -35.5863 -35.5863 -35.5862
   -35.5862 -35.5849 -35.5849 -35.5848 -35.5848 -35.5759 -35.5759 -35.5758
   -35.5758 -35.5715 -35.5711 -35.5711 -35.5709 -35.5678 -35.5678 -35.4294
   -35.4294 -35.4262 -35.4220 -35.4220 -35.4192 -35.4190 -35.4190 -35.4189
     9.9649  13.5597  13.5597  13.5601  13.5601  13.5602  13.5602  13.6295
    13.6581  13.7580  13.7580  13.7580  13.7580  13.8469  13.8469  15.1146
    15.1147  15.1147  15.1148  15.2208  15.2208  15.3050  15.3050  15.3051
    15.3051  15.3161  15.3162  15.4734  15.4735  15.4735  15.4736  15.4960
    15.4961  16.2189  16.2945  16.2945  16.6335  16.6335  16.6336  16.6336
    16.6627  16.6630  16.6630  16.6632  16.7380  16.7380  16.7380  16.7381
    17.3923  17.4302  17.4303  17.4479  17.4479  17.4480  17.4480  17.4798
    17.4829  17.4829  17.5791  17.5793  17.5793  17.5794  17.6202  17.6203
    17.7017  17.7020  17.7020  17.7022  17.7133  17.7134  17.7653  17.7653
    18.7052  18.7054  18.7054  18.7054  18.7591  18.7591  18.8094  18.8797
    18.8797  18.8977  18.8978  18.9566  18.9566  18.9814  18.9816  18.9816
    18.9817  19.0085

          k = 0.0000 0.0000 0.2538 (  6203 PWs)   bands (ev):

   -69.6659 -69.6232 -69.5956 -69.5952 -69.5952 -69.5950 -69.5909 -69.5905
   -69.5905 -69.5903 -69.5900 -69.5899 -69.5855 -69.5854 -69.5686 -69.5346
   -35.8357 -35.8357 -35.8243 -35.8242 -35.8242 -35.8241 -35.7223 -35.7214
   -35.7214 -35.7122 -35.7122 -35.7018 -35.7017 -35.7017 -35.7016 -35.6950
   -35.6407 -35.6407 -35.6223 -35.6221 -35.5804 -35.5804 -35.5804 -35.5803
   -35.5794 -35.5749 -35.5749 -35.5748 -35.5748 -35.5722 -35.5721 -35.5478
   -35.5478 -35.5245 -35.5245 -35.5216 -35.5213 -35.5213 -35.5212 -35.4435
   -35.4377 -35.4377 -35.4354 -35.4354 -35.4308 -35.4307 -35.4307 -35.4306
    10.2985  12.5904  13.6519  13.6519  13.6519  13.6520  13.7429  13.7849
    13.7981  13.7982  13.8555  13.8555  13.8556  13.8556  14.3256  14.7750
    15.0350  15.0350  15.0973  15.0973  15.1950  15.1950  15.2639  15.2640
    15.2640  15.2641  15.4493  15.4495  15.4495  15.4496  15.6981  15.6981
    16.2466  16.2468  16.2468  16.2469  16.2552  16.3015  16.3015  16.3146
    16.3724  16.3724  16.9543  16.9543  16.9543  16.9544  16.9551  16.9859
    16.9861  16.9861  16.9863  17.1225  17.1225  17.3391  17.4689  17.5039
    17.5041  17.5041  17.5042  17.5216  17.5216  17.5308  17.5308  17.6288
    17.6289  17.6760  17.6761  17.7113  17.7113  17.9020  17.9020  17.9020
    17.9022  17.9247  18.0535  18.4235  18.4235  18.6762  18.8041  18.8042
    18.8042  18.8042  18.8551  18.8553  18.8553  18.8554  19.1545  19.1546
    19.1546  19.1546

          k = 0.0000 0.0000-0.5076 (  6206 PWs)   bands (ev):

   -69.6483 -69.6482 -69.5936 -69.5931 -69.5929 -69.5929 -69.5929 -69.5929
   -69.5928 -69.5927 -69.5878 -69.5876 -69.5876 -69.5876 -69.5478 -69.5477
   -35.7829 -35.7829 -35.7828 -35.7828 -35.7772 -35.7770 -35.7770 -35.7770
   -35.7769 -35.7769 -35.7769 -35.7768 -35.7142 -35.7141 -35.6907 -35.6907
   -35.6906 -35.6906 -35.5944 -35.5942 -35.5942 -35.5942 -35.5775 -35.5775
   -35.5774 -35.5774 -35.5774 -35.5774 -35.5773 -35.5773 -35.4972 -35.4972
   -35.4786 -35.4786 -35.4785 -35.4785 -35.4700 -35.4698 -35.4698 -35.4698
   -35.4697 -35.4697 -35.4696 -35.4696 -35.4685 -35.4685 -35.4684 -35.4684
    11.2414  11.2414  13.8326  13.8326  13.8326  13.8327  13.8327  13.8327
    13.8327  13.8327  14.1198  14.1198  14.1523  14.1523  14.3895  14.3896
    14.3896  14.3896  15.1274  15.1274  15.1274  15.1274  15.6666  15.6668
    15.6668  15.6668  15.6669  15.6669  15.6669  15.6670  15.9092  15.9094
    15.9095  15.9095  15.9095  15.9095  15.9096  15.9097  16.3011  16.3011
    16.3012  16.3012  16.4523  16.4523  16.4524  16.4524  16.5808  16.5809
    16.9150  16.9150  17.2858  17.2859  17.2859  17.2859  17.2860  17.2860
    17.2860  17.2861  17.6163  17.6164  17.6164  17.6164  17.6577  17.6578
    17.6578  17.6578  17.7046  17.7046  17.7922  17.7922  17.7923  17.7923
    18.3541  18.3542  18.4546  18.4548  18.4548  18.4548  18.4549  18.4549
    18.4549  18.4550  19.0359  19.0359  19.0359  19.0359  19.0359  19.0359
    19.0359  19.0359

          k = 0.0000 0.2500 0.0000 (  6207 PWs)   bands (ev):

   -69.6661 -69.6242 -69.5955 -69.5954 -69.5943 -69.5941 -69.5917 -69.5916
   -69.5906 -69.5904 -69.5890 -69.5889 -69.5853 -69.5852 -69.5697 -69.5347
   -35.8341 -35.8341 -35.8325 -35.8324 -35.8300 -35.8300 -35.7341 -35.7216
   -35.7097 -35.7097 -35.7056 -35.7056 -35.7035 -35.7020 -35.6996 -35.6995
   -35.6386 -35.6275 -35.6224 -35.6223 -35.5849 -35.5848 -35.5797 -35.5796
   -35.5757 -35.5756 -35.5735 -35.5670 -35.5668 -35.5642 -35.5641 -35.5432
   -35.5432 -35.5303 -35.5302 -35.5299 -35.5299 -35.5252 -35.5177 -35.4475
   -35.4386 -35.4355 -35.4355 -35.4342 -35.4323 -35.4323 -35.4299 -35.4299
    10.2878  12.5198  13.6437  13.6437  13.6472  13.6472  13.7454  13.7797
    13.7842  13.7842  13.8460  13.8460  13.9192  13.9192  14.2446  14.7580
    14.9923  14.9924  15.0870  15.0870  15.0996  15.0996  15.2576  15.2576
    15.3699  15.3699  15.4539  15.4539  15.4736  15.4736  15.7603  15.7603
    16.2028  16.2173  16.2173  16.2275  16.3126  16.3140  16.3141  16.3756
    16.3855  16.4443  16.8870  16.8870  16.8967  16.8968  16.9067  16.9068
    16.9464  16.9465  16.9937  17.1695  17.2075  17.2671  17.4465  17.4465
    17.5174  17.5377  17.5377  17.5952  17.5952  17.5988  17.5988  17.6839
    17.6840  17.7097  17.7098  17.7626  17.7626  17.8861  17.8862  17.8996
    17.8997  17.9446  17.9918  18.4557  18.4738  18.6420  18.7911  18.7912
    18.8330  18.8330  18.8414  18.8414  18.9761  18.9762  19.0523  19.0523
    19.1735  19.1735

          k = 0.0000 0.2500 0.2538 (  6190 PWs)   bands (ev):

   -69.6602 -69.6211 -69.6203 -69.6019 -69.5945 -69.5944 -69.5908 -69.5907
   -69.5899 -69.5898 -69.5862 -69.5861 -69.5809 -69.5708 -69.5698 -69.5388
   -35.8271 -35.8203 -35.8203 -35.8146 -35.8146 -35.7877 -35.7438 -35.7419
   -35.7366 -35.7325 -35.7325 -35.7256 -35.7255 -35.7111 -35.6857 -35.6360
   -35.6355 -35.6315 -35.6313 -35.6174 -35.6173 -35.5980 -35.5874 -35.5847
   -35.5846 -35.5816 -35.5814 -35.5807 -35.5757 -35.5756 -35.5575 -35.5261
   -35.5234 -35.5184 -35.5184 -35.5002 -35.5002 -35.4919 -35.4746 -35.4692
   -35.4689 -35.4470 -35.4429 -35.4429 -35.4423 -35.4423 -35.4254 -35.4198
    10.6099  12.7338  12.7887  13.4549  13.8679  13.8679  13.8759  13.8790
    13.8790  13.8969  13.9286  13.9921  13.9921  14.3099  14.3816  14.8380
    14.8651  14.8746  14.8747  15.2170  15.2170  15.2322  15.2323  15.2746
    15.3001  15.3001  15.3241  15.3241  15.5190  15.6673  15.6673  15.9706
    15.9814  16.0048  16.0118  16.0925  16.1781  16.1781  16.2388  16.2397
    16.6086  16.6688  16.6894  16.6894  16.6902  16.7700  16.7700  16.8516
    16.8773  17.0009  17.0010  17.1001  17.1087  17.1650  17.2955  17.3179
    17.4115  17.4270  17.4513  17.4691  17.4691  17.5284  17.5285  17.6057
    17.6726  17.6726  17.6824  17.7179  17.7180  17.9554  17.9766  17.9767
    17.9921  18.0106  18.0153  18.0153  18.0598  18.0598  18.1871  18.3422
    18.3426  18.5058  18.7824  18.9543  19.1156  19.1156  20.3522  20.3522
    20.3979  20.3979

          k = 0.0000 0.2500-0.5076 (  6204 PWs)   bands (ev):

   -69.6437 -69.6436 -69.6129 -69.6128 -69.5924 -69.5922 -69.5922 -69.5922
   -69.5887 -69.5885 -69.5885 -69.5885 -69.5745 -69.5744 -69.5509 -69.5508
   -35.7971 -35.7971 -35.7815 -35.7815 -35.7814 -35.7814 -35.7737 -35.7736
   -35.7736 -35.7736 -35.7526 -35.7526 -35.7132 -35.7132 -35.6813 -35.6812
   -35.6451 -35.6451 -35.6192 -35.6191 -35.6037 -35.6036 -35.6036 -35.6036
   -35.5885 -35.5884 -35.5883 -35.5883 -35.5576 -35.5576 -35.5359 -35.5358
   -35.5217 -35.5217 -35.4766 -35.4764 -35.4751 -35.4751 -35.4750 -35.4750
   -35.4671 -35.4671 -35.4670 -35.4670 -35.4330 -35.4330 -35.4309 -35.4309
    11.5200  11.5200  13.1662  13.1662  14.0480  14.0481  14.0481  14.0481
    14.1797  14.1797  14.1837  14.1837  14.3226  14.3227  14.4571  14.4572
    14.4572  14.4572  15.1777  15.1777  15.1778  15.1778  15.3905  15.3905
    15.3997  15.3997  15.3997  15.3997  15.5597  15.5597  15.9738  15.9739
    15.9739  15.9739  15.9877  15.9877  16.0185  16.0185  16.0867  16.0867
    16.0867  16.0868  16.1573  16.1573  16.1728  16.1728  16.9669  16.9670
    17.0989  17.0990  17.1490  17.1490  17.3008  17.3008  17.3048  17.3048
    17.3049  17.3049  17.3503  17.3504  17.5678  17.5678  17.5679  17.5679
    17.5756  17.5757  17.6539  17.6539  17.7311  17.7311  17.7312  17.7312
    17.8297  17.8298  18.0182  18.0182  18.0779  18.0779  18.0779  18.0780
    18.6651  18.6651  18.7788  18.7788  19.7783  19.7783  19.7783  19.7783
    21.3111  21.3111

          k = 0.0000-0.5000 0.0000 (  6186 PWs)   bands (ev):

   -69.6491 -69.6489 -69.5937 -69.5935 -69.5934 -69.5934 -69.5925 -69.5923
   -69.5923 -69.5922 -69.5872 -69.5870 -69.5870 -69.5870 -69.5483 -69.5482
   -35.7801 -35.7801 -35.7800 -35.7800 -35.7778 -35.7777 -35.7776 -35.7776
   -35.7763 -35.7763 -35.7762 -35.7761 -35.7254 -35.7252 -35.6893 -35.6892
   -35.6694 -35.6693 -35.6022 -35.6020 -35.6020 -35.6020 -35.5755 -35.5753
   -35.5753 -35.5753 -35.5646 -35.5644 -35.5644 -35.5644 -35.5073 -35.5072
   -35.4767 -35.4767 -35.4766 -35.4766 -35.4735 -35.4733 -35.4726 -35.4725
   -35.4724 -35.4724 -35.4688 -35.4688 -35.4687 -35.4687 -35.4656 -35.4654
    11.2017  11.2018  13.8253  13.8253  13.8254  13.8254  13.8516  13.8516
    13.8516  13.8517  14.0706  14.0706  14.1651  14.1652  14.3527  14.3528
    14.3529  14.3529  15.0531  15.0531  15.0532  15.0532  15.6573  15.6573
    15.6574  15.6574  15.7515  15.7516  15.7517  15.7517  15.8958  15.8959
    15.8959  15.8959  15.9377  15.9378  15.9378  15.9378  16.2409  16.2410
    16.3237  16.3238  16.5234  16.5234  16.5234  16.5234  16.6368  16.6370
    16.8418  16.8419  17.2357  17.2357  17.2358  17.2358  17.2848  17.2849
    17.2850  17.2850  17.6505  17.6506  17.6506  17.6506  17.6638  17.6639
    17.7483  17.7484  17.7484  17.7484  17.8263  17.8264  17.8644  17.8645
    18.3651  18.3653  18.4553  18.4553  18.4554  18.4555  18.4650  18.4650
    18.4652  18.4652  18.9913  18.9914  18.9914  18.9914  19.1222  19.1223
    19.1223  19.1223

          k = 0.0000-0.5000 0.2538 (  6196 PWs)   bands (ev):

   -69.6442 -69.6441 -69.6126 -69.6125 -69.5928 -69.5925 -69.5925 -69.5925
   -69.5882 -69.5880 -69.5880 -69.5880 -69.5740 -69.5738 -69.5513 -69.5512
   -35.7973 -35.7973 -35.7804 -35.7804 -35.7803 -35.7803 -35.7774 -35.7774
   -35.7773 -35.7773 -35.7537 -35.7536 -35.7170 -35.7169 -35.6813 -35.6812
   -35.6406 -35.6405 -35.6169 -35.6168 -35.6049 -35.6047 -35.6047 -35.6047
   -35.5792 -35.5790 -35.5790 -35.5790 -35.5546 -35.5546 -35.5385 -35.5384
   -35.5198 -35.5198 -35.4808 -35.4807 -35.4741 -35.4741 -35.4740 -35.4740
   -35.4658 -35.4658 -35.4657 -35.4657 -35.4368 -35.4368 -35.4366 -35.4365
    11.4911  11.4912  13.1818  13.1818  14.0487  14.0487  14.0487  14.0487
    14.1583  14.1584  14.1982  14.1982  14.3113  14.3114  14.4261  14.4262
    14.4262  14.4262  15.1331  15.1332  15.1332  15.1333  15.4120  15.4121
    15.4274  15.4274  15.4274  15.4275  15.5424  15.5424  15.9713  15.9713
    15.9901  15.9901  15.9901  15.9902  16.0219  16.0219  16.1531  16.1532
    16.1532  16.1532  16.1777  16.1777  16.1895  16.1896  16.9813  16.9813
    17.0614  17.0615  17.1501  17.1501  17.2680  17.2680  17.2680  17.2680
    17.3131  17.3132  17.3189  17.3189  17.6108  17.6109  17.6110  17.6110
    17.6181  17.6182  17.6279  17.6280  17.7696  17.7697  17.7697  17.7697
    17.8579  17.8580  18.0024  18.0024  18.0616  18.0616  18.0616  18.0616
    18.6733  18.6733  18.7687  18.7687  19.7547  19.7547  19.7547  19.7547
    21.4611  21.4611

          k = 0.0000-0.5000-0.5076 (  6184 PWs)   bands (ev):

   -69.6311 -69.6311 -69.6311 -69.6309 -69.5905 -69.5905 -69.5904 -69.5903
   -69.5903 -69.5903 -69.5903 -69.5901 -69.5599 -69.5599 -69.5598 -69.5597
   -35.7857 -35.7857 -35.7857 -35.7856 -35.7763 -35.7762 -35.7762 -35.7762
   -35.7762 -35.7762 -35.7761 -35.7760 -35.6538 -35.6538 -35.6537 -35.6536
   -35.6374 -35.6374 -35.6373 -35.6373 -35.5991 -35.5991 -35.5990 -35.5990
   -35.5990 -35.5990 -35.5989 -35.5989 -35.5786 -35.5786 -35.5785 -35.5785
   -35.5021 -35.5021 -35.5020 -35.5019 -35.4667 -35.4666 -35.4666 -35.4666
   -35.4666 -35.4666 -35.4666 -35.4665 -35.4235 -35.4235 -35.4235 -35.4235
    12.2596  12.2596  12.2596  12.2596  14.2635  14.2635  14.2636  14.2636
    14.4635  14.4635  14.4635  14.4635  14.4635  14.4635  14.4635  14.4635
    14.8008  14.8008  14.8009  14.8009  15.1773  15.1773  15.1773  15.1773
    15.1774  15.1774  15.1774  15.1774  15.6708  15.6708  15.6708  15.6708
    15.8402  15.8402  15.8403  15.8403  15.8403  15.8403  15.8403  15.8404
    16.1005  16.1005  16.1005  16.1006  16.6056  16.6056  16.6057  16.6057
    17.2618  17.2618  17.2618  17.2619  17.3233  17.3234  17.3234  17.3234
    17.4447  17.4447  17.4447  17.4447  17.4447  17.4448  17.4448  17.4449
    17.4971  17.4972  17.4972  17.4972  17.5466  17.5466  17.5466  17.5467
    17.8493  17.8493  17.8493  17.8494  17.8494  17.8494  17.8494  17.8495
    18.8688  18.8688  18.8689  18.8689  20.8700  20.8701  20.8701  20.8701
    20.8701  20.8701

          k = 0.2500 0.2500 0.0000 (  6194 PWs)   bands (ev):

   -69.6604 -69.6214 -69.6211 -69.6027 -69.5935 -69.5934 -69.5900 -69.5897
   -69.5897 -69.5895 -69.5861 -69.5860 -69.5819 -69.5711 -69.5708 -69.5389
   -35.8310 -35.8145 -35.8144 -35.8143 -35.8142 -35.7908 -35.7498 -35.7465
   -35.7462 -35.7310 -35.7310 -35.7260 -35.7260 -35.6956 -35.6917 -35.6341
   -35.6338 -35.6220 -35.6219 -35.6197 -35.6194 -35.5892 -35.5889 -35.5879
   -35.5878 -35.5849 -35.5835 -35.5833 -35.5833 -35.5833 -35.5390 -35.5216
   -35.5216 -35.5172 -35.5169 -35.5056 -35.5055 -35.4942 -35.4725 -35.4722
   -35.4664 -35.4471 -35.4470 -35.4469 -35.4468 -35.4436 -35.4263 -35.4185
    10.5998  12.7241  12.7242  13.4483  13.8749  13.8750  13.8750  13.8750
    13.8951  13.8976  13.9115  14.0388  14.0388  14.3095  14.3096  14.8348
    14.8348  14.8424  14.8424  15.2051  15.2052  15.2121  15.2122  15.2122
    15.2123  15.3308  15.3308  15.3847  15.6276  15.7035  15.7035  15.9537
    15.9538  16.0813  16.0816  16.1417  16.1478  16.1478  16.1763  16.1873
    16.6370  16.7458  16.7458  16.7458  16.7459  16.7488  16.7490  16.8186
    16.8188  16.9567  16.9568  17.0237  17.1195  17.1197  17.2349  17.2549
    17.4382  17.4384  17.4948  17.5278  17.5278  17.5279  17.5279  17.5616
    17.6166  17.6413  17.6414  17.7830  17.7831  17.9525  17.9526  18.0201
    18.0202  18.0203  18.0953  18.0954  18.0955  18.0956  18.2146  18.3432
    18.3435  18.5180  18.7518  18.9258  19.2177  19.2178  20.4146  20.4147
    20.4147  20.4148

          k = 0.2500 0.2500 0.2538 (  6190 PWs)   bands (ev):

   -69.6549 -69.6185 -69.6182 -69.6176 -69.6010 -69.6004 -69.6001 -69.5909
   -69.5830 -69.5819 -69.5812 -69.5809 -69.5721 -69.5718 -69.5711 -69.5426
   -35.8172 -35.8146 -35.8145 -35.7839 -35.7818 -35.7818 -35.7596 -35.7594
   -35.7582 -35.7513 -35.7327 -35.7261 -35.7000 -35.6949 -35.6668 -35.6607
   -35.6606 -35.6526 -35.6513 -35.6464 -35.6463 -35.6208 -35.6207 -35.6099
   -35.5548 -35.5527 -35.5527 -35.5513 -35.5512 -35.5456 -35.5419 -35.5365
   -35.5292 -35.5247 -35.5235 -35.5234 -35.4930 -35.4692 -35.4692 -35.4678
   -35.4659 -35.4588 -35.4585 -35.4398 -35.4378 -35.4316 -35.4315 -35.4299
    10.9143  12.9499  12.9500  12.9978  13.7144  13.7146  13.7146  14.0239
    14.0507  14.1004  14.1004  14.1233  14.4737  14.4737  14.5319  14.8020
    14.8178  14.8179  14.8209  15.1158  15.1353  15.2442  15.2443  15.2676
    15.3322  15.3972  15.3973  15.4644  15.4699  15.5214  15.7078  15.7079
    15.7204  15.9416  15.9804  15.9806  16.0233  16.0745  16.0789  16.1415
    16.1416  16.3122  16.3460  16.3460  16.5111  16.5789  16.5790  16.8696
    16.9642  16.9643  16.9660  17.2721  17.3171  17.3173  17.3459  17.3643
    17.3977  17.3977  17.4016  17.4543  17.4792  17.5415  17.5416  17.6348
    17.6484  17.6744  17.6746  17.6856  17.7099  17.7199  17.7200  17.7209
    17.7614  18.0400  18.0401  18.0549  18.3075  18.3077  18.3435  18.4204
    18.4627  18.4628  18.4811  18.5305  19.3142  19.3364  19.3364  21.1634
    21.1634  21.3924

          k = 0.2500 0.2500-0.5076 (  6210 PWs)   bands (ev):

   -69.6396 -69.6395 -69.6109 -69.6107 -69.6106 -69.6105 -69.5967 -69.5966
   -69.5820 -69.5819 -69.5754 -69.5752 -69.5751 -69.5750 -69.5536 -69.5535
   -35.7874 -35.7874 -35.7872 -35.7872 -35.7739 -35.7738 -35.7713 -35.7713
   -35.7547 -35.7547 -35.7235 -35.7235 -35.7233 -35.7233 -35.7020 -35.7019
   -35.6576 -35.6576 -35.6458 -35.6457 -35.6457 -35.6456 -35.6042 -35.6041
   -35.5939 -35.5939 -35.5525 -35.5524 -35.5324 -35.5324 -35.5324 -35.5323
   -35.5055 -35.5054 -35.5053 -35.5053 -35.4789 -35.4788 -35.4766 -35.4766
   -35.4744 -35.4743 -35.4410 -35.4410 -35.4408 -35.4408 -35.4393 -35.4393
    11.7956  11.7956  13.4244  13.4244  13.4245  13.4245  14.3453  14.3453
    14.3922  14.3922  14.3923  14.3923  14.3957  14.3957  14.4106  14.4106
    14.6198  14.6199  15.2038  15.2039  15.2581  15.2581  15.2838  15.2840
    15.2841  15.2841  15.4625  15.4626  15.4626  15.4627  15.7129  15.7129
    15.7989  15.7989  15.8404  15.8404  15.8404  15.8405  15.8726  15.8726
    15.9110  15.9111  15.9112  15.9113  15.9336  15.9336  16.7455  16.7455
    17.1944  17.1945  17.3157  17.3157  17.3250  17.3251  17.3252  17.3252
    17.3477  17.3477  17.3477  17.3477  17.5637  17.5637  17.5915  17.5916
    17.5927  17.5927  17.6209  17.6210  17.7237  17.7238  17.7238  17.7238
    17.8617  17.8618  17.8862  17.8862  18.4465  18.4465  18.4466  18.4467
    18.5580  18.5580  18.6181  18.6182  18.6183  18.6183  20.5910  20.5911
    21.8862  21.8862

          k = 0.2500-0.5000 0.0000 (  6192 PWs)   bands (ev):

   -69.6444 -69.6443 -69.6135 -69.6134 -69.5918 -69.5916 -69.5916 -69.5916
   -69.5880 -69.5878 -69.5878 -69.5878 -69.5750 -69.5749 -69.5515 -69.5514
   -35.8036 -35.8036 -35.7757 -35.7756 -35.7756 -35.7755 -35.7746 -35.7746
   -35.7745 -35.7745 -35.7571 -35.7571 -35.7156 -35.7156 -35.6666 -35.6664
   -35.6509 -35.6508 -35.6057 -35.6056 -35.6053 -35.6052 -35.6052 -35.6052
   -35.5893 -35.5891 -35.5891 -35.5891 -35.5591 -35.5591 -35.5260 -35.5259
   -35.5200 -35.5199 -35.4764 -35.4764 -35.4763 -35.4763 -35.4728 -35.4727
   -35.4708 -35.4708 -35.4708 -35.4707 -35.4381 -35.4381 -35.4316 -35.4316
    11.4820  11.4821  13.1452  13.1452  14.0580  14.0580  14.0581  14.0581
    14.1674  14.1675  14.1829  14.1830  14.2909  14.2910  14.4264  14.4265
    14.4265  14.4265  15.1257  15.1257  15.1258  15.1258  15.3629  15.3630
    15.3831  15.3831  15.3831  15.3832  15.6389  15.6389  15.9944  15.9944
    15.9944  15.9945  16.0401  16.0401  16.1189  16.1189  16.1314  16.1315
    16.1364  16.1364  16.1602  16.1603  16.1603  16.1603  16.9991  16.9991
    17.0305  17.0306  17.1103  17.1103  17.2741  17.2741  17.2786  17.2786
    17.2787  17.2787  17.3493  17.3493  17.5741  17.5742  17.5742  17.5743
    17.6007  17.6008  17.6309  17.6310  17.8158  17.8159  17.8380  17.8381
    17.8381  17.8381  18.0254  18.0254  18.1479  18.1479  18.1479  18.1480
    18.6666  18.6666  18.7509  18.7509  19.8205  19.8205  19.8205  19.8205
    21.2415  21.2415

          k = 0.2500-0.5000 0.2538 (  6196 PWs)   bands (ev):

   -69.6399 -69.6398 -69.6112 -69.6110 -69.6104 -69.6102 -69.5963 -69.5961
   -69.5815 -69.5814 -69.5756 -69.5755 -69.5747 -69.5746 -69.5541 -69.5540
   -35.7915 -35.7915 -35.7847 -35.7846 -35.7746 -35.7745 -35.7668 -35.7667
   -35.7567 -35.7567 -35.7254 -35.7254 -35.7245 -35.7245 -35.6958 -35.6957
   -35.6560 -35.6560 -35.6446 -35.6445 -35.6363 -35.6362 -35.6069 -35.6069
   -35.5913 -35.5913 -35.5559 -35.5559 -35.5342 -35.5341 -35.5281 -35.5280
   -35.5063 -35.5063 -35.5049 -35.5049 -35.4774 -35.4773 -35.4742 -35.4741
   -35.4711 -35.4709 -35.4463 -35.4463 -35.4425 -35.4425 -35.4398 -35.4398
    11.7702  11.7703  13.4110  13.4110  13.4388  13.4388  14.3470  14.3470
    14.3658  14.3659  14.3841  14.3842  14.3955  14.3955  14.4080  14.4080
    14.5872  14.5873  15.1505  15.1506  15.2350  15.2351  15.2610  15.2611
    15.2804  15.2805  15.4518  15.4518  15.5241  15.5241  15.7744  15.7744
    15.8606  15.8607  15.8671  15.8671  15.8808  15.8808  15.8825  15.8826
    15.8869  15.8869  15.9111  15.9112  15.9513  15.9513  16.7577  16.7577
    17.1573  17.1573  17.2705  17.2705  17.3013  17.3013  17.3294  17.3294
    17.3339  17.3339  17.3416  17.3416  17.5795  17.5796  17.5856  17.5857
    17.6027  17.6028  17.6859  17.6860  17.7119  17.7120  17.7761  17.7762
    17.9016  17.9018  17.9622  17.9622  18.4245  18.4245  18.4684  18.4685
    18.5334  18.5334  18.6074  18.6074  18.6090  18.6090  20.5939  20.5940
    21.8456  21.8456

          k = 0.2500-0.5000-0.5076 (  6176 PWs)   bands (ev):

   -69.6277 -69.6276 -69.6276 -69.6275 -69.6048 -69.6047 -69.6047 -69.6046
   -69.5775 -69.5775 -69.5774 -69.5773 -69.5619 -69.5619 -69.5618 -69.5617
   -35.7707 -35.7707 -35.7707 -35.7706 -35.7671 -35.7671 -35.7671 -35.7670
   -35.7485 -35.7484 -35.7484 -35.7484 -35.6895 -35.6895 -35.6895 -35.6894
   -35.6691 -35.6691 -35.6691 -35.6691 -35.6588 -35.6587 -35.6587 -35.6587
   -35.5486 -35.5485 -35.5485 -35.5485 -35.5327 -35.5327 -35.5327 -35.5327
   -35.4911 -35.4911 -35.4911 -35.4910 -35.4822 -35.4822 -35.4821 -35.4821
   -35.4646 -35.4645 -35.4645 -35.4645 -35.4369 -35.4369 -35.4368 -35.4368
    12.5392  12.5392  12.5392  12.5392  14.0485  14.0486  14.0486  14.0486
    14.4548  14.4548  14.4548  14.4549  14.8429  14.8429  14.8429  14.8429
    14.8502  14.8502  14.8503  14.8503  15.0767  15.0767  15.0767  15.0767
    15.2941  15.2941  15.2941  15.2941  15.5318  15.5318  15.5318  15.5319
    15.6082  15.6082  15.6082  15.6082  15.6349  15.6349  15.6349  15.6349
    15.8297  15.8297  15.8297  15.8298  16.1376  16.1376  16.1376  16.1376
    17.3599  17.3600  17.3600  17.3600  17.4416  17.4417  17.4417  17.4417
    17.5281  17.5281  17.5281  17.5282  17.6140  17.6140  17.6140  17.6140
    17.6256  17.6257  17.6257  17.6257  17.6592  17.6592  17.6593  17.6594
    17.9095  17.9095  17.9095  17.9095  18.0348  18.0348  18.0348  18.0349
    18.5718  18.5718  18.5719  18.5719  19.5421  19.5421  19.5421  19.5421
    23.0096  23.0096

          k =-0.5000-0.5000 0.0000 (  6192 PWs)   bands (ev):

   -69.6319 -69.6316 -69.6315 -69.6315 -69.5902 -69.5898 -69.5896 -69.5896
   -69.5896 -69.5896 -69.5894 -69.5894 -69.5608 -69.5606 -69.5604 -69.5604
   -35.7912 -35.7912 -35.7910 -35.7910 -35.7711 -35.7709 -35.7709 -35.7708
   -35.7707 -35.7707 -35.7706 -35.7706 -35.6456 -35.6454 -35.6452 -35.6452
   -35.6393 -35.6393 -35.6390 -35.6390 -35.6026 -35.6026 -35.6023 -35.6023
   -35.6022 -35.6022 -35.6021 -35.6021 -35.5920 -35.5920 -35.5917 -35.5917
   -35.4945 -35.4942 -35.4941 -35.4941 -35.4682 -35.4682 -35.4682 -35.4680
   -35.4679 -35.4679 -35.4679 -35.4679 -35.4235 -35.4235 -35.4232 -35.4232
    12.2287  12.2287  12.2288  12.2288  14.2570  14.2570  14.2572  14.2572
    14.4494  14.4494  14.4495  14.4495  14.4496  14.4496  14.4496  14.4496
    14.7567  14.7568  14.7569  14.7569  15.1690  15.1690  15.1690  15.1691
    15.1692  15.1692  15.1693  15.1693  15.7458  15.7458  15.7460  15.7460
    15.8596  15.8599  15.8600  15.8600  15.8600  15.8600  15.8601  15.8601
    16.0689  16.0690  16.0692  16.0692  16.6548  16.6548  16.6550  16.6550
    17.2135  17.2137  17.2139  17.2139  17.2474  17.2475  17.2477  17.2477
    17.4214  17.4215  17.4215  17.4216  17.4217  17.4217  17.4218  17.4218
    17.5140  17.5140  17.5142  17.5142  17.5520  17.5522  17.5523  17.5523
    17.9618  17.9619  17.9621  17.9621  17.9622  17.9622  17.9623  17.9623
    18.8388  18.8388  18.8391  18.8391  20.9280  20.9281  20.9281  20.9282
    20.9282  20.9282

          k =-0.5000-0.5000 0.2538 (  6188 PWs)   bands (ev):

   -69.6282 -69.6280 -69.6278 -69.6278 -69.6046 -69.6043 -69.6042 -69.6042
   -69.5772 -69.5769 -69.5768 -69.5768 -69.5625 -69.5623 -69.5621 -69.5621
   -35.7769 -35.7769 -35.7766 -35.7766 -35.7623 -35.7622 -35.7622 -35.7621
   -35.7503 -35.7503 -35.7503 -35.7502 -35.6815 -35.6814 -35.6813 -35.6813
   -35.6725 -35.6725 -35.6722 -35.6722 -35.6586 -35.6586 -35.6584 -35.6584
   -35.5523 -35.5523 -35.5522 -35.5522 -35.5367 -35.5367 -35.5364 -35.5364
   -35.4897 -35.4895 -35.4894 -35.4894 -35.4817 -35.4817 -35.4817 -35.4816
   -35.4659 -35.4659 -35.4659 -35.4658 -35.4351 -35.4351 -35.4348 -35.4348
    12.5172  12.5172  12.5173  12.5173  14.0453  14.0453  14.0453  14.0454
    14.4633  14.4634  14.4635  14.4635  14.8092  14.8094  14.8094  14.8094
    14.8288  14.8288  14.8289  14.8289  15.0581  15.0582  15.0582  15.0582
    15.2949  15.2949  15.2950  15.2950  15.5168  15.5169  15.5170  15.5170
    15.6730  15.6730  15.6733  15.6733  15.6793  15.6793  15.6795  15.6795
    15.7914  15.7915  15.7915  15.7915  16.1598  16.1598  16.1599  16.1599
    17.3047  17.3047  17.3049  17.3049  17.4353  17.4354  17.4354  17.4354
    17.5399  17.5401  17.5402  17.5402  17.5755  17.5755  17.5755  17.5756
    17.6473  17.6475  17.6475  17.6475  17.7255  17.7257  17.7258  17.7258
    17.9120  17.9120  17.9121  17.9122  18.1193  18.1193  18.1195  18.1195
    18.5251  18.5251  18.5254  18.5254  19.5344  19.5344  19.5344  19.5345
    23.1446  23.1447

          k =-0.5000-0.5000-0.5076 (  6168 PWs)   bands (ev):

   -69.6183 -69.6182 -69.6182 -69.6179 -69.6179 -69.6179 -69.6178 -69.6178
   -69.5680 -69.5679 -69.5679 -69.5676 -69.5676 -69.5676 -69.5675 -69.5675
   -35.7353 -35.7353 -35.7350 -35.7350 -35.7349 -35.7349 -35.7349 -35.7349
   -35.7296 -35.7295 -35.7295 -35.7295 -35.7295 -35.7293 -35.7293 -35.7293
   -35.7005 -35.7005 -35.7004 -35.7003 -35.7003 -35.7003 -35.7003 -35.7002
   -35.5130 -35.5130 -35.5129 -35.5128 -35.5128 -35.5128 -35.5128 -35.5126
   -35.4753 -35.4752 -35.4752 -35.4752 -35.4752 -35.4751 -35.4751 -35.4751
   -35.4751 -35.4750 -35.4748 -35.4748 -35.4748 -35.4748 -35.4747 -35.4747
    13.2700  13.2700  13.2701  13.2701  13.2701  13.2701  13.2701  13.2701
    14.9374  14.9374  14.9374  14.9375  14.9375  14.9376  14.9376  14.9376
    14.9658  14.9659  14.9659  14.9660  14.9660  14.9660  14.9661  14.9661
    15.4465  15.4466  15.4466  15.4466  15.4466  15.4468  15.4468  15.4468
    15.4947  15.4947  15.4949  15.4949  15.4949  15.4949  15.4950  15.4950
    15.5016  15.5016  15.5016  15.5017  15.5017  15.5017  15.5017  15.5018
    17.4942  17.4942  17.4943  17.4944  17.4944  17.4944  17.4945  17.4945
    17.5022  17.5023  17.5023  17.5025  17.5025  17.5025  17.5025  17.5025
    17.9659  17.9659  17.9661  17.9661  17.9662  17.9662  17.9662  17.9663
    18.0265  18.0266  18.0266  18.0267  18.0267  18.0268  18.0268  18.0268
    18.6600  18.6600  18.6601  18.6602  18.6602  18.6602  18.6602  18.6603
    25.5740  25.5740

 ------ SPIN DOWN ----------


          k = 0.0000 0.0000 0.0000 (  6219 PWs)   bands (ev):

   -67.0994 -67.0169 -67.0169 -67.0169 -67.0167 -67.0156 -67.0155 -67.0111
   -67.0110 -67.0098 -67.0098 -67.0098 -67.0097 -67.0041 -67.0040 -66.9451
   -33.3724 -33.3724 -33.3679 -33.3679 -33.3679 -33.3679 -33.2267 -33.2267
   -33.2112 -33.1462 -33.1462 -33.1461 -33.1461 -33.1440 -33.1439 -33.1190
   -33.1190 -33.1188 -33.1188 -33.1124 -33.1122 -33.0742 -33.0741 -33.0740
   -33.0740 -33.0726 -33.0726 -33.0725 -33.0725 -33.0624 -33.0623 -33.0622
   -33.0622 -33.0570 -33.0570 -33.0570 -33.0569 -33.0527 -33.0525 -32.9022
   -32.9022 -32.8979 -32.8954 -32.8954 -32.8923 -32.8923 -32.8923 -32.8923
    10.0691  14.2810  14.2810  14.2810  14.2810  14.3852  14.3852  14.7564
    14.7564  14.7735  14.7735  14.7735  14.7735  15.4074  15.4374  16.6036
    16.6036  16.6037  16.6037  16.6119  16.6119  16.7261  16.7262  16.7262
    16.7262  16.8603  16.8603  17.6559  17.6559  17.6559  17.6560  17.6970
    17.6971  18.0167  18.1275  18.1275  18.3904  18.3904  18.3905  18.3905
    18.4000  18.4000  18.4000  18.4002  18.5142  18.5142  18.5143  18.5143
    18.9300  18.9300  19.0641  19.0641  19.0641  19.0642  19.3604  19.3605
    19.4079  19.4079  19.4080  19.4080  19.9541  19.9542  20.1052  20.1052
    20.1052  20.1053  20.1059  20.2357  20.4296  20.4297  20.4809  20.4809
    20.4809  20.4810  20.5340  20.5341  20.5698  20.5699  20.8678  20.8678
    20.8937  21.0582  21.0582  21.0583  21.0584  21.0977  21.0977  21.1104
    21.1104  21.1104

          k = 0.0000 0.0000 0.2538 (  6203 PWs)   bands (ev):

   -67.0925 -67.0461 -67.0158 -67.0158 -67.0158 -67.0156 -67.0108 -67.0108
   -67.0108 -67.0107 -67.0101 -67.0099 -67.0052 -67.0051 -66.9870 -66.9500
   -33.3525 -33.3525 -33.3403 -33.3403 -33.3403 -33.3402 -33.2240 -33.2239
   -33.2239 -33.2159 -33.2159 -33.2039 -33.2039 -33.2038 -33.2038 -33.1964
   -33.1341 -33.1341 -33.1157 -33.1156 -33.0689 -33.0682 -33.0682 -33.0681
   -33.0681 -33.0617 -33.0616 -33.0615 -33.0615 -33.0584 -33.0583 -33.0347
   -33.0347 -33.0063 -33.0063 -33.0034 -33.0034 -33.0034 -33.0033 -32.9179
   -32.9116 -32.9116 -32.9106 -32.9106 -32.9050 -32.9050 -32.9050 -32.9049
    10.4050  12.8005  14.4467  14.4467  14.4467  14.4468  14.7927  14.7927
    14.7927  14.7927  15.0071  15.0071  15.4904  15.5349  15.5508  16.3157
    16.3157  16.5168  16.5168  16.7972  16.8029  16.8029  16.8811  16.8811
    16.8888  16.8888  16.8888  16.8888  17.4294  17.4294  17.4294  17.4295
    17.9619  17.9619  17.9620  17.9620  18.1213  18.1213  18.1216  18.1339
    18.1339  18.3188  18.3188  18.3188  18.3189  18.3311  18.3311  18.6542
    18.8319  18.9153  18.9153  18.9315  18.9315  18.9316  18.9316  19.8899
    19.8899  19.8900  19.8900  19.9115  19.9571  19.9572  19.9572  19.9572
    20.0349  20.0350  20.0486  20.1980  20.4399  20.4400  20.4419  20.4420
    20.4472  20.4472  20.4963  20.4965  20.7488  20.7535  20.9056  20.9056
    20.9056  20.9057  20.9640  20.9641  20.9641  20.9641  21.0861  21.0861
    21.0862  21.0862

          k = 0.0000 0.0000-0.5076 (  6206 PWs)   bands (ev):

   -67.0735 -67.0733 -67.0136 -67.0134 -67.0134 -67.0134 -67.0134 -67.0132
   -67.0131 -67.0131 -67.0076 -67.0076 -67.0076 -67.0073 -66.9644 -66.9643
   -33.2944 -33.2944 -33.2942 -33.2942 -33.2870 -33.2870 -33.2870 -33.2869
   -33.2869 -33.2868 -33.2868 -33.2868 -33.2164 -33.2162 -33.1896 -33.1896
   -33.1894 -33.1894 -33.0842 -33.0842 -33.0842 -33.0839 -33.0645 -33.0645
   -33.0645 -33.0645 -33.0645 -33.0645 -33.0642 -33.0642 -32.9788 -32.9786
   -32.9584 -32.9584 -32.9583 -32.9583 -32.9473 -32.9472 -32.9472 -32.9471
   -32.9471 -32.9471 -32.9471 -32.9470 -32.9456 -32.9456 -32.9455 -32.9455
    11.3652  11.3652  14.7181  14.7181  14.7181  14.7181  14.7181  14.7181
    14.7181  14.7181  15.6332  15.6332  15.6332  15.6333  15.7195  15.7195
    16.0411  16.0411  16.6537  16.6537  16.6538  16.6538  17.3300  17.3301
    17.3301  17.3302  17.3302  17.3302  17.3302  17.3303  17.4931  17.4931
    17.4931  17.4931  17.5037  17.5038  17.5038  17.5039  17.5039  17.5039
    17.5039  17.5039  18.0896  18.0896  18.0897  18.0897  18.4150  18.4151
    19.4962  19.4963  19.5308  19.5308  19.5308  19.5308  19.5309  19.5309
    19.5309  19.5309  19.6761  19.6761  19.6762  19.6762  20.2148  20.2148
    20.2149  20.2150  20.3912  20.3914  20.4590  20.4591  20.4733  20.4733
    20.4733  20.4735  20.5100  20.5101  20.5101  20.5102  20.5102  20.5103
    20.5103  20.5103  21.1081  21.1081  21.1081  21.1081  21.1081  21.1081
    21.1083  21.1083

          k = 0.0000 0.2500 0.0000 (  6207 PWs)   bands (ev):

   -67.0927 -67.0472 -67.0160 -67.0159 -67.0147 -67.0146 -67.0119 -67.0118
   -67.0107 -67.0106 -67.0090 -67.0089 -67.0051 -67.0049 -66.9881 -66.9502
   -33.3509 -33.3509 -33.3485 -33.3485 -33.3462 -33.3462 -33.2382 -33.2243
   -33.2134 -33.2134 -33.2085 -33.2084 -33.2043 -33.2034 -33.2018 -33.2018
   -33.1321 -33.1189 -33.1164 -33.1163 -33.0729 -33.0728 -33.0673 -33.0672
   -33.0634 -33.0624 -33.0622 -33.0526 -33.0525 -33.0491 -33.0490 -33.0300
   -33.0300 -33.0136 -33.0135 -33.0129 -33.0129 -33.0073 -32.9981 -32.9231
   -32.9124 -32.9096 -32.9096 -32.9072 -32.9072 -32.9069 -32.9044 -32.9044
    10.3943  12.7250  14.4374  14.4374  14.5317  14.5317  14.7711  14.7712
    14.7944  14.7944  15.0108  15.0109  15.3899  15.4994  15.5789  16.2845
    16.2845  16.4948  16.4948  16.6824  16.6824  16.7704  16.8829  16.8829
    16.9461  16.9461  17.0227  17.0227  17.4189  17.4189  17.4483  17.4483
    17.9400  17.9401  18.0141  18.0615  18.0616  18.1131  18.1346  18.2199
    18.2274  18.2275  18.2275  18.3222  18.3222  18.4377  18.4377  18.5765
    18.8317  18.8317  18.8620  18.8621  18.9025  18.9443  19.0237  19.8350
    19.8350  19.8580  19.8580  19.8947  19.8948  19.9405  19.9405  19.9417
    19.9594  20.1515  20.1516  20.2796  20.4472  20.4473  20.4756  20.4900
    20.4929  20.4930  20.5536  20.5537  20.7073  20.7392  20.8470  20.8471
    20.9235  20.9236  20.9486  20.9486  20.9540  20.9540  21.0789  21.0789
    21.2510  21.2511

          k = 0.0000 0.2500 0.2538 (  6190 PWs)   bands (ev):

   -67.0863 -67.0439 -67.0430 -67.0230 -67.0150 -67.0149 -67.0109 -67.0108
   -67.0100 -67.0099 -67.0060 -67.0059 -67.0003 -66.9893 -66.9883 -66.9546
   -33.3433 -33.3354 -33.3354 -33.3289 -33.3289 -33.2994 -33.2499 -33.2473
   -33.2428 -33.2385 -33.2385 -33.2304 -33.2304 -33.2124 -33.1838 -33.1315
   -33.1287 -33.1267 -33.1245 -33.1114 -33.1112 -33.0871 -33.0761 -33.0730
   -33.0729 -33.0696 -33.0695 -33.0683 -33.0624 -33.0623 -33.0425 -33.0086
   -33.0056 -33.0017 -33.0017 -32.9803 -32.9802 -32.9712 -32.9525 -32.9464
   -32.9462 -32.9220 -32.9184 -32.9184 -32.9177 -32.9177 -32.8978 -32.8925
    10.7203  12.9740  13.0365  14.2783  14.6208  14.6208  15.0202  15.0202
    15.0249  15.0249  15.2133  15.5063  15.5979  15.6593  15.6931  16.1949
    16.1949  16.6142  16.6143  16.7490  16.7752  16.8129  16.8129  16.8452
    16.8453  16.9112  16.9226  16.9226  17.1608  17.1999  17.1999  17.7291
    17.7307  17.7866  17.8315  17.8447  17.8447  17.8548  17.8677  17.8677
    17.8705  17.9566  17.9566  18.0322  18.0504  18.4216  18.4378  18.4568
    19.0057  19.0819  19.0845  19.0845  19.1051  19.1201  19.3303  19.3611
    19.6236  19.9046  19.9047  19.9264  19.9957  20.0070  20.0121  20.0122
    20.1445  20.1577  20.1578  20.1826  20.3713  20.3801  20.3802  20.3848
    20.4318  20.4717  20.4718  20.5134  20.5135  20.5358  20.5359  20.5660
    20.6635  20.7047  20.8830  21.0780  21.2168  21.2169  21.9041  21.9042
    21.9330  21.9330

          k = 0.0000 0.2500-0.5076 (  6204 PWs)   bands (ev):

   -67.0685 -67.0684 -67.0351 -67.0349 -67.0126 -67.0125 -67.0125 -67.0123
   -67.0085 -67.0085 -67.0085 -67.0082 -66.9933 -66.9931 -66.9677 -66.9676
   -33.3094 -33.3094 -33.2924 -33.2924 -33.2923 -33.2922 -33.2835 -33.2835
   -33.2834 -33.2833 -33.2591 -33.2591 -33.2174 -33.2174 -33.1793 -33.1792
   -33.1391 -33.1390 -33.1106 -33.1105 -33.0945 -33.0945 -33.0944 -33.0943
   -33.0773 -33.0773 -33.0772 -33.0770 -33.0445 -33.0445 -33.0193 -33.0192
   -33.0037 -33.0037 -32.9545 -32.9543 -32.9535 -32.9535 -32.9534 -32.9534
   -32.9439 -32.9439 -32.9438 -32.9438 -32.9073 -32.9073 -32.9047 -32.9047
    11.6550  11.6550  13.5965  13.5965  14.9405  14.9405  14.9405  14.9405
    15.5301  15.5301  15.6473  15.6473  15.6474  15.6474  15.8583  15.8583
    16.1134  16.1134  16.7126  16.7126  16.7127  16.7127  17.0397  17.0398
    17.0471  17.0472  17.0472  17.0472  17.2305  17.2305  17.2341  17.2342
    17.2342  17.2342  17.4793  17.4793  17.4794  17.4794  17.6895  17.6895
    17.7047  17.7047  17.7373  17.7373  17.9607  17.9609  18.8433  18.8433
    19.1270  19.1271  19.2800  19.2801  19.4462  19.4463  19.6012  19.6012
    19.6013  19.6013  19.6635  19.6636  19.7136  19.7136  20.0153  20.0153
    20.1224  20.1224  20.1225  20.1226  20.3939  20.3940  20.4403  20.4403
    20.4403  20.4405  20.4528  20.4528  20.4528  20.4528  20.5250  20.5251
    20.7430  20.7431  20.8782  20.8783  21.5908  21.5909  21.5909  21.5909
    22.6887  22.6888

          k = 0.0000-0.5000 0.0000 (  6186 PWs)   bands (ev):

   -67.0742 -67.0740 -67.0140 -67.0140 -67.0140 -67.0137 -67.0127 -67.0127
   -67.0127 -67.0124 -67.0071 -67.0070 -67.0070 -67.0067 -66.9651 -66.9649
   -33.2913 -33.2913 -33.2911 -33.2911 -33.2887 -33.2887 -33.2886 -33.2885
   -33.2865 -33.2865 -33.2864 -33.2863 -33.2295 -33.2294 -33.1882 -33.1881
   -33.1659 -33.1658 -33.0933 -33.0932 -33.0932 -33.0929 -33.0625 -33.0625
   -33.0625 -33.0622 -33.0498 -33.0497 -33.0497 -33.0494 -32.9896 -32.9894
   -32.9563 -32.9563 -32.9561 -32.9561 -32.9504 -32.9503 -32.9503 -32.9503
   -32.9501 -32.9501 -32.9468 -32.9468 -32.9466 -32.9466 -32.9411 -32.9409
    11.3250  11.3250  14.7006  14.7006  14.7007  14.7007  14.7587  14.7587
    14.7587  14.7587  15.6127  15.6127  15.6127  15.6128  15.6584  15.6585
    16.0491  16.0492  16.5615  16.5615  16.5616  16.5616  17.3225  17.3225
    17.3226  17.3227  17.4438  17.4439  17.4440  17.4440  17.4762  17.4762
    17.4762  17.4763  17.5298  17.5298  17.5299  17.5299  17.5776  17.5776
    17.5777  17.5777  18.0018  18.0019  18.1207  18.1209  18.5049  18.5051
    19.3931  19.3932  19.4337  19.4337  19.4338  19.4339  19.5016  19.5016
    19.5018  19.5018  19.6922  19.6924  19.7697  19.7699  20.2946  20.2946
    20.2947  20.2948  20.4284  20.4285  20.4426  20.4427  20.5034  20.5035
    20.5036  20.5037  20.5312  20.5312  20.5314  20.5314  20.5316  20.5316
    20.5316  20.5318  21.0879  21.0879  21.0880  21.0881  21.1979  21.1979
    21.1980  21.1981

          k = 0.0000-0.5000 0.2538 (  6196 PWs)   bands (ev):

   -67.0690 -67.0689 -67.0347 -67.0345 -67.0130 -67.0130 -67.0130 -67.0127
   -67.0081 -67.0081 -67.0081 -67.0078 -66.9928 -66.9926 -66.9682 -66.9680
   -33.3098 -33.3098 -33.2908 -33.2908 -33.2907 -33.2906 -33.2877 -33.2877
   -33.2876 -33.2876 -33.2607 -33.2607 -33.2214 -33.2213 -33.1793 -33.1791
   -33.1337 -33.1336 -33.1081 -33.1080 -33.0965 -33.0965 -33.0965 -33.0963
   -33.0668 -33.0668 -33.0668 -33.0665 -33.0419 -33.0419 -33.0218 -33.0217
   -33.0024 -33.0024 -32.9587 -32.9586 -32.9526 -32.9526 -32.9524 -32.9524
   -32.9430 -32.9430 -32.9428 -32.9428 -32.9105 -32.9104 -32.9102 -32.9102
    11.6255  11.6255  13.6236  13.6237  14.9312  14.9312  14.9312  14.9312
    15.5637  15.5638  15.6302  15.6302  15.6302  15.6303  15.8029  15.8029
    16.1213  16.1213  16.6490  16.6490  16.6491  16.6491  17.0574  17.0574
    17.0858  17.0858  17.0858  17.0859  17.2157  17.2157  17.3076  17.3076
    17.3076  17.3077  17.4927  17.4927  17.4927  17.4928  17.6934  17.6935
    17.7089  17.7089  17.7141  17.7142  17.9871  17.9872  18.8685  18.8685
    19.1361  19.1361  19.2681  19.2681  19.4997  19.4998  19.5414  19.5414
    19.5414  19.5415  19.5956  19.5957  19.6902  19.6902  19.9943  19.9943
    20.1918  20.1918  20.1919  20.1920  20.3901  20.3902  20.4486  20.4486
    20.4486  20.4487  20.4630  20.4630  20.4630  20.4632  20.5506  20.5507
    20.7601  20.7602  20.8630  20.8631  21.5755  21.5755  21.5755  21.5755
    22.8257  22.8258

          k = 0.0000-0.5000-0.5076 (  6184 PWs)   bands (ev):

   -67.0549 -67.0547 -67.0547 -67.0546 -67.0107 -67.0105 -67.0105 -67.0105
   -67.0105 -67.0104 -67.0104 -67.0101 -66.9776 -66.9775 -66.9774 -66.9773
   -33.2965 -33.2965 -33.2965 -33.2965 -33.2860 -33.2859 -33.2859 -33.2858
   -33.2858 -33.2858 -33.2858 -33.2857 -33.1490 -33.1489 -33.1489 -33.1487
   -33.1335 -33.1335 -33.1335 -33.1335 -33.0902 -33.0902 -33.0902 -33.0902
   -33.0901 -33.0901 -33.0900 -33.0900 -33.0666 -33.0666 -33.0666 -33.0666
   -32.9822 -32.9820 -32.9820 -32.9818 -32.9439 -32.9437 -32.9437 -32.9437
   -32.9437 -32.9437 -32.9437 -32.9436 -32.8959 -32.8959 -32.8959 -32.8958
    12.4608  12.4608  12.4608  12.4608  15.4320  15.4320  15.4320  15.4320
    15.4320  15.4320  15.4320  15.4320  15.9199  15.9199  15.9199  15.9199
    16.4744  16.4744  16.4744  16.4745  16.7638  16.7638  16.7638  16.7638
    16.7639  16.7639  16.7639  16.7639  17.2210  17.2211  17.2211  17.2211
    17.2211  17.2211  17.2212  17.2213  17.3739  17.3739  17.3739  17.3739
    17.7775  17.7775  17.7776  17.7776  18.3478  18.3478  18.3478  18.3478
    19.2018  19.2019  19.2019  19.2020  19.4331  19.4331  19.4331  19.4331
    19.8621  19.8622  19.8622  19.8622  19.8724  19.8725  19.8725  19.8725
    19.8726  19.8726  19.8726  19.8727  20.2891  20.2892  20.2892  20.2893
    20.4290  20.4290  20.4290  20.4290  20.4290  20.4291  20.4291  20.4292
    20.9810  20.9810  20.9811  20.9811  22.4722  22.4722  22.4723  22.4723
    22.4723  22.4723

          k = 0.2500 0.2500 0.0000 (  6194 PWs)   bands (ev):

   -67.0865 -67.0441 -67.0440 -67.0240 -67.0139 -67.0138 -67.0099 -67.0099
   -67.0098 -67.0097 -67.0059 -67.0058 -67.0014 -66.9895 -66.9894 -66.9548
   -33.3480 -33.3291 -33.3291 -33.3291 -33.3290 -33.3036 -33.2560 -33.2534
   -33.2533 -33.2369 -33.2369 -33.2307 -33.2307 -33.1944 -33.1913 -33.1300
   -33.1299 -33.1162 -33.1161 -33.1106 -33.1105 -33.0780 -33.0780 -33.0766
   -33.0765 -33.0721 -33.0716 -33.0716 -33.0715 -33.0714 -33.0220 -33.0048
   -33.0048 -32.9979 -32.9978 -32.9859 -32.9858 -32.9741 -32.9505 -32.9505
   -32.9443 -32.9222 -32.9222 -32.9222 -32.9222 -32.9173 -32.8993 -32.8915
    10.7101  12.9646  12.9647  14.2487  14.6957  14.6957  15.0351  15.0351
    15.0352  15.0352  15.2112  15.5023  15.5023  15.6461  15.6905  16.1579
    16.1579  16.5926  16.5927  16.7508  16.7509  16.8096  16.8096  16.8096
    16.8096  16.8794  16.8795  17.0479  17.2049  17.2049  17.2977  17.7135
    17.7927  17.7927  17.7951  17.7952  17.8289  17.8289  17.9415  17.9512
    17.9539  17.9558  17.9559  17.9559  17.9559  18.5008  18.5297  18.5298
    18.9970  18.9971  19.0483  19.0484  19.0622  19.0623  19.3810  19.3811
    19.5319  19.9014  19.9069  19.9797  19.9828  19.9828  19.9828  19.9829
    20.1431  20.1587  20.1588  20.2500  20.3525  20.3526  20.3932  20.3932
    20.4088  20.5379  20.5380  20.5850  20.5850  20.5850  20.5852  20.5922
    20.6622  20.6623  20.8653  21.0619  21.3268  21.3268  21.9314  21.9314
    21.9314  21.9314

          k = 0.2500 0.2500 0.2538 (  6190 PWs)   bands (ev):

   -67.0805 -67.0410 -67.0409 -67.0401 -67.0222 -67.0213 -67.0212 -67.0112
   -67.0025 -67.0012 -67.0004 -67.0003 -66.9906 -66.9905 -66.9896 -66.9588
   -33.3322 -33.3287 -33.3287 -33.2957 -33.2930 -33.2930 -33.2674 -33.2674
   -33.2659 -33.2589 -33.2376 -33.2295 -33.2026 -33.1970 -33.1655 -33.1597
   -33.1596 -33.1476 -33.1460 -33.1404 -33.1404 -33.1126 -33.1126 -33.1001
   -33.0397 -33.0382 -33.0382 -33.0359 -33.0359 -33.0296 -33.0278 -33.0224
   -33.0126 -33.0073 -33.0054 -33.0054 -32.9728 -32.9463 -32.9463 -32.9450
   -32.9425 -32.9351 -32.9351 -32.9138 -32.9110 -32.9060 -32.9060 -32.9046
    11.0292  13.2158  13.2158  13.2741  14.5230  14.5461  14.5461  15.4271
    15.4271  15.4334  15.6596  15.6596  15.7368  15.7929  15.8213  16.0602
    16.2062  16.5825  16.6109  16.6930  16.6930  16.6986  16.7913  16.8550
    16.8557  16.8557  16.9679  17.0101  17.0101  17.1111  17.5028  17.5028
    17.5210  17.5332  17.5803  17.5948  17.6108  17.6109  17.6504  17.6504
    17.6573  17.6573  17.7892  17.8650  18.0377  18.0840  18.0840  18.7372
    19.2284  19.2659  19.2687  19.2687  19.3023  19.3024  19.3382  19.6959
    19.7173  19.7599  19.7600  19.7646  19.7646  19.9695  20.0215  20.0745
    20.0745  20.1165  20.3154  20.3685  20.4027  20.4052  20.4052  20.4241
    20.4298  20.4405  20.4406  20.4424  20.5232  20.5646  20.6303  20.6304
    20.6545  20.6625  20.6883  20.6883  21.1345  21.1410  21.1410  22.6664
    22.6664  22.8766

          k = 0.2500 0.2500-0.5076 (  6210 PWs)   bands (ev):

   -67.0639 -67.0638 -67.0328 -67.0326 -67.0326 -67.0325 -67.0174 -67.0172
   -67.0014 -67.0012 -66.9941 -66.9940 -66.9939 -66.9939 -66.9707 -66.9706
   -33.2984 -33.2984 -33.2984 -33.2983 -33.2837 -33.2836 -33.2814 -33.2812
   -33.2611 -33.2610 -33.2286 -33.2286 -33.2285 -33.2285 -33.2031 -33.2030
   -33.1538 -33.1537 -33.1402 -33.1402 -33.1401 -33.1401 -33.0939 -33.0939
   -33.0845 -33.0845 -33.0381 -33.0380 -33.0160 -33.0160 -33.0158 -33.0158
   -32.9856 -32.9856 -32.9855 -32.9855 -32.9581 -32.9580 -32.9542 -32.9541
   -32.9520 -32.9518 -32.9157 -32.9156 -32.9156 -32.9156 -32.9133 -32.9133
    11.9400  11.9400  13.8561  13.8561  13.8561  13.8561  15.2448  15.2449
    15.7422  15.7422  15.7422  15.7422  15.9577  15.9577  16.0259  16.0259
    16.1667  16.1667  16.7689  16.7690  16.8035  16.8036  16.9033  16.9034
    16.9034  16.9034  16.9516  16.9516  17.1200  17.1201  17.1201  17.1202
    17.1415  17.1415  17.4339  17.4340  17.4340  17.4340  17.4974  17.4974
    17.4975  17.4975  17.5935  17.5935  17.7113  17.7114  18.4678  18.4678
    19.2018  19.2018  19.5092  19.5092  19.5092  19.5092  19.7806  19.7807
    19.7807  19.7807  19.7820  19.7821  19.8136  19.8137  20.0318  20.0319
    20.1719  20.1720  20.3167  20.3168  20.3353  20.3353  20.3353  20.3354
    20.3614  20.3614  20.4005  20.4006  20.5966  20.5966  20.5966  20.5966
    20.6221  20.6222  20.6350  20.6350  20.6350  20.6350  22.2163  22.2164
    23.2571  23.2571

          k = 0.2500-0.5000 0.0000 (  6192 PWs)   bands (ev):

   -67.0692 -67.0690 -67.0357 -67.0356 -67.0120 -67.0119 -67.0119 -67.0116
   -67.0079 -67.0079 -67.0079 -67.0076 -66.9939 -66.9937 -66.9684 -66.9682
   -33.3166 -33.3166 -33.2863 -33.2863 -33.2862 -33.2861 -33.2845 -33.2845
   -33.2844 -33.2844 -33.2651 -33.2650 -33.2208 -33.2207 -33.1622 -33.1620
   -33.1452 -33.1452 -33.0971 -33.0971 -33.0971 -33.0969 -33.0950 -33.0948
   -33.0781 -33.0781 -33.0781 -33.0779 -33.0469 -33.0469 -33.0077 -33.0075
   -33.0029 -33.0029 -32.9547 -32.9547 -32.9546 -32.9546 -32.9493 -32.9491
   -32.9480 -32.9479 -32.9478 -32.9478 -32.9124 -32.9124 -32.9058 -32.9058
    11.6162  11.6163  13.5688  13.5688  14.9743  14.9743  14.9743  14.9743
    15.5241  15.5241  15.6346  15.6346  15.6346  15.6347  15.8043  15.8044
    16.1047  16.1048  16.6440  16.6440  16.6441  16.6442  17.0044  17.0044
    17.0403  17.0404  17.0404  17.0404  17.3144  17.3144  17.3145  17.3145
    17.3370  17.3371  17.4783  17.4783  17.4783  17.4784  17.6436  17.6437
    17.8094  17.8095  17.8346  17.8346  17.8913  17.8914  18.8974  18.8974
    19.2044  19.2044  19.2048  19.2049  19.4466  19.4467  19.5603  19.5603
    19.5711  19.5711  19.5712  19.5712  19.6138  19.6138  20.0353  20.0353
    20.1586  20.1586  20.1587  20.1588  20.3985  20.3986  20.5155  20.5156
    20.5156  20.5156  20.5239  20.5240  20.5298  20.5298  20.5298  20.5299
    20.7620  20.7621  20.8610  20.8610  21.6245  21.6246  21.6246  21.6246
    22.6238  22.6238

          k = 0.2500-0.5000 0.2538 (  6196 PWs)   bands (ev):

   -67.0644 -67.0642 -67.0332 -67.0330 -67.0323 -67.0321 -67.0170 -67.0168
   -67.0009 -67.0007 -66.9945 -66.9943 -66.9936 -66.9934 -66.9712 -66.9710
   -33.3034 -33.3033 -33.2958 -33.2958 -33.2840 -33.2838 -33.2762 -33.2760
   -33.2643 -33.2642 -33.2311 -33.2311 -33.2298 -33.2298 -33.1956 -33.1954
   -33.1533 -33.1532 -33.1393 -33.1392 -33.1296 -33.1295 -33.0965 -33.0964
   -33.0825 -33.0825 -33.0425 -33.0424 -33.0178 -33.0176 -33.0105 -33.0104
   -32.9867 -32.9867 -32.9852 -32.9852 -32.9565 -32.9563 -32.9519 -32.9518
   -32.9479 -32.9477 -32.9211 -32.9211 -32.9174 -32.9174 -32.9137 -32.9137
    11.9133  11.9134  13.8363  13.8363  13.8826  13.8826  15.2448  15.2448
    15.7373  15.7374  15.7733  15.7733  15.9393  15.9394  15.9734  15.9735
    16.1809  16.1809  16.6973  16.6974  16.7559  16.7560  16.8785  16.8785
    16.9019  16.9020  17.0094  17.0094  17.1150  17.1150  17.2070  17.2070
    17.2187  17.2188  17.3847  17.3848  17.4150  17.4151  17.5058  17.5058
    17.5544  17.5544  17.6178  17.6179  17.7170  17.7171  18.4839  18.4840
    19.2272  19.2272  19.4754  19.4754  19.4887  19.4887  19.7143  19.7143
    19.7162  19.7163  19.7782  19.7782  19.8530  19.8532  20.0691  20.0692
    20.2254  20.2255  20.3332  20.3333  20.3351  20.3351  20.3709  20.3709
    20.4207  20.4207  20.4366  20.4367  20.5846  20.5846  20.6037  20.6038
    20.6199  20.6199  20.6223  20.6223  20.6245  20.6246  22.2084  22.2085
    23.2222  23.2223

          k = 0.2500-0.5000-0.5076 (  6176 PWs)   bands (ev):

   -67.0511 -67.0510 -67.0509 -67.0508 -67.0263 -67.0261 -67.0261 -67.0259
   -66.9966 -66.9965 -66.9965 -66.9963 -66.9797 -66.9796 -66.9795 -66.9794
   -33.2798 -33.2797 -33.2797 -33.2797 -33.2763 -33.2762 -33.2762 -33.2761
   -33.2559 -33.2559 -33.2559 -33.2558 -33.1889 -33.1888 -33.1887 -33.1886
   -33.1674 -33.1674 -33.1674 -33.1673 -33.1570 -33.1569 -33.1569 -33.1569
   -33.0333 -33.0333 -33.0333 -33.0332 -33.0166 -33.0166 -33.0165 -33.0165
   -32.9705 -32.9704 -32.9703 -32.9702 -32.9604 -32.9603 -32.9603 -32.9603
   -32.9416 -32.9416 -32.9415 -32.9415 -32.9106 -32.9106 -32.9106 -32.9106
    12.7416  12.7416  12.7417  12.7417  14.5302  14.5302  14.5302  14.5302
    16.1194  16.1194  16.1194  16.1194  16.1525  16.1525  16.1525  16.1525
    16.5165  16.5165  16.5165  16.5165  16.6812  16.6812  16.6812  16.6812
    16.8952  16.8952  16.8952  16.8952  17.0469  17.0470  17.0470  17.0470
    17.1819  17.1820  17.1820  17.1820  17.2947  17.2947  17.2947  17.2947
    17.5152  17.5152  17.5152  17.5153  17.7907  17.7907  17.7907  17.7907
    19.6440  19.6441  19.6441  19.6442  19.8083  19.8083  19.8083  19.8083
    19.8813  19.8813  19.8813  19.8814  19.9545  19.9545  19.9545  19.9546
    20.0074  20.0075  20.0075  20.0076  20.2544  20.2545  20.2545  20.2546
    20.3410  20.3410  20.3410  20.3410  20.3925  20.3926  20.3926  20.3927
    20.6638  20.6638  20.6638  20.6638  21.3461  21.3461  21.3461  21.3462
    24.2912  24.2912

          k =-0.5000-0.5000 0.0000 (  6192 PWs)   bands (ev):

   -67.0556 -67.0553 -67.0553 -67.0552 -67.0102 -67.0099 -67.0099 -67.0099
   -67.0099 -67.0097 -67.0097 -67.0095 -66.9784 -66.9781 -66.9781 -66.9780
   -33.3030 -33.3030 -33.3030 -33.3030 -33.2807 -33.2805 -33.2805 -33.2804
   -33.2804 -33.2804 -33.2804 -33.2803 -33.1384 -33.1382 -33.1382 -33.1381
   -33.1362 -33.1362 -33.1361 -33.1361 -33.0940 -33.0940 -33.0940 -33.0940
   -33.0940 -33.0940 -33.0938 -33.0938 -33.0804 -33.0804 -33.0803 -33.0803
   -32.9728 -32.9725 -32.9725 -32.9724 -32.9454 -32.9453 -32.9453 -32.9452
   -32.9452 -32.9452 -32.9452 -32.9451 -32.8961 -32.8961 -32.8960 -32.8960
    12.4270  12.4271  12.4271  12.4271  15.4498  15.4498  15.4498  15.4498
    15.4499  15.4499  15.4499  15.4499  15.9062  15.9062  15.9063  15.9063
    16.4252  16.4253  16.4253  16.4253  16.7565  16.7566  16.7566  16.7566
    16.7566  16.7566  16.7567  16.7567  17.2127  17.2128  17.2128  17.2128
    17.2128  17.2129  17.2129  17.2130  17.4733  17.4733  17.4733  17.4733
    17.7196  17.7198  17.7198  17.7198  18.4286  18.4286  18.4287  18.4287
    19.1235  19.1236  19.1236  19.1237  19.4664  19.4664  19.4665  19.4665
    19.7527  19.7528  19.7528  19.7528  19.8707  19.8709  19.8709  19.8709
    19.8709  19.8710  19.8710  19.8710  20.3182  20.3184  20.3184  20.3184
    20.5323  20.5324  20.5324  20.5324  20.5324  20.5325  20.5325  20.5325
    20.9634  20.9634  20.9634  20.9634  22.5082  22.5083  22.5083  22.5083
    22.5083  22.5083

          k =-0.5000-0.5000 0.2538 (  6188 PWs)   bands (ev):

   -67.0516 -67.0514 -67.0514 -67.0513 -67.0259 -67.0256 -67.0256 -67.0255
   -66.9962 -66.9960 -66.9960 -66.9959 -66.9802 -66.9800 -66.9800 -66.9799
   -33.2869 -33.2869 -33.2868 -33.2868 -33.2710 -33.2709 -33.2709 -33.2708
   -33.2575 -33.2574 -33.2574 -33.2573 -33.1795 -33.1794 -33.1794 -33.1793
   -33.1715 -33.1715 -33.1714 -33.1714 -33.1571 -33.1571 -33.1570 -33.1570
   -33.0369 -33.0369 -33.0369 -33.0368 -33.0207 -33.0207 -33.0207 -33.0207
   -32.9679 -32.9677 -32.9677 -32.9676 -32.9600 -32.9599 -32.9599 -32.9598
   -32.9433 -32.9432 -32.9432 -32.9431 -32.9091 -32.9091 -32.9091 -32.9090
    12.7170  12.7170  12.7171  12.7171  14.5490  14.5490  14.5490  14.5490
    16.1219  16.1219  16.1220  16.1220  16.1631  16.1631  16.1631  16.1631
    16.4706  16.4706  16.4706  16.4706  16.6593  16.6593  16.6593  16.6593
    16.9098  16.9098  16.9098  16.9098  16.9999  17.0001  17.0001  17.0001
    17.2030  17.2031  17.2031  17.2031  17.3820  17.3820  17.3821  17.3821
    17.4572  17.4573  17.4573  17.4573  17.8275  17.8275  17.8275  17.8275
    19.6504  19.6505  19.6505  19.6505  19.8236  19.8237  19.8237  19.8237
    19.8572  19.8573  19.8573  19.8573  19.8666  19.8667  19.8667  19.8667
    20.0252  20.0254  20.0254  20.0254  20.2872  20.2874  20.2874  20.2874
    20.4229  20.4229  20.4230  20.4230  20.4487  20.4488  20.4488  20.4488
    20.6247  20.6247  20.6247  20.6247  21.3208  21.3209  21.3209  21.3210
    24.4049  24.4049

          k =-0.5000-0.5000-0.5076 (  6168 PWs)   bands (ev):

   -67.0409 -67.0407 -67.0406 -67.0406 -67.0406 -67.0406 -67.0406 -67.0403
   -66.9863 -66.9860 -66.9859 -66.9859 -66.9859 -66.9859 -66.9859 -66.9857
   -33.2407 -33.2407 -33.2405 -33.2405 -33.2405 -33.2405 -33.2404 -33.2404
   -33.2340 -33.2338 -33.2338 -33.2338 -33.2337 -33.2337 -33.2337 -33.2336
   -33.2033 -33.2033 -33.2033 -33.2032 -33.2032 -33.2032 -33.2032 -33.2031
   -32.9937 -32.9937 -32.9937 -32.9936 -32.9936 -32.9936 -32.9936 -32.9935
   -32.9532 -32.9532 -32.9530 -32.9530 -32.9530 -32.9530 -32.9530 -32.9530
   -32.9530 -32.9528 -32.9528 -32.9528 -32.9527 -32.9527 -32.9527 -32.9526
    13.5102  13.5102  13.5102  13.5102  13.5102  13.5102  13.5103  13.5103
    16.5722  16.5723  16.5723  16.5723  16.5723  16.5723  16.5723  16.5723
    16.6106  16.6106  16.6106  16.6107  16.6107  16.6107  16.6107  16.6107
    17.0209  17.0209  17.0209  17.0209  17.0210  17.0210  17.0210  17.0210
    17.0880  17.0882  17.0882  17.0882  17.0882  17.0882  17.0882  17.0883
    17.1581  17.1581  17.1582  17.1583  17.1583  17.1583  17.1583  17.1583
    20.1099  20.1099  20.1100  20.1100  20.1100  20.1101  20.1101  20.1101
    20.1502  20.1504  20.1504  20.1504  20.1504  20.1505  20.1505  20.1505
    20.1575  20.1576  20.1576  20.1576  20.1577  20.1577  20.1577  20.1577
    20.1912  20.1914  20.1914  20.1915  20.1915  20.1915  20.1915  20.1916
    20.5410  20.5410  20.5410  20.5411  20.5411  20.5411  20.5411  20.5412
    26.6183  26.6184

     the Fermi energy is    18.5665 ev

!    total energy              =   -5267.28728833 Ry
     total all-electron energy =    -40728.031817 Ry
     estimated scf accuracy    <       0.00000027 Ry
     smearing contrib. (-TS)   =       0.00172483 Ry
     internal energy E=F+TS    =   -5267.28901316 Ry

     The total energy is F=E-TS. E is the sum of the following terms:
     one-electron contribution =   -1738.03115196 Ry
     hartree contribution      =    1032.91492168 Ry
     xc contribution           =    -443.98318037 Ry
     ewald contribution        =   -2793.75908541 Ry
     one-center paw contrib.   =   -1324.43051710 Ry

     total magnetization       =    33.70 Bohr mag/cell
     absolute magnetization    =    35.82 Bohr mag/cell

     convergence has been achieved in  25 iterations


     Computing stress (Cartesian axis) and pressure


     negative rho (up, down):  0.000E+00 3.414E-03
          total   stress  (Ry/bohr**3)                   (kbar)     P=     -902.30
  -0.00618852   0.00000000   0.00000000         -910.36        0.00        0.00
   0.00000000  -0.00618852   0.00000000            0.00     -910.36        0.00
   0.00000000   0.00000000  -0.00602412            0.00        0.00     -886.18


     Writing all to output data dir ./tmp/fe16cr00_tetra_-0.01.save/ :
     XML data file, charge density, pseudopotentials, collected wavefunctions

     init_run     :     61.85s CPU     63.51s WALL (       1 calls)
     electrons    :   4854.78s CPU   4954.21s WALL (       1 calls)
     stress       :    137.46s CPU    138.50s WALL (       1 calls)

     Called by init_run:
     wfcinit      :     57.03s CPU     57.75s WALL (       1 calls)
     potinit      :      3.36s CPU      4.00s WALL (       1 calls)
     hinit0       :      0.59s CPU      0.62s WALL (       1 calls)

     Called by electrons:
     c_bands      :   4385.22s CPU   4450.80s WALL (      25 calls)
     sum_band     :    366.23s CPU    378.95s WALL (      25 calls)
     v_of_rho     :      5.07s CPU      5.34s WALL (      26 calls)
     newd         :     20.99s CPU     27.86s WALL (      26 calls)
     PAW_pot      :     79.84s CPU     94.55s WALL (      26 calls)
     mix_rho      :      0.89s CPU      0.94s WALL (      25 calls)

     Called by c_bands:
     init_us_2    :     12.53s CPU     12.75s WALL (    1872 calls)
     cegterg      :   4348.87s CPU   4413.73s WALL (     900 calls)

     Called by *egterg:
     cdiaghg      :    343.41s CPU    348.61s WALL (    3162 calls)
     h_psi        :   1433.12s CPU   1464.40s WALL (    3198 calls)
     s_psi        :    517.29s CPU    518.39s WALL (    3198 calls)
     g_psi        :      1.57s CPU      1.59s WALL (    2262 calls)

     Called by h_psi:
     h_psi:calbec :    548.51s CPU    549.93s WALL (    3198 calls)
     vloc_psi     :    358.26s CPU    380.79s WALL (    3198 calls)
                                        0.00s GPU  (    3198 calls)
     add_vuspsi   :    523.60s CPU    523.75s WALL (    3198 calls)

     General routines
     calbec       :    925.27s CPU    927.66s WALL (    4566 calls)
     fft          :      3.33s CPU      3.64s WALL (     669 calls)
     ffts         :      0.18s CPU      0.19s WALL (     102 calls)
     fftw         :    409.05s CPU    434.79s WALL (  751364 calls)
     interpolate  :      0.40s CPU      0.43s WALL (      52 calls)

     Parallel routines

     PWSCF        :      1h24m CPU      1h25m WALL


   This run was terminated on:  19:16:30  23Apr2026            

=------------------------------------------------------------------------------=
   JOB DONE.
=------------------------------------------------------------------------------=
Note: The following floating-point exceptions are signalling: IEEE_DENORMAL
Note: The following floating-point exceptions are signalling: IEEE_DENORMAL
Note: The following floating-point exceptions are signalling: IEEE_DENORMAL
Note: The following floating-point exceptions are signalling: IEEE_DENORMAL
