
     Program PWSCF v.7.5 starts on 23Apr2026 at 23:56:31 

     This program is part of the open-source Quantum ESPRESSO suite
     for quantum simulation of materials; please cite
         "P. Giannozzi et al., J. Phys.:Condens. Matter 21 395502 (2009);
         "P. Giannozzi et al., J. Phys.:Condens. Matter 29 465901 (2017);
         "P. Giannozzi et al., J. Chem. Phys. 152 154105 (2020);
          URL http://www.quantum-espresso.org", 
     in publications or presentations arising from this work. More details at
     http://www.quantum-espresso.org/quote

     Parallel version (MPI), running on     4 processors

     MPI processes distributed on     1 nodes
     692 MiB available memory on the printing compute node when the environment starts

     Waiting for input...
     Reading input from standard input

     Current dimensions of program PWSCF are:
     Max number of different atomic species (ntypx) = 10
     Max number of k-points (npk) =  40000
     Max angular momentum in pseudopotentials (lmaxx) =  4
     file Fe.pbe-spn-kjpaw_psl.1.0.0.UPF: wavefunction(s)  3P 3D renormalized
     Found identity + (  0.2500  0.2500  0.2500) symmetry
     This is a supercell, fractional translations are disabled
     Message from routine setup:
     using ibrav=0 with symmetry is DISCOURAGED, use correct ibrav instead

     R & G space division:  proc/nbgrp/npool/nimage =       4
     Subspace diagonalization in iterative solution of the eigenvalue problem:
     one sub-group per band group will be used
     custom distributed-memory algorithm (size of sub-group:  2*  2 procs)


     Parallelization info
     --------------------
     sticks:   dense  smooth     PW     G-vecs:    dense   smooth      PW
     Min         818     406    119                35022    12366    1929
     Max         819     407    120                35023    12371    1932
     Sum        3275    1627    477               140091    49479    7721

     Using Slab Decomposition



     bravais-lattice index     =            0
     lattice parameter (alat)  =      10.6716  a.u.
     unit-cell volume          =    1215.0201 (a.u.)^3
     number of atoms/cell      =           16
     number of atomic types    =            1
     number of electrons       =       256.00
     number of Kohn-Sham states=          154
     kinetic-energy cutoff     =      45.0000  Ry
     charge density cutoff     =     360.0000  Ry
     scf convergence threshold =      1.0E-06
     mixing beta               =       0.3000
     number of iterations used =            8  plain     mixing
     Exchange-correlation= SLA  PW   PBX  PBC
                           (   1   4   3   4   0   0   0)

     celldm(1)=  10.671628  celldm(2)=   0.000000  celldm(3)=   0.000000
     celldm(4)=   0.000000  celldm(5)=   0.000000  celldm(6)=   0.000000

     crystal axes: (cart. coord. in units of alat)
               a(1) = (   0.999950   0.010000   0.000000 )  
               a(2) = (   0.010000   0.999950   0.000000 )  
               a(3) = (   0.000000   0.000000   0.999950 )  

     reciprocal axes: (cart. coord. in units 2 pi/alat)
               b(1) = (  1.000150 -0.010002  0.000000 )  
               b(2) = ( -0.010002  1.000150  0.000000 )  
               b(3) = (  0.000000  0.000000  1.000050 )  


     PseudoPot. # 1 for Fe read from file:
     ./pseudo/Fe.pbe-spn-kjpaw_psl.1.0.0.UPF
     MD5 check sum: fc81f059e5c5069939230b1155715ae8
     Pseudo is Projector augmented-wave + core cor, Zval = 16.0
     Generated using &quot;atomic&quot; code by A. Dal Corso  v.6.3
     Shape of augmentation charge: PSQ
     Using radial grid of 1191 points,  6 beta functions with: 
                l(1) =   0
                l(2) =   0
                l(3) =   1
                l(4) =   1
                l(5) =   2
                l(6) =   2
     Q(r) pseudized with 0 coefficients 


     atomic species   valence    mass     pseudopotential
     Fe               16.00    55.84500     Fe( 1.00)

     Starting magnetic structure 
     atomic species   magnetization
     Fe              0.500

      8 Sym. Ops., with inversion, found



   Cartesian axes

     site n.     atom                  positions (alat units)
         1        Fe     tau(   1) = (   0.0000000   0.0000000   0.0000000  )
         2        Fe     tau(   2) = (   0.2524874   0.2524874   0.2499875  )
         3        Fe     tau(   3) = (   0.0000000   0.0000000   0.4999750  )
         4        Fe     tau(   4) = (   0.2524874   0.2524874   0.7499625  )
         5        Fe     tau(   5) = (   0.0049998   0.4999750   0.0000000  )
         6        Fe     tau(   6) = (   0.2574871   0.7524624   0.2499875  )
         7        Fe     tau(   7) = (   0.0049998   0.4999750   0.4999750  )
         8        Fe     tau(   8) = (   0.2574871   0.7524624   0.7499625  )
         9        Fe     tau(   9) = (   0.4999750   0.0049998   0.0000000  )
        10        Fe     tau(  10) = (   0.7524624   0.2574871   0.2499875  )
        11        Fe     tau(  11) = (   0.4999750   0.0049998   0.4999750  )
        12        Fe     tau(  12) = (   0.7524624   0.2574871   0.7499625  )
        13        Fe     tau(  13) = (   0.5049748   0.5049748   0.0000000  )
        14        Fe     tau(  14) = (   0.7574621   0.7574621   0.2499875  )
        15        Fe     tau(  15) = (   0.5049748   0.5049748   0.4999750  )
        16        Fe     tau(  16) = (   0.7574621   0.7574621   0.7499625  )

     number of k points=    21  Marzari-Vanderbilt smearing, width (Ry)=  0.0200
                       cart. coord. in units 2pi/alat
        k(    1) = (   0.0000000   0.0000000   0.0000000), wk =   0.0156250
        k(    2) = (   0.0000000   0.0000000   0.2500125), wk =   0.0312500
        k(    3) = (   0.0000000   0.0000000  -0.5000250), wk =   0.0156250
        k(    4) = (  -0.0025004   0.2500375   0.0000000), wk =   0.0625000
        k(    5) = (  -0.0025004   0.2500375   0.2500125), wk =   0.1250000
        k(    6) = (  -0.0025004   0.2500375  -0.5000250), wk =   0.0625000
        k(    7) = (   0.0050008  -0.5000750   0.0000000), wk =   0.0312500
        k(    8) = (   0.0050008  -0.5000750   0.2500125), wk =   0.0625000
        k(    9) = (   0.0050008  -0.5000750  -0.5000250), wk =   0.0312500
        k(   10) = (   0.2475371   0.2475371   0.0000000), wk =   0.0312500
        k(   11) = (   0.2475371   0.2475371   0.2500125), wk =   0.0625000
        k(   12) = (   0.2475371   0.2475371  -0.5000250), wk =   0.0312500
        k(   13) = (   0.2550383  -0.5025754   0.0000000), wk =   0.0625000
        k(   14) = (   0.2550383  -0.5025754   0.2500125), wk =   0.1250000
        k(   15) = (   0.2550383  -0.5025754  -0.5000250), wk =   0.0625000
        k(   16) = (   0.2525379  -0.2525379   0.0000000), wk =   0.0312500
        k(   17) = (   0.2525379  -0.2525379   0.2500125), wk =   0.0625000
        k(   18) = (   0.2525379  -0.2525379  -0.5000250), wk =   0.0312500
        k(   19) = (  -0.4950743  -0.4950743   0.0000000), wk =   0.0156250
        k(   20) = (  -0.4950743  -0.4950743   0.2500125), wk =   0.0312500
        k(   21) = (  -0.4950743  -0.4950743  -0.5000250), wk =   0.0156250

     Dense  grid:   140091 G-vectors     FFT dimensions: (  72,  72,  72)

     Smooth grid:    49479 G-vectors     FFT dimensions: (  45,  45,  45)

     Estimated max dynamical RAM per process >     308.27 MB

     Estimated total dynamical RAM >       1.20 GB

     Check: negative core charge=   -0.000004
     Generating pointlists ...
     new r_m :   0.1774 (alat units)  1.8934 (a.u.) for type    1

     Initial potential from superposition of free atoms

     starting charge     255.9930, renormalised to     256.0000
     Starting wfcs are  160 randomized atomic wfcs
     Checking if some PAW data can be deallocated... 

     total cpu time spent up to now is       74.2 secs

     Self-consistent Calculation

     iteration #  1     ecut=    45.00 Ry     beta= 0.30
     Davidson diagonalization with overlap
     ethr =  1.00E-02,  avg # of iterations =  3.4

     total cpu time spent up to now is      344.0 secs

     total energy              =   -5263.15175013 Ry
     estimated scf accuracy    <       9.61397478 Ry

     total magnetization       =    51.42 Bohr mag/cell
     absolute magnetization    =    53.05 Bohr mag/cell

     iteration #  2     ecut=    45.00 Ry     beta= 0.30
     Davidson diagonalization with overlap
     ethr =  3.76E-03,  avg # of iterations =  1.1

     negative rho (up, down):  0.000E+00 1.070E-02

     total cpu time spent up to now is      533.8 secs

     total energy              =   -5266.58135533 Ry
     estimated scf accuracy    <       5.07481653 Ry

     total magnetization       =    49.15 Bohr mag/cell
     absolute magnetization    =    51.32 Bohr mag/cell

     iteration #  3     ecut=    45.00 Ry     beta= 0.30
     Davidson diagonalization with overlap
     ethr =  1.98E-03,  avg # of iterations =  1.7

     negative rho (up, down):  0.000E+00 1.005E-02

     total cpu time spent up to now is      749.7 secs

     total energy              =   -5266.96556732 Ry
     estimated scf accuracy    <       3.46189008 Ry

     total magnetization       =    40.21 Bohr mag/cell
     absolute magnetization    =    43.54 Bohr mag/cell

     iteration #  4     ecut=    45.00 Ry     beta= 0.30
     Davidson diagonalization with overlap
     ethr =  1.35E-03,  avg # of iterations =  1.4

     negative rho (up, down):  0.000E+00 8.050E-03

     total cpu time spent up to now is      943.1 secs

     total energy              =   -5267.15491691 Ry
     estimated scf accuracy    <       0.24530413 Ry

     total magnetization       =    40.10 Bohr mag/cell
     absolute magnetization    =    43.19 Bohr mag/cell

     iteration #  5     ecut=    45.00 Ry     beta= 0.30
     Davidson diagonalization with overlap
     ethr =  9.58E-05,  avg # of iterations =  4.0

     negative rho (up, down):  0.000E+00 7.278E-03

     total cpu time spent up to now is     1215.5 secs

     total energy              =   -5267.20993046 Ry
     estimated scf accuracy    <       1.04609431 Ry

     total magnetization       =    36.46 Bohr mag/cell
     absolute magnetization    =    39.51 Bohr mag/cell

     iteration #  6     ecut=    45.00 Ry     beta= 0.30
     Davidson diagonalization with overlap
     ethr =  9.58E-05,  avg # of iterations =  2.5

     negative rho (up, down):  0.000E+00 7.405E-03

     total cpu time spent up to now is     1460.6 secs

     total energy              =   -5267.24815203 Ry
     estimated scf accuracy    <       0.31821035 Ry

     total magnetization       =    34.59 Bohr mag/cell
     absolute magnetization    =    37.50 Bohr mag/cell

     iteration #  7     ecut=    45.00 Ry     beta= 0.30
     Davidson diagonalization with overlap
     ethr =  9.58E-05,  avg # of iterations =  1.2

     negative rho (up, down):  0.000E+00 7.270E-03

     total cpu time spent up to now is     1655.0 secs

     total energy              =   -5267.25562429 Ry
     estimated scf accuracy    <       0.08925680 Ry

     total magnetization       =    35.10 Bohr mag/cell
     absolute magnetization    =    38.01 Bohr mag/cell

     iteration #  8     ecut=    45.00 Ry     beta= 0.30
     Davidson diagonalization with overlap
     ethr =  3.49E-05,  avg # of iterations =  2.4

     negative rho (up, down):  0.000E+00 4.935E-03

     total cpu time spent up to now is     1882.2 secs

     total energy              =   -5267.26028584 Ry
     estimated scf accuracy    <       0.05639074 Ry

     total magnetization       =    35.19 Bohr mag/cell
     absolute magnetization    =    38.08 Bohr mag/cell

     iteration #  9     ecut=    45.00 Ry     beta= 0.30
     Davidson diagonalization with overlap
     ethr =  2.20E-05,  avg # of iterations =  4.6

     negative rho (up, down):  0.000E+00 4.470E-03

     total cpu time spent up to now is     2207.7 secs

     total energy              =   -5267.28595539 Ry
     estimated scf accuracy    <       0.10721559 Ry

     total magnetization       =    34.43 Bohr mag/cell
     absolute magnetization    =    36.89 Bohr mag/cell

     iteration # 10     ecut=    45.00 Ry     beta= 0.30
     Davidson diagonalization with overlap
     ethr =  2.20E-05,  avg # of iterations =  1.1

     negative rho (up, down):  0.000E+00 3.739E-03

     total cpu time spent up to now is     2399.4 secs

     total energy              =   -5267.27448295 Ry
     estimated scf accuracy    <       0.05690705 Ry

     total magnetization       =    34.31 Bohr mag/cell
     absolute magnetization    =    36.74 Bohr mag/cell

     iteration # 11     ecut=    45.00 Ry     beta= 0.30
     Davidson diagonalization with overlap
     ethr =  2.20E-05,  avg # of iterations =  3.4

     negative rho (up, down):  0.000E+00 3.515E-03

     total cpu time spent up to now is     2664.6 secs

     total energy              =   -5267.28618681 Ry
     estimated scf accuracy    <       0.02427194 Ry

     total magnetization       =    34.05 Bohr mag/cell
     absolute magnetization    =    36.40 Bohr mag/cell

     iteration # 12     ecut=    45.00 Ry     beta= 0.30
     Davidson diagonalization with overlap
     ethr =  9.48E-06,  avg # of iterations =  2.3

     negative rho (up, down):  0.000E+00 3.354E-03

     total cpu time spent up to now is     2893.3 secs

     total energy              =   -5267.28636939 Ry
     estimated scf accuracy    <       0.01185510 Ry

     total magnetization       =    34.04 Bohr mag/cell
     absolute magnetization    =    36.35 Bohr mag/cell

     iteration # 13     ecut=    45.00 Ry     beta= 0.30
     Davidson diagonalization with overlap
     ethr =  4.63E-06,  avg # of iterations =  1.6

     negative rho (up, down):  0.000E+00 3.317E-03

     total cpu time spent up to now is     3110.1 secs

     total energy              =   -5267.28703901 Ry
     estimated scf accuracy    <       0.00224494 Ry

     total magnetization       =    34.01 Bohr mag/cell
     absolute magnetization    =    36.28 Bohr mag/cell

     iteration # 14     ecut=    45.00 Ry     beta= 0.30
     Davidson diagonalization with overlap
     c_bands:  1 eigenvalues not converged
     ethr =  8.77E-07,  avg # of iterations =  3.8

     negative rho (up, down):  0.000E+00 3.229E-03

     total cpu time spent up to now is     3353.6 secs

     total energy              =   -5267.28745220 Ry
     estimated scf accuracy    <       0.00135755 Ry

     total magnetization       =    33.97 Bohr mag/cell
     absolute magnetization    =    36.23 Bohr mag/cell

     iteration # 15     ecut=    45.00 Ry     beta= 0.30
     Davidson diagonalization with overlap
     ethr =  5.30E-07,  avg # of iterations =  2.0

     negative rho (up, down):  0.000E+00 3.108E-03

     total cpu time spent up to now is     3569.0 secs

     total energy              =   -5267.28782677 Ry
     estimated scf accuracy    <       0.00103169 Ry

     total magnetization       =    33.95 Bohr mag/cell
     absolute magnetization    =    36.19 Bohr mag/cell

     iteration # 16     ecut=    45.00 Ry     beta= 0.30
     Davidson diagonalization with overlap
     ethr =  4.03E-07,  avg # of iterations =  2.9

     negative rho (up, down):  0.000E+00 3.087E-03

     total cpu time spent up to now is     3797.7 secs

     total energy              =   -5267.28795902 Ry
     estimated scf accuracy    <       0.00029301 Ry

     total magnetization       =    33.92 Bohr mag/cell
     absolute magnetization    =    36.09 Bohr mag/cell

     iteration # 17     ecut=    45.00 Ry     beta= 0.30
     Davidson diagonalization with overlap
     ethr =  1.14E-07,  avg # of iterations =  2.7

     negative rho (up, down):  0.000E+00 3.042E-03

     total cpu time spent up to now is     4035.5 secs

     total energy              =   -5267.28798421 Ry
     estimated scf accuracy    <       0.00024653 Ry

     total magnetization       =    33.90 Bohr mag/cell
     absolute magnetization    =    36.05 Bohr mag/cell

     iteration # 18     ecut=    45.00 Ry     beta= 0.30
     Davidson diagonalization with overlap
     ethr =  9.63E-08,  avg # of iterations =  1.5

     negative rho (up, down):  0.000E+00 3.060E-03

     total cpu time spent up to now is     4241.8 secs

     total energy              =   -5267.28801487 Ry
     estimated scf accuracy    <       0.00009482 Ry

     total magnetization       =    33.87 Bohr mag/cell
     absolute magnetization    =    36.02 Bohr mag/cell

     iteration # 19     ecut=    45.00 Ry     beta= 0.30
     Davidson diagonalization with overlap
     ethr =  3.70E-08,  avg # of iterations =  2.5

     negative rho (up, down):  0.000E+00 3.037E-03

     total cpu time spent up to now is     4464.1 secs

     total energy              =   -5267.28802970 Ry
     estimated scf accuracy    <       0.00015976 Ry

     total magnetization       =    33.85 Bohr mag/cell
     absolute magnetization    =    35.99 Bohr mag/cell

     iteration # 20     ecut=    45.00 Ry     beta= 0.30
     Davidson diagonalization with overlap
     ethr =  3.70E-08,  avg # of iterations =  1.9

     negative rho (up, down):  0.000E+00 3.014E-03

     total cpu time spent up to now is     4683.5 secs

     total energy              =   -5267.28804104 Ry
     estimated scf accuracy    <       0.00014748 Ry

     total magnetization       =    33.83 Bohr mag/cell
     absolute magnetization    =    35.96 Bohr mag/cell

     iteration # 21     ecut=    45.00 Ry     beta= 0.30
     Davidson diagonalization with overlap
     ethr =  3.70E-08,  avg # of iterations =  2.9

     negative rho (up, down):  0.000E+00 3.028E-03

     total cpu time spent up to now is     4927.2 secs

     total energy              =   -5267.28803248 Ry
     estimated scf accuracy    <       0.00019452 Ry

     total magnetization       =    33.77 Bohr mag/cell
     absolute magnetization    =    35.90 Bohr mag/cell

     iteration # 22     ecut=    45.00 Ry     beta= 0.30
     Davidson diagonalization with overlap
     ethr =  3.70E-08,  avg # of iterations =  2.2

     negative rho (up, down):  0.000E+00 3.048E-03

     total cpu time spent up to now is     5155.0 secs

     total energy              =   -5267.28805741 Ry
     estimated scf accuracy    <       0.00018785 Ry

     total magnetization       =    33.80 Bohr mag/cell
     absolute magnetization    =    35.93 Bohr mag/cell

     iteration # 23     ecut=    45.00 Ry     beta= 0.30
     Davidson diagonalization with overlap
     ethr =  3.70E-08,  avg # of iterations =  1.6

     negative rho (up, down):  0.000E+00 3.036E-03

     total cpu time spent up to now is     5363.7 secs

     total energy              =   -5267.28806076 Ry
     estimated scf accuracy    <       0.00014482 Ry

     total magnetization       =    33.77 Bohr mag/cell
     absolute magnetization    =    35.90 Bohr mag/cell

     iteration # 24     ecut=    45.00 Ry     beta= 0.30
     Davidson diagonalization with overlap
     ethr =  3.70E-08,  avg # of iterations =  1.4

     negative rho (up, down):  0.000E+00 3.032E-03

     total cpu time spent up to now is     5566.8 secs

     total energy              =   -5267.28806865 Ry
     estimated scf accuracy    <       0.00001701 Ry

     total magnetization       =    33.75 Bohr mag/cell
     absolute magnetization    =    35.87 Bohr mag/cell

     iteration # 25     ecut=    45.00 Ry     beta= 0.30
     Davidson diagonalization with overlap
     ethr =  6.65E-09,  avg # of iterations =  2.6

     negative rho (up, down):  0.000E+00 3.033E-03

     total cpu time spent up to now is     5798.2 secs

     total energy              =   -5267.28806912 Ry
     estimated scf accuracy    <       0.00004068 Ry

     total magnetization       =    33.75 Bohr mag/cell
     absolute magnetization    =    35.87 Bohr mag/cell

     iteration # 26     ecut=    45.00 Ry     beta= 0.30
     Davidson diagonalization with overlap
     ethr =  6.65E-09,  avg # of iterations =  1.3

     negative rho (up, down):  0.000E+00 3.036E-03

     total cpu time spent up to now is     5993.7 secs

     total energy              =   -5267.28807124 Ry
     estimated scf accuracy    <       0.00001366 Ry

     total magnetization       =    33.75 Bohr mag/cell
     absolute magnetization    =    35.87 Bohr mag/cell

     iteration # 27     ecut=    45.00 Ry     beta= 0.30
     Davidson diagonalization with overlap
     ethr =  5.33E-09,  avg # of iterations =  1.0

     negative rho (up, down):  0.000E+00 3.046E-03

     Magnetic moment per site  (integrated on atomic sphere of radius R)
     atom   1 (R=0.177)  charge= 14.3443  magn=  2.1635
     atom   2 (R=0.177)  charge= 14.3448  magn=  2.1648
     atom   3 (R=0.177)  charge= 14.3444  magn=  2.1652
     atom   4 (R=0.177)  charge= 14.3448  magn=  2.1648
     atom   5 (R=0.177)  charge= 14.3448  magn=  2.1637
     atom   6 (R=0.177)  charge= 14.3449  magn=  2.1643
     atom   7 (R=0.177)  charge= 14.3450  magn=  2.1657
     atom   8 (R=0.177)  charge= 14.3449  magn=  2.1643
     atom   9 (R=0.177)  charge= 14.3448  magn=  2.1637
     atom  10 (R=0.177)  charge= 14.3449  magn=  2.1643
     atom  11 (R=0.177)  charge= 14.3450  magn=  2.1657
     atom  12 (R=0.177)  charge= 14.3449  magn=  2.1643
     atom  13 (R=0.177)  charge= 14.3448  magn=  2.1648
     atom  14 (R=0.177)  charge= 14.3448  magn=  2.1648
     atom  15 (R=0.177)  charge= 14.3445  magn=  2.1665
     atom  16 (R=0.177)  charge= 14.3448  magn=  2.1648

     total cpu time spent up to now is     6182.3 secs

     End of self-consistent calculation

 ------ SPIN UP ------------


          k = 0.0000 0.0000 0.0000 (  6169 PWs)   bands (ev):

   -69.6700 -69.5939 -69.5937 -69.5934 -69.5934 -69.5932 -69.5930 -69.5930
   -69.5876 -69.5875 -69.5875 -69.5872 -69.5824 -69.5816 -69.5811 -69.5270
   -35.8563 -35.8456 -35.8456 -35.8455 -35.8455 -35.8394 -35.7345 -35.7170
   -35.7053 -35.6448 -35.6446 -35.6421 -35.6420 -35.6418 -35.6418 -35.6245
   -35.6243 -35.6160 -35.6157 -35.6110 -35.6108 -35.5830 -35.5781 -35.5780
   -35.5779 -35.5776 -35.5759 -35.5758 -35.5755 -35.5754 -35.5745 -35.5742
   -35.5728 -35.5725 -35.5706 -35.5705 -35.5705 -35.5705 -35.5590 -35.4334
   -35.4254 -35.4251 -35.4142 -35.4124 -35.4124 -35.4123 -35.4123 -35.4119
     9.9671  13.5595  13.5614  13.5694  13.5694  13.5694  13.5694  13.6371
    13.6474  13.7900  13.7900  13.7901  13.7901  13.7919  13.7920  15.1141
    15.1492  15.1492  15.1493  15.1493  15.1849  15.2800  15.2801  15.2901
    15.2902  15.3630  15.3631  15.4838  15.4839  15.4840  15.4841  15.4937
    15.4938  16.1818  16.2793  16.3570  16.6872  16.6873  16.6874  16.6875
    16.6905  16.6907  16.6969  16.6969  16.6970  16.6974  16.6992  16.6994
    17.4418  17.4485  17.4486  17.4487  17.4488  17.4514  17.4637  17.4639
    17.5292  17.5826  17.5826  17.5826  17.5827  17.5932  17.6217  17.6784
    17.6785  17.6786  17.6787  17.7051  17.7554  17.7556  17.7648  17.7649
    18.6869  18.7465  18.7646  18.7647  18.7800  18.7800  18.7801  18.7802
    18.7914  18.8642  18.9159  18.9673  18.9673  18.9673  18.9748  18.9749
    18.9749  18.9750

          k = 0.0000 0.0000 0.2500 (  6205 PWs)   bands (ev):

   -69.6637 -69.6214 -69.5929 -69.5928 -69.5926 -69.5921 -69.5920 -69.5885
   -69.5884 -69.5883 -69.5881 -69.5852 -69.5815 -69.5802 -69.5666 -69.5319
   -35.8356 -35.8266 -35.8266 -35.8264 -35.8264 -35.8243 -35.7284 -35.7270
   -35.7122 -35.7024 -35.7020 -35.7013 -35.7013 -35.7013 -35.7012 -35.6926
   -35.6413 -35.6270 -35.6239 -35.6168 -35.5880 -35.5748 -35.5747 -35.5744
   -35.5744 -35.5729 -35.5702 -35.5701 -35.5701 -35.5701 -35.5684 -35.5431
   -35.5424 -35.5229 -35.5228 -35.5227 -35.5226 -35.5207 -35.5160 -35.4415
   -35.4404 -35.4397 -35.4314 -35.4314 -35.4312 -35.4312 -35.4261 -35.4234
    10.2941  12.5465  13.6494  13.6494  13.6494  13.6494  13.7633  13.7660
    13.7866  13.7931  13.8753  13.8754  13.8754  13.8754  14.2815  14.7673
    14.9896  15.0091  15.0835  15.1021  15.1032  15.1573  15.2891  15.2891
    15.2892  15.2893  15.4646  15.4647  15.4647  15.4649  15.6789  15.8129
    16.2031  16.2250  16.2547  16.2547  16.2548  16.2550  16.3600  16.3668
    16.3723  16.4371  16.9219  16.9220  16.9221  16.9221  16.9438  16.9439
    16.9440  16.9441  16.9933  17.1480  17.1908  17.3016  17.4637  17.4957
    17.4957  17.4958  17.4959  17.5163  17.5535  17.6162  17.6431  17.6811
    17.6927  17.7083  17.7131  17.7214  17.7396  17.8960  17.8961  17.8961
    17.8962  17.9313  18.0199  18.3726  18.5353  18.6425  18.8469  18.8470
    18.8471  18.8471  18.8548  18.8548  18.8549  18.8549  19.1283  19.1284
    19.1284  19.1284

          k = 0.0000 0.0000-0.5000 (  6210 PWs)   bands (ev):

   -69.6467 -69.6458 -69.5918 -69.5912 -69.5906 -69.5906 -69.5901 -69.5901
   -69.5900 -69.5895 -69.5894 -69.5885 -69.5811 -69.5802 -69.5458 -69.5450
   -35.7850 -35.7841 -35.7820 -35.7811 -35.7756 -35.7756 -35.7755 -35.7752
   -35.7747 -35.7746 -35.7746 -35.7745 -35.7215 -35.7206 -35.6897 -35.6889
   -35.6731 -35.6722 -35.6083 -35.6075 -35.5914 -35.5906 -35.5729 -35.5726
   -35.5717 -35.5717 -35.5717 -35.5717 -35.5710 -35.5710 -35.4940 -35.4932
   -35.4850 -35.4841 -35.4755 -35.4746 -35.4692 -35.4687 -35.4685 -35.4684
   -35.4683 -35.4682 -35.4677 -35.4676 -35.4675 -35.4675 -35.4577 -35.4569
    11.2174  11.2175  13.8355  13.8355  13.8355  13.8355  13.8359  13.8359
    13.8360  13.8360  14.0852  14.0857  14.1662  14.1667  14.3512  14.3518
    14.3547  14.3553  15.0708  15.0716  15.0763  15.0771  15.6839  15.6841
    15.6842  15.6843  15.6848  15.6850  15.6850  15.6851  15.9154  15.9158
    15.9160  15.9161  15.9161  15.9163  15.9164  15.9165  16.2385  16.2394
    16.3455  16.3464  16.4075  16.4081  16.5884  16.5890  16.6121  16.6131
    16.8769  16.8775  17.2718  17.2720  17.2720  17.2722  17.2726  17.2727
    17.2727  17.2729  17.6270  17.6277  17.6708  17.6714  17.6744  17.6751
    17.7200  17.7206  17.7244  17.7251  17.7648  17.7657  17.8897  17.8906
    18.3596  18.3606  18.4589  18.4590  18.4591  18.4593  18.4600  18.4600
    18.4601  18.4602  19.0524  19.0524  19.0528  19.0528  19.0529  19.0529
    19.0531  19.0532

          k =-0.0025 0.2500 0.0000 (  6188 PWs)   bands (ev):

   -69.6638 -69.6215 -69.5948 -69.5939 -69.5926 -69.5923 -69.5903 -69.5885
   -69.5884 -69.5866 -69.5865 -69.5835 -69.5826 -69.5822 -69.5666 -69.5318
   -35.8335 -35.8280 -35.8280 -35.8267 -35.8267 -35.8228 -35.7330 -35.7126
   -35.7038 -35.7036 -35.7028 -35.7028 -35.6996 -35.6995 -35.6987 -35.6910
   -35.6350 -35.6327 -35.6197 -35.6195 -35.5821 -35.5776 -35.5773 -35.5771
   -35.5740 -35.5738 -35.5727 -35.5714 -35.5712 -35.5711 -35.5600 -35.5375
   -35.5375 -35.5264 -35.5224 -35.5224 -35.5212 -35.5200 -35.5199 -35.4490
   -35.4364 -35.4335 -35.4313 -35.4313 -35.4302 -35.4270 -35.4270 -35.4245
    10.2925  12.5453  13.6374  13.6503  13.6503  13.6504  13.7666  13.7697
    13.7974  13.7974  13.8660  13.8753  13.8753  13.8817  14.2792  14.7593
    15.0173  15.0174  15.0976  15.0976  15.1280  15.1280  15.2597  15.2906
    15.2907  15.3173  15.4567  15.4615  15.4617  15.4663  15.7476  15.7476
    16.2180  16.2332  16.2399  16.2568  16.2569  16.2671  16.2740  16.3963
    16.4054  16.4137  16.9024  16.9254  16.9256  16.9383  16.9392  16.9431
    16.9432  16.9504  16.9829  17.1742  17.1796  17.3024  17.4873  17.4919
    17.4919  17.5032  17.5085  17.5753  17.5753  17.6093  17.6094  17.6919
    17.6921  17.7171  17.7173  17.7408  17.7410  17.8687  17.8973  17.8974
    17.9238  17.9386  18.0157  18.4234  18.4693  18.6931  18.7826  18.8378
    18.8378  18.8485  18.8610  18.8629  18.8630  18.9046  19.0444  19.1277
    19.1278  19.2222

          k =-0.0025 0.2500 0.2500 (  6197 PWs)   bands (ev):

   -69.6580 -69.6185 -69.6184 -69.5996 -69.5938 -69.5926 -69.5898 -69.5883
   -69.5868 -69.5857 -69.5827 -69.5814 -69.5787 -69.5679 -69.5679 -69.5360
   -35.8281 -35.8187 -35.8184 -35.8094 -35.8093 -35.7851 -35.7422 -35.7421
   -35.7418 -35.7370 -35.7276 -35.7236 -35.7168 -35.7046 -35.6820 -35.6308
   -35.6302 -35.6262 -35.6260 -35.6199 -35.6146 -35.5917 -35.5876 -35.5846
   -35.5838 -35.5834 -35.5834 -35.5828 -35.5785 -35.5707 -35.5488 -35.5223
   -35.5217 -35.5216 -35.5101 -35.5035 -35.4941 -35.4911 -35.4719 -35.4702
   -35.4657 -35.4458 -35.4453 -35.4450 -35.4375 -35.4366 -35.4219 -35.4143
    10.6073  12.7477  12.7496  13.4549  13.8627  13.8643  13.8817  13.8826
    13.8879  13.9023  13.9177  13.9951  14.0234  14.3329  14.3368  14.8493
    14.8526  14.8673  14.8688  15.2102  15.2170  15.2177  15.2306  15.2523
    15.2635  15.3109  15.3138  15.3374  15.5520  15.6407  15.7278  15.9708
    15.9744  16.0184  16.0241  16.0836  16.1259  16.2039  16.2219  16.2367
    16.6149  16.6891  16.7029  16.7058  16.7201  16.7583  16.7883  16.8492
    16.8538  16.9713  17.0076  17.0797  17.1302  17.1306  17.2773  17.3058
    17.4231  17.4247  17.4636  17.4946  17.5084  17.5242  17.5281  17.6173
    17.6528  17.6569  17.6788  17.7218  17.7413  17.9746  17.9753  17.9858
    17.9937  18.0057  18.0502  18.0532  18.0640  18.0693  18.2056  18.3382
    18.3462  18.5174  18.7935  18.9440  19.1325  19.1771  20.2816  20.3437
    20.4399  20.5016

          k =-0.0025 0.2500-0.5000 (  6208 PWs)   bands (ev):

   -69.6422 -69.6413 -69.6110 -69.6101 -69.5918 -69.5909 -69.5900 -69.5891
   -69.5884 -69.5876 -69.5822 -69.5814 -69.5723 -69.5714 -69.5489 -69.5481
   -35.7976 -35.7976 -35.7829 -35.7822 -35.7789 -35.7787 -35.7725 -35.7717
   -35.7676 -35.7674 -35.7556 -35.7554 -35.7133 -35.7132 -35.6753 -35.6745
   -35.6431 -35.6428 -35.6128 -35.6119 -35.6077 -35.6071 -35.5986 -35.5981
   -35.5868 -35.5862 -35.5790 -35.5785 -35.5556 -35.5554 -35.5300 -35.5292
   -35.5176 -35.5175 -35.4769 -35.4761 -35.4760 -35.4752 -35.4714 -35.4714
   -35.4686 -35.4680 -35.4604 -35.4603 -35.4353 -35.4351 -35.4311 -35.4310
    11.4978  11.4980  13.1668  13.1668  14.0346  14.0346  14.0696  14.0697
    14.1719  14.1723  14.1874  14.1875  14.3046  14.3050  14.4244  14.4249
    14.4502  14.4507  15.1470  15.1476  15.1477  15.1482  15.3898  15.3903
    15.4021  15.4025  15.4025  15.4029  15.5781  15.5782  15.9778  15.9779
    15.9853  15.9855  15.9988  15.9990  16.0572  16.0573  16.0578  16.0581
    16.1592  16.1592  16.1749  16.1755  16.2038  16.2042  16.9704  16.9707
    17.0729  17.0733  17.1355  17.1359  17.2665  17.2665  17.3105  17.3105
    17.3164  17.3166  17.3207  17.3209  17.5774  17.5780  17.6010  17.6018
    17.6072  17.6078  17.6285  17.6291  17.7523  17.7527  17.7981  17.7985
    17.8346  17.8352  18.0205  18.0205  18.0946  18.0949  18.1005  18.1007
    18.6650  18.6653  18.7650  18.7650  19.7390  19.7390  19.8355  19.8355
    21.3464  21.3466

          k = 0.0050-0.5001 0.0000 (  6204 PWs)   bands (ev):

   -69.6466 -69.6462 -69.5949 -69.5945 -69.5910 -69.5904 -69.5904 -69.5902
   -69.5866 -69.5863 -69.5849 -69.5846 -69.5846 -69.5841 -69.5457 -69.5453
   -35.7800 -35.7796 -35.7773 -35.7772 -35.7769 -35.7768 -35.7764 -35.7763
   -35.7760 -35.7759 -35.7715 -35.7711 -35.7244 -35.7240 -35.6847 -35.6843
   -35.6820 -35.6817 -35.5999 -35.5993 -35.5993 -35.5992 -35.5748 -35.5744
   -35.5726 -35.5720 -35.5720 -35.5718 -35.5645 -35.5641 -35.5032 -35.5028
   -35.4709 -35.4709 -35.4706 -35.4705 -35.4692 -35.4689 -35.4688 -35.4688
   -35.4686 -35.4684 -35.4674 -35.4670 -35.4661 -35.4659 -35.4658 -35.4653
    11.2159  11.2160  13.8305  13.8307  13.8333  13.8334  13.8336  13.8336
    13.8429  13.8431  14.0819  14.0821  14.1541  14.1543  14.3727  14.3729
    14.3731  14.3731  15.0746  15.0746  15.0749  15.0749  15.6611  15.6615
    15.6781  15.6781  15.6785  15.6785  15.7228  15.7232  15.8894  15.8896
    15.9171  15.9174  15.9174  15.9175  15.9336  15.9338  16.2815  16.2819
    16.2855  16.2859  16.4985  16.4985  16.4987  16.4987  16.6108  16.6112
    16.8759  16.8762  17.2576  17.2579  17.2712  17.2713  17.2716  17.2716
    17.2936  17.2940  17.6687  17.6689  17.6691  17.6691  17.6889  17.6892
    17.7114  17.7119  17.7119  17.7120  17.8141  17.8145  17.8222  17.8226
    18.3569  18.3573  18.4060  18.4064  18.4581  18.4582  18.4585  18.4586
    18.5212  18.5216  19.0326  19.0328  19.0517  19.0519  19.0520  19.0520
    19.0764  19.0766

          k = 0.0050-0.5001 0.2500 (  6204 PWs)   bands (ev):

   -69.6420 -69.6416 -69.6108 -69.6104 -69.5937 -69.5933 -69.5876 -69.5872
   -69.5860 -69.5856 -69.5841 -69.5837 -69.5720 -69.5716 -69.5487 -69.5483
   -35.7962 -35.7962 -35.7833 -35.7832 -35.7790 -35.7787 -35.7720 -35.7719
   -35.7655 -35.7652 -35.7548 -35.7547 -35.7136 -35.7136 -35.6741 -35.6738
   -35.6449 -35.6448 -35.6128 -35.6124 -35.6079 -35.6076 -35.5968 -35.5965
   -35.5872 -35.5869 -35.5769 -35.5767 -35.5571 -35.5570 -35.5325 -35.5321
   -35.5169 -35.5169 -35.4769 -35.4766 -35.4755 -35.4755 -35.4714 -35.4711
   -35.4662 -35.4661 -35.4601 -35.4598 -35.4349 -35.4348 -35.4319 -35.4318
    11.4980  11.4982  13.1640  13.1640  14.0454  14.0456  14.0622  14.0625
    14.1728  14.1730  14.1863  14.1863  14.3038  14.3040  14.4176  14.4178
    14.4550  14.4552  15.1322  15.1323  15.1710  15.1710  15.3941  15.3943
    15.4024  15.4025  15.4055  15.4056  15.5719  15.5720  15.9437  15.9438
    15.9879  15.9880  16.0297  16.0298  16.0571  16.0572  16.1281  16.1282
    16.1374  16.1375  16.1562  16.1564  16.1569  16.1569  16.9810  16.9811
    17.0663  17.0665  17.1362  17.1363  17.2911  17.2913  17.2943  17.2946
    17.3174  17.3175  17.3202  17.3203  17.5799  17.5800  17.5944  17.5948
    17.6063  17.6065  17.6302  17.6305  17.7744  17.7746  17.7885  17.7887
    17.8331  17.8333  18.0159  18.0160  18.0974  18.0974  18.0987  18.0988
    18.6674  18.6675  18.7702  18.7702  19.7298  19.7299  19.8530  19.8530
    21.3433  21.3435

          k = 0.0050-0.5001-0.5000 (  6184 PWs)   bands (ev):

   -69.6295 -69.6291 -69.6286 -69.6282 -69.5913 -69.5909 -69.5904 -69.5900
   -69.5852 -69.5849 -69.5844 -69.5840 -69.5580 -69.5577 -69.5572 -69.5567
   -35.7866 -35.7866 -35.7866 -35.7866 -35.7769 -35.7767 -35.7764 -35.7762
   -35.7670 -35.7668 -35.7665 -35.7663 -35.6482 -35.6479 -35.6474 -35.6470
   -35.6359 -35.6359 -35.6358 -35.6358 -35.6014 -35.6014 -35.6013 -35.6013
   -35.5957 -35.5957 -35.5957 -35.5957 -35.5799 -35.5799 -35.5799 -35.5799
   -35.4978 -35.4975 -35.4970 -35.4966 -35.4695 -35.4693 -35.4691 -35.4689
   -35.4591 -35.4590 -35.4588 -35.4586 -35.4199 -35.4199 -35.4199 -35.4199
    12.2509  12.2510  12.2510  12.2511  14.2640  14.2641  14.2642  14.2644
    14.4282  14.4282  14.4282  14.4283  14.4914  14.4914  14.4915  14.4916
    14.7877  14.7878  14.7881  14.7883  15.1652  15.1652  15.1653  15.1655
    15.1855  15.1855  15.1857  15.1858  15.6946  15.6946  15.6946  15.6946
    15.8048  15.8050  15.8053  15.8055  15.8884  15.8885  15.8888  15.8890
    16.0919  16.0920  16.0922  16.0924  16.6255  16.6255  16.6256  16.6256
    17.2501  17.2504  17.2507  17.2510  17.3039  17.3040  17.3040  17.3042
    17.4245  17.4246  17.4248  17.4250  17.4540  17.4541  17.4543  17.4545
    17.4954  17.4955  17.4955  17.4956  17.5592  17.5594  17.5597  17.5599
    17.8856  17.8857  17.8859  17.8861  17.8962  17.8963  17.8964  17.8966
    18.8603  18.8603  18.8604  18.8604  20.8004  20.8004  20.8005  20.8005
    20.9887  20.9888

          k = 0.2475 0.2475 0.0000 (  6184 PWs)   bands (ev):

   -69.6589 -69.6165 -69.6163 -69.6047 -69.5918 -69.5915 -69.5878 -69.5877
   -69.5876 -69.5873 -69.5838 -69.5836 -69.5737 -69.5699 -69.5698 -69.5351
   -35.8363 -35.8195 -35.8195 -35.8193 -35.8193 -35.7811 -35.7519 -35.7300
   -35.7299 -35.7248 -35.7248 -35.7166 -35.7165 -35.7031 -35.6718 -35.6305
   -35.6303 -35.6222 -35.6221 -35.6186 -35.6184 -35.6020 -35.5838 -35.5836
   -35.5833 -35.5831 -35.5795 -35.5793 -35.5793 -35.5792 -35.5427 -35.5249
   -35.5248 -35.5235 -35.5235 -35.5031 -35.5030 -35.4982 -35.4748 -35.4747
   -35.4673 -35.4436 -35.4369 -35.4369 -35.4367 -35.4367 -35.4120 -35.4064
    10.5942  12.7769  12.7769  13.4251  13.8700  13.8741  13.8749  13.8749
    13.8749  13.8749  13.9309  14.0068  14.0069  14.3557  14.3557  14.8565
    14.8566  14.8583  14.8583  15.2236  15.2237  15.2237  15.2237  15.2657
    15.2689  15.2690  15.3497  15.3497  15.5761  15.6394  15.6395  15.9998
    15.9999  16.0311  16.0629  16.0630  16.1809  16.1810  16.1953  16.2433
    16.6703  16.7173  16.7175  16.7463  16.7463  16.7464  16.7464  16.8324
    16.8325  16.9659  16.9660  17.0145  17.1120  17.1122  17.2829  17.3460
    17.4171  17.4173  17.4754  17.5294  17.5295  17.5295  17.5296  17.6091
    17.6536  17.6538  17.7012  17.7389  17.7390  17.9463  17.9572  17.9572
    17.9888  17.9889  18.0505  18.0506  18.0506  18.0507  18.2120  18.2965
    18.2967  18.4682  18.8911  19.0253  19.1394  19.1395  20.4131  20.4132
    20.4132  20.4133

          k = 0.2475 0.2475 0.2500 (  6195 PWs)   bands (ev):

   -69.6534 -69.6160 -69.6139 -69.6138 -69.6027 -69.5974 -69.5972 -69.5905
   -69.5797 -69.5795 -69.5786 -69.5742 -69.5709 -69.5708 -69.5687 -69.5391
   -35.8226 -35.8131 -35.8131 -35.7874 -35.7873 -35.7757 -35.7508 -35.7478
   -35.7449 -35.7449 -35.7434 -35.7231 -35.7022 -35.6923 -35.6652 -35.6650
   -35.6554 -35.6512 -35.6470 -35.6459 -35.6459 -35.6212 -35.6147 -35.6147
   -35.5532 -35.5481 -35.5480 -35.5429 -35.5428 -35.5424 -35.5414 -35.5394
   -35.5298 -35.5190 -35.5190 -35.5145 -35.4973 -35.4705 -35.4673 -35.4655
   -35.4654 -35.4600 -35.4600 -35.4393 -35.4309 -35.4309 -35.4268 -35.4208
    10.9027  12.9607  12.9952  12.9952  13.6891  13.7259  13.7259  14.0176
    14.0435  14.0827  14.1026  14.1026  14.4803  14.5018  14.5019  14.8247
    14.8432  14.8461  14.8461  15.1278  15.1410  15.2041  15.2360  15.2680
    15.2681  15.3970  15.3970  15.4312  15.4433  15.5577  15.7223  15.7224
    15.7242  15.9801  15.9903  15.9979  15.9980  16.0591  16.1461  16.1461
    16.1626  16.3223  16.3224  16.3278  16.4818  16.5414  16.5414  16.9008
    16.9368  16.9417  16.9417  17.3141  17.3142  17.3163  17.3760  17.3985
    17.4105  17.4133  17.4133  17.4166  17.5202  17.5202  17.5658  17.6433
    17.6433  17.6630  17.6802  17.6873  17.6999  17.7013  17.7191  17.7192
    17.7279  18.0474  18.0474  18.0692  18.3054  18.3055  18.3200  18.4511
    18.4512  18.4828  18.4912  18.5776  19.2607  19.3711  19.3711  21.2042
    21.2042  21.2166

          k = 0.2475 0.2475-0.5000 (  6182 PWs)   bands (ev):

   -69.6385 -69.6376 -69.6073 -69.6072 -69.6065 -69.6061 -69.5977 -69.5969
   -69.5761 -69.5752 -69.5744 -69.5743 -69.5737 -69.5734 -69.5511 -69.5502
   -35.7828 -35.7827 -35.7826 -35.7826 -35.7742 -35.7733 -35.7620 -35.7614
   -35.7501 -35.7498 -35.7283 -35.7282 -35.7282 -35.7280 -35.7087 -35.7078
   -35.6578 -35.6572 -35.6406 -35.6406 -35.6400 -35.6400 -35.6081 -35.6077
   -35.5896 -35.5896 -35.5472 -35.5465 -35.5241 -35.5240 -35.5234 -35.5234
   -35.4965 -35.4964 -35.4963 -35.4961 -35.4797 -35.4792 -35.4623 -35.4614
   -35.4604 -35.4595 -35.4439 -35.4438 -35.4423 -35.4423 -35.4423 -35.4422
    11.7698  11.7700  13.4544  13.4544  13.4544  13.4545  14.3474  14.3478
    14.3625  14.3629  14.3831  14.3836  14.3889  14.3889  14.3889  14.3890
    14.5981  14.5986  15.1744  15.1752  15.2259  15.2265  15.3088  15.3089
    15.3093  15.3094  15.4942  15.4943  15.4944  15.4946  15.7087  15.7089
    15.8222  15.8223  15.8223  15.8224  15.8984  15.8989  15.8991  15.8992
    15.9056  15.9057  15.9059  15.9061  15.9295  15.9296  16.7215  16.7218
    17.1529  17.1533  17.2891  17.2891  17.2893  17.2893  17.3239  17.3240
    17.3691  17.3691  17.3692  17.3693  17.6030  17.6036  17.6112  17.6119
    17.6259  17.6265  17.7056  17.7062  17.7355  17.7355  17.7360  17.7361
    17.9238  17.9240  17.9250  17.9259  18.4525  18.4527  18.4527  18.4527
    18.5214  18.5219  18.6470  18.6471  18.6471  18.6473  20.5078  20.5080
    21.8646  21.8647

          k = 0.2550-0.5026 0.0000 (  6190 PWs)   bands (ev):

   -69.6432 -69.6402 -69.6143 -69.6068 -69.5901 -69.5895 -69.5895 -69.5894
   -69.5862 -69.5856 -69.5855 -69.5854 -69.5756 -69.5680 -69.5500 -69.5469
   -35.8037 -35.7892 -35.7851 -35.7851 -35.7802 -35.7802 -35.7713 -35.7713
   -35.7652 -35.7652 -35.7627 -35.7406 -35.7172 -35.7080 -35.6763 -35.6725
   -35.6478 -35.6378 -35.6226 -35.6023 -35.6020 -35.6017 -35.6016 -35.5999
   -35.5829 -35.5826 -35.5819 -35.5817 -35.5555 -35.5517 -35.5381 -35.5233
   -35.5195 -35.5160 -35.4783 -35.4783 -35.4771 -35.4713 -35.4712 -35.4694
   -35.4647 -35.4647 -35.4582 -35.4582 -35.4450 -35.4379 -35.4240 -35.4228
    11.4749  11.5237  13.1263  13.2034  14.0516  14.0516  14.0562  14.0562
    14.1490  14.1523  14.1987  14.2261  14.3047  14.3126  14.4297  14.4298
    14.4381  14.4382  15.1210  15.1210  15.1764  15.1764  15.3687  15.3688
    15.3735  15.4116  15.4449  15.4449  15.5343  15.6173  15.9426  15.9693
    15.9694  15.9995  15.9996  16.0405  16.0532  16.0676  16.1192  16.1193
    16.1210  16.1264  16.1519  16.1520  16.1915  16.2045  16.9389  17.0215
    17.0309  17.1143  17.1178  17.1677  17.2717  17.2717  17.2833  17.3023
    17.3154  17.3154  17.3416  17.3641  17.5689  17.5690  17.5955  17.6096
    17.6180  17.6180  17.6189  17.6821  17.7730  17.7731  17.7827  17.7829
    17.8046  17.8697  18.0103  18.0328  18.0954  18.0955  18.1065  18.1066
    18.5839  18.7058  18.7528  18.8350  19.7634  19.7634  19.8090  19.8091
    21.2827  21.4045

          k = 0.2550-0.5026 0.2500 (  6191 PWs)   bands (ev):

   -69.6389 -69.6359 -69.6117 -69.6089 -69.6076 -69.6048 -69.5954 -69.5924
   -69.5806 -69.5777 -69.5760 -69.5731 -69.5719 -69.5690 -69.5525 -69.5497
   -35.7940 -35.7901 -35.7813 -35.7811 -35.7775 -35.7672 -35.7648 -35.7636
   -35.7602 -35.7455 -35.7293 -35.7291 -35.7164 -35.7147 -35.6936 -35.6932
   -35.6547 -35.6522 -35.6438 -35.6400 -35.6384 -35.6369 -35.6056 -35.5987
   -35.5913 -35.5883 -35.5558 -35.5497 -35.5352 -35.5301 -35.5281 -35.5226
   -35.5066 -35.5062 -35.5005 -35.4968 -35.4801 -35.4757 -35.4736 -35.4706
   -35.4686 -35.4643 -35.4472 -35.4441 -35.4429 -35.4346 -35.4318 -35.4311
    11.7552  11.8049  13.3867  13.4144  13.4394  13.4665  14.3339  14.3577
    14.3683  14.3696  14.3766  14.3933  14.3965  14.4053  14.4196  14.4264
    14.5811  14.6189  15.1737  15.1756  15.2100  15.2605  15.2613  15.2759
    15.2937  15.2983  15.4605  15.4622  15.4984  15.4988  15.7535  15.7570
    15.8258  15.8387  15.8519  15.8578  15.8666  15.8669  15.8686  15.8849
    15.8969  15.9095  15.9100  15.9411  15.9432  15.9534  16.7458  16.7857
    17.1414  17.2057  17.2700  17.2781  17.3185  17.3299  17.3311  17.3359
    17.3412  17.3440  17.3518  17.3566  17.5771  17.5776  17.5792  17.5831
    17.5999  17.6279  17.6449  17.6680  17.7041  17.7351  17.7516  17.7776
    17.8899  17.8940  17.9350  17.9410  18.4106  18.4476  18.4497  18.4899
    18.5068  18.5767  18.5983  18.6000  18.6315  18.6469  20.5281  20.6641
    21.8449  21.9072

          k = 0.2550-0.5026-0.5000 (  6186 PWs)   bands (ev):

   -69.6269 -69.6260 -69.6247 -69.6238 -69.6052 -69.6043 -69.5999 -69.5990
   -69.5779 -69.5770 -69.5726 -69.5717 -69.5609 -69.5600 -69.5587 -69.5578
   -35.7749 -35.7744 -35.7732 -35.7731 -35.7714 -35.7713 -35.7584 -35.7579
   -35.7528 -35.7524 -35.7374 -35.7369 -35.6873 -35.6867 -35.6826 -35.6818
   -35.6712 -35.6711 -35.6683 -35.6683 -35.6621 -35.6620 -35.6502 -35.6501
   -35.5543 -35.5540 -35.5442 -35.5440 -35.5327 -35.5326 -35.5286 -35.5285
   -35.4897 -35.4889 -35.4889 -35.4885 -35.4874 -35.4868 -35.4740 -35.4737
   -35.4670 -35.4665 -35.4542 -35.4537 -35.4330 -35.4330 -35.4313 -35.4313
    12.5122  12.5123  12.5549  12.5551  14.0056  14.0057  14.0958  14.0959
    14.4490  14.4493  14.4647  14.4650  14.8191  14.8191  14.8192  14.8196
    14.8447  14.8449  14.8535  14.8539  15.0422  15.0424  15.0952  15.0956
    15.3028  15.3029  15.3072  15.3073  15.5024  15.5030  15.5510  15.5515
    15.6130  15.6132  15.6248  15.6248  15.6349  15.6350  15.6756  15.6758
    15.8143  15.8146  15.8193  15.8198  16.1333  16.1335  16.1369  16.1370
    17.3453  17.3456  17.3468  17.3471  17.4203  17.4208  17.4724  17.4729
    17.5239  17.5245  17.5590  17.5596  17.5924  17.5926  17.6048  17.6051
    17.6280  17.6285  17.6544  17.6548  17.6643  17.6649  17.7159  17.7165
    17.9071  17.9073  17.9214  17.9215  18.0573  18.0575  18.0619  18.0621
    18.5535  18.5536  18.5541  18.5542  19.4830  19.4833  19.6099  19.6101
    22.9504  22.9505

          k = 0.2525-0.2525 0.0000 (  6206 PWs)   bands (ev):

   -69.6571 -69.6207 -69.6204 -69.5948 -69.5918 -69.5915 -69.5878 -69.5877
   -69.5877 -69.5873 -69.5843 -69.5836 -69.5831 -69.5660 -69.5657 -69.5370
   -35.8158 -35.8090 -35.8089 -35.8089 -35.8088 -35.7899 -35.7463 -35.7461
   -35.7389 -35.7389 -35.7343 -35.7312 -35.7312 -35.7037 -35.6998 -35.6342
   -35.6339 -35.6331 -35.6328 -35.6209 -35.6207 -35.5857 -35.5853 -35.5837
   -35.5802 -35.5802 -35.5801 -35.5800 -35.5785 -35.5783 -35.5570 -35.5174
   -35.5171 -35.5070 -35.5070 -35.4918 -35.4917 -35.4759 -35.4674 -35.4672
   -35.4647 -35.4452 -35.4452 -35.4451 -35.4451 -35.4429 -35.4299 -35.4285
    10.6237  12.7219  12.7220  13.4775  13.8799  13.8800  13.8800  13.8800
    13.8934  13.9087  13.9232  14.0167  14.0167  14.3243  14.3244  14.8469
    14.8470  14.8753  14.8753  15.1826  15.1827  15.2589  15.2589  15.2590
    15.2590  15.3055  15.3056  15.3489  15.5264  15.6991  15.6992  15.9244
    15.9245  15.9877  15.9879  16.1592  16.1592  16.1892  16.1971  16.2714
    16.5688  16.6808  16.6811  16.7275  16.7275  16.7276  16.7277  16.8746
    16.8748  17.0253  17.0254  17.1189  17.1439  17.1442  17.2719  17.2802
    17.4307  17.4310  17.4622  17.4956  17.4957  17.4957  17.4957  17.5875
    17.6383  17.6808  17.6809  17.7259  17.7260  17.9922  17.9923  18.0056
    18.0057  18.0604  18.0641  18.0642  18.0643  18.0644  18.1687  18.3870
    18.3872  18.5644  18.6819  18.8749  19.1575  19.1576  20.3615  20.3616
    20.3616  20.3616

          k = 0.2525-0.2525 0.2500 (  6203 PWs)   bands (ev):

   -69.6518 -69.6178 -69.6175 -69.6154 -69.5990 -69.5987 -69.5936 -69.5866
   -69.5835 -69.5822 -69.5782 -69.5778 -69.5694 -69.5673 -69.5670 -69.5406
   -35.8117 -35.8116 -35.8036 -35.7873 -35.7760 -35.7759 -35.7614 -35.7594
   -35.7593 -35.7591 -35.7349 -35.7178 -35.6991 -35.6933 -35.6670 -35.6579
   -35.6577 -35.6539 -35.6447 -35.6445 -35.6414 -35.6100 -35.6099 -35.6085
   -35.5579 -35.5550 -35.5548 -35.5520 -35.5520 -35.5455 -35.5437 -35.5357
   -35.5244 -35.5234 -35.5231 -35.5229 -35.4823 -35.4731 -35.4731 -35.4623
   -35.4543 -35.4540 -35.4510 -35.4421 -35.4410 -35.4312 -35.4306 -35.4305
    10.9299  12.9388  12.9389  12.9762  13.6985  13.6985  13.7302  14.0292
    14.0484  14.1160  14.1161  14.1191  14.4938  14.4938  14.5045  14.7852
    14.8027  14.8038  14.8038  15.1161  15.1292  15.2663  15.2664  15.2963
    15.3190  15.4070  15.4296  15.4475  15.4476  15.5350  15.6982  15.6984
    15.7034  15.9230  15.9233  15.9459  16.0488  16.0935  16.1112  16.1113
    16.1159  16.3460  16.3512  16.3513  16.5654  16.5655  16.6228  16.8409
    16.9990  16.9991  17.0044  17.2961  17.3099  17.3101  17.3576  17.3691
    17.3692  17.3820  17.3822  17.4766  17.4805  17.5205  17.5206  17.6122
    17.6385  17.6621  17.6622  17.6725  17.7219  17.7221  17.7228  17.7419
    17.7549  18.0352  18.0489  18.0491  18.3316  18.3477  18.3478  18.4197
    18.4315  18.4598  18.4599  18.5187  19.2896  19.2896  19.4060  21.2576
    21.2933  21.2933

          k = 0.2525-0.2525-0.5000 (  6202 PWs)   bands (ev):

   -69.6372 -69.6364 -69.6104 -69.6099 -69.6093 -69.6093 -69.5909 -69.5900
   -69.5830 -69.5821 -69.5718 -69.5713 -69.5707 -69.5706 -69.5522 -69.5513
   -35.7889 -35.7888 -35.7888 -35.7886 -35.7789 -35.7783 -35.7612 -35.7603
   -35.7585 -35.7583 -35.7176 -35.7174 -35.7174 -35.7173 -35.6866 -35.6857
   -35.6505 -35.6500 -35.6362 -35.6361 -35.6357 -35.6356 -35.6013 -35.6011
   -35.5905 -35.5905 -35.5579 -35.5573 -35.5351 -35.5351 -35.5345 -35.5345
   -35.5081 -35.5079 -35.5078 -35.5077 -35.4847 -35.4839 -35.4781 -35.4772
   -35.4653 -35.4649 -35.4361 -35.4361 -35.4359 -35.4358 -35.4313 -35.4313
    11.7905  11.7907  13.3991  13.3992  13.3992  13.3992  14.3518  14.3522
    14.3767  14.3771  14.4141  14.4146  14.4152  14.4153  14.4153  14.4153
    14.5910  14.5914  15.1781  15.1788  15.2423  15.2426  15.2429  15.2429
    15.2676  15.2681  15.4646  15.4649  15.4650  15.4650  15.7873  15.7873
    15.8012  15.8015  15.8796  15.8796  15.9000  15.9003  15.9005  15.9006
    15.9071  15.9072  15.9072  15.9073  15.9490  15.9496  16.7977  16.7980
    17.1918  17.1921  17.3198  17.3199  17.3200  17.3201  17.3263  17.3263
    17.3285  17.3286  17.3287  17.3287  17.5405  17.5412  17.5718  17.5724
    17.6085  17.6091  17.6241  17.6247  17.7528  17.7529  17.7534  17.7535
    17.8414  17.8423  17.9470  17.9471  18.4578  18.4578  18.4579  18.4580
    18.5593  18.5597  18.5742  18.5745  18.5745  18.5746  20.6917  20.6919
    21.9796  21.9798

          k =-0.4951-0.4951 0.0000 (  6196 PWs)   bands (ev):

   -69.6319 -69.6316 -69.6260 -69.6259 -69.5885 -69.5880 -69.5879 -69.5878
   -69.5877 -69.5874 -69.5873 -69.5869 -69.5603 -69.5601 -69.5548 -69.5545
   -35.8012 -35.8009 -35.7811 -35.7810 -35.7807 -35.7807 -35.7706 -35.7706
   -35.7662 -35.7662 -35.7662 -35.7661 -35.6572 -35.6570 -35.6409 -35.6408
   -35.6349 -35.6347 -35.6344 -35.6341 -35.6018 -35.6018 -35.6018 -35.6014
   -35.5963 -35.5962 -35.5961 -35.5958 -35.5843 -35.5840 -35.5789 -35.5787
   -35.5007 -35.5006 -35.4892 -35.4889 -35.4756 -35.4755 -35.4755 -35.4754
   -35.4565 -35.4565 -35.4563 -35.4562 -35.4281 -35.4280 -35.4116 -35.4113
    12.2083  12.2084  12.2966  12.2966  14.2096  14.2097  14.3158  14.3158
    14.4511  14.4511  14.4511  14.4513  14.4632  14.4632  14.4634  14.4635
    14.7735  14.7735  14.7952  14.7954  15.1370  15.1370  15.1372  15.1372
    15.2134  15.2134  15.2135  15.2136  15.6386  15.6389  15.7565  15.7566
    15.8267  15.8268  15.8268  15.8271  15.8609  15.8610  15.8611  15.8612
    16.0534  16.0536  16.1467  16.1469  16.5934  16.5937  16.6561  16.6563
    17.2430  17.2433  17.2503  17.2506  17.2611  17.2611  17.3637  17.3639
    17.3971  17.3971  17.3973  17.3973  17.4771  17.4771  17.4774  17.4774
    17.4865  17.4867  17.5111  17.5112  17.5308  17.5311  17.5790  17.5792
    17.8792  17.8793  17.8794  17.8794  17.8795  17.8797  17.8797  17.8798
    18.7870  18.7872  18.9321  18.9324  20.8396  20.8396  20.8397  20.8397
    20.9399  20.9401

          k =-0.4951-0.4951 0.2500 (  6182 PWs)   bands (ev):

   -69.6282 -69.6279 -69.6227 -69.6226 -69.6033 -69.6031 -69.6010 -69.6009
   -69.5760 -69.5758 -69.5739 -69.5735 -69.5621 -69.5619 -69.5568 -69.5565
   -35.7813 -35.7811 -35.7735 -35.7735 -35.7619 -35.7619 -35.7569 -35.7568
   -35.7560 -35.7559 -35.7373 -35.7373 -35.6855 -35.6854 -35.6809 -35.6808
   -35.6747 -35.6744 -35.6642 -35.6642 -35.6606 -35.6604 -35.6527 -35.6525
   -35.5526 -35.5523 -35.5461 -35.5459 -35.5347 -35.5347 -35.5242 -35.5239
   -35.4909 -35.4908 -35.4906 -35.4905 -35.4875 -35.4873 -35.4723 -35.4722
   -35.4660 -35.4660 -35.4536 -35.4536 -35.4408 -35.4407 -35.4246 -35.4244
    12.4907  12.4908  12.5762  12.5762  14.0262  14.0262  14.0749  14.0749
    14.4040  14.4042  14.5060  14.5061  14.8143  14.8143  14.8309  14.8310
    14.8336  14.8337  14.8588  14.8589  15.0234  15.0234  15.1180  15.1180
    15.2774  15.2775  15.3301  15.3303  15.5185  15.5185  15.5413  15.5414
    15.5836  15.5838  15.6131  15.6133  15.6683  15.6684  15.6710  15.6710
    15.7887  15.7889  15.8383  15.8384  16.1378  16.1379  16.1387  16.1388
    17.3011  17.3011  17.4028  17.4030  17.4224  17.4225  17.4668  17.4668
    17.5206  17.5207  17.5555  17.5557  17.5841  17.5842  17.6178  17.6179
    17.6387  17.6388  17.6458  17.6459  17.6767  17.6767  17.7172  17.7174
    17.9109  17.9112  17.9112  17.9113  18.0580  18.0581  18.0709  18.0709
    18.5004  18.5005  18.6233  18.6235  19.4927  19.4927  19.5850  19.5850
    23.0217  23.0222

          k =-0.4951-0.4951-0.5000 (  6128 PWs)   bands (ev):

   -69.6183 -69.6178 -69.6172 -69.6171 -69.6140 -69.6139 -69.6132 -69.6129
   -69.5676 -69.5676 -69.5669 -69.5665 -69.5637 -69.5632 -69.5626 -69.5625
   -35.7403 -35.7398 -35.7392 -35.7392 -35.7345 -35.7343 -35.7342 -35.7340
   -35.7241 -35.7238 -35.7237 -35.7236 -35.7234 -35.7232 -35.7226 -35.7223
   -35.7079 -35.7078 -35.7078 -35.7075 -35.6880 -35.6877 -35.6876 -35.6875
   -35.5151 -35.5148 -35.5147 -35.5146 -35.5031 -35.5030 -35.5030 -35.5026
   -35.4769 -35.4767 -35.4761 -35.4757 -35.4752 -35.4750 -35.4749 -35.4747
   -35.4654 -35.4651 -35.4651 -35.4649 -35.4599 -35.4594 -35.4588 -35.4587
    13.2354  13.2355  13.2356  13.2356  13.3145  13.3145  13.3147  13.3147
    14.9066  14.9070  14.9072  14.9072  14.9182  14.9183  14.9184  14.9186
    14.9894  14.9896  14.9898  14.9898  15.0010  15.0011  15.0014  15.0015
    15.4746  15.4750  15.4755  15.4755  15.4821  15.4822  15.4824  15.4829
    15.4829  15.4829  15.4830  15.4831  15.4860  15.4861  15.4864  15.4865
    15.4871  15.4871  15.4871  15.4871  15.5233  15.5235  15.5236  15.5237
    17.4643  17.4645  17.4649  17.4651  17.5033  17.5037  17.5040  17.5040
    17.5108  17.5109  17.5112  17.5114  17.5482  17.5486  17.5490  17.5490
    17.9903  17.9904  17.9908  17.9911  17.9973  17.9976  17.9978  17.9979
    18.0013  18.0014  18.0016  18.0019  18.0183  18.0187  18.0191  18.0191
    18.6432  18.6435  18.6435  18.6437  18.6874  18.6874  18.6875  18.6878
    25.6122  25.6132

 ------ SPIN DOWN ----------


          k = 0.0000 0.0000 0.0000 (  6169 PWs)   bands (ev):

   -67.0936 -67.0106 -67.0105 -67.0105 -67.0103 -67.0101 -67.0101 -67.0099
   -67.0045 -67.0042 -67.0039 -67.0036 -66.9984 -66.9981 -66.9973 -66.9386
   -33.3884 -33.3624 -33.3624 -33.3621 -33.3621 -33.3373 -33.2518 -33.2169
   -33.1873 -33.1385 -33.1385 -33.1383 -33.1383 -33.1382 -33.1381 -33.1247
   -33.1244 -33.1029 -33.1028 -33.0995 -33.0993 -33.0732 -33.0730 -33.0666
   -33.0621 -33.0619 -33.0615 -33.0613 -33.0565 -33.0565 -33.0563 -33.0562
   -33.0514 -33.0513 -33.0511 -33.0510 -33.0411 -33.0409 -33.0403 -32.8988
   -32.8975 -32.8944 -32.8868 -32.8826 -32.8825 -32.8822 -32.8822 -32.8789
    10.0728  14.3196  14.3196  14.3196  14.3196  14.3211  14.3211  14.7468
    14.7789  14.7790  14.7790  14.7790  14.7929  15.4173  15.4277  16.5933
    16.5935  16.5954  16.5955  16.6469  16.6471  16.7026  16.7733  16.7733
    16.7735  16.7735  16.8457  17.6713  17.6714  17.6715  17.6716  17.6832
    17.6833  17.9584  18.1042  18.2318  18.4176  18.4177  18.4467  18.4467
    18.4469  18.4469  18.4589  18.4591  18.4593  18.4595  18.4934  18.4935
    18.8459  19.0225  19.0226  19.0226  19.0226  19.2039  19.4042  19.4043
    19.4044  19.4045  19.4174  19.4176  19.9983  20.0796  20.0796  20.0796
    20.0797  20.1192  20.1779  20.1872  20.4151  20.4810  20.4811  20.4812
    20.4814  20.5177  20.5680  20.5682  20.5780  20.5782  20.8312  20.8509
    20.9304  21.0972  21.1130  21.1131  21.1135  21.1136  21.1289  21.1290
    21.1291  21.1292

          k = 0.0000 0.0000 0.2500 (  6205 PWs)   bands (ev):

   -67.0868 -67.0408 -67.0097 -67.0096 -67.0093 -67.0092 -67.0089 -67.0054
   -67.0050 -67.0048 -67.0045 -67.0014 -66.9975 -66.9964 -66.9815 -66.9438
   -33.3656 -33.3411 -33.3411 -33.3409 -33.3408 -33.3201 -33.2430 -33.2284
   -33.2196 -33.2021 -33.2021 -33.2020 -33.2019 -33.1955 -33.1914 -33.1823
   -33.1478 -33.1150 -33.1067 -33.0992 -33.0731 -33.0593 -33.0561 -33.0560
   -33.0560 -33.0558 -33.0513 -33.0512 -33.0511 -33.0509 -33.0507 -33.0420
   -33.0102 -33.0100 -33.0027 -33.0026 -33.0023 -33.0022 -32.9824 -32.9135
   -32.9131 -32.9092 -32.9025 -32.9025 -32.9022 -32.9022 -32.8953 -32.8946
    10.4019  12.7544  14.4761  14.4761  14.4761  14.4761  14.7899  14.7899
    14.7899  14.7899  14.9919  15.0314  15.4305  15.5120  15.5748  16.2718
    16.3115  16.4951  16.5210  16.6638  16.7845  16.7866  16.8738  16.9269
    16.9269  16.9271  16.9271  16.9916  17.4377  17.4377  17.4378  17.4379
    17.9687  17.9848  17.9849  17.9851  17.9852  18.0792  18.2063  18.2287
    18.2429  18.2741  18.2929  18.2929  18.2930  18.2931  18.5389  18.6088
    18.8903  18.8903  18.8904  18.8904  18.8950  18.9489  18.9878  19.8857
    19.8858  19.8858  19.8859  19.9132  19.9132  19.9133  19.9133  19.9406
    19.9916  20.0544  20.1723  20.2661  20.4198  20.4377  20.4385  20.4729
    20.5193  20.5218  20.5378  20.5479  20.7318  20.7353  20.8877  20.8878
    20.8878  20.8880  20.9674  20.9674  20.9677  20.9677  21.1380  21.1381
    21.1381  21.1382

          k = 0.0000 0.0000-0.5000 (  6210 PWs)   bands (ev):

   -67.0683 -67.0676 -67.0081 -67.0077 -67.0076 -67.0076 -67.0070 -67.0070
   -67.0066 -67.0061 -67.0059 -67.0051 -66.9971 -66.9963 -66.9588 -66.9580
   -33.3098 -33.3090 -33.2839 -33.2838 -33.2837 -33.2836 -33.2832 -33.2831
   -33.2830 -33.2828 -33.2726 -33.2718 -33.2216 -33.2209 -33.2020 -33.2012
   -33.1498 -33.1491 -33.0964 -33.0957 -33.0779 -33.0772 -33.0539 -33.0538
   -33.0533 -33.0533 -33.0532 -33.0532 -33.0524 -33.0522 -32.9724 -32.9717
   -32.9613 -32.9605 -32.9469 -32.9461 -32.9447 -32.9440 -32.9429 -32.9429
   -32.9426 -32.9425 -32.9422 -32.9422 -32.9418 -32.9418 -32.9328 -32.9320
    11.3423  11.3425  14.7279  14.7279  14.7280  14.7280  14.7281  14.7281
    14.7282  14.7282  15.5952  15.5955  15.6294  15.6297  15.6785  15.6786
    16.0538  16.0540  16.5649  16.5654  16.6192  16.6197  17.3601  17.3602
    17.3603  17.3604  17.3607  17.3608  17.3609  17.3611  17.4585  17.4590
    17.5068  17.5068  17.5070  17.5070  17.5072  17.5072  17.5074  17.5074
    17.6445  17.6450  17.9786  17.9792  18.1778  18.1785  18.4727  18.4735
    19.4399  19.4403  19.4952  19.4952  19.4954  19.4954  19.4958  19.4958
    19.4959  19.4960  19.6961  19.6969  19.7377  19.7385  20.2198  20.2203
    20.3164  20.3169  20.4180  20.4189  20.4724  20.4729  20.4952  20.4956
    20.5206  20.5206  20.5208  20.5208  20.5214  20.5215  20.5216  20.5218
    20.5355  20.5359  21.1353  21.1353  21.1355  21.1355  21.1356  21.1356
    21.1361  21.1361

          k =-0.0025 0.2500 0.0000 (  6188 PWs)   bands (ev):

   -67.0868 -67.0408 -67.0118 -67.0109 -67.0095 -67.0093 -67.0070 -67.0052
   -67.0049 -67.0033 -67.0029 -66.9996 -66.9991 -66.9984 -66.9814 -66.9437
   -33.3634 -33.3423 -33.3423 -33.3413 -33.3412 -33.3187 -33.2489 -33.2185
   -33.2110 -33.2059 -33.2059 -33.2000 -33.1999 -33.1948 -33.1861 -33.1821
   -33.1223 -33.1189 -33.1083 -33.1081 -33.0659 -33.0625 -33.0612 -33.0598
   -33.0596 -33.0579 -33.0577 -33.0545 -33.0521 -33.0518 -33.0416 -33.0200
   -33.0200 -33.0156 -33.0001 -33.0000 -32.9981 -32.9945 -32.9902 -32.9195
   -32.9111 -32.9036 -32.9025 -32.9025 -32.9013 -32.8988 -32.8988 -32.8912
    10.4007  12.7538  14.4510  14.4751  14.4752  14.4989  14.7535  14.7906
    14.7906  14.8171  15.0196  15.0197  15.4293  15.5185  15.5742  16.3093
    16.3094  16.5114  16.5114  16.7227  16.7227  16.7761  16.8613  16.9286
    16.9286  16.9338  16.9338  16.9927  17.4055  17.4370  17.4371  17.4665
    17.9360  17.9874  17.9875  18.0087  18.0430  18.0803  18.1522  18.1551
    18.1753  18.2867  18.2917  18.2917  18.4056  18.4084  18.4084  18.6139
    18.8726  18.8913  18.8914  18.8921  18.8977  18.9732  18.9801  19.8725
    19.8750  19.8867  19.8868  19.8993  19.9116  19.9116  19.9463  19.9611
    19.9926  20.1369  20.1369  20.2535  20.4601  20.4603  20.4725  20.4935
    20.4946  20.4947  20.5524  20.5526  20.7269  20.7618  20.8706  20.8879
    20.8881  20.9209  20.9438  20.9563  20.9563  20.9780  21.1154  21.1471
    21.1472  21.1600

          k =-0.0025 0.2500 0.2500 (  6197 PWs)   bands (ev):

   -67.0805 -67.0377 -67.0376 -67.0173 -67.0108 -67.0096 -67.0064 -67.0049
   -67.0031 -67.0021 -66.9988 -66.9975 -66.9945 -66.9828 -66.9828 -66.9483
   -33.3466 -33.3428 -33.3338 -33.3195 -33.3039 -33.2949 -33.2525 -33.2519
   -33.2481 -33.2469 -33.2412 -33.2147 -33.2076 -33.2053 -33.1654 -33.1245
   -33.1236 -33.1178 -33.1129 -33.1104 -33.1053 -33.0751 -33.0727 -33.0689
   -33.0676 -33.0675 -33.0660 -33.0636 -33.0622 -33.0545 -33.0280 -33.0003
   -33.0000 -32.9981 -32.9898 -32.9805 -32.9689 -32.9665 -32.9457 -32.9447
   -32.9398 -32.9238 -32.9161 -32.9139 -32.9129 -32.9015 -32.8924 -32.8842
    10.7195  12.9929  12.9944  14.2726  14.6224  14.6759  14.9948  15.0112
    15.0460  15.0625  15.2162  15.5375  15.5391  15.6702  15.6841  16.1660
    16.2178  16.6082  16.6107  16.7600  16.7638  16.7923  16.8240  16.8246
    16.8626  16.9013  16.9068  16.9595  17.1982  17.2065  17.2075  17.7346
    17.7530  17.7641  17.7649  17.8266  17.8362  17.8512  17.8532  17.8920
    17.9217  17.9397  18.0100  18.0404  18.0554  18.4674  18.4690  18.4799
    19.0322  19.0340  19.0474  19.0925  19.0985  19.1202  19.3611  19.3626
    19.5992  19.9363  19.9496  19.9535  19.9803  19.9858  19.9937  20.0183
    20.1539  20.1589  20.1746  20.2009  20.3446  20.3826  20.3905  20.3940
    20.4342  20.4769  20.5086  20.5139  20.5308  20.5637  20.5878  20.5885
    20.6799  20.6800  20.8981  21.0768  21.2557  21.2637  21.8767  21.8982
    21.9621  21.9846

          k =-0.0025 0.2500-0.5000 (  6208 PWs)   bands (ev):

   -67.0633 -67.0625 -67.0295 -67.0287 -67.0084 -67.0077 -67.0065 -67.0058
   -67.0050 -67.0041 -66.9983 -66.9975 -66.9875 -66.9867 -66.9621 -66.9613
   -33.3087 -33.3086 -33.3060 -33.3053 -33.2928 -33.2925 -33.2696 -33.2694
   -33.2636 -33.2630 -33.2625 -33.2625 -33.2157 -33.2156 -33.1738 -33.1733
   -33.1253 -33.1249 -33.0979 -33.0971 -33.0958 -33.0953 -33.0873 -33.0869
   -33.0693 -33.0687 -33.0640 -33.0635 -33.0406 -33.0405 -33.0073 -33.0065
   -32.9967 -32.9967 -32.9572 -32.9566 -32.9484 -32.9477 -32.9404 -32.9403
   -32.9384 -32.9382 -32.9371 -32.9365 -32.9060 -32.9058 -32.9022 -32.9022
    11.6343  11.6344  13.6000  13.6002  14.9234  14.9236  14.9802  14.9804
    15.5428  15.5429  15.6063  15.6065  15.6758  15.6760  15.8226  15.8227
    16.1145  16.1146  16.6446  16.6450  16.7028  16.7032  17.0352  17.0353
    17.0606  17.0608  17.0637  17.0640  17.2080  17.2083  17.2613  17.2614
    17.3666  17.3670  17.4564  17.4567  17.5133  17.5136  17.6796  17.6799
    17.7262  17.7264  17.7553  17.7554  17.9744  17.9749  18.8667  18.8670
    19.1593  19.1595  19.2552  19.2554  19.4691  19.4697  19.5498  19.5499
    19.6073  19.6073  19.6164  19.6168  19.6836  19.6837  20.0238  20.0238
    20.1251  20.1256  20.2045  20.2050  20.3865  20.3869  20.4381  20.4384
    20.4639  20.4641  20.4921  20.4923  20.5145  20.5148  20.5353  20.5357
    20.7552  20.7555  20.8708  20.8708  21.5765  21.5766  21.6280  21.6280
    22.7238  22.7240

          k = 0.0050-0.5001 0.0000 (  6204 PWs)   bands (ev):

   -67.0681 -67.0679 -67.0118 -67.0116 -67.0073 -67.0073 -67.0073 -67.0069
   -67.0030 -67.0028 -67.0012 -67.0012 -67.0010 -67.0005 -66.9586 -66.9583
   -33.3037 -33.3035 -33.2869 -33.2869 -33.2867 -33.2867 -33.2846 -33.2845
   -33.2844 -33.2843 -33.2615 -33.2613 -33.2350 -33.2348 -33.1793 -33.1791
   -33.1657 -33.1655 -33.0848 -33.0848 -33.0848 -33.0844 -33.0586 -33.0584
   -33.0539 -33.0539 -33.0539 -33.0535 -33.0466 -33.0463 -32.9787 -32.9785
   -32.9562 -32.9560 -32.9472 -32.9472 -32.9470 -32.9470 -32.9429 -32.9428
   -32.9427 -32.9426 -32.9416 -32.9414 -32.9406 -32.9404 -32.9274 -32.9272
    11.3411  11.3412  14.6937  14.6937  14.7263  14.7264  14.7264  14.7264
    14.7636  14.7637  15.6306  15.6306  15.6307  15.6308  15.6763  15.6763
    16.0416  16.0416  16.5927  16.5927  16.5928  16.5928  17.3012  17.3014
    17.3580  17.3580  17.3582  17.3582  17.4382  17.4383  17.4392  17.4393
    17.5033  17.5034  17.5035  17.5035  17.5519  17.5519  17.5521  17.5521
    17.5649  17.5650  18.0579  18.0581  18.0684  18.0686  18.4861  18.4863
    19.4384  19.4385  19.4842  19.4844  19.4966  19.4967  19.4968  19.4968
    19.5144  19.5146  19.7109  19.7111  19.7122  19.7125  20.2856  20.2856
    20.2857  20.2858  20.4094  20.4096  20.4601  20.4602  20.5120  20.5123
    20.5196  20.5196  20.5197  20.5197  20.5197  20.5199  20.5199  20.5200
    20.5381  20.5384  21.1132  21.1133  21.1340  21.1340  21.1341  21.1342
    21.1593  21.1594

          k = 0.0050-0.5001 0.2500 (  6204 PWs)   bands (ev):

   -67.0631 -67.0628 -67.0292 -67.0290 -67.0106 -67.0104 -67.0039 -67.0037
   -67.0023 -67.0021 -67.0003 -67.0000 -66.9872 -66.9869 -66.9618 -66.9616
   -33.3071 -33.3071 -33.3014 -33.3012 -33.2977 -33.2977 -33.2743 -33.2743
   -33.2632 -33.2631 -33.2562 -33.2560 -33.2160 -33.2160 -33.1681 -33.1679
   -33.1302 -33.1302 -33.0981 -33.0979 -33.0935 -33.0934 -33.0848 -33.0847
   -33.0724 -33.0722 -33.0627 -33.0626 -33.0419 -33.0419 -33.0101 -33.0099
   -32.9961 -32.9960 -32.9485 -32.9483 -32.9476 -32.9476 -32.9470 -32.9469
   -32.9438 -32.9437 -32.9304 -32.9303 -32.9066 -32.9065 -32.9026 -32.9026
    11.6344  11.6345  13.5981  13.5982  14.9160  14.9160  14.9891  14.9891
    15.5416  15.5417  15.6053  15.6053  15.6769  15.6769  15.8238  15.8238
    16.1132  16.1132  16.6572  16.6572  16.6970  16.6970  17.0359  17.0360
    17.0392  17.0393  17.0922  17.0923  17.2554  17.2554  17.2851  17.2851
    17.2909  17.2910  17.4104  17.4104  17.5603  17.5603  17.6785  17.6786
    17.7369  17.7369  17.7557  17.7557  17.9464  17.9465  18.8772  18.8773
    19.1608  19.1609  19.2548  19.2549  19.4654  19.4656  19.5491  19.5492
    19.6122  19.6123  19.6150  19.6152  19.6790  19.6790  20.0193  20.0193
    20.1447  20.1447  20.1885  20.1885  20.3878  20.3879  20.4513  20.4514
    20.4628  20.4629  20.5028  20.5029  20.5038  20.5038  20.5338  20.5339
    20.7570  20.7571  20.8762  20.8763  21.5899  21.5899  21.6230  21.6230
    22.7212  22.7212

          k = 0.0050-0.5001-0.5000 (  6184 PWs)   bands (ev):

   -67.0494 -67.0493 -67.0487 -67.0485 -67.0078 -67.0077 -67.0071 -67.0069
   -67.0015 -67.0013 -67.0007 -67.0004 -66.9719 -66.9717 -66.9712 -66.9709
   -33.2971 -33.2970 -33.2970 -33.2970 -33.2957 -33.2957 -33.2953 -33.2951
   -33.2614 -33.2613 -33.2610 -33.2609 -33.1378 -33.1376 -33.1371 -33.1369
   -33.1302 -33.1301 -33.1301 -33.1301 -33.0895 -33.0895 -33.0894 -33.0894
   -33.0836 -33.0836 -33.0836 -33.0835 -33.0632 -33.0632 -33.0631 -33.0631
   -32.9717 -32.9715 -32.9710 -32.9707 -32.9430 -32.9430 -32.9427 -32.9426
   -32.9316 -32.9316 -32.9312 -32.9311 -32.8896 -32.8895 -32.8895 -32.8895
    12.4528  12.4528  12.4529  12.4531  15.3915  15.3916  15.3916  15.3917
    15.4925  15.4926  15.4926  15.4926  15.9201  15.9201  15.9201  15.9201
    16.4606  16.4606  16.4607  16.4607  16.7622  16.7622  16.7622  16.7623
    16.7699  16.7700  16.7700  16.7700  17.1618  17.1618  17.1622  17.1623
    17.2782  17.2782  17.2785  17.2786  17.4043  17.4043  17.4044  17.4044
    17.7670  17.7671  17.7674  17.7676  18.3826  18.3826  18.3826  18.3826
    19.1839  19.1840  19.1843  19.1845  19.4495  19.4495  19.4496  19.4496
    19.8348  19.8348  19.8350  19.8351  19.8435  19.8435  19.8437  19.8438
    19.9109  19.9110  19.9112  19.9113  20.3034  20.3035  20.3038  20.3039
    20.4462  20.4462  20.4464  20.4465  20.4924  20.4924  20.4926  20.4927
    20.9810  20.9810  20.9811  20.9811  22.4292  22.4292  22.4293  22.4295
    22.5553  22.5554

          k = 0.2475 0.2475 0.0000 (  6184 PWs)   bands (ev):

   -67.0814 -67.0357 -67.0352 -67.0227 -67.0086 -67.0084 -67.0045 -67.0043
   -67.0040 -67.0038 -67.0000 -66.9998 -66.9891 -66.9853 -66.9847 -66.9473
   -33.3664 -33.3346 -33.3346 -33.3344 -33.3343 -33.2728 -33.2717 -33.2188
   -33.2188 -33.2174 -33.2169 -33.2119 -33.2118 -33.2006 -33.1494 -33.1384
   -33.1380 -33.1256 -33.1254 -33.1112 -33.1106 -33.0883 -33.0847 -33.0844
   -33.0842 -33.0838 -33.0565 -33.0563 -33.0562 -33.0560 -33.0226 -33.0040
   -33.0035 -32.9953 -32.9953 -32.9692 -32.9692 -32.9582 -32.9340 -32.9334
   -32.9250 -32.9145 -32.9124 -32.9124 -32.9122 -32.9122 -32.8968 -32.8917
    10.7063  13.0259  13.0260  14.2184  14.6455  14.6456  15.0328  15.0328
    15.0328  15.0328  15.2134  15.5364  15.5365  15.6643  15.6891  16.1828
    16.1829  16.6410  16.6411  16.7638  16.7639  16.8337  16.8337  16.8339
    16.8339  16.8346  16.8347  16.8777  17.2176  17.2176  17.2682  17.7752
    17.8355  17.8359  17.8470  17.8688  17.8688  17.8945  17.8948  17.9022
    17.9310  17.9311  17.9312  17.9312  17.9972  18.4451  18.4455  18.5762
    19.0193  19.0197  19.0304  19.0305  19.0393  19.0396  19.3106  19.3110
    19.5756  19.9339  20.0031  20.0032  20.0032  20.0033  20.0237  20.0444
    20.1624  20.1641  20.1643  20.2144  20.3491  20.3493  20.3806  20.3812
    20.4933  20.5003  20.5005  20.5484  20.5486  20.5487  20.5488  20.5838
    20.6557  20.6559  20.9608  21.1152  21.2573  21.2574  21.9300  21.9300
    21.9301  21.9302

          k = 0.2475 0.2475 0.2500 (  6195 PWs)   bands (ev):

   -67.0755 -67.0350 -67.0329 -67.0324 -67.0205 -67.0149 -67.0144 -67.0072
   -66.9956 -66.9952 -66.9943 -66.9896 -66.9863 -66.9857 -66.9836 -66.9516
   -33.3507 -33.3262 -33.3259 -33.3012 -33.3010 -33.2672 -33.2616 -33.2466
   -33.2434 -33.2394 -33.2390 -33.2197 -33.2178 -33.1860 -33.1726 -33.1725
   -33.1593 -33.1437 -33.1365 -33.1362 -33.1251 -33.1088 -33.0950 -33.0947
   -33.0380 -33.0340 -33.0340 -33.0237 -33.0234 -33.0231 -33.0217 -33.0193
   -33.0095 -32.9985 -32.9981 -32.9978 -32.9629 -32.9393 -32.9392 -32.9310
   -32.9291 -32.9273 -32.9267 -32.9127 -32.9078 -32.9044 -32.9026 -32.9023
    11.0193  13.2307  13.2701  13.2701  14.4898  14.5590  14.5590  15.4211
    15.4211  15.4310  15.6776  15.6807  15.6807  15.7880  15.8209  16.0058
    16.2505  16.5878  16.5991  16.7140  16.7142  16.7256  16.7937  16.8238
    16.8871  16.8938  16.8940  17.0179  17.0180  17.0899  17.4954  17.5412
    17.5414  17.5471  17.6046  17.6047  17.6242  17.6244  17.6775  17.6777
    17.6925  17.6930  17.7168  17.8525  18.0351  18.0352  18.0893  18.8071
    19.2290  19.2588  19.2772  19.2774  19.2787  19.2789  19.2823  19.7292
    19.7310  19.7312  19.7591  19.7808  19.7808  20.0386  20.0386  20.0749
    20.1106  20.1128  20.2924  20.3316  20.4090  20.4189  20.4191  20.4277
    20.4304  20.4307  20.4394  20.4891  20.5391  20.5785  20.6270  20.6271
    20.6646  20.6703  20.6896  20.6899  21.1244  21.1610  21.1611  22.7182
    22.7228  22.7228

          k = 0.2475 0.2475-0.5000 (  6182 PWs)   bands (ev):

   -67.0592 -67.0585 -67.0256 -67.0252 -67.0249 -67.0243 -67.0151 -67.0143
   -66.9915 -66.9907 -66.9900 -66.9895 -66.9893 -66.9886 -66.9644 -66.9637
   -33.2972 -33.2964 -33.2887 -33.2886 -33.2884 -33.2883 -33.2534 -33.2528
   -33.2486 -33.2483 -33.2385 -33.2384 -33.2382 -33.2382 -33.2227 -33.2219
   -33.1484 -33.1479 -33.1254 -33.1250 -33.1247 -33.1244 -33.0822 -33.0818
   -33.0684 -33.0684 -33.0273 -33.0269 -33.0006 -33.0003 -33.0001 -32.9999
   -32.9810 -32.9809 -32.9808 -32.9808 -32.9539 -32.9531 -32.9499 -32.9492
   -32.9411 -32.9406 -32.9096 -32.9095 -32.9091 -32.9090 -32.9068 -32.9067
    11.9146  11.9148  13.8927  13.8928  13.8929  13.8929  15.2056  15.2056
    15.7313  15.7313  15.7314  15.7315  15.9683  15.9686  15.9744  15.9745
    16.1915  16.1916  16.6995  16.7000  16.7859  16.7862  16.9261  16.9262
    16.9263  16.9265  16.9617  16.9618  17.1645  17.1646  17.1646  17.1648
    17.2745  17.2748  17.4456  17.4459  17.4459  17.4463  17.4705  17.4705
    17.4706  17.4706  17.6283  17.6288  17.6798  17.6799  18.4761  18.4763
    19.2518  19.2518  19.5374  19.5374  19.5375  19.5375  19.7245  19.7248
    19.7415  19.7417  19.7417  19.7419  19.8371  19.8378  20.0413  20.0417
    20.2756  20.2760  20.3345  20.3345  20.3346  20.3347  20.3520  20.3524
    20.3539  20.3539  20.4799  20.4803  20.6082  20.6086  20.6211  20.6211
    20.6213  20.6213  20.6478  20.6479  20.6480  20.6481  22.1703  22.1706
    23.2464  23.2466

          k = 0.2550-0.5026 0.0000 (  6190 PWs)   bands (ev):

   -67.0646 -67.0613 -67.0332 -67.0250 -67.0064 -67.0064 -67.0064 -67.0060
   -67.0021 -67.0021 -67.0021 -67.0016 -66.9911 -66.9829 -66.9634 -66.9600
   -33.3300 -33.2990 -33.2990 -33.2930 -33.2930 -33.2837 -33.2813 -33.2740
   -33.2739 -33.2676 -33.2676 -33.2349 -33.2274 -33.1927 -33.1703 -33.1661
   -33.1547 -33.1114 -33.1107 -33.1007 -33.1005 -33.0863 -33.0782 -33.0780
   -33.0774 -33.0771 -33.0549 -33.0547 -33.0515 -33.0233 -33.0181 -33.0116
   -33.0019 -32.9820 -32.9514 -32.9470 -32.9469 -32.9457 -32.9457 -32.9433
   -32.9385 -32.9385 -32.9377 -32.9376 -32.9102 -32.9092 -32.9000 -32.8927
    11.6107  11.6603  13.5456  13.6524  14.9466  14.9466  14.9585  14.9585
    15.5315  15.5528  15.6377  15.6378  15.6404  15.6404  15.8172  15.8314
    16.1152  16.1189  16.6527  16.6527  16.6973  16.6973  16.9902  17.0387
    17.0388  17.0883  17.0929  17.0929  17.1799  17.2838  17.2838  17.2937
    17.2938  17.3417  17.4754  17.4754  17.4904  17.4905  17.6140  17.6580
    17.7296  17.7452  17.7793  17.8540  17.9036  17.9929  18.7843  18.9689
    19.1612  19.1643  19.2531  19.2648  19.4668  19.4883  19.5399  19.5399
    19.5612  19.6189  19.6271  19.6271  19.6723  19.7397  19.9906  20.0612
    20.1339  20.1340  20.1996  20.1997  20.3630  20.4433  20.4791  20.4792
    20.4802  20.4804  20.4806  20.4807  20.4814  20.4815  20.4912  20.5828
    20.7149  20.8045  20.8544  20.8984  21.6011  21.6012  21.6017  21.6018
    22.7030  22.7375

          k = 0.2550-0.5026 0.2500 (  6191 PWs)   bands (ev):

   -67.0598 -67.0566 -67.0304 -67.0272 -67.0259 -67.0228 -67.0126 -67.0093
   -66.9965 -66.9933 -66.9916 -66.9884 -66.9871 -66.9840 -66.9662 -66.9631
   -33.3185 -33.3032 -33.2968 -33.2873 -33.2782 -33.2757 -33.2730 -33.2689
   -33.2611 -33.2463 -33.2423 -33.2385 -33.2109 -33.2030 -33.1888 -33.1865
   -33.1535 -33.1416 -33.1367 -33.1332 -33.1303 -33.1160 -33.0951 -33.0875
   -33.0795 -33.0668 -33.0458 -33.0234 -33.0175 -33.0163 -33.0014 -32.9981
   -32.9898 -32.9814 -32.9748 -32.9693 -32.9520 -32.9491 -32.9470 -32.9450
   -32.9445 -32.9414 -32.9180 -32.9126 -32.9113 -32.9104 -32.9035 -32.9030
    11.9003  11.9505  13.8090  13.8467  13.8775  13.9154  15.2102  15.2887
    15.7504  15.7529  15.7535  15.7583  15.9199  15.9811  15.9892  15.9975
    16.1715  16.1970  16.7262  16.7351  16.7378  16.8129  16.8611  16.8746
    16.9246  16.9361  16.9893  16.9986  17.0947  17.1463  17.1545  17.1881
    17.2071  17.2111  17.3655  17.4079  17.4249  17.4679  17.4714  17.5111
    17.5372  17.5477  17.5777  17.6802  17.6928  17.7435  18.4886  18.5018
    19.1818  19.2677  19.4649  19.4903  19.4973  19.5387  19.7033  19.7065
    19.7332  19.7860  19.8005  19.8324  19.8437  19.8532  20.0244  20.1033
    20.2056  20.2064  20.3140  20.3167  20.3463  20.3511  20.3599  20.3869
    20.3893  20.4066  20.4213  20.4448  20.6041  20.6066  20.6072  20.6088
    20.6100  20.6120  20.6130  20.6422  20.6478  20.6565  22.1795  22.2579
    23.2482  23.2859

          k = 0.2550-0.5026-0.5000 (  6186 PWs)   bands (ev):

   -67.0467 -67.0459 -67.0443 -67.0435 -67.0232 -67.0224 -67.0174 -67.0166
   -66.9935 -66.9927 -66.9877 -66.9869 -66.9751 -66.9743 -66.9727 -66.9719
   -33.2933 -33.2927 -33.2821 -33.2821 -33.2806 -33.2804 -33.2692 -33.2688
   -33.2537 -33.2533 -33.2289 -33.2285 -33.1900 -33.1896 -33.1660 -33.1658
   -33.1657 -33.1654 -33.1653 -33.1649 -33.1627 -33.1626 -33.1368 -33.1367
   -33.0343 -33.0342 -33.0254 -33.0251 -33.0140 -33.0138 -33.0094 -33.0094
   -32.9703 -32.9695 -32.9586 -32.9584 -32.9563 -32.9557 -32.9526 -32.9522
   -32.9385 -32.9381 -32.9289 -32.9284 -32.9039 -32.9039 -32.9019 -32.9018
    12.7149  12.7151  12.7588  12.7590  14.4878  14.4880  14.5945  14.5947
    16.1070  16.1070  16.1201  16.1201  16.1355  16.1355  16.1890  16.1890
    16.4882  16.4883  16.5168  16.5169  16.6594  16.6595  16.6880  16.6881
    16.9081  16.9082  16.9273  16.9273  16.9852  16.9855  17.0765  17.0769
    17.1373  17.1376  17.2399  17.2401  17.3114  17.3115  17.3303  17.3304
    17.4805  17.4807  17.5291  17.5296  17.7770  17.7771  17.8200  17.8201
    19.6414  19.6417  19.6747  19.6750  19.8083  19.8083  19.8443  19.8444
    19.8524  19.8526  19.8947  19.8950  19.9264  19.9266  19.9303  19.9306
    19.9797  19.9801  20.0649  20.0653  20.2524  20.2527  20.2997  20.3002
    20.3396  20.3396  20.3873  20.3877  20.3957  20.3958  20.4558  20.4562
    20.6502  20.6502  20.6548  20.6549  21.3179  21.3182  21.3789  21.3791
    24.2500  24.2502

          k = 0.2525-0.2525 0.0000 (  6206 PWs)   bands (ev):

   -67.0795 -67.0399 -67.0399 -67.0119 -67.0086 -67.0084 -67.0045 -67.0043
   -67.0040 -67.0038 -67.0004 -67.0000 -66.9992 -66.9806 -66.9806 -66.9493
   -33.3191 -33.3191 -33.3188 -33.3188 -33.3155 -33.3118 -33.2657 -33.2657
   -33.2502 -33.2502 -33.2396 -33.2396 -33.2187 -33.2124 -33.2006 -33.1223
   -33.1223 -33.1105 -33.1105 -33.0949 -33.0947 -33.0689 -33.0689 -33.0687
   -33.0687 -33.0678 -33.0544 -33.0543 -33.0466 -33.0464 -33.0389 -32.9952
   -32.9952 -32.9944 -32.9944 -32.9783 -32.9782 -32.9678 -32.9568 -32.9567
   -32.9547 -32.9142 -32.9141 -32.9141 -32.9137 -32.9137 -32.8834 -32.8817
    10.7353  12.9624  12.9625  14.3210  14.6560  14.6560  15.0316  15.0316
    15.0316  15.0316  15.2114  15.5468  15.5468  15.6574  15.6903  16.1977
    16.1978  16.5874  16.5875  16.7608  16.7608  16.8661  16.8661  16.8663
    16.8663  16.8666  16.8667  17.0362  17.1451  17.1913  17.1914  17.6782
    17.6838  17.6838  17.7597  17.7597  17.7986  17.7986  17.9308  17.9309
    17.9309  17.9309  18.0268  18.0759  18.1185  18.3759  18.4827  18.4827
    19.0400  19.0400  19.1511  19.1512  19.1513  19.1513  19.4105  19.4105
    19.6197  19.9089  19.9468  19.9468  19.9470  19.9471  19.9515  19.9670
    20.1238  20.1740  20.1741  20.1971  20.3622  20.3879  20.3880  20.3927
    20.3927  20.4922  20.4924  20.5445  20.5446  20.5448  20.5450  20.5878
    20.7023  20.7024  20.8317  21.0504  21.2480  21.2481  21.9191  21.9191
    21.9194  21.9194

          k = 0.2525-0.2525 0.2500 (  6203 PWs)   bands (ev):

   -67.0738 -67.0367 -67.0367 -67.0343 -67.0164 -67.0164 -67.0106 -67.0030
   -66.9996 -66.9983 -66.9937 -66.9937 -66.9843 -66.9819 -66.9819 -66.9533
   -33.3244 -33.3244 -33.3115 -33.2976 -33.2804 -33.2803 -33.2761 -33.2761
   -33.2758 -33.2725 -33.2437 -33.2043 -33.2008 -33.1754 -33.1701 -33.1544
   -33.1417 -33.1417 -33.1356 -33.1356 -33.1152 -33.1024 -33.1024 -33.0976
   -33.0409 -33.0370 -33.0363 -33.0363 -33.0243 -33.0243 -33.0233 -33.0148
   -33.0097 -33.0025 -33.0024 -32.9857 -32.9684 -32.9499 -32.9409 -32.9408
   -32.9372 -32.9371 -32.9329 -32.9070 -32.9021 -32.9021 -32.8966 -32.8959
    11.0463  13.2067  13.2067  13.2476  14.5192  14.5192  14.5852  15.4192
    15.4449  15.4449  15.6969  15.7013  15.7013  15.7953  15.8203  16.1185
    16.1745  16.6026  16.6109  16.6764  16.6885  16.6885  16.7680  16.8531
    16.8865  16.8865  16.9559  17.0007  17.0778  17.0778  17.4902  17.4903
    17.5060  17.5406  17.5605  17.5605  17.5810  17.5810  17.5901  17.6284
    17.6284  17.7032  17.8145  17.9452  18.0613  18.1160  18.1160  18.6829
    19.2565  19.2566  19.2691  19.2961  19.3668  19.3692  19.3692  19.7136
    19.7136  19.7512  19.7620  19.7784  19.7784  19.9648  20.0379  20.0379
    20.0497  20.0765  20.3585  20.3704  20.3847  20.3897  20.4177  20.4188
    20.4189  20.4198  20.4459  20.4459  20.5166  20.5462  20.6339  20.6620
    20.6620  20.6826  20.6826  20.7032  21.1270  21.1270  21.1700  22.7502
    22.7733  22.7733

          k = 0.2525-0.2525-0.5000 (  6202 PWs)   bands (ev):

   -67.0580 -67.0572 -67.0286 -67.0285 -67.0278 -67.0278 -67.0076 -67.0068
   -66.9990 -66.9982 -66.9866 -66.9866 -66.9858 -66.9858 -66.9657 -66.9649
   -33.3030 -33.3030 -33.3028 -33.3027 -33.2997 -33.2991 -33.2694 -33.2693
   -33.2501 -33.2494 -33.2130 -33.2130 -33.2129 -33.2128 -33.1657 -33.1650
   -33.1478 -33.1475 -33.1299 -33.1299 -33.1295 -33.1295 -33.0975 -33.0973
   -33.0868 -33.0867 -33.0434 -33.0429 -33.0160 -33.0160 -33.0153 -33.0153
   -32.9762 -32.9762 -32.9760 -32.9759 -32.9512 -32.9508 -32.9440 -32.9433
   -32.9355 -32.9347 -32.9120 -32.9120 -32.9120 -32.9120 -32.9096 -32.9096
    11.9361  11.9363  13.8317  13.8317  13.8319  13.8319  15.2973  15.2973
    15.7818  15.7818  15.7819  15.7819  15.9233  15.9235  16.0030  16.0031
    16.1684  16.1686  16.7656  16.7661  16.7723  16.7726  16.8691  16.8691
    16.8693  16.8693  17.0291  17.0292  17.1188  17.1191  17.1349  17.1349
    17.1350  17.1351  17.3860  17.3861  17.3864  17.3864  17.5816  17.5816
    17.5817  17.5817  17.5907  17.5907  17.7647  17.7653  18.5024  18.5026
    19.1994  19.1995  19.4671  19.4671  19.4672  19.4672  19.7633  19.7636
    19.7916  19.7916  19.7918  19.7918  19.8407  19.8414  20.0874  20.0878
    20.1443  20.1447  20.3106  20.3110  20.3763  20.3764  20.3764  20.3764
    20.3896  20.3900  20.4463  20.4463  20.6058  20.6058  20.6059  20.6059
    20.6120  20.6120  20.6122  20.6122  20.6164  20.6168  22.2738  22.2742
    23.3338  23.3338

          k =-0.4951-0.4951 0.0000 (  6196 PWs)   bands (ev):

   -67.0521 -67.0521 -67.0461 -67.0456 -67.0046 -67.0045 -67.0044 -67.0043
   -67.0042 -67.0041 -67.0040 -67.0034 -66.9748 -66.9742 -66.9683 -66.9683
   -33.3262 -33.3262 -33.2958 -33.2958 -33.2957 -33.2957 -33.2647 -33.2646
   -33.2641 -33.2641 -33.2612 -33.2607 -33.1486 -33.1485 -33.1443 -33.1439
   -33.1317 -33.1311 -33.1111 -33.1110 -33.1064 -33.1062 -33.1060 -33.1058
   -33.0806 -33.0802 -33.0677 -33.0675 -33.0671 -33.0669 -33.0519 -33.0518
   -32.9775 -32.9769 -32.9644 -32.9644 -32.9408 -32.9407 -32.9402 -32.9402
   -32.9380 -32.9380 -32.9380 -32.9380 -32.8961 -32.8961 -32.8817 -32.8811
    12.4072  12.4073  12.5006  12.5007  15.4293  15.4293  15.4295  15.4295
    15.4508  15.4508  15.4509  15.4509  15.8738  15.8738  15.9624  15.9627
    16.4240  16.4242  16.4926  16.4926  16.7420  16.7421  16.7422  16.7423
    16.7895  16.7896  16.7898  16.7899  17.2118  17.2119  17.2120  17.2121
    17.2240  17.2240  17.2243  17.2244  17.3126  17.3126  17.5134  17.5140
    17.7062  17.7062  17.8385  17.8388  18.3733  18.3738  18.3898  18.3898
    19.1765  19.1765  19.1841  19.1845  19.3838  19.3842  19.5249  19.5249
    19.7641  19.7645  19.8164  19.8164  19.8168  19.8169  19.9170  19.9170
    19.9334  19.9334  19.9334  19.9335  20.2566  20.2570  20.3369  20.3370
    20.4539  20.4540  20.4544  20.4545  20.4615  20.4616  20.4617  20.4618
    20.9491  20.9498  21.0122  21.0122  22.4634  22.4634  22.4637  22.4639
    22.5105  22.5106

          k =-0.4951-0.4951 0.2500 (  6182 PWs)   bands (ev):

   -67.0481 -67.0480 -67.0425 -67.0420 -67.0211 -67.0211 -67.0190 -67.0184
   -66.9916 -66.9911 -66.9890 -66.9890 -66.9766 -66.9761 -66.9706 -66.9705
   -33.3045 -33.3045 -33.2867 -33.2865 -33.2706 -33.2706 -33.2549 -33.2549
   -33.2508 -33.2502 -33.2314 -33.2314 -33.1866 -33.1866 -33.1813 -33.1810
   -33.1781 -33.1781 -33.1697 -33.1694 -33.1425 -33.1420 -33.1330 -33.1330
   -33.0388 -33.0387 -33.0209 -33.0209 -33.0201 -33.0201 -32.9991 -32.9986
   -32.9689 -32.9685 -32.9606 -32.9606 -32.9560 -32.9560 -32.9556 -32.9555
   -32.9343 -32.9342 -32.9328 -32.9328 -32.9106 -32.9106 -32.8956 -32.8951
    12.6917  12.6917  12.7820  12.7821  14.5121  14.5121  14.5708  14.5708
    16.0767  16.0767  16.1474  16.1475  16.1603  16.1603  16.1611  16.1614
    16.4594  16.4596  16.5468  16.5468  16.6267  16.6268  16.7284  16.7284
    16.9134  16.9134  16.9177  16.9180  17.0100  17.0102  17.0578  17.0578
    17.1753  17.1753  17.1971  17.1974  17.2416  17.2416  17.4074  17.4079
    17.4618  17.4618  17.5280  17.5282  17.7769  17.7771  17.8269  17.8269
    19.6584  19.6585  19.6587  19.6587  19.7849  19.7852  19.8237  19.8237
    19.8607  19.8611  19.8637  19.8637  19.9280  19.9281  19.9930  19.9930
    20.0062  20.0062  20.0497  20.0499  20.2480  20.2484  20.2938  20.2939
    20.3653  20.3653  20.3776  20.3778  20.4032  20.4035  20.4501  20.4501
    20.6440  20.6445  20.6761  20.6761  21.3297  21.3297  21.3548  21.3548
    24.3126  24.3133

          k =-0.4951-0.4951-0.5000 (  6128 PWs)   bands (ev):

   -67.0372 -67.0371 -67.0364 -67.0364 -67.0330 -67.0325 -67.0323 -67.0317
   -66.9826 -66.9821 -66.9819 -66.9813 -66.9779 -66.9779 -66.9772 -66.9771
   -33.2587 -33.2586 -33.2579 -33.2579 -33.2424 -33.2424 -33.2423 -33.2421
   -33.2201 -33.2200 -33.2198 -33.2198 -33.2189 -33.2188 -33.2186 -33.2185
   -33.2078 -33.2073 -33.2071 -33.2065 -33.1757 -33.1756 -33.1754 -33.1753
   -32.9903 -32.9902 -32.9901 -32.9900 -32.9813 -32.9813 -32.9810 -32.9809
   -32.9501 -32.9500 -32.9493 -32.9493 -32.9452 -32.9451 -32.9450 -32.9448
   -32.9444 -32.9443 -32.9442 -32.9441 -32.9353 -32.9348 -32.9346 -32.9340
    13.4752  13.4752  13.4753  13.4754  13.5569  13.5570  13.5571  13.5571
    16.5433  16.5434  16.5434  16.5434  16.5519  16.5519  16.5520  16.5521
    16.6374  16.6375  16.6376  16.6378  16.6481  16.6482  16.6482  16.6482
    16.9880  16.9881  16.9882  16.9883  17.0688  17.0689  17.0690  17.0690
    17.0938  17.0938  17.0943  17.0943  17.1404  17.1404  17.1406  17.1406
    17.1408  17.1409  17.1409  17.1411  17.1749  17.1753  17.1754  17.1758
    20.1137  20.1138  20.1142  20.1142  20.1233  20.1237  20.1237  20.1241
    20.1379  20.1380  20.1382  20.1384  20.1433  20.1433  20.1436  20.1437
    20.1768  20.1771  20.1772  20.1776  20.1807  20.1808  20.1810  20.1811
    20.1845  20.1847  20.1848  20.1851  20.2368  20.2368  20.2371  20.2372
    20.5390  20.5391  20.5392  20.5393  20.5607  20.5607  20.5609  20.5609
    26.6083  26.6462

     the Fermi energy is    18.5715 ev

!    total energy              =   -5267.28807236 Ry
     total all-electron energy =    -40728.032601 Ry
     estimated scf accuracy    <       0.00000088 Ry
     smearing contrib. (-TS)   =       0.00156250 Ry
     internal energy E=F+TS    =   -5267.28963486 Ry

     The total energy is F=E-TS. E is the sum of the following terms:
     one-electron contribution =   -1738.10177172 Ry
     hartree contribution      =    1032.98752978 Ry
     xc contribution           =    -443.99479252 Ry
     ewald contribution        =   -2793.75070930 Ry
     one-center paw contrib.   =   -1324.42989111 Ry

     total magnetization       =    33.75 Bohr mag/cell
     absolute magnetization    =    35.87 Bohr mag/cell

     convergence has been achieved in  27 iterations


     Computing stress (Cartesian axis) and pressure


     negative rho (up, down):  0.000E+00 3.046E-03
          total   stress  (Ry/bohr**3)                   (kbar)     P=     -899.70
  -0.00611745  -0.00017040   0.00000000         -899.91      -25.07        0.00
  -0.00017040  -0.00611745   0.00000000          -25.07     -899.91        0.00
   0.00000000   0.00000000  -0.00611316            0.00        0.00     -899.28


     Writing all to output data dir ./tmp/fe16cr00_shear_0.01.save/ :
     XML data file, charge density, pseudopotentials, collected wavefunctions

     init_run     :     71.34s CPU     73.93s WALL (       1 calls)
     electrons    :   5990.08s CPU   6108.25s WALL (       1 calls)
     stress       :    160.37s CPU    160.53s WALL (       1 calls)

     Called by init_run:
     wfcinit      :     66.40s CPU     67.96s WALL (       1 calls)
     potinit      :      3.42s CPU      4.16s WALL (       1 calls)
     hinit0       :      0.62s CPU      0.65s WALL (       1 calls)

     Called by electrons:
     c_bands      :   5420.98s CPU   5501.04s WALL (      27 calls)
     sum_band     :    459.26s CPU    476.08s WALL (      27 calls)
     v_of_rho     :      6.14s CPU      5.74s WALL (      28 calls)
     newd         :     22.20s CPU     30.00s WALL (      28 calls)
     PAW_pot      :     83.87s CPU     98.46s WALL (      28 calls)
     mix_rho      :      1.07s CPU      1.15s WALL (      27 calls)

     Called by c_bands:
     init_us_2    :     15.52s CPU     16.15s WALL (    2352 calls)
     cegterg      :   5371.46s CPU   5450.24s WALL (    1134 calls)

     Called by *egterg:
     cdiaghg      :    413.92s CPU    424.45s WALL (    3698 calls)
     h_psi        :   1783.36s CPU   1813.62s WALL (    3740 calls)
     s_psi        :    640.74s CPU    638.31s WALL (    3740 calls)
     g_psi        :      1.95s CPU      2.03s WALL (    2564 calls)

     Called by h_psi:
     h_psi:calbec :    676.40s CPU    675.64s WALL (    3740 calls)
     vloc_psi     :    449.08s CPU    477.99s WALL (    3740 calls)
                                        0.00s GPU  (    3740 calls)
     add_vuspsi   :    654.35s CPU    646.94s WALL (    3740 calls)

     General routines
     calbec       :   1139.63s CPU   1141.09s WALL (    5420 calls)
     fft          :      4.10s CPU      4.58s WALL (     719 calls)
     ffts         :      0.21s CPU      0.23s WALL (     110 calls)
     fftw         :    514.29s CPU    548.06s WALL (  934396 calls)
     interpolate  :      0.47s CPU      0.53s WALL (      56 calls)

     Parallel routines

     PWSCF        :      1h43m CPU      1h45m WALL


   This run was terminated on:   1:42:21  24Apr2026            

=------------------------------------------------------------------------------=
   JOB DONE.
=------------------------------------------------------------------------------=
Note: The following floating-point exceptions are signalling: IEEE_DENORMAL
Note: The following floating-point exceptions are signalling: IEEE_DENORMAL
