
     Program PWSCF v.7.5 starts on 19Apr2026 at 15:18:32 

     This program is part of the open-source Quantum ESPRESSO suite
     for quantum simulation of materials; please cite
         "P. Giannozzi et al., J. Phys.:Condens. Matter 21 395502 (2009);
         "P. Giannozzi et al., J. Phys.:Condens. Matter 29 465901 (2017);
         "P. Giannozzi et al., J. Chem. Phys. 152 154105 (2020);
          URL http://www.quantum-espresso.org", 
     in publications or presentations arising from this work. More details at
     http://www.quantum-espresso.org/quote

     Parallel version (MPI), running on     1 processors

     MPI processes distributed on     1 nodes
     1225 MiB available memory on the printing compute node when the environment starts

     Waiting for input...
     Reading input from standard input

     Current dimensions of program PWSCF are:
     Max number of different atomic species (ntypx) = 10
     Max number of k-points (npk) =  40000
     Max angular momentum in pseudopotentials (lmaxx) =  4
     file Fe.pbe-spn-kjpaw_psl.1.0.0.UPF: wavefunction(s)  3P 3D renormalized

     Subspace diagonalization in iterative solution of the eigenvalue problem:
     a serial algorithm will be used


     G-vector sticks info
     --------------------
     sticks:   dense  smooth     PW     G-vecs:    dense   smooth      PW
     Sum        1027     523    169                20929     7395    1409

     Using Slab Decomposition



     bravais-lattice index     =            3
     lattice parameter (alat)  =       5.3450  a.u.
     unit-cell volume          =      76.3507 (a.u.)^3
     number of atoms/cell      =            1
     number of atomic types    =            1
     number of electrons       =        16.00
     number of Kohn-Sham states=           12
     kinetic-energy cutoff     =      80.0000  Ry
     charge density cutoff     =     640.0000  Ry
     scf convergence threshold =      1.0E-10
     mixing beta               =       0.7000
     number of iterations used =            8  plain     mixing
     Exchange-correlation= SLA  PW   PBX  PBC
                           (   1   4   3   4   0   0   0)

     celldm(1)=   5.345000  celldm(2)=   0.000000  celldm(3)=   0.000000
     celldm(4)=   0.000000  celldm(5)=   0.000000  celldm(6)=   0.000000

     crystal axes: (cart. coord. in units of alat)
               a(1) = (   0.500000   0.500000   0.500000 )  
               a(2) = (  -0.500000   0.500000   0.500000 )  
               a(3) = (  -0.500000  -0.500000   0.500000 )  

     reciprocal axes: (cart. coord. in units 2 pi/alat)
               b(1) = (  1.000000  0.000000  1.000000 )  
               b(2) = ( -1.000000  1.000000  0.000000 )  
               b(3) = (  0.000000 -1.000000  1.000000 )  


     PseudoPot. # 1 for Fe read from file:
     ./pseudo/Fe.pbe-spn-kjpaw_psl.1.0.0.UPF
     MD5 check sum: fc81f059e5c5069939230b1155715ae8
     Pseudo is Projector augmented-wave + core cor, Zval = 16.0
     Generated using &quot;atomic&quot; code by A. Dal Corso  v.6.3
     Shape of augmentation charge: PSQ
     Using radial grid of 1191 points,  6 beta functions with: 
                l(1) =   0
                l(2) =   0
                l(3) =   1
                l(4) =   1
                l(5) =   2
                l(6) =   2
     Q(r) pseudized with 0 coefficients 


     atomic species   valence    mass     pseudopotential
     Fe               16.00    55.84500     Fe( 1.00)

     Starting magnetic structure 
     atomic species   magnetization
     Fe              0.500

     48 Sym. Ops., with inversion, found



   Cartesian axes

     site n.     atom                  positions (alat units)
         1        Fe     tau(   1) = (   0.0000000   0.0000000   0.0000000  )

     number of k points=   145  Marzari-Vanderbilt smearing, width (Ry)=  0.0200

     Number of k-points >= 100: set verbosity='high' to print them.

     Dense  grid:    20929 G-vectors     FFT dimensions: (  40,  40,  40)

     Smooth grid:     7395 G-vectors     FFT dimensions: (  27,  27,  27)

     Estimated max dynamical RAM per process >     137.95 MB

     Check: negative core charge=   -0.000002
     Generating pointlists ...
     new r_m :   0.3572 (alat units)  1.9094 (a.u.) for type    1

     Initial potential from superposition of free atoms

     starting charge      15.9996, renormalised to      16.0000
     Starting wfcs are   10 randomized atomic wfcs +    2 random wfcs
     Checking if some PAW data can be deallocated... 

     total cpu time spent up to now is        6.5 secs

     Self-consistent Calculation

     iteration #  1     ecut=    80.00 Ry     beta= 0.70
     Davidson diagonalization with overlap
     ethr =  1.00E-02,  avg # of iterations =  4.0

     negative rho (up, down):  0.000E+00 1.079E-04

     total cpu time spent up to now is       15.4 secs

     total energy              =    -329.14684486 Ry
     estimated scf accuracy    <       0.56842568 Ry

     total magnetization       =     3.45 Bohr mag/cell
     absolute magnetization    =     3.47 Bohr mag/cell

     iteration #  2     ecut=    80.00 Ry     beta= 0.70
     Davidson diagonalization with overlap
     ethr =  3.55E-03,  avg # of iterations =  1.0

     negative rho (up, down):  0.000E+00 1.171E-04

     total cpu time spent up to now is       23.8 secs

     total energy              =    -329.22378889 Ry
     estimated scf accuracy    <       0.13675496 Ry

     total magnetization       =     2.86 Bohr mag/cell
     absolute magnetization    =     2.98 Bohr mag/cell

     iteration #  3     ecut=    80.00 Ry     beta= 0.70
     Davidson diagonalization with overlap
     ethr =  8.55E-04,  avg # of iterations =  2.1

     negative rho (up, down):  0.000E+00 1.504E-04

     total cpu time spent up to now is       33.0 secs

     total energy              =    -329.23233993 Ry
     estimated scf accuracy    <       0.22651784 Ry

     total magnetization       =     2.39 Bohr mag/cell
     absolute magnetization    =     2.53 Bohr mag/cell

     iteration #  4     ecut=    80.00 Ry     beta= 0.70
     Davidson diagonalization with overlap
     ethr =  8.55E-04,  avg # of iterations =  2.0

     negative rho (up, down):  0.000E+00 8.881E-05

     total cpu time spent up to now is       41.8 secs

     total energy              =    -329.26611050 Ry
     estimated scf accuracy    <       0.00226713 Ry

     total magnetization       =     2.24 Bohr mag/cell
     absolute magnetization    =     2.39 Bohr mag/cell

     iteration #  5     ecut=    80.00 Ry     beta= 0.70
     Davidson diagonalization with overlap
     ethr =  1.42E-05,  avg # of iterations =  3.3

     negative rho (up, down):  0.000E+00 7.489E-05

     total cpu time spent up to now is       50.3 secs

     total energy              =    -329.26764958 Ry
     estimated scf accuracy    <       0.00106237 Ry

     total magnetization       =     2.16 Bohr mag/cell
     absolute magnetization    =     2.29 Bohr mag/cell

     iteration #  6     ecut=    80.00 Ry     beta= 0.70
     Davidson diagonalization with overlap
     ethr =  6.64E-06,  avg # of iterations =  2.1

     negative rho (up, down):  0.000E+00 6.928E-05

     total cpu time spent up to now is       59.7 secs

     total energy              =    -329.26799526 Ry
     estimated scf accuracy    <       0.00053795 Ry

     total magnetization       =     2.16 Bohr mag/cell
     absolute magnetization    =     2.27 Bohr mag/cell

     iteration #  7     ecut=    80.00 Ry     beta= 0.70
     Davidson diagonalization with overlap
     ethr =  3.36E-06,  avg # of iterations =  1.5

     negative rho (up, down):  0.000E+00 7.003E-05

     total cpu time spent up to now is       67.4 secs

     total energy              =    -329.26808160 Ry
     estimated scf accuracy    <       0.00000763 Ry

     total magnetization       =     2.15 Bohr mag/cell
     absolute magnetization    =     2.26 Bohr mag/cell

     iteration #  8     ecut=    80.00 Ry     beta= 0.70
     Davidson diagonalization with overlap
     ethr =  4.77E-08,  avg # of iterations =  2.4

     negative rho (up, down):  0.000E+00 7.001E-05

     total cpu time spent up to now is       74.5 secs

     total energy              =    -329.26808363 Ry
     estimated scf accuracy    <       0.00000066 Ry

     total magnetization       =     2.14 Bohr mag/cell
     absolute magnetization    =     2.26 Bohr mag/cell

     iteration #  9     ecut=    80.00 Ry     beta= 0.70
     Davidson diagonalization with overlap
     ethr =  4.12E-09,  avg # of iterations =  2.0

     negative rho (up, down):  0.000E+00 6.998E-05

     total cpu time spent up to now is       84.1 secs

     total energy              =    -329.26808385 Ry
     estimated scf accuracy    <       0.00000002 Ry

     total magnetization       =     2.14 Bohr mag/cell
     absolute magnetization    =     2.26 Bohr mag/cell

     iteration # 10     ecut=    80.00 Ry     beta= 0.70
     Davidson diagonalization with overlap
     ethr =  1.20E-10,  avg # of iterations =  2.5

     negative rho (up, down):  0.000E+00 6.994E-05

     total cpu time spent up to now is       96.5 secs

     total energy              =    -329.26808387 Ry
     estimated scf accuracy    <          2.5E-09 Ry

     total magnetization       =     2.14 Bohr mag/cell
     absolute magnetization    =     2.26 Bohr mag/cell

     iteration # 11     ecut=    80.00 Ry     beta= 0.70
     Davidson diagonalization with overlap
     ethr =  1.53E-11,  avg # of iterations =  1.7

     negative rho (up, down):  0.000E+00 6.995E-05

     total cpu time spent up to now is      106.2 secs

     total energy              =    -329.26808387 Ry
     estimated scf accuracy    <          3.2E-10 Ry

     total magnetization       =     2.14 Bohr mag/cell
     absolute magnetization    =     2.26 Bohr mag/cell

     iteration # 12     ecut=    80.00 Ry     beta= 0.70
     Davidson diagonalization with overlap
     ethr =  2.02E-12,  avg # of iterations =  2.0

     negative rho (up, down):  0.000E+00 6.995E-05

     Magnetic moment per site  (integrated on atomic sphere of radius R)
     atom   1 (R=0.357)  charge= 14.3872  magn=  2.1896

     total cpu time spent up to now is      119.1 secs

     End of self-consistent calculation

     Number of k-points >= 100: set verbosity='high' to print the bands.

     the Fermi energy is    18.4116 ev

!    total energy              =    -329.26808387 Ry
     total all-electron energy =     -2545.564617 Ry
     estimated scf accuracy    <          3.0E-11 Ry
     smearing contrib. (-TS)   =       0.00017692 Ry
     internal energy E=F+TS    =    -329.26826079 Ry

     The total energy is F=E-TS. E is the sum of the following terms:
     one-electron contribution =    -109.23666515 Ry
     hartree contribution      =      64.81931223 Ry
     xc contribution           =     -27.75655563 Ry
     ewald contribution        =    -174.30192013 Ry
     one-center paw contrib.   =     -82.79243211 Ry

     total magnetization       =     2.14 Bohr mag/cell
     absolute magnetization    =     2.26 Bohr mag/cell

     convergence has been achieved in  12 iterations


     Computing stress (Cartesian axis) and pressure


     negative rho (up, down):  0.000E+00 6.995E-05
          total   stress  (Ry/bohr**3)                   (kbar)     P=      -23.25
  -0.00015803  -0.00000000   0.00000000          -23.25       -0.00        0.00
  -0.00000000  -0.00015803  -0.00000000           -0.00      -23.25       -0.00
   0.00000000  -0.00000000  -0.00015803            0.00       -0.00      -23.25


     Writing all to output data dir ./tmp/fe_bcc.save/ :
     XML data file, charge density, pseudopotentials, collected wavefunctions

     init_run     :      4.37s CPU      6.26s WALL (       1 calls)
     electrons    :    107.52s CPU    112.64s WALL (       1 calls)
     stress       :      4.25s CPU      5.00s WALL (       1 calls)

     Called by init_run:
     wfcinit      :      2.84s CPU      3.19s WALL (       1 calls)
     potinit      :      0.57s CPU      1.90s WALL (       1 calls)
     hinit0       :      0.83s CPU      0.92s WALL (       1 calls)

     Called by electrons:
     c_bands      :     84.31s CPU     83.13s WALL (      12 calls)
     sum_band     :     15.45s CPU     18.38s WALL (      12 calls)
     v_of_rho     :      0.89s CPU      1.41s WALL (      13 calls)
     newd         :      0.96s CPU      2.01s WALL (      13 calls)
     PAW_pot      :      6.30s CPU      9.44s WALL (      13 calls)
     mix_rho      :      0.07s CPU      0.08s WALL (      12 calls)

     Called by c_bands:
     init_us_2    :      1.97s CPU      2.17s WALL (    7540 calls)
     cegterg      :     81.57s CPU     80.10s WALL (    3480 calls)

     Called by *egterg:
     cdiaghg      :      2.11s CPU      2.32s WALL (   11209 calls)
     h_psi        :     59.63s CPU     62.97s WALL (   11499 calls)
     s_psi        :      3.86s CPU      4.22s WALL (   11499 calls)
     g_psi        :      0.26s CPU      0.29s WALL (    7729 calls)

     Called by h_psi:
     h_psi:calbec :      3.76s CPU      4.10s WALL (   11499 calls)
     vloc_psi     :     51.63s CPU     54.26s WALL (   11499 calls)
                                        0.00s GPU  (   11499 calls)
     add_vuspsi   :      3.91s CPU      4.28s WALL (   11499 calls)

     General routines
     calbec       :      7.00s CPU      7.66s WALL (   18749 calls)
     fft          :      0.51s CPU      0.57s WALL (     344 calls)
     ffts         :      0.09s CPU      0.10s WALL (      50 calls)
     fftw         :     56.47s CPU     59.67s WALL (  252714 calls)
     interpolate  :      0.11s CPU      0.12s WALL (      26 calls)

     Parallel routines

     PWSCF        :   1m56.39s CPU   2m 6.21s WALL


   This run was terminated on:  15:20:38  19Apr2026            

=------------------------------------------------------------------------------=
   JOB DONE.
=------------------------------------------------------------------------------=
