
     Program PWSCF v.7.5 starts on 19Apr2026 at 11:13:18 

     This program is part of the open-source Quantum ESPRESSO suite
     for quantum simulation of materials; please cite
         "P. Giannozzi et al., J. Phys.:Condens. Matter 21 395502 (2009);
         "P. Giannozzi et al., J. Phys.:Condens. Matter 29 465901 (2017);
         "P. Giannozzi et al., J. Chem. Phys. 152 154105 (2020);
          URL http://www.quantum-espresso.org", 
     in publications or presentations arising from this work. More details at
     http://www.quantum-espresso.org/quote

     Parallel version (MPI), running on     1 processors

     MPI processes distributed on     1 nodes
     1256 MiB available memory on the printing compute node when the environment starts

     Waiting for input...
     Reading input from standard input

     Current dimensions of program PWSCF are:
     Max number of different atomic species (ntypx) = 10
     Max number of k-points (npk) =  40000
     Max angular momentum in pseudopotentials (lmaxx) =  4
     file Fe.pbe-spn-kjpaw_psl.1.0.0.UPF: wavefunction(s)  3P 3D renormalized

     Subspace diagonalization in iterative solution of the eigenvalue problem:
     a serial algorithm will be used


     G-vector sticks info
     --------------------
     sticks:   dense  smooth     PW     G-vecs:    dense   smooth      PW
     Sum        1027     523    165                20929     7395    1289

     Using Slab Decomposition



     bravais-lattice index     =            3
     lattice parameter (alat)  =       5.3400  a.u.
     unit-cell volume          =      76.1367 (a.u.)^3
     number of atoms/cell      =            1
     number of atomic types    =            1
     number of electrons       =        16.00
     number of Kohn-Sham states=           12
     kinetic-energy cutoff     =      80.0000  Ry
     charge density cutoff     =     640.0000  Ry
     scf convergence threshold =      1.0E-10
     mixing beta               =       0.7000
     number of iterations used =            8  plain     mixing
     Exchange-correlation= SLA  PW   PBX  PBC
                           (   1   4   3   4   0   0   0)

     celldm(1)=   5.340000  celldm(2)=   0.000000  celldm(3)=   0.000000
     celldm(4)=   0.000000  celldm(5)=   0.000000  celldm(6)=   0.000000

     crystal axes: (cart. coord. in units of alat)
               a(1) = (   0.500000   0.500000   0.500000 )  
               a(2) = (  -0.500000   0.500000   0.500000 )  
               a(3) = (  -0.500000  -0.500000   0.500000 )  

     reciprocal axes: (cart. coord. in units 2 pi/alat)
               b(1) = (  1.000000  0.000000  1.000000 )  
               b(2) = ( -1.000000  1.000000  0.000000 )  
               b(3) = (  0.000000 -1.000000  1.000000 )  


     PseudoPot. # 1 for Fe read from file:
     ./pseudo/Fe.pbe-spn-kjpaw_psl.1.0.0.UPF
     MD5 check sum: fc81f059e5c5069939230b1155715ae8
     Pseudo is Projector augmented-wave + core cor, Zval = 16.0
     Generated using &quot;atomic&quot; code by A. Dal Corso  v.6.3
     Shape of augmentation charge: PSQ
     Using radial grid of 1191 points,  6 beta functions with: 
                l(1) =   0
                l(2) =   0
                l(3) =   1
                l(4) =   1
                l(5) =   2
                l(6) =   2
     Q(r) pseudized with 0 coefficients 


     atomic species   valence    mass     pseudopotential
     Fe               16.00    55.84500     Fe( 1.00)

     Starting magnetic structure 
     atomic species   magnetization
     Fe              0.500

     48 Sym. Ops., with inversion, found



   Cartesian axes

     site n.     atom                  positions (alat units)
         1        Fe     tau(   1) = (   0.0000000   0.0000000   0.0000000  )

     number of k points=   145  Marzari-Vanderbilt smearing, width (Ry)=  0.0200

     Number of k-points >= 100: set verbosity='high' to print them.

     Dense  grid:    20929 G-vectors     FFT dimensions: (  40,  40,  40)

     Smooth grid:     7395 G-vectors     FFT dimensions: (  27,  27,  27)

     Estimated max dynamical RAM per process >     137.79 MB

     Check: negative core charge=   -0.000002
     Generating pointlists ...
     new r_m :   0.3572 (alat units)  1.9076 (a.u.) for type    1

     Initial potential from superposition of free atoms

     starting charge      15.9996, renormalised to      16.0000
     Starting wfcs are   10 randomized atomic wfcs +    2 random wfcs
     Checking if some PAW data can be deallocated... 

     total cpu time spent up to now is        4.0 secs

     Self-consistent Calculation

     iteration #  1     ecut=    80.00 Ry     beta= 0.70
     Davidson diagonalization with overlap
     ethr =  1.00E-02,  avg # of iterations =  4.0

     negative rho (up, down):  0.000E+00 1.075E-04

     total cpu time spent up to now is       13.3 secs

     total energy              =    -329.14681846 Ry
     estimated scf accuracy    <       0.56953222 Ry

     total magnetization       =     3.44 Bohr mag/cell
     absolute magnetization    =     3.46 Bohr mag/cell

     iteration #  2     ecut=    80.00 Ry     beta= 0.70
     Davidson diagonalization with overlap
     ethr =  3.56E-03,  avg # of iterations =  1.0

     negative rho (up, down):  0.000E+00 1.169E-04

     total cpu time spent up to now is       18.0 secs

     total energy              =    -329.22389070 Ry
     estimated scf accuracy    <       0.13635758 Ry

     total magnetization       =     2.85 Bohr mag/cell
     absolute magnetization    =     2.97 Bohr mag/cell

     iteration #  3     ecut=    80.00 Ry     beta= 0.70
     Davidson diagonalization with overlap
     ethr =  8.52E-04,  avg # of iterations =  2.1

     negative rho (up, down):  0.000E+00 1.497E-04

     total cpu time spent up to now is       26.9 secs

     total energy              =    -329.23247192 Ry
     estimated scf accuracy    <       0.22591327 Ry

     total magnetization       =     2.38 Bohr mag/cell
     absolute magnetization    =     2.52 Bohr mag/cell

     iteration #  4     ecut=    80.00 Ry     beta= 0.70
     Davidson diagonalization with overlap
     ethr =  8.52E-04,  avg # of iterations =  2.0

     negative rho (up, down):  0.000E+00 8.812E-05

     total cpu time spent up to now is       35.3 secs

     total energy              =    -329.26609569 Ry
     estimated scf accuracy    <       0.00227594 Ry

     total magnetization       =     2.23 Bohr mag/cell
     absolute magnetization    =     2.39 Bohr mag/cell

     iteration #  5     ecut=    80.00 Ry     beta= 0.70
     Davidson diagonalization with overlap
     ethr =  1.42E-05,  avg # of iterations =  3.3

     negative rho (up, down):  0.000E+00 7.428E-05

     total cpu time spent up to now is       45.7 secs

     total energy              =    -329.26763316 Ry
     estimated scf accuracy    <       0.00105971 Ry

     total magnetization       =     2.16 Bohr mag/cell
     absolute magnetization    =     2.28 Bohr mag/cell

     iteration #  6     ecut=    80.00 Ry     beta= 0.70
     Davidson diagonalization with overlap
     ethr =  6.62E-06,  avg # of iterations =  2.1

     negative rho (up, down):  0.000E+00 6.881E-05

     total cpu time spent up to now is       52.3 secs

     total energy              =    -329.26797742 Ry
     estimated scf accuracy    <       0.00052437 Ry

     total magnetization       =     2.15 Bohr mag/cell
     absolute magnetization    =     2.27 Bohr mag/cell

     iteration #  7     ecut=    80.00 Ry     beta= 0.70
     Davidson diagonalization with overlap
     ethr =  3.28E-06,  avg # of iterations =  1.5

     negative rho (up, down):  0.000E+00 6.946E-05

     total cpu time spent up to now is       59.3 secs

     total energy              =    -329.26806162 Ry
     estimated scf accuracy    <       0.00000748 Ry

     total magnetization       =     2.14 Bohr mag/cell
     absolute magnetization    =     2.25 Bohr mag/cell

     iteration #  8     ecut=    80.00 Ry     beta= 0.70
     Davidson diagonalization with overlap
     ethr =  4.68E-08,  avg # of iterations =  2.3

     negative rho (up, down):  0.000E+00 6.943E-05

     total cpu time spent up to now is       67.7 secs

     total energy              =    -329.26806366 Ry
     estimated scf accuracy    <       0.00000061 Ry

     total magnetization       =     2.14 Bohr mag/cell
     absolute magnetization    =     2.25 Bohr mag/cell

     iteration #  9     ecut=    80.00 Ry     beta= 0.70
     Davidson diagonalization with overlap
     ethr =  3.84E-09,  avg # of iterations =  2.0

     negative rho (up, down):  0.000E+00 6.940E-05

     total cpu time spent up to now is       75.6 secs

     total energy              =    -329.26806388 Ry
     estimated scf accuracy    <       0.00000002 Ry

     total magnetization       =     2.14 Bohr mag/cell
     absolute magnetization    =     2.25 Bohr mag/cell

     iteration # 10     ecut=    80.00 Ry     beta= 0.70
     Davidson diagonalization with overlap
     ethr =  9.90E-11,  avg # of iterations =  2.6

     negative rho (up, down):  0.000E+00 6.936E-05

     total cpu time spent up to now is       83.2 secs

     total energy              =    -329.26806389 Ry
     estimated scf accuracy    <          2.0E-09 Ry

     total magnetization       =     2.14 Bohr mag/cell
     absolute magnetization    =     2.25 Bohr mag/cell

     iteration # 11     ecut=    80.00 Ry     beta= 0.70
     Davidson diagonalization with overlap
     ethr =  1.26E-11,  avg # of iterations =  1.7

     negative rho (up, down):  0.000E+00 6.937E-05

     total cpu time spent up to now is       91.6 secs

     total energy              =    -329.26806389 Ry
     estimated scf accuracy    <          2.9E-10 Ry

     total magnetization       =     2.14 Bohr mag/cell
     absolute magnetization    =     2.25 Bohr mag/cell

     iteration # 12     ecut=    80.00 Ry     beta= 0.70
     Davidson diagonalization with overlap
     ethr =  1.79E-12,  avg # of iterations =  2.0

     negative rho (up, down):  0.000E+00 6.937E-05

     Magnetic moment per site  (integrated on atomic sphere of radius R)
     atom   1 (R=0.357)  charge= 14.3849  magn=  2.1849

     total cpu time spent up to now is      100.6 secs

     End of self-consistent calculation

     Number of k-points >= 100: set verbosity='high' to print the bands.

     the Fermi energy is    18.4775 ev

!    total energy              =    -329.26806389 Ry
     total all-electron energy =     -2545.564597 Ry
     estimated scf accuracy    <          2.9E-11 Ry
     smearing contrib. (-TS)   =       0.00015267 Ry
     internal energy E=F+TS    =    -329.26821656 Ry

     The total energy is F=E-TS. E is the sum of the following terms:
     one-electron contribution =    -108.97741258 Ry
     hartree contribution      =      64.72500372 Ry
     xc contribution           =     -27.75819640 Ry
     ewald contribution        =    -174.46512417 Ry
     one-center paw contrib.   =     -82.79248713 Ry

     total magnetization       =     2.14 Bohr mag/cell
     absolute magnetization    =     2.25 Bohr mag/cell

     convergence has been achieved in  12 iterations


     Computing stress (Cartesian axis) and pressure


     negative rho (up, down):  0.000E+00 6.937E-05
          total   stress  (Ry/bohr**3)                   (kbar)     P=      -17.63
  -0.00011982   0.00000000  -0.00000000          -17.63        0.00       -0.00
   0.00000000  -0.00011982   0.00000000            0.00      -17.63        0.00
  -0.00000000   0.00000000  -0.00011982           -0.00        0.00      -17.63


     Writing all to output data dir ./tmp/fe_bcc.save/ :
     XML data file, charge density, pseudopotentials, collected wavefunctions

     init_run     :      3.31s CPU      3.86s WALL (       1 calls)
     electrons    :     91.25s CPU     96.64s WALL (       1 calls)
     stress       :      3.14s CPU      3.59s WALL (       1 calls)

     Called by init_run:
     wfcinit      :      2.02s CPU      2.23s WALL (       1 calls)
     potinit      :      0.55s CPU      0.77s WALL (       1 calls)
     hinit0       :      0.64s CPU      0.69s WALL (       1 calls)

     Called by electrons:
     c_bands      :     72.46s CPU     74.65s WALL (      12 calls)
     sum_band     :     11.79s CPU     12.01s WALL (      12 calls)
     v_of_rho     :      0.91s CPU      1.08s WALL (      13 calls)
     newd         :      0.95s CPU      1.85s WALL (      13 calls)
     PAW_pot      :      5.50s CPU      7.64s WALL (      13 calls)
     mix_rho      :      0.07s CPU      0.08s WALL (      12 calls)

     Called by c_bands:
     init_us_2    :      1.70s CPU      1.85s WALL (    7540 calls)
     cegterg      :     69.96s CPU     71.92s WALL (    3480 calls)

     Called by *egterg:
     cdiaghg      :      1.93s CPU      2.10s WALL (   11226 calls)
     h_psi        :     49.34s CPU     49.62s WALL (   11516 calls)
     s_psi        :      3.51s CPU      3.82s WALL (   11516 calls)
     g_psi        :      0.24s CPU      0.27s WALL (    7746 calls)

     Called by h_psi:
     h_psi:calbec :      3.42s CPU      3.71s WALL (   11516 calls)
     vloc_psi     :     42.09s CPU     41.75s WALL (   11516 calls)
                                        0.00s GPU  (   11516 calls)
     add_vuspsi   :      3.56s CPU      3.87s WALL (   11516 calls)

     General routines
     calbec       :      6.02s CPU      6.54s WALL (   18766 calls)
     fft          :      0.51s CPU      0.55s WALL (     344 calls)
     ffts         :      0.09s CPU      0.09s WALL (      50 calls)
     fftw         :     44.87s CPU     42.80s WALL (  252840 calls)
     interpolate  :      0.11s CPU      0.12s WALL (      26 calls)

     Parallel routines

     PWSCF        :   1m37.88s CPU   1m45.01s WALL


   This run was terminated on:  11:15: 3  19Apr2026            

=------------------------------------------------------------------------------=
   JOB DONE.
=------------------------------------------------------------------------------=
