
     Program PWSCF v.7.5 starts on 19Apr2026 at 16:42: 1 

     This program is part of the open-source Quantum ESPRESSO suite
     for quantum simulation of materials; please cite
         "P. Giannozzi et al., J. Phys.:Condens. Matter 21 395502 (2009);
         "P. Giannozzi et al., J. Phys.:Condens. Matter 29 465901 (2017);
         "P. Giannozzi et al., J. Chem. Phys. 152 154105 (2020);
          URL http://www.quantum-espresso.org", 
     in publications or presentations arising from this work. More details at
     http://www.quantum-espresso.org/quote

     Parallel version (MPI), running on     1 processors

     MPI processes distributed on     1 nodes
     568 MiB available memory on the printing compute node when the environment starts

     Waiting for input...
     Reading input from standard input

     Current dimensions of program PWSCF are:
     Max number of different atomic species (ntypx) = 10
     Max number of k-points (npk) =  40000
     Max angular momentum in pseudopotentials (lmaxx) =  4
     file Fe.pbe-spn-kjpaw_psl.1.0.0.UPF: wavefunction(s)  3P 3D renormalized
     Found identity + ( -0.5000 -0.5000 -0.5000) symmetry
     This is a supercell, fractional translations are disabled
     Message from routine setup:
     using ibrav=0 with symmetry is DISCOURAGED, use correct ibrav instead

     Subspace diagonalization in iterative solution of the eigenvalue problem:
     a serial algorithm will be used


     G-vector sticks info
     --------------------
     sticks:   dense  smooth     PW     G-vecs:    dense   smooth      PW
     Sum        1449     725    221                42059    14899    2541

     Using Slab Decomposition



     bravais-lattice index     =            0
     lattice parameter (alat)  =       5.3286  a.u.
     unit-cell volume          =     153.5757 (a.u.)^3
     number of atoms/cell      =            2
     number of atomic types    =            1
     number of electrons       =        32.00
     number of Kohn-Sham states=           20
     kinetic-energy cutoff     =      80.0000  Ry
     charge density cutoff     =     640.0000  Ry
     scf convergence threshold =      1.0E-10
     mixing beta               =       0.7000
     number of iterations used =            8  plain     mixing
     Exchange-correlation= SLA  PW   PBX  PBC
                           (   1   4   3   4   0   0   0)

     celldm(1)=   5.328604  celldm(2)=   0.000000  celldm(3)=   0.000000
     celldm(4)=   0.000000  celldm(5)=   0.000000  celldm(6)=   0.000000

     crystal axes: (cart. coord. in units of alat)
               a(1) = (   1.000000   0.000000   0.000000 )  
               a(2) = (   0.000000   1.000000   0.000000 )  
               a(3) = (   0.000000   0.000000   1.015037 )  

     reciprocal axes: (cart. coord. in units 2 pi/alat)
               b(1) = (  1.000000  0.000000  0.000000 )  
               b(2) = (  0.000000  1.000000  0.000000 )  
               b(3) = (  0.000000  0.000000  0.985185 )  


     PseudoPot. # 1 for Fe read from file:
     ./pseudo/Fe.pbe-spn-kjpaw_psl.1.0.0.UPF
     MD5 check sum: fc81f059e5c5069939230b1155715ae8
     Pseudo is Projector augmented-wave + core cor, Zval = 16.0
     Generated using &quot;atomic&quot; code by A. Dal Corso  v.6.3
     Shape of augmentation charge: PSQ
     Using radial grid of 1191 points,  6 beta functions with: 
                l(1) =   0
                l(2) =   0
                l(3) =   1
                l(4) =   1
                l(5) =   2
                l(6) =   2
     Q(r) pseudized with 0 coefficients 


     atomic species   valence    mass     pseudopotential
     Fe               16.00    55.84500     Fe( 1.00)

     Starting magnetic structure 
     atomic species   magnetization
     Fe              0.500

     16 Sym. Ops., with inversion, found



   Cartesian axes

     site n.     atom                  positions (alat units)
         1        Fe     tau(   1) = (   0.0000000   0.0000000   0.0000000  )
         2        Fe     tau(   2) = (   0.5000000   0.5000000   0.5075187  )

     number of k points=   196  Marzari-Vanderbilt smearing, width (Ry)=  0.0200

     Number of k-points >= 100: set verbosity='high' to print them.

     Dense  grid:    42059 G-vectors     FFT dimensions: (  45,  45,  45)

     Smooth grid:    14899 G-vectors     FFT dimensions: (  32,  32,  32)

     Estimated max dynamical RAM per process >     395.45 MB

     Check: negative core charge=   -0.000002
     Generating pointlists ...
     new r_m :   0.3590 (alat units)  1.9132 (a.u.) for type    1

     Initial potential from superposition of free atoms

     starting charge      31.9991, renormalised to      32.0000
     Starting wfcs are   20 randomized atomic wfcs
     Checking if some PAW data can be deallocated... 

     total cpu time spent up to now is       11.8 secs

     Self-consistent Calculation

     iteration #  1     ecut=    80.00 Ry     beta= 0.70
     Davidson diagonalization with overlap
     ethr =  1.00E-02,  avg # of iterations =  3.5

     negative rho (up, down):  0.000E+00 1.444E-04

     total cpu time spent up to now is       45.9 secs

     total energy              =    -658.30947440 Ry
     estimated scf accuracy    <       1.14202342 Ry

     total magnetization       =     6.77 Bohr mag/cell
     absolute magnetization    =     6.84 Bohr mag/cell

     iteration #  2     ecut=    80.00 Ry     beta= 0.70
     Davidson diagonalization with overlap
     ethr =  3.57E-03,  avg # of iterations =  1.0

     negative rho (up, down):  0.000E+00 1.858E-04

     total cpu time spent up to now is       69.2 secs

     total energy              =    -658.48050652 Ry
     estimated scf accuracy    <       0.21348229 Ry

     total magnetization       =     5.73 Bohr mag/cell
     absolute magnetization    =     6.02 Bohr mag/cell

     iteration #  3     ecut=    80.00 Ry     beta= 0.70
     Davidson diagonalization with overlap
     ethr =  6.67E-04,  avg # of iterations =  2.9

     negative rho (up, down):  0.000E+00 2.089E-04

     total cpu time spent up to now is      101.7 secs

     total energy              =    -658.49586507 Ry
     estimated scf accuracy    <       0.22878373 Ry

     total magnetization       =     4.69 Bohr mag/cell
     absolute magnetization    =     5.01 Bohr mag/cell

     iteration #  4     ecut=    80.00 Ry     beta= 0.70
     Davidson diagonalization with overlap
     ethr =  6.67E-04,  avg # of iterations =  2.1

     negative rho (up, down):  0.000E+00 1.737E-04

     total cpu time spent up to now is      130.0 secs

     total energy              =    -658.53027865 Ry
     estimated scf accuracy    <       0.00588542 Ry

     total magnetization       =     4.57 Bohr mag/cell
     absolute magnetization    =     4.89 Bohr mag/cell

     iteration #  5     ecut=    80.00 Ry     beta= 0.70
     Davidson diagonalization with overlap
     ethr =  1.84E-05,  avg # of iterations =  4.1

     negative rho (up, down):  0.000E+00 1.326E-04

     total cpu time spent up to now is      169.5 secs

     total energy              =    -658.52783439 Ry
     estimated scf accuracy    <       0.17039514 Ry

     total magnetization       =     4.43 Bohr mag/cell
     absolute magnetization    =     4.72 Bohr mag/cell

     iteration #  6     ecut=    80.00 Ry     beta= 0.70
     Davidson diagonalization with overlap
     ethr =  1.84E-05,  avg # of iterations =  3.0

     negative rho (up, down):  0.000E+00 1.026E-04

     total cpu time spent up to now is      201.3 secs

     total energy              =    -658.53534405 Ry
     estimated scf accuracy    <       0.00264168 Ry

     total magnetization       =     4.35 Bohr mag/cell
     absolute magnetization    =     4.62 Bohr mag/cell

     iteration #  7     ecut=    80.00 Ry     beta= 0.70
     Davidson diagonalization with overlap
     ethr =  8.26E-06,  avg # of iterations =  2.8

     negative rho (up, down):  0.000E+00 9.955E-05

     total cpu time spent up to now is      232.7 secs

     total energy              =    -658.53619471 Ry
     estimated scf accuracy    <       0.00076745 Ry

     total magnetization       =     4.30 Bohr mag/cell
     absolute magnetization    =     4.54 Bohr mag/cell

     iteration #  8     ecut=    80.00 Ry     beta= 0.70
     Davidson diagonalization with overlap
     ethr =  2.40E-06,  avg # of iterations =  2.2

     negative rho (up, down):  0.000E+00 9.912E-05

     total cpu time spent up to now is      261.6 secs

     total energy              =    -658.53634366 Ry
     estimated scf accuracy    <       0.00000970 Ry

     total magnetization       =     4.30 Bohr mag/cell
     absolute magnetization    =     4.54 Bohr mag/cell

     iteration #  9     ecut=    80.00 Ry     beta= 0.70
     Davidson diagonalization with overlap
     ethr =  3.03E-08,  avg # of iterations =  2.8

     negative rho (up, down):  0.000E+00 9.941E-05

     total cpu time spent up to now is      295.7 secs

     total energy              =    -658.53634752 Ry
     estimated scf accuracy    <       0.00000058 Ry

     total magnetization       =     4.30 Bohr mag/cell
     absolute magnetization    =     4.53 Bohr mag/cell

     iteration # 10     ecut=    80.00 Ry     beta= 0.70
     Davidson diagonalization with overlap
     ethr =  1.83E-09,  avg # of iterations =  2.9

     negative rho (up, down):  0.000E+00 9.963E-05

     total cpu time spent up to now is      327.8 secs

     total energy              =    -658.53634772 Ry
     estimated scf accuracy    <       0.00000020 Ry

     total magnetization       =     4.30 Bohr mag/cell
     absolute magnetization    =     4.53 Bohr mag/cell

     iteration # 11     ecut=    80.00 Ry     beta= 0.70
     Davidson diagonalization with overlap
     ethr =  6.35E-10,  avg # of iterations =  2.0

     negative rho (up, down):  0.000E+00 9.962E-05

     total cpu time spent up to now is      355.6 secs

     total energy              =    -658.53634774 Ry
     estimated scf accuracy    <       0.00000005 Ry

     total magnetization       =     4.30 Bohr mag/cell
     absolute magnetization    =     4.53 Bohr mag/cell

     iteration # 12     ecut=    80.00 Ry     beta= 0.70
     Davidson diagonalization with overlap
     ethr =  1.48E-10,  avg # of iterations =  1.9

     negative rho (up, down):  0.000E+00 9.966E-05

     total cpu time spent up to now is      382.2 secs

     total energy              =    -658.53634775 Ry
     estimated scf accuracy    <          2.9E-09 Ry

     total magnetization       =     4.30 Bohr mag/cell
     absolute magnetization    =     4.53 Bohr mag/cell

     iteration # 13     ecut=    80.00 Ry     beta= 0.70
     Davidson diagonalization with overlap
     ethr =  8.94E-12,  avg # of iterations =  2.8

     negative rho (up, down):  0.000E+00 9.967E-05

     total cpu time spent up to now is      415.2 secs

     total energy              =    -658.53634775 Ry
     estimated scf accuracy    <          1.0E-09 Ry

     total magnetization       =     4.30 Bohr mag/cell
     absolute magnetization    =     4.53 Bohr mag/cell

     iteration # 14     ecut=    80.00 Ry     beta= 0.70
     Davidson diagonalization with overlap
     ethr =  3.19E-12,  avg # of iterations =  2.3

     negative rho (up, down):  0.000E+00 9.967E-05

     total cpu time spent up to now is      443.9 secs

     total energy              =    -658.53634775 Ry
     estimated scf accuracy    <          2.2E-10 Ry

     total magnetization       =     4.30 Bohr mag/cell
     absolute magnetization    =     4.53 Bohr mag/cell

     iteration # 15     ecut=    80.00 Ry     beta= 0.70
     Davidson diagonalization with overlap
     ethr =  6.81E-13,  avg # of iterations =  2.0

     negative rho (up, down):  0.000E+00 9.967E-05

     Magnetic moment per site  (integrated on atomic sphere of radius R)
     atom   1 (R=0.359)  charge= 14.3922  magn=  2.1977
     atom   2 (R=0.359)  charge= 14.3924  magn=  2.1977

     total cpu time spent up to now is      471.0 secs

     End of self-consistent calculation

     Number of k-points >= 100: set verbosity='high' to print the bands.

     the Fermi energy is    18.2714 ev

!    total energy              =    -658.53634775 Ry
     total all-electron energy =     -5091.129414 Ry
     estimated scf accuracy    <          9.5E-11 Ry
     smearing contrib. (-TS)   =       0.00103904 Ry
     internal energy E=F+TS    =    -658.53738679 Ry

     The total energy is F=E-TS. E is the sum of the following terms:
     one-electron contribution =    -219.53368452 Ry
     hartree contribution      =     130.02724263 Ry
     xc contribution           =     -55.50665232 Ry
     ewald contribution        =    -347.93978984 Ry
     one-center paw contrib.   =    -165.58450274 Ry

     total magnetization       =     4.30 Bohr mag/cell
     absolute magnetization    =     4.53 Bohr mag/cell

     convergence has been achieved in  15 iterations


     Computing stress (Cartesian axis) and pressure


     negative rho (up, down):  0.000E+00 9.967E-05
          total   stress  (Ry/bohr**3)                   (kbar)     P=      -36.20
  -0.00019838   0.00000000   0.00000000          -29.18        0.00        0.00
   0.00000000  -0.00019838   0.00000000            0.00      -29.18        0.00
   0.00000000   0.00000000  -0.00034153            0.00        0.00      -50.24


     Writing all to output data dir ./tmp/fe_tetra_0.01.save/ :
     XML data file, charge density, pseudopotentials, collected wavefunctions

     init_run     :     10.42s CPU     11.66s WALL (       1 calls)
     electrons    :    444.63s CPU    459.26s WALL (       1 calls)
     stress       :     17.67s CPU     17.60s WALL (       1 calls)

     Called by init_run:
     wfcinit      :      8.57s CPU      9.06s WALL (       1 calls)
     potinit      :      1.03s CPU      1.43s WALL (       1 calls)
     hinit0       :      0.57s CPU      0.67s WALL (       1 calls)

     Called by electrons:
     c_bands      :    384.70s CPU    390.05s WALL (      15 calls)
     sum_band     :     43.05s CPU     49.96s WALL (      15 calls)
     v_of_rho     :      1.64s CPU      1.94s WALL (      16 calls)
     newd         :      2.68s CPU      5.32s WALL (      16 calls)
     PAW_pot      :     13.32s CPU     13.21s WALL (      16 calls)
     mix_rho      :      0.17s CPU      0.19s WALL (      15 calls)

     Called by c_bands:
     init_us_2    :      7.30s CPU      5.69s WALL (   12544 calls)
     cegterg      :    370.68s CPU    381.62s WALL (    5880 calls)

     Called by *egterg:
     cdiaghg      :     10.39s CPU     11.29s WALL (   20880 calls)
     h_psi        :    179.08s CPU    190.45s WALL (   21272 calls)
     s_psi        :     37.61s CPU     38.42s WALL (   21272 calls)
     g_psi        :      1.31s CPU     -0.92s WALL (   15000 calls)

     Called by h_psi:
     h_psi:calbec :     36.15s CPU     39.36s WALL (   21272 calls)
     vloc_psi     :    103.96s CPU    111.05s WALL (   21272 calls)
                                        0.00s GPU  (   21272 calls)
     add_vuspsi   :     37.60s CPU     38.45s WALL (   21272 calls)

     General routines
     calbec       :     62.62s CPU     68.23s WALL (   32248 calls)
     fft          :      0.66s CPU      0.72s WALL (     419 calls)
     ffts         :      0.16s CPU      0.18s WALL (      62 calls)
     fftw         :    100.93s CPU    103.79s WALL (  702464 calls)
     interpolate  :      0.20s CPU      0.22s WALL (      32 calls)

     Parallel routines

     PWSCF        :   7m53.04s CPU   8m11.78s WALL


   This run was terminated on:  16:50:12  19Apr2026            

=------------------------------------------------------------------------------=
   JOB DONE.
=------------------------------------------------------------------------------=
