
     Program PWSCF v.7.5 starts on 19Apr2026 at 16: 8:39 

     This program is part of the open-source Quantum ESPRESSO suite
     for quantum simulation of materials; please cite
         "P. Giannozzi et al., J. Phys.:Condens. Matter 21 395502 (2009);
         "P. Giannozzi et al., J. Phys.:Condens. Matter 29 465901 (2017);
         "P. Giannozzi et al., J. Chem. Phys. 152 154105 (2020);
          URL http://www.quantum-espresso.org", 
     in publications or presentations arising from this work. More details at
     http://www.quantum-espresso.org/quote

     Parallel version (MPI), running on     1 processors

     MPI processes distributed on     1 nodes
     1025 MiB available memory on the printing compute node when the environment starts

     Waiting for input...
     Reading input from standard input

     Current dimensions of program PWSCF are:
     Max number of different atomic species (ntypx) = 10
     Max number of k-points (npk) =  40000
     Max angular momentum in pseudopotentials (lmaxx) =  4
     file Fe.pbe-spn-kjpaw_psl.1.0.0.UPF: wavefunction(s)  3P 3D renormalized
     Found identity + ( -0.5000 -0.5000 -0.5000) symmetry
     This is a supercell, fractional translations are disabled
     Message from routine setup:
     using ibrav=0 with symmetry is DISCOURAGED, use correct ibrav instead

     Subspace diagonalization in iterative solution of the eigenvalue problem:
     a serial algorithm will be used


     G-vector sticks info
     --------------------
     sticks:   dense  smooth     PW     G-vecs:    dense   smooth      PW
     Sum        1465     733    225                41923    14795    2553

     Using Slab Decomposition



     bravais-lattice index     =            0
     lattice parameter (alat)  =       5.3552  a.u.
     unit-cell volume          =     153.5757 (a.u.)^3
     number of atoms/cell      =            2
     number of atomic types    =            1
     number of electrons       =        32.00
     number of Kohn-Sham states=           20
     kinetic-energy cutoff     =      80.0000  Ry
     charge density cutoff     =     640.0000  Ry
     scf convergence threshold =      1.0E-10
     mixing beta               =       0.7000
     number of iterations used =            8  plain     mixing
     Exchange-correlation= SLA  PW   PBX  PBC
                           (   1   4   3   4   0   0   0)

     celldm(1)=   5.355181  celldm(2)=   0.000000  celldm(3)=   0.000000
     celldm(4)=   0.000000  celldm(5)=   0.000000  celldm(6)=   0.000000

     crystal axes: (cart. coord. in units of alat)
               a(1) = (   1.000000   0.000000   0.000000 )  
               a(2) = (   0.000000   1.000000   0.000000 )  
               a(3) = (   0.000000   0.000000   1.000000 )  

     reciprocal axes: (cart. coord. in units 2 pi/alat)
               b(1) = (  1.000000  0.000000  0.000000 )  
               b(2) = (  0.000000  1.000000  0.000000 )  
               b(3) = (  0.000000  0.000000  1.000000 )  


     PseudoPot. # 1 for Fe read from file:
     ./pseudo/Fe.pbe-spn-kjpaw_psl.1.0.0.UPF
     MD5 check sum: fc81f059e5c5069939230b1155715ae8
     Pseudo is Projector augmented-wave + core cor, Zval = 16.0
     Generated using &quot;atomic&quot; code by A. Dal Corso  v.6.3
     Shape of augmentation charge: PSQ
     Using radial grid of 1191 points,  6 beta functions with: 
                l(1) =   0
                l(2) =   0
                l(3) =   1
                l(4) =   1
                l(5) =   2
                l(6) =   2
     Q(r) pseudized with 0 coefficients 


     atomic species   valence    mass     pseudopotential
     Fe               16.00    55.84500     Fe( 1.00)

     Starting magnetic structure 
     atomic species   magnetization
     Fe              0.500

     48 Sym. Ops., with inversion, found



   Cartesian axes

     site n.     atom                  positions (alat units)
         1        Fe     tau(   1) = (   0.0000000   0.0000000   0.0000000  )
         2        Fe     tau(   2) = (   0.5000000   0.5000000   0.5000000  )

     number of k points=    84  Marzari-Vanderbilt smearing, width (Ry)=  0.0200
                       cart. coord. in units 2pi/alat
        k(    1) = (   0.0000000   0.0000000   0.0000000), wk =   0.0005787
        k(    2) = (   0.0000000   0.0000000   0.0833333), wk =   0.0034722
        k(    3) = (   0.0000000   0.0000000   0.1666667), wk =   0.0034722
        k(    4) = (   0.0000000   0.0000000   0.2500000), wk =   0.0034722
        k(    5) = (   0.0000000   0.0000000   0.3333333), wk =   0.0034722
        k(    6) = (   0.0000000   0.0000000   0.4166667), wk =   0.0034722
        k(    7) = (   0.0000000   0.0000000  -0.5000000), wk =   0.0017361
        k(    8) = (   0.0000000   0.0833333   0.0833333), wk =   0.0069444
        k(    9) = (   0.0000000   0.0833333   0.1666667), wk =   0.0138889
        k(   10) = (   0.0000000   0.0833333   0.2500000), wk =   0.0138889
        k(   11) = (   0.0000000   0.0833333   0.3333333), wk =   0.0138889
        k(   12) = (   0.0000000   0.0833333   0.4166667), wk =   0.0138889
        k(   13) = (   0.0000000   0.0833333  -0.5000000), wk =   0.0069444
        k(   14) = (   0.0000000   0.1666667   0.1666667), wk =   0.0069444
        k(   15) = (   0.0000000   0.1666667   0.2500000), wk =   0.0138889
        k(   16) = (   0.0000000   0.1666667   0.3333333), wk =   0.0138889
        k(   17) = (   0.0000000   0.1666667   0.4166667), wk =   0.0138889
        k(   18) = (   0.0000000   0.1666667  -0.5000000), wk =   0.0069444
        k(   19) = (   0.0000000   0.2500000   0.2500000), wk =   0.0069444
        k(   20) = (   0.0000000   0.2500000   0.3333333), wk =   0.0138889
        k(   21) = (   0.0000000   0.2500000   0.4166667), wk =   0.0138889
        k(   22) = (   0.0000000   0.2500000  -0.5000000), wk =   0.0069444
        k(   23) = (   0.0000000   0.3333333   0.3333333), wk =   0.0069444
        k(   24) = (   0.0000000   0.3333333   0.4166667), wk =   0.0138889
        k(   25) = (   0.0000000   0.3333333  -0.5000000), wk =   0.0069444
        k(   26) = (   0.0000000   0.4166667   0.4166667), wk =   0.0069444
        k(   27) = (   0.0000000   0.4166667  -0.5000000), wk =   0.0069444
        k(   28) = (   0.0000000  -0.5000000  -0.5000000), wk =   0.0017361
        k(   29) = (   0.0833333   0.0833333   0.0833333), wk =   0.0046296
        k(   30) = (   0.0833333   0.0833333   0.1666667), wk =   0.0138889
        k(   31) = (   0.0833333   0.0833333   0.2500000), wk =   0.0138889
        k(   32) = (   0.0833333   0.0833333   0.3333333), wk =   0.0138889
        k(   33) = (   0.0833333   0.0833333   0.4166667), wk =   0.0138889
        k(   34) = (   0.0833333   0.0833333  -0.5000000), wk =   0.0069444
        k(   35) = (   0.0833333   0.1666667   0.1666667), wk =   0.0138889
        k(   36) = (   0.0833333   0.1666667   0.2500000), wk =   0.0277778
        k(   37) = (   0.0833333   0.1666667   0.3333333), wk =   0.0277778
        k(   38) = (   0.0833333   0.1666667   0.4166667), wk =   0.0277778
        k(   39) = (   0.0833333   0.1666667  -0.5000000), wk =   0.0138889
        k(   40) = (   0.0833333   0.2500000   0.2500000), wk =   0.0138889
        k(   41) = (   0.0833333   0.2500000   0.3333333), wk =   0.0277778
        k(   42) = (   0.0833333   0.2500000   0.4166667), wk =   0.0277778
        k(   43) = (   0.0833333   0.2500000  -0.5000000), wk =   0.0138889
        k(   44) = (   0.0833333   0.3333333   0.3333333), wk =   0.0138889
        k(   45) = (   0.0833333   0.3333333   0.4166667), wk =   0.0277778
        k(   46) = (   0.0833333   0.3333333  -0.5000000), wk =   0.0138889
        k(   47) = (   0.0833333   0.4166667   0.4166667), wk =   0.0138889
        k(   48) = (   0.0833333   0.4166667  -0.5000000), wk =   0.0138889
        k(   49) = (   0.0833333  -0.5000000  -0.5000000), wk =   0.0034722
        k(   50) = (   0.1666667   0.1666667   0.1666667), wk =   0.0046296
        k(   51) = (   0.1666667   0.1666667   0.2500000), wk =   0.0138889
        k(   52) = (   0.1666667   0.1666667   0.3333333), wk =   0.0138889
        k(   53) = (   0.1666667   0.1666667   0.4166667), wk =   0.0138889
        k(   54) = (   0.1666667   0.1666667  -0.5000000), wk =   0.0069444
        k(   55) = (   0.1666667   0.2500000   0.2500000), wk =   0.0138889
        k(   56) = (   0.1666667   0.2500000   0.3333333), wk =   0.0277778
        k(   57) = (   0.1666667   0.2500000   0.4166667), wk =   0.0277778
        k(   58) = (   0.1666667   0.2500000  -0.5000000), wk =   0.0138889
        k(   59) = (   0.1666667   0.3333333   0.3333333), wk =   0.0138889
        k(   60) = (   0.1666667   0.3333333   0.4166667), wk =   0.0277778
        k(   61) = (   0.1666667   0.3333333  -0.5000000), wk =   0.0138889
        k(   62) = (   0.1666667   0.4166667   0.4166667), wk =   0.0138889
        k(   63) = (   0.1666667   0.4166667  -0.5000000), wk =   0.0138889
        k(   64) = (   0.1666667  -0.5000000  -0.5000000), wk =   0.0034722
        k(   65) = (   0.2500000   0.2500000   0.2500000), wk =   0.0046296
        k(   66) = (   0.2500000   0.2500000   0.3333333), wk =   0.0138889
        k(   67) = (   0.2500000   0.2500000   0.4166667), wk =   0.0138889
        k(   68) = (   0.2500000   0.2500000  -0.5000000), wk =   0.0069444
        k(   69) = (   0.2500000   0.3333333   0.3333333), wk =   0.0138889
        k(   70) = (   0.2500000   0.3333333   0.4166667), wk =   0.0277778
        k(   71) = (   0.2500000   0.3333333  -0.5000000), wk =   0.0138889
        k(   72) = (   0.2500000   0.4166667   0.4166667), wk =   0.0138889
        k(   73) = (   0.2500000   0.4166667  -0.5000000), wk =   0.0138889
        k(   74) = (   0.2500000  -0.5000000  -0.5000000), wk =   0.0034722
        k(   75) = (   0.3333333   0.3333333   0.3333333), wk =   0.0046296
        k(   76) = (   0.3333333   0.3333333   0.4166667), wk =   0.0138889
        k(   77) = (   0.3333333   0.3333333  -0.5000000), wk =   0.0069444
        k(   78) = (   0.3333333   0.4166667   0.4166667), wk =   0.0138889
        k(   79) = (   0.3333333   0.4166667  -0.5000000), wk =   0.0138889
        k(   80) = (   0.3333333  -0.5000000  -0.5000000), wk =   0.0034722
        k(   81) = (   0.4166667   0.4166667   0.4166667), wk =   0.0046296
        k(   82) = (   0.4166667   0.4166667  -0.5000000), wk =   0.0069444
        k(   83) = (   0.4166667  -0.5000000  -0.5000000), wk =   0.0034722
        k(   84) = (  -0.5000000  -0.5000000  -0.5000000), wk =   0.0005787

     Dense  grid:    41923 G-vectors     FFT dimensions: (  45,  45,  45)

     Smooth grid:    14795 G-vectors     FFT dimensions: (  32,  32,  32)

     Estimated max dynamical RAM per process >     268.06 MB

     Check: negative core charge=   -0.000002
     Generating pointlists ...
     new r_m :   0.3572 (alat units)  1.9131 (a.u.) for type    1

     Initial potential from superposition of free atoms

     starting charge      31.9991, renormalised to      32.0000
     Starting wfcs are   20 randomized atomic wfcs
     Checking if some PAW data can be deallocated... 

     total cpu time spent up to now is        4.8 secs

     Self-consistent Calculation

     iteration #  1     ecut=    80.00 Ry     beta= 0.70
     Davidson diagonalization with overlap
     ethr =  1.00E-02,  avg # of iterations =  3.4

     negative rho (up, down):  0.000E+00 1.445E-04

     total cpu time spent up to now is       22.0 secs

     total energy              =    -658.30938888 Ry
     estimated scf accuracy    <       1.14025190 Ry

     total magnetization       =     6.78 Bohr mag/cell
     absolute magnetization    =     6.85 Bohr mag/cell

     iteration #  2     ecut=    80.00 Ry     beta= 0.70
     Davidson diagonalization with overlap
     ethr =  3.56E-03,  avg # of iterations =  1.0

     negative rho (up, down):  0.000E+00 1.864E-04

     total cpu time spent up to now is       35.7 secs

     total energy              =    -658.48129158 Ry
     estimated scf accuracy    <       0.21264199 Ry

     total magnetization       =     5.73 Bohr mag/cell
     absolute magnetization    =     6.02 Bohr mag/cell

     iteration #  3     ecut=    80.00 Ry     beta= 0.70
     Davidson diagonalization with overlap
     ethr =  6.65E-04,  avg # of iterations =  2.9

     negative rho (up, down):  0.000E+00 2.099E-04

     total cpu time spent up to now is       51.1 secs

     total energy              =    -658.49682314 Ry
     estimated scf accuracy    <       0.22265780 Ry

     total magnetization       =     4.68 Bohr mag/cell
     absolute magnetization    =     5.01 Bohr mag/cell

     iteration #  4     ecut=    80.00 Ry     beta= 0.70
     Davidson diagonalization with overlap
     ethr =  6.65E-04,  avg # of iterations =  2.1

     negative rho (up, down):  0.000E+00 1.983E-04

     total cpu time spent up to now is       65.6 secs

     total energy              =    -658.52724742 Ry
     estimated scf accuracy    <       0.02517531 Ry

     total magnetization       =     4.56 Bohr mag/cell
     absolute magnetization    =     4.89 Bohr mag/cell

     iteration #  5     ecut=    80.00 Ry     beta= 0.70
     Davidson diagonalization with overlap
     ethr =  7.87E-05,  avg # of iterations =  2.7

     negative rho (up, down):  0.000E+00 1.281E-04

     total cpu time spent up to now is       77.9 secs

     total energy              =    -658.53209145 Ry
     estimated scf accuracy    <       0.03825211 Ry

     total magnetization       =     4.53 Bohr mag/cell
     absolute magnetization    =     4.85 Bohr mag/cell

     iteration #  6     ecut=    80.00 Ry     beta= 0.70
     Davidson diagonalization with overlap
     ethr =  7.87E-05,  avg # of iterations =  1.6

     negative rho (up, down):  0.000E+00 1.079E-04

     total cpu time spent up to now is       91.6 secs

     total energy              =    -658.53611358 Ry
     estimated scf accuracy    <       0.00072494 Ry

     total magnetization       =     4.33 Bohr mag/cell
     absolute magnetization    =     4.60 Bohr mag/cell

     iteration #  7     ecut=    80.00 Ry     beta= 0.70
     Davidson diagonalization with overlap
     ethr =  2.27E-06,  avg # of iterations =  2.8

     negative rho (up, down):  0.000E+00 9.907E-05

     total cpu time spent up to now is      106.1 secs

     total energy              =    -658.53640492 Ry
     estimated scf accuracy    <       0.00010869 Ry

     total magnetization       =     4.32 Bohr mag/cell
     absolute magnetization    =     4.57 Bohr mag/cell

     iteration #  8     ecut=    80.00 Ry     beta= 0.70
     Davidson diagonalization with overlap
     ethr =  3.40E-07,  avg # of iterations =  2.6

     negative rho (up, down):  0.000E+00 9.972E-05

     total cpu time spent up to now is      121.6 secs

     total energy              =    -658.53645132 Ry
     estimated scf accuracy    <       0.00001889 Ry

     total magnetization       =     4.30 Bohr mag/cell
     absolute magnetization    =     4.53 Bohr mag/cell

     iteration #  9     ecut=    80.00 Ry     beta= 0.70
     Davidson diagonalization with overlap
     ethr =  5.90E-08,  avg # of iterations =  2.7

     negative rho (up, down):  0.000E+00 9.949E-05

     total cpu time spent up to now is      134.2 secs

     total energy              =    -658.53645590 Ry
     estimated scf accuracy    <       0.00000064 Ry

     total magnetization       =     4.30 Bohr mag/cell
     absolute magnetization    =     4.53 Bohr mag/cell

     iteration # 10     ecut=    80.00 Ry     beta= 0.70
     Davidson diagonalization with overlap
     ethr =  2.00E-09,  avg # of iterations =  2.9

     negative rho (up, down):  0.000E+00 9.958E-05

     total cpu time spent up to now is      151.6 secs

     total energy              =    -658.53645632 Ry
     estimated scf accuracy    <       0.00000036 Ry

     total magnetization       =     4.30 Bohr mag/cell
     absolute magnetization    =     4.53 Bohr mag/cell

     iteration # 11     ecut=    80.00 Ry     beta= 0.70
     Davidson diagonalization with overlap
     ethr =  1.12E-09,  avg # of iterations =  1.9

     negative rho (up, down):  0.000E+00 9.961E-05

     total cpu time spent up to now is      163.3 secs

     total energy              =    -658.53645639 Ry
     estimated scf accuracy    <       0.00000006 Ry

     total magnetization       =     4.30 Bohr mag/cell
     absolute magnetization    =     4.53 Bohr mag/cell

     iteration # 12     ecut=    80.00 Ry     beta= 0.70
     Davidson diagonalization with overlap
     ethr =  1.95E-10,  avg # of iterations =  2.0

     negative rho (up, down):  0.000E+00 9.960E-05

     total cpu time spent up to now is      177.2 secs

     total energy              =    -658.53645639 Ry
     estimated scf accuracy    <          1.7E-09 Ry

     total magnetization       =     4.30 Bohr mag/cell
     absolute magnetization    =     4.53 Bohr mag/cell

     iteration # 13     ecut=    80.00 Ry     beta= 0.70
     Davidson diagonalization with overlap
     ethr =  5.42E-12,  avg # of iterations =  3.7

     negative rho (up, down):  0.000E+00 9.962E-05

     total cpu time spent up to now is      191.1 secs

     total energy              =    -658.53645639 Ry
     estimated scf accuracy    <          8.3E-10 Ry

     total magnetization       =     4.30 Bohr mag/cell
     absolute magnetization    =     4.53 Bohr mag/cell

     iteration # 14     ecut=    80.00 Ry     beta= 0.70
     Davidson diagonalization with overlap
     ethr =  2.60E-12,  avg # of iterations =  2.4

     negative rho (up, down):  0.000E+00 9.963E-05

     total cpu time spent up to now is      206.4 secs

     total energy              =    -658.53645640 Ry
     estimated scf accuracy    <          1.0E-09 Ry

     total magnetization       =     4.30 Bohr mag/cell
     absolute magnetization    =     4.53 Bohr mag/cell

     iteration # 15     ecut=    80.00 Ry     beta= 0.70
     Davidson diagonalization with overlap
     ethr =  2.60E-12,  avg # of iterations =  1.5

     negative rho (up, down):  0.000E+00 9.963E-05

     Magnetic moment per site  (integrated on atomic sphere of radius R)
     atom   1 (R=0.357)  charge= 14.3919  magn=  2.1973
     atom   2 (R=0.357)  charge= 14.3921  magn=  2.1973

     total cpu time spent up to now is      217.6 secs

     End of self-consistent calculation

     Number of k-points >= 100: set verbosity='high' to print the bands.

     the Fermi energy is    18.2711 ev

!    total energy              =    -658.53645640 Ry
     total all-electron energy =     -5091.129523 Ry
     estimated scf accuracy    <          1.9E-11 Ry
     smearing contrib. (-TS)   =       0.00104443 Ry
     internal energy E=F+TS    =    -658.53750083 Ry

     The total energy is F=E-TS. E is the sum of the following terms:
     one-electron contribution =    -219.53127046 Ry
     hartree contribution      =     130.02589135 Ry
     xc contribution           =     -55.50656202 Ry
     ewald contribution        =    -347.94106096 Ry
     one-center paw contrib.   =    -165.58449873 Ry

     total magnetization       =     4.30 Bohr mag/cell
     absolute magnetization    =     4.53 Bohr mag/cell

     convergence has been achieved in  15 iterations


     Computing stress (Cartesian axis) and pressure


     negative rho (up, down):  0.000E+00 9.963E-05
          total   stress  (Ry/bohr**3)                   (kbar)     P=      -36.38
  -0.00024732   0.00000000   0.00000000          -36.38        0.00        0.00
   0.00000000  -0.00024732   0.00000000            0.00      -36.38        0.00
   0.00000000   0.00000000  -0.00024732            0.00        0.00      -36.38


     Writing all to output data dir ./tmp/fe_hydro_0.00.save/ :
     XML data file, charge density, pseudopotentials, collected wavefunctions

     init_run     :      5.87s CPU      4.63s WALL (       1 calls)
     electrons    :    203.08s CPU    212.90s WALL (       1 calls)
     stress       :      8.27s CPU      9.45s WALL (       1 calls)

     Called by init_run:
     wfcinit      :      3.78s CPU      1.90s WALL (       1 calls)
     potinit      :      1.24s CPU      1.64s WALL (       1 calls)
     hinit0       :      0.60s CPU      0.66s WALL (       1 calls)

     Called by electrons:
     c_bands      :    164.94s CPU    162.96s WALL (      15 calls)
     sum_band     :     21.10s CPU     26.28s WALL (      15 calls)
     v_of_rho     :      1.64s CPU      1.90s WALL (      16 calls)
     newd         :      2.77s CPU      5.36s WALL (      16 calls)
     PAW_pot      :     13.58s CPU     17.86s WALL (      16 calls)
     mix_rho      :      0.17s CPU      0.18s WALL (      15 calls)

     Called by c_bands:
     init_us_2    :      3.19s CPU      3.47s WALL (    5376 calls)
     cegterg      :    158.75s CPU    158.49s WALL (    2520 calls)

     Called by *egterg:
     cdiaghg      :      4.27s CPU      4.63s WALL (    8598 calls)
     h_psi        :     78.55s CPU     74.21s WALL (    8766 calls)
     s_psi        :     16.19s CPU     17.54s WALL (    8766 calls)
     g_psi        :      0.54s CPU      0.59s WALL (    6078 calls)

     Called by h_psi:
     h_psi:calbec :     15.42s CPU     16.79s WALL (    8766 calls)
     vloc_psi     :     46.44s CPU     43.96s WALL (    8766 calls)
                                        0.00s GPU  (    8766 calls)
     add_vuspsi   :     16.17s CPU     12.91s WALL (    8766 calls)

     General routines
     calbec       :     26.67s CPU     29.00s WALL (   13470 calls)
     fft          :      0.67s CPU      0.75s WALL (     419 calls)
     ffts         :      0.16s CPU      0.17s WALL (      62 calls)
     fftw         :     45.21s CPU     42.61s WALL (  294846 calls)
     interpolate  :      0.21s CPU      0.22s WALL (      32 calls)

     Parallel routines

     PWSCF        :   3m37.39s CPU   3m47.50s WALL


   This run was terminated on:  16:12:26  19Apr2026            

=------------------------------------------------------------------------------=
   JOB DONE.
=------------------------------------------------------------------------------=
