
     Program PWSCF v.7.5 starts on 19Apr2026 at 16:50:13 

     This program is part of the open-source Quantum ESPRESSO suite
     for quantum simulation of materials; please cite
         "P. Giannozzi et al., J. Phys.:Condens. Matter 21 395502 (2009);
         "P. Giannozzi et al., J. Phys.:Condens. Matter 29 465901 (2017);
         "P. Giannozzi et al., J. Chem. Phys. 152 154105 (2020);
          URL http://www.quantum-espresso.org", 
     in publications or presentations arising from this work. More details at
     http://www.quantum-espresso.org/quote

     Parallel version (MPI), running on     1 processors

     MPI processes distributed on     1 nodes
     665 MiB available memory on the printing compute node when the environment starts

     Waiting for input...
     Reading input from standard input

     Current dimensions of program PWSCF are:
     Max number of different atomic species (ntypx) = 10
     Max number of k-points (npk) =  40000
     Max angular momentum in pseudopotentials (lmaxx) =  4
     file Fe.pbe-spn-kjpaw_psl.1.0.0.UPF: wavefunction(s)  3P 3D renormalized
     Found identity + ( -0.5000 -0.5000 -0.5000) symmetry
     This is a supercell, fractional translations are disabled
     Message from routine setup:
     using ibrav=0 with symmetry is DISCOURAGED, use correct ibrav instead

     Subspace diagonalization in iterative solution of the eigenvalue problem:
     a serial algorithm will be used


     G-vector sticks info
     --------------------
     sticks:   dense  smooth     PW     G-vecs:    dense   smooth      PW
     Sum        1433     717    221                41979    14835    2557

     Using Slab Decomposition



     bravais-lattice index     =            0
     lattice parameter (alat)  =       5.3024  a.u.
     unit-cell volume          =     153.5758 (a.u.)^3
     number of atoms/cell      =            2
     number of atomic types    =            1
     number of electrons       =        32.00
     number of Kohn-Sham states=           20
     kinetic-energy cutoff     =      80.0000  Ry
     charge density cutoff     =     640.0000  Ry
     scf convergence threshold =      1.0E-10
     mixing beta               =       0.7000
     number of iterations used =            8  plain     mixing
     Exchange-correlation= SLA  PW   PBX  PBC
                           (   1   4   3   4   0   0   0)

     celldm(1)=   5.302420  celldm(2)=   0.000000  celldm(3)=   0.000000
     celldm(4)=   0.000000  celldm(5)=   0.000000  celldm(6)=   0.000000

     crystal axes: (cart. coord. in units of alat)
               a(1) = (   1.000000   0.000000   0.000000 )  
               a(2) = (   0.000000   1.000000   0.000000 )  
               a(3) = (   0.000000   0.000000   1.030149 )  

     reciprocal axes: (cart. coord. in units 2 pi/alat)
               b(1) = (  1.000000  0.000000  0.000000 )  
               b(2) = (  0.000000  1.000000  0.000000 )  
               b(3) = (  0.000000  0.000000  0.970733 )  


     PseudoPot. # 1 for Fe read from file:
     ./pseudo/Fe.pbe-spn-kjpaw_psl.1.0.0.UPF
     MD5 check sum: fc81f059e5c5069939230b1155715ae8
     Pseudo is Projector augmented-wave + core cor, Zval = 16.0
     Generated using &quot;atomic&quot; code by A. Dal Corso  v.6.3
     Shape of augmentation charge: PSQ
     Using radial grid of 1191 points,  6 beta functions with: 
                l(1) =   0
                l(2) =   0
                l(3) =   1
                l(4) =   1
                l(5) =   2
                l(6) =   2
     Q(r) pseudized with 0 coefficients 


     atomic species   valence    mass     pseudopotential
     Fe               16.00    55.84500     Fe( 1.00)

     Starting magnetic structure 
     atomic species   magnetization
     Fe              0.500

     16 Sym. Ops., with inversion, found



   Cartesian axes

     site n.     atom                  positions (alat units)
         1        Fe     tau(   1) = (   0.0000000   0.0000000   0.0000000  )
         2        Fe     tau(   2) = (   0.5000000   0.5000000   0.5150747  )

     number of k points=   196  Marzari-Vanderbilt smearing, width (Ry)=  0.0200

     Number of k-points >= 100: set verbosity='high' to print them.

     Dense  grid:    41979 G-vectors     FFT dimensions: (  45,  45,  45)

     Smooth grid:    14835 G-vectors     FFT dimensions: (  32,  32,  32)

     Estimated max dynamical RAM per process >     395.15 MB

     Check: negative core charge=   -0.000002
     Generating pointlists ...
     new r_m :   0.3609 (alat units)  1.9134 (a.u.) for type    1

     Initial potential from superposition of free atoms

     starting charge      31.9991, renormalised to      32.0000
     Starting wfcs are   20 randomized atomic wfcs
     Checking if some PAW data can be deallocated... 

     total cpu time spent up to now is       13.4 secs

     Self-consistent Calculation

     iteration #  1     ecut=    80.00 Ry     beta= 0.70
     Davidson diagonalization with overlap
     ethr =  1.00E-02,  avg # of iterations =  3.7

     negative rho (up, down):  0.000E+00 1.461E-04

     total cpu time spent up to now is       50.8 secs

     total energy              =    -658.30554381 Ry
     estimated scf accuracy    <       1.13753259 Ry

     total magnetization       =     6.81 Bohr mag/cell
     absolute magnetization    =     6.87 Bohr mag/cell

     iteration #  2     ecut=    80.00 Ry     beta= 0.70
     Davidson diagonalization with overlap
     ethr =  3.55E-03,  avg # of iterations =  1.0

     negative rho (up, down):  0.000E+00 1.839E-04

     total cpu time spent up to now is       74.1 secs

     total energy              =    -658.47794139 Ry
     estimated scf accuracy    <       0.21789994 Ry

     total magnetization       =     5.74 Bohr mag/cell
     absolute magnetization    =     6.02 Bohr mag/cell

     iteration #  3     ecut=    80.00 Ry     beta= 0.70
     Davidson diagonalization with overlap
     ethr =  6.81E-04,  avg # of iterations =  2.8

     negative rho (up, down):  0.000E+00 2.071E-04

     total cpu time spent up to now is      107.0 secs

     total energy              =    -658.49274050 Ry
     estimated scf accuracy    <       0.24692681 Ry

     total magnetization       =     4.70 Bohr mag/cell
     absolute magnetization    =     5.02 Bohr mag/cell

     iteration #  4     ecut=    80.00 Ry     beta= 0.70
     Davidson diagonalization with overlap
     ethr =  6.81E-04,  avg # of iterations =  2.1

     negative rho (up, down):  0.000E+00 2.001E-04

     total cpu time spent up to now is      136.0 secs

     total energy              =    -658.52776543 Ry
     estimated scf accuracy    <       0.01454701 Ry

     total magnetization       =     4.57 Bohr mag/cell
     absolute magnetization    =     4.89 Bohr mag/cell

     iteration #  5     ecut=    80.00 Ry     beta= 0.70
     Davidson diagonalization with overlap
     ethr =  4.55E-05,  avg # of iterations =  3.0

     negative rho (up, down):  0.000E+00 1.289E-04

     total cpu time spent up to now is      168.0 secs

     total energy              =    -658.53059481 Ry
     estimated scf accuracy    <       0.07748785 Ry

     total magnetization       =     4.51 Bohr mag/cell
     absolute magnetization    =     4.82 Bohr mag/cell

     iteration #  6     ecut=    80.00 Ry     beta= 0.70
     Davidson diagonalization with overlap
     ethr =  4.55E-05,  avg # of iterations =  1.9

     negative rho (up, down):  0.000E+00 1.091E-04

     total cpu time spent up to now is      194.5 secs

     total energy              =    -658.53547645 Ry
     estimated scf accuracy    <       0.00148595 Ry

     total magnetization       =     4.34 Bohr mag/cell
     absolute magnetization    =     4.61 Bohr mag/cell

     iteration #  7     ecut=    80.00 Ry     beta= 0.70
     Davidson diagonalization with overlap
     ethr =  4.64E-06,  avg # of iterations =  2.6

     negative rho (up, down):  0.000E+00 9.915E-05

     total cpu time spent up to now is      228.3 secs

     total energy              =    -658.53596851 Ry
     estimated scf accuracy    <       0.00025929 Ry

     total magnetization       =     4.32 Bohr mag/cell
     absolute magnetization    =     4.57 Bohr mag/cell

     iteration #  8     ecut=    80.00 Ry     beta= 0.70
     Davidson diagonalization with overlap
     ethr =  8.10E-07,  avg # of iterations =  1.9

     negative rho (up, down):  0.000E+00 1.005E-04

     total cpu time spent up to now is      254.9 secs

     total energy              =    -658.53602743 Ry
     estimated scf accuracy    <       0.00002941 Ry

     total magnetization       =     4.30 Bohr mag/cell
     absolute magnetization    =     4.53 Bohr mag/cell

     iteration #  9     ecut=    80.00 Ry     beta= 0.70
     Davidson diagonalization with overlap
     ethr =  9.19E-08,  avg # of iterations =  2.6

     negative rho (up, down):  0.000E+00 1.001E-04

     total cpu time spent up to now is      285.2 secs

     total energy              =    -658.53603405 Ry
     estimated scf accuracy    <       0.00000130 Ry

     total magnetization       =     4.31 Bohr mag/cell
     absolute magnetization    =     4.54 Bohr mag/cell

     iteration # 10     ecut=    80.00 Ry     beta= 0.70
     Davidson diagonalization with overlap
     ethr =  4.07E-09,  avg # of iterations =  2.7

     negative rho (up, down):  0.000E+00 1.002E-04

     total cpu time spent up to now is      317.4 secs

     total energy              =    -658.53603462 Ry
     estimated scf accuracy    <       0.00000065 Ry

     total magnetization       =     4.30 Bohr mag/cell
     absolute magnetization    =     4.53 Bohr mag/cell

     iteration # 11     ecut=    80.00 Ry     beta= 0.70
     Davidson diagonalization with overlap
     ethr =  2.02E-09,  avg # of iterations =  2.3

     negative rho (up, down):  0.000E+00 9.991E-05

     total cpu time spent up to now is      344.9 secs

     total energy              =    -658.53603474 Ry
     estimated scf accuracy    <       0.00000015 Ry

     total magnetization       =     4.30 Bohr mag/cell
     absolute magnetization    =     4.53 Bohr mag/cell

     iteration # 12     ecut=    80.00 Ry     beta= 0.70
     Davidson diagonalization with overlap
     ethr =  4.53E-10,  avg # of iterations =  1.7

     negative rho (up, down):  0.000E+00 9.988E-05

     total cpu time spent up to now is      371.7 secs

     total energy              =    -658.53603477 Ry
     estimated scf accuracy    <          4.7E-09 Ry

     total magnetization       =     4.30 Bohr mag/cell
     absolute magnetization    =     4.53 Bohr mag/cell

     iteration # 13     ecut=    80.00 Ry     beta= 0.70
     Davidson diagonalization with overlap
     ethr =  1.47E-11,  avg # of iterations =  3.0

     negative rho (up, down):  0.000E+00 9.984E-05

     total cpu time spent up to now is      402.4 secs

     total energy              =    -658.53603477 Ry
     estimated scf accuracy    <          4.1E-09 Ry

     total magnetization       =     4.30 Bohr mag/cell
     absolute magnetization    =     4.53 Bohr mag/cell

     iteration # 14     ecut=    80.00 Ry     beta= 0.70
     Davidson diagonalization with overlap
     ethr =  1.27E-11,  avg # of iterations =  2.2

     negative rho (up, down):  0.000E+00 9.986E-05

     total cpu time spent up to now is      432.7 secs

     total energy              =    -658.53603477 Ry
     estimated scf accuracy    <          1.5E-09 Ry

     total magnetization       =     4.30 Bohr mag/cell
     absolute magnetization    =     4.53 Bohr mag/cell

     iteration # 15     ecut=    80.00 Ry     beta= 0.70
     Davidson diagonalization with overlap
     ethr =  4.59E-12,  avg # of iterations =  1.2

     negative rho (up, down):  0.000E+00 9.986E-05

     Magnetic moment per site  (integrated on atomic sphere of radius R)
     atom   1 (R=0.361)  charge= 14.3933  magn=  2.1992
     atom   2 (R=0.361)  charge= 14.3933  magn=  2.1992

     total cpu time spent up to now is      457.7 secs

     End of self-consistent calculation

     Number of k-points >= 100: set verbosity='high' to print the bands.

     the Fermi energy is    18.2720 ev

!    total energy              =    -658.53603477 Ry
     total all-electron energy =     -5091.129101 Ry
     estimated scf accuracy    <          3.0E-11 Ry
     smearing contrib. (-TS)   =       0.00102781 Ry
     internal energy E=F+TS    =    -658.53706258 Ry

     The total energy is F=E-TS. E is the sum of the following terms:
     one-electron contribution =    -219.54046797 Ry
     hartree contribution      =     130.03122083 Ry
     xc contribution           =     -55.50701747 Ry
     ewald contribution        =    -347.93628108 Ry
     one-center paw contrib.   =    -165.58451690 Ry

     total magnetization       =     4.30 Bohr mag/cell
     absolute magnetization    =     4.53 Bohr mag/cell

     convergence has been achieved in  15 iterations


     Computing stress (Cartesian axis) and pressure


     negative rho (up, down):  0.000E+00 9.986E-05
          total   stress  (Ry/bohr**3)                   (kbar)     P=      -35.17
  -0.00014923   0.00000000   0.00000000          -21.95        0.00        0.00
   0.00000000  -0.00014923   0.00000000            0.00      -21.95        0.00
   0.00000000   0.00000000  -0.00041869            0.00        0.00      -61.59


     Writing all to output data dir ./tmp/fe_tetra_0.02.save/ :
     XML data file, charge density, pseudopotentials, collected wavefunctions

     init_run     :     11.06s CPU     13.19s WALL (       1 calls)
     electrons    :    429.42s CPU    444.37s WALL (       1 calls)
     stress       :     17.35s CPU     17.14s WALL (       1 calls)

     Called by init_run:
     wfcinit      :      8.88s CPU     10.30s WALL (       1 calls)
     potinit      :      1.26s CPU      1.67s WALL (       1 calls)
     hinit0       :      0.65s CPU      0.71s WALL (       1 calls)

     Called by electrons:
     c_bands      :    369.34s CPU    365.50s WALL (      15 calls)
     sum_band     :     42.85s CPU     53.60s WALL (      15 calls)
     v_of_rho     :      1.70s CPU      1.95s WALL (      16 calls)
     newd         :      2.80s CPU      5.58s WALL (      16 calls)
     PAW_pot      :     13.69s CPU     19.21s WALL (      16 calls)
     mix_rho      :      0.18s CPU      0.19s WALL (      15 calls)

     Called by c_bands:
     init_us_2    :      7.41s CPU      8.11s WALL (   12544 calls)
     cegterg      :    355.00s CPU    349.89s WALL (    5880 calls)

     Called by *egterg:
     cdiaghg      :      9.62s CPU     10.43s WALL (   19457 calls)
     h_psi        :    173.68s CPU    173.34s WALL (   19849 calls)
     s_psi        :     37.09s CPU     37.77s WALL (   19849 calls)
     g_psi        :      1.25s CPU      1.35s WALL (   13577 calls)

     Called by h_psi:
     h_psi:calbec :     35.44s CPU     38.52s WALL (   19849 calls)
     vloc_psi     :     99.97s CPU     95.80s WALL (   19849 calls)
                                        0.00s GPU  (   19849 calls)
     add_vuspsi   :     37.02s CPU     37.70s WALL (   19849 calls)

     General routines
     calbec       :     61.70s CPU     67.33s WALL (   30825 calls)
     fft          :      0.73s CPU      0.80s WALL (     419 calls)
     ffts         :      0.17s CPU      0.18s WALL (      62 calls)
     fftw         :     96.49s CPU     94.20s WALL (  682872 calls)
     interpolate  :      0.21s CPU      0.23s WALL (      32 calls)

     Parallel routines

     PWSCF        :   7m38.15s CPU   7m57.95s WALL


   This run was terminated on:  16:58:11  19Apr2026            

=------------------------------------------------------------------------------=
   JOB DONE.
=------------------------------------------------------------------------------=
