--------------------------------------------------------------------------
WARNING: Open MPI tried to bind a process but failed.  This is a
warning only; your job will continue, though performance may
be degraded.

  Local host:        4b82db919bf5
  Application name:  /root/q-e-qe-7.3.1/bin/pw.x
  Error message:     failed to bind memory
  Location:          ../../../../../orte/mca/rtc/hwloc/rtc_hwloc.c:447

--------------------------------------------------------------------------

     Program PWSCF v.7.3.1 starts on 21May2026 at 22:24:30 

     This program is part of the open-source Quantum ESPRESSO suite
     for quantum simulation of materials; please cite
         "P. Giannozzi et al., J. Phys.:Condens. Matter 21 395502 (2009);
         "P. Giannozzi et al., J. Phys.:Condens. Matter 29 465901 (2017);
         "P. Giannozzi et al., J. Chem. Phys. 152 154105 (2020);
          URL http://www.quantum-espresso.org", 
     in publications or presentations arising from this work. More details at
     http://www.quantum-espresso.org/quote

     Parallel version (MPI & OpenMP), running on       8 processor cores
     Number of MPI processes:                 1
     Threads/MPI process:                     8

     MPI processes distributed on     1 nodes
     185294 MiB available memory on the printing compute node when the environment starts
 
     Reading input from inputs/fecr_fe03cr13_vcr.in

     Current dimensions of program PWSCF are:
     Max number of different atomic species (ntypx) = 10
     Max number of k-points (npk) =  40000
     Max angular momentum in pseudopotentials (lmaxx) =  4
     file Fe.pbe-spn-kjpaw_psl.1.0.0.UPF: wavefunction(s)  3P 3D renormalized
     file Cr.pbe-spn-kjpaw_psl.1.0.0.UPF: wavefunction(s)  3S 3P 3D renormalized
     Message from routine setup:
     using ibrav=0 with symmetry is DISCOURAGED, use correct ibrav instead
 
     Subspace diagonalization in iterative solution of the eigenvalue problem:
     a serial algorithm will be used

 
     G-vector sticks info
     --------------------
     sticks:   dense  smooth     PW     G-vecs:    dense   smooth      PW
     Sum        4373    2185    621               217231    76813   11633
 
     Using Slab Decomposition
 


     bravais-lattice index     =            0
     lattice parameter (alat)  =      10.6912  a.u.
     unit-cell volume          =    1222.0259 (a.u.)^3
     number of atoms/cell      =           16
     number of atomic types    =            2
     number of electrons       =       230.00
     number of Kohn-Sham states=          138
     kinetic-energy cutoff     =      60.0000  Ry
     charge density cutoff     =     480.0000  Ry
     scf convergence threshold =      1.0E-07
     mixing beta               =       0.3000
     number of iterations used =            8  plain     mixing
     energy convergence thresh.=      1.0E-04
     force convergence thresh. =      1.0E-04
     press convergence thresh. =      5.0E-01
     Exchange-correlation= SLA  PW   PBX  PBC
                           (   1   4   3   4   0   0   0)
     nstep                     =           50


     GPU acceleration is ACTIVE.  1 visible GPUs per MPI rank


     celldm(1)=  10.691209  celldm(2)=   0.000000  celldm(3)=   0.000000
     celldm(4)=   0.000000  celldm(5)=   0.000000  celldm(6)=   0.000000

     crystal axes: (cart. coord. in units of alat)
               a(1) = (   1.000000   0.000000   0.000000 )  
               a(2) = (   0.000000   1.000000   0.000000 )  
               a(3) = (   0.000000   0.000000   1.000000 )  

     reciprocal axes: (cart. coord. in units 2 pi/alat)
               b(1) = (  1.000000  0.000000  0.000000 )  
               b(2) = (  0.000000  1.000000  0.000000 )  
               b(3) = (  0.000000  0.000000  1.000000 )  


     PseudoPot. # 1 for Fe read from file:
     ./pseudo/Fe.pbe-spn-kjpaw_psl.1.0.0.UPF
     MD5 check sum: fc81f059e5c5069939230b1155715ae8
     Pseudo is Projector augmented-wave + core cor, Zval = 16.0
     Generated using &quot;atomic&quot; code by A. Dal Corso  v.6.3
     Shape of augmentation charge: PSQ
     Using radial grid of 1191 points,  6 beta functions with: 
                l(1) =   0
                l(2) =   0
                l(3) =   1
                l(4) =   1
                l(5) =   2
                l(6) =   2
     Q(r) pseudized with 0 coefficients 


     PseudoPot. # 2 for Cr read from file:
     ./pseudo/Cr.pbe-spn-kjpaw_psl.1.0.0.UPF
     MD5 check sum: 198f1a2427a48552563eee314eba32ba
     Pseudo is Projector augmented-wave + core cor, Zval = 14.0
     Generated using &quot;atomic&quot; code by A. Dal Corso  v.6.3
     Shape of augmentation charge: PSQ
     Using radial grid of 1183 points,  6 beta functions with: 
                l(1) =   0
                l(2) =   0
                l(3) =   1
                l(4) =   1
                l(5) =   2
                l(6) =   2
     Q(r) pseudized with 0 coefficients 


     atomic species   valence    mass     pseudopotential
     Fe               16.00    55.84500     Fe( 1.00)
     Cr               14.00    51.99600     Cr( 1.00)

     Starting magnetic structure 
     atomic species   magnetization
     Fe              0.500
     Cr              0.300

     16 Sym. Ops., with inversion, found (14 have fractional translation)



   Cartesian axes

     site n.     atom                  positions (alat units)
         1        Cr     tau(   1) = (   0.0000000   0.0000000   0.0000000  )
         2        Fe     tau(   2) = (   0.2500000   0.2500000   0.2500000  )
         3        Cr     tau(   3) = (   0.0000000   0.0000000   0.5000000  )
         4        Cr     tau(   4) = (   0.2500000   0.2500000   0.7500000  )
         5        Cr     tau(   5) = (   0.0000000   0.5000000   0.0000000  )
         6        Cr     tau(   6) = (   0.2500000   0.7500000   0.2500000  )
         7        Cr     tau(   7) = (   0.0000000   0.5000000   0.5000000  )
         8        Cr     tau(   8) = (   0.2500000   0.7500000   0.7500000  )
         9        Cr     tau(   9) = (   0.5000000   0.0000000   0.0000000  )
        10        Cr     tau(  10) = (   0.7500000   0.2500000   0.2500000  )
        11        Cr     tau(  11) = (   0.5000000   0.0000000   0.5000000  )
        12        Fe     tau(  12) = (   0.7500000   0.2500000   0.7500000  )
        13        Cr     tau(  13) = (   0.5000000   0.5000000   0.0000000  )
        14        Cr     tau(  14) = (   0.7500000   0.7500000   0.2500000  )
        15        Cr     tau(  15) = (   0.5000000   0.5000000   0.5000000  )
        16        Fe     tau(  16) = (   0.7500000   0.7500000   0.7500000  )

     number of k points=    40  Marzari-Vanderbilt smearing, width (Ry)=  0.0200
                       cart. coord. in units 2pi/alat
        k(    1) = (   0.0000000   0.0000000   0.0000000), wk =   0.0046296
        k(    2) = (   0.0000000   0.0000000   0.1666667), wk =   0.0185185
        k(    3) = (   0.0000000   0.0000000   0.3333333), wk =   0.0185185
        k(    4) = (   0.0000000   0.0000000  -0.5000000), wk =   0.0092593
        k(    5) = (   0.0000000   0.1666667   0.1666667), wk =   0.0370370
        k(    6) = (   0.0000000   0.1666667   0.3333333), wk =   0.0370370
        k(    7) = (   0.0000000   0.1666667  -0.5000000), wk =   0.0185185
        k(    8) = (   0.0000000   0.3333333   0.3333333), wk =   0.0370370
        k(    9) = (   0.0000000   0.3333333  -0.5000000), wk =   0.0185185
        k(   10) = (   0.0000000  -0.5000000  -0.5000000), wk =   0.0092593
        k(   11) = (   0.1666667   0.1666667   0.1666667), wk =   0.0370370
        k(   12) = (   0.1666667   0.1666667   0.3333333), wk =   0.0740741
        k(   13) = (   0.1666667   0.1666667  -0.5000000), wk =   0.0370370
        k(   14) = (   0.1666667   0.3333333   0.3333333), wk =   0.0740741
        k(   15) = (   0.1666667   0.3333333  -0.5000000), wk =   0.0370370
        k(   16) = (   0.1666667  -0.5000000  -0.5000000), wk =   0.0185185
        k(   17) = (   0.3333333   0.3333333   0.3333333), wk =   0.0370370
        k(   18) = (   0.3333333   0.3333333  -0.5000000), wk =   0.0370370
        k(   19) = (   0.3333333  -0.5000000  -0.5000000), wk =   0.0185185
        k(   20) = (  -0.5000000  -0.5000000  -0.5000000), wk =   0.0046296
        k(   21) = (   0.0000000   0.1666667   0.0000000), wk =   0.0092593
        k(   22) = (   0.0000000   0.3333333   0.0000000), wk =   0.0092593
        k(   23) = (   0.0000000  -0.5000000   0.0000000), wk =   0.0046296
        k(   24) = (   0.1666667   0.0000000   0.1666667), wk =   0.0185185
        k(   25) = (   0.1666667   0.3333333   0.0000000), wk =   0.0370370
        k(   26) = (   0.3333333   0.0000000   0.1666667), wk =   0.0370370
        k(   27) = (   0.1666667  -0.5000000   0.0000000), wk =   0.0185185
        k(   28) = (  -0.5000000   0.0000000   0.1666667), wk =   0.0185185
        k(   29) = (   0.3333333   0.0000000   0.3333333), wk =   0.0185185
        k(   30) = (   0.3333333  -0.5000000   0.0000000), wk =   0.0185185
        k(   31) = (  -0.5000000   0.0000000   0.3333333), wk =   0.0185185
        k(   32) = (  -0.5000000   0.0000000  -0.5000000), wk =   0.0046296
        k(   33) = (   0.1666667   0.3333333   0.1666667), wk =   0.0370370
        k(   34) = (   0.1666667  -0.5000000   0.1666667), wk =   0.0185185
        k(   35) = (   0.3333333   0.1666667   0.3333333), wk =   0.0370370
        k(   36) = (   0.3333333  -0.5000000   0.1666667), wk =   0.0370370
        k(   37) = (  -0.5000000   0.1666667   0.3333333), wk =   0.0370370
        k(   38) = (  -0.5000000   0.1666667  -0.5000000), wk =   0.0092593
        k(   39) = (   0.3333333  -0.5000000   0.3333333), wk =   0.0185185
        k(   40) = (  -0.5000000   0.3333333  -0.5000000), wk =   0.0092593

     Dense  grid:   217231 G-vectors     FFT dimensions: (  80,  80,  80)

     Smooth grid:    76813 G-vectors     FFT dimensions: (  54,  54,  54)

     Estimated max dynamical RAM per process >       2.58 GB

     Check: negative core charge=   -0.000003
     Generating pointlists ...
     new r_m :   0.1786 (alat units)  1.9096 (a.u.) for type    1
     new r_m :   0.1786 (alat units)  1.9096 (a.u.) for type    2

     Initial potential from superposition of free atoms

     starting charge     229.9886, renormalised to     230.0000
     Starting wfcs are  160 randomized atomic wfcs
     Checking if some PAW data can be deallocated... 

     total cpu time spent up to now is       23.6 secs

     Self-consistent Calculation

     iteration #  1     ecut=    60.00 Ry     beta= 0.30
     Davidson diagonalization with overlap
     ethr =  1.00E-02,  avg # of iterations =  2.8

     total cpu time spent up to now is       52.9 secs

     total energy              =   -4211.04582028 Ry
     estimated scf accuracy    <       4.65578446 Ry

     total magnetization       =    39.53 Bohr mag/cell
     absolute magnetization    =    39.53 Bohr mag/cell

     iteration #  2     ecut=    60.00 Ry     beta= 0.30
     Davidson diagonalization with overlap
     ethr =  2.02E-03,  avg # of iterations =  6.0

     total cpu time spent up to now is       86.8 secs

     total energy              =   -4211.42042913 Ry
     estimated scf accuracy    <      27.86084882 Ry

     total magnetization       =    25.43 Bohr mag/cell
     absolute magnetization    =    25.75 Bohr mag/cell

     iteration #  3     ecut=    60.00 Ry     beta= 0.30
     Davidson diagonalization with overlap
     ethr =  2.02E-03,  avg # of iterations =  2.0

     negative rho (up, down):  0.000E+00 1.855E-04

     total cpu time spent up to now is      114.0 secs

     total energy              =   -4212.63232745 Ry
     estimated scf accuracy    <       4.05443950 Ry

     total magnetization       =    27.90 Bohr mag/cell
     absolute magnetization    =    27.96 Bohr mag/cell

     iteration #  4     ecut=    60.00 Ry     beta= 0.30
     Davidson diagonalization with overlap
     ethr =  1.76E-03,  avg # of iterations =  1.9

     negative rho (up, down):  0.000E+00 7.113E-04

     total cpu time spent up to now is      141.0 secs

     total energy              =   -4213.05508846 Ry
     estimated scf accuracy    <       4.66020553 Ry

     total magnetization       =    27.28 Bohr mag/cell
     absolute magnetization    =    27.32 Bohr mag/cell

     iteration #  5     ecut=    60.00 Ry     beta= 0.30
     Davidson diagonalization with overlap
     ethr =  1.76E-03,  avg # of iterations =  3.1

     negative rho (up, down):  0.000E+00 1.229E-03

     total cpu time spent up to now is      169.6 secs

     total energy              =   -4214.07803228 Ry
     estimated scf accuracy    <       3.52336734 Ry

     total magnetization       =    21.46 Bohr mag/cell
     absolute magnetization    =    21.61 Bohr mag/cell

     iteration #  6     ecut=    60.00 Ry     beta= 0.30
     Davidson diagonalization with overlap
     ethr =  1.53E-03,  avg # of iterations =  2.0

     negative rho (up, down):  0.000E+00 1.207E-03

     total cpu time spent up to now is      197.2 secs

     total energy              =   -4214.41926742 Ry
     estimated scf accuracy    <       3.61047332 Ry

     total magnetization       =    10.88 Bohr mag/cell
     absolute magnetization    =    11.90 Bohr mag/cell

     iteration #  7     ecut=    60.00 Ry     beta= 0.30
     Davidson diagonalization with overlap
     ethr =  1.53E-03,  avg # of iterations =  1.1

     negative rho (up, down):  0.000E+00 1.178E-03

     total cpu time spent up to now is      223.1 secs

     total energy              =   -4214.50049928 Ry
     estimated scf accuracy    <       1.62324665 Ry

     total magnetization       =    10.42 Bohr mag/cell
     absolute magnetization    =    11.41 Bohr mag/cell

     iteration #  8     ecut=    60.00 Ry     beta= 0.30
     Davidson diagonalization with overlap
     ethr =  7.06E-04,  avg # of iterations =  1.2

     negative rho (up, down):  0.000E+00 7.926E-04

     total cpu time spent up to now is      248.5 secs

     total energy              =   -4214.34983633 Ry
     estimated scf accuracy    <       1.29485233 Ry

     total magnetization       =    10.21 Bohr mag/cell
     absolute magnetization    =    11.18 Bohr mag/cell

     iteration #  9     ecut=    60.00 Ry     beta= 0.30
     Davidson diagonalization with overlap
     ethr =  5.63E-04,  avg # of iterations =  2.0

     negative rho (up, down):  0.000E+00 6.390E-04

     total cpu time spent up to now is      275.7 secs

     total energy              =   -4214.44270304 Ry
     estimated scf accuracy    <       0.90396868 Ry

     total magnetization       =     6.43 Bohr mag/cell
     absolute magnetization    =     7.74 Bohr mag/cell

     iteration # 10     ecut=    60.00 Ry     beta= 0.30
     Davidson diagonalization with overlap
     ethr =  3.93E-04,  avg # of iterations =  1.6

     negative rho (up, down):  0.000E+00 4.487E-04

     total cpu time spent up to now is      302.0 secs

     total energy              =   -4214.49618608 Ry
     estimated scf accuracy    <       0.20616532 Ry

     total magnetization       =     5.54 Bohr mag/cell
     absolute magnetization    =     7.14 Bohr mag/cell

     iteration # 11     ecut=    60.00 Ry     beta= 0.30
     Davidson diagonalization with overlap
     c_bands:  2 eigenvalues not converged
     c_bands:  1 eigenvalues not converged
     ethr =  8.96E-05,  avg # of iterations =  6.4

     negative rho (up, down):  0.000E+00 3.773E-04

     total cpu time spent up to now is      334.1 secs

     total energy              =   -4214.51469506 Ry
     estimated scf accuracy    <       0.03444782 Ry

     total magnetization       =     6.55 Bohr mag/cell
     absolute magnetization    =     7.70 Bohr mag/cell

     iteration # 12     ecut=    60.00 Ry     beta= 0.30
     Davidson diagonalization with overlap
     c_bands:  4 eigenvalues not converged
     c_bands:  1 eigenvalues not converged
     c_bands:  2 eigenvalues not converged
     ethr =  1.50E-05,  avg # of iterations = 11.1

     negative rho (up, down):  0.000E+00 2.854E-04

     total cpu time spent up to now is      373.3 secs

     total energy              =   -4214.52132281 Ry
     estimated scf accuracy    <       0.02617642 Ry

     total magnetization       =     6.20 Bohr mag/cell
     absolute magnetization    =     7.47 Bohr mag/cell

     iteration # 13     ecut=    60.00 Ry     beta= 0.30
     Davidson diagonalization with overlap
     ethr =  1.14E-05,  avg # of iterations =  2.5

     negative rho (up, down):  0.000E+00 4.503E-05

     total cpu time spent up to now is      401.3 secs

     total energy              =   -4214.52700657 Ry
     estimated scf accuracy    <       0.00655235 Ry

     total magnetization       =     5.85 Bohr mag/cell
     absolute magnetization    =     7.28 Bohr mag/cell

     iteration # 14     ecut=    60.00 Ry     beta= 0.30
     Davidson diagonalization with overlap
     c_bands:  1 eigenvalues not converged
     c_bands:  1 eigenvalues not converged
     c_bands:  1 eigenvalues not converged
     c_bands:  1 eigenvalues not converged
     ethr =  2.85E-06,  avg # of iterations =  9.5

     total cpu time spent up to now is      439.0 secs

     total energy              =   -4214.52843951 Ry
     estimated scf accuracy    <       0.01242529 Ry

     total magnetization       =     5.40 Bohr mag/cell
     absolute magnetization    =     7.09 Bohr mag/cell

     iteration # 15     ecut=    60.00 Ry     beta= 0.30
     Davidson diagonalization with overlap
     ethr =  2.85E-06,  avg # of iterations =  6.0

     total cpu time spent up to now is      471.0 secs

     total energy              =   -4214.53002122 Ry
     estimated scf accuracy    <       0.00546242 Ry

     total magnetization       =     5.35 Bohr mag/cell
     absolute magnetization    =     7.14 Bohr mag/cell

     iteration # 16     ecut=    60.00 Ry     beta= 0.30
     Davidson diagonalization with overlap
     ethr =  2.37E-06,  avg # of iterations =  1.4

     total cpu time spent up to now is      497.1 secs

     total energy              =   -4214.53072819 Ry
     estimated scf accuracy    <       0.00071231 Ry

     total magnetization       =     5.32 Bohr mag/cell
     absolute magnetization    =     7.14 Bohr mag/cell

     iteration # 17     ecut=    60.00 Ry     beta= 0.30
     Davidson diagonalization with overlap
     ethr =  3.10E-07,  avg # of iterations =  6.0

     total cpu time spent up to now is      529.4 secs

     total energy              =   -4214.53108345 Ry
     estimated scf accuracy    <       0.00089071 Ry

     total magnetization       =     5.35 Bohr mag/cell
     absolute magnetization    =     7.18 Bohr mag/cell

     iteration # 18     ecut=    60.00 Ry     beta= 0.30
     Davidson diagonalization with overlap
     ethr =  3.10E-07,  avg # of iterations =  2.5

     total cpu time spent up to now is      556.9 secs

     total energy              =   -4214.53130355 Ry
     estimated scf accuracy    <       0.00030299 Ry

     total magnetization       =     5.41 Bohr mag/cell
     absolute magnetization    =     7.24 Bohr mag/cell

     iteration # 19     ecut=    60.00 Ry     beta= 0.30
     Davidson diagonalization with overlap
     ethr =  1.32E-07,  avg # of iterations =  6.2

     total cpu time spent up to now is      589.9 secs

     total energy              =   -4214.53141474 Ry
     estimated scf accuracy    <       0.00069912 Ry

     total magnetization       =     5.46 Bohr mag/cell
     absolute magnetization    =     7.38 Bohr mag/cell

     iteration # 20     ecut=    60.00 Ry     beta= 0.30
     Davidson diagonalization with overlap
     ethr =  1.32E-07,  avg # of iterations =  1.2

     total cpu time spent up to now is      615.7 secs

     total energy              =   -4214.53141520 Ry
     estimated scf accuracy    <       0.00038486 Ry

     total magnetization       =     5.46 Bohr mag/cell
     absolute magnetization    =     7.39 Bohr mag/cell

     iteration # 21     ecut=    60.00 Ry     beta= 0.30
     Davidson diagonalization with overlap
     ethr =  1.32E-07,  avg # of iterations =  1.1

     total cpu time spent up to now is      642.2 secs

     total energy              =   -4214.53142889 Ry
     estimated scf accuracy    <       0.00017295 Ry

     total magnetization       =     5.47 Bohr mag/cell
     absolute magnetization    =     7.40 Bohr mag/cell

     iteration # 22     ecut=    60.00 Ry     beta= 0.30
     Davidson diagonalization with overlap
     ethr =  7.52E-08,  avg # of iterations =  2.9

     total cpu time spent up to now is      670.7 secs

     total energy              =   -4214.53142990 Ry
     estimated scf accuracy    <       0.00010368 Ry

     total magnetization       =     5.47 Bohr mag/cell
     absolute magnetization    =     7.42 Bohr mag/cell

     iteration # 23     ecut=    60.00 Ry     beta= 0.30
     Davidson diagonalization with overlap
     ethr =  4.51E-08,  avg # of iterations =  1.9

     total cpu time spent up to now is      698.3 secs

     total energy              =   -4214.53147273 Ry
     estimated scf accuracy    <       0.00017428 Ry

     total magnetization       =     5.47 Bohr mag/cell
     absolute magnetization    =     7.41 Bohr mag/cell

     iteration # 24     ecut=    60.00 Ry     beta= 0.30
     Davidson diagonalization with overlap
     ethr =  4.51E-08,  avg # of iterations =  6.6

     total cpu time spent up to now is      733.9 secs

     total energy              =   -4214.53172730 Ry
     estimated scf accuracy    <       0.00103406 Ry

     total magnetization       =     5.50 Bohr mag/cell
     absolute magnetization    =     7.68 Bohr mag/cell

     iteration # 25     ecut=    60.00 Ry     beta= 0.30
     Davidson diagonalization with overlap
     ethr =  4.51E-08,  avg # of iterations =  5.2

     total cpu time spent up to now is      764.3 secs

     total energy              =   -4214.53176111 Ry
     estimated scf accuracy    <       0.00128618 Ry

     total magnetization       =     5.50 Bohr mag/cell
     absolute magnetization    =     7.78 Bohr mag/cell

     iteration # 26     ecut=    60.00 Ry     beta= 0.30
     Davidson diagonalization with overlap
     ethr =  4.51E-08,  avg # of iterations =  2.5

     total cpu time spent up to now is      792.0 secs

     total energy              =   -4214.53173991 Ry
     estimated scf accuracy    <       0.00099072 Ry

     total magnetization       =     5.50 Bohr mag/cell
     absolute magnetization    =     7.80 Bohr mag/cell

     iteration # 27     ecut=    60.00 Ry     beta= 0.30
     Davidson diagonalization with overlap
     ethr =  4.51E-08,  avg # of iterations =  1.8

     total cpu time spent up to now is      819.2 secs

     total energy              =   -4214.53174124 Ry
     estimated scf accuracy    <       0.00068445 Ry

     total magnetization       =     5.50 Bohr mag/cell
     absolute magnetization    =     7.80 Bohr mag/cell

     iteration # 28     ecut=    60.00 Ry     beta= 0.30
     Davidson diagonalization with overlap
     ethr =  4.51E-08,  avg # of iterations =  2.8

     total cpu time spent up to now is      847.3 secs

     total energy              =   -4214.53170189 Ry
     estimated scf accuracy    <       0.00041001 Ry

     total magnetization       =     5.50 Bohr mag/cell
     absolute magnetization    =     7.82 Bohr mag/cell

     iteration # 29     ecut=    60.00 Ry     beta= 0.30
     Davidson diagonalization with overlap
     ethr =  4.51E-08,  avg # of iterations =  5.5

     total cpu time spent up to now is      878.4 secs

     total energy              =   -4214.53170720 Ry
     estimated scf accuracy    <       0.00008500 Ry

     total magnetization       =     5.50 Bohr mag/cell
     absolute magnetization    =     7.80 Bohr mag/cell

     iteration # 30     ecut=    60.00 Ry     beta= 0.30
     Davidson diagonalization with overlap
     ethr =  3.70E-08,  avg # of iterations =  1.4

     total cpu time spent up to now is      904.4 secs

     total energy              =   -4214.53167238 Ry
     estimated scf accuracy    <       0.00016532 Ry

     total magnetization       =     5.50 Bohr mag/cell
     absolute magnetization    =     7.79 Bohr mag/cell

     iteration # 31     ecut=    60.00 Ry     beta= 0.30
     Davidson diagonalization with overlap
     ethr =  3.70E-08,  avg # of iterations =  4.8

     total cpu time spent up to now is      934.2 secs

     total energy              =   -4214.53167157 Ry
     estimated scf accuracy    <       0.00019896 Ry

     total magnetization       =     5.49 Bohr mag/cell
     absolute magnetization    =     7.76 Bohr mag/cell

     iteration # 32     ecut=    60.00 Ry     beta= 0.30
     Davidson diagonalization with overlap
     ethr =  3.70E-08,  avg # of iterations =  1.2

     total cpu time spent up to now is      960.2 secs

     total energy              =   -4214.53163751 Ry
     estimated scf accuracy    <       0.00013742 Ry

     total magnetization       =     5.52 Bohr mag/cell
     absolute magnetization    =     7.77 Bohr mag/cell

     iteration # 33     ecut=    60.00 Ry     beta= 0.30
     Davidson diagonalization with overlap
     ethr =  3.70E-08,  avg # of iterations =  6.5

     total cpu time spent up to now is      995.5 secs

     total energy              =   -4214.53192038 Ry
     estimated scf accuracy    <       0.00020070 Ry

     total magnetization       =     5.50 Bohr mag/cell
     absolute magnetization    =     8.07 Bohr mag/cell

     iteration # 34     ecut=    60.00 Ry     beta= 0.30
     Davidson diagonalization with overlap
     ethr =  3.70E-08,  avg # of iterations =  3.3

     total cpu time spent up to now is     1024.0 secs

     total energy              =   -4214.53195076 Ry
     estimated scf accuracy    <       0.00011132 Ry

     total magnetization       =     5.50 Bohr mag/cell
     absolute magnetization    =     8.09 Bohr mag/cell

     iteration # 35     ecut=    60.00 Ry     beta= 0.30
     Davidson diagonalization with overlap
     ethr =  3.70E-08,  avg # of iterations =  6.2

     total cpu time spent up to now is     1057.9 secs

     total energy              =   -4214.53185499 Ry
     estimated scf accuracy    <       0.00008389 Ry

     total magnetization       =     5.51 Bohr mag/cell
     absolute magnetization    =     8.28 Bohr mag/cell

     iteration # 36     ecut=    60.00 Ry     beta= 0.30
     Davidson diagonalization with overlap
     ethr =  3.65E-08,  avg # of iterations =  5.2

     total cpu time spent up to now is     1090.1 secs

     total energy              =   -4214.53193285 Ry
     estimated scf accuracy    <       0.00012402 Ry

     total magnetization       =     5.50 Bohr mag/cell
     absolute magnetization    =     8.11 Bohr mag/cell

     iteration # 37     ecut=    60.00 Ry     beta= 0.30
     Davidson diagonalization with overlap
     ethr =  3.65E-08,  avg # of iterations =  5.3

     total cpu time spent up to now is     1123.9 secs

     total energy              =   -4214.53213337 Ry
     estimated scf accuracy    <       0.00008094 Ry

     total magnetization       =     5.50 Bohr mag/cell
     absolute magnetization    =     8.36 Bohr mag/cell

     iteration # 38     ecut=    60.00 Ry     beta= 0.30
     Davidson diagonalization with overlap
     ethr =  3.52E-08,  avg # of iterations =  2.8

     total cpu time spent up to now is     1151.8 secs

     total energy              =   -4214.53132253 Ry
     estimated scf accuracy    <       0.00006054 Ry

     total magnetization       =     5.50 Bohr mag/cell
     absolute magnetization    =     8.40 Bohr mag/cell

     iteration # 39     ecut=    60.00 Ry     beta= 0.30
     Davidson diagonalization with overlap
     ethr =  2.63E-08,  avg # of iterations =  8.7

     total cpu time spent up to now is     1193.3 secs

     total energy              =   -4214.53256713 Ry
     estimated scf accuracy    <       0.00012975 Ry

     total magnetization       =     5.51 Bohr mag/cell
     absolute magnetization    =     9.06 Bohr mag/cell

     iteration # 40     ecut=    60.00 Ry     beta= 0.30
     Davidson diagonalization with overlap
     ethr =  2.63E-08,  avg # of iterations =  1.0

     total cpu time spent up to now is     1219.1 secs

     total energy              =   -4214.53259608 Ry
     estimated scf accuracy    <       0.00017583 Ry

     total magnetization       =     5.52 Bohr mag/cell
     absolute magnetization    =     9.06 Bohr mag/cell

     iteration # 41     ecut=    60.00 Ry     beta= 0.30
     Davidson diagonalization with overlap
     ethr =  2.63E-08,  avg # of iterations =  4.9

     total cpu time spent up to now is     1249.7 secs

     total energy              =   -4214.53212914 Ry
     estimated scf accuracy    <       0.00014020 Ry

     total magnetization       =     5.51 Bohr mag/cell
     absolute magnetization    =     9.12 Bohr mag/cell

     iteration # 42     ecut=    60.00 Ry     beta= 0.30
     Davidson diagonalization with overlap
     ethr =  2.63E-08,  avg # of iterations =  7.0

     total cpu time spent up to now is     1286.6 secs

     total energy              =   -4214.53115090 Ry
     estimated scf accuracy    <       0.00017880 Ry

     total magnetization       =     5.53 Bohr mag/cell
     absolute magnetization    =     8.82 Bohr mag/cell

     iteration # 43     ecut=    60.00 Ry     beta= 0.30
     Davidson diagonalization with overlap
     ethr =  2.63E-08,  avg # of iterations =  8.4

     total cpu time spent up to now is     1325.6 secs

     total energy              =   -4214.53202446 Ry
     estimated scf accuracy    <       0.00020429 Ry

     total magnetization       =     5.52 Bohr mag/cell
     absolute magnetization    =     8.29 Bohr mag/cell

     iteration # 44     ecut=    60.00 Ry     beta= 0.30
     Davidson diagonalization with overlap
     ethr =  2.63E-08,  avg # of iterations =  6.2

     total cpu time spent up to now is     1359.9 secs

     total energy              =   -4214.53171512 Ry
     estimated scf accuracy    <       0.00018562 Ry

     total magnetization       =     5.50 Bohr mag/cell
     absolute magnetization    =     8.49 Bohr mag/cell

     iteration # 45     ecut=    60.00 Ry     beta= 0.30
     Davidson diagonalization with overlap
     ethr =  2.63E-08,  avg # of iterations =  9.4

     total cpu time spent up to now is     1401.4 secs

     total energy              =   -4214.52970479 Ry
     estimated scf accuracy    <       0.00007506 Ry

     total magnetization       =     5.49 Bohr mag/cell
     absolute magnetization    =     9.01 Bohr mag/cell

     iteration # 46     ecut=    60.00 Ry     beta= 0.30
     Davidson diagonalization with overlap
     ethr =  2.63E-08,  avg # of iterations = 10.3

     total cpu time spent up to now is     1444.6 secs

     total energy              =   -4214.53196799 Ry
     estimated scf accuracy    <       0.00032175 Ry

     total magnetization       =     5.51 Bohr mag/cell
     absolute magnetization    =     8.17 Bohr mag/cell

     iteration # 47     ecut=    60.00 Ry     beta= 0.30
     Davidson diagonalization with overlap
     ethr =  2.63E-08,  avg # of iterations =  5.9

     total cpu time spent up to now is     1478.9 secs

     total energy              =   -4214.53172087 Ry
     estimated scf accuracy    <       0.00008090 Ry

     total magnetization       =     5.50 Bohr mag/cell
     absolute magnetization    =     8.35 Bohr mag/cell

     iteration # 48     ecut=    60.00 Ry     beta= 0.30
     Davidson diagonalization with overlap
     ethr =  2.63E-08,  avg # of iterations =  9.0

     total cpu time spent up to now is     1518.6 secs

     total energy              =   -4214.53056296 Ry
     estimated scf accuracy    <       0.00009200 Ry

     total magnetization       =     5.52 Bohr mag/cell
     absolute magnetization    =     8.86 Bohr mag/cell

     iteration # 49     ecut=    60.00 Ry     beta= 0.30
     Davidson diagonalization with overlap
     c_bands:  1 eigenvalues not converged
     ethr =  2.63E-08,  avg # of iterations = 11.1

     total cpu time spent up to now is     1563.2 secs

     total energy              =   -4214.53130564 Ry
     estimated scf accuracy    <       0.00004316 Ry

     total magnetization       =     5.50 Bohr mag/cell
     absolute magnetization    =     9.77 Bohr mag/cell

     iteration # 50     ecut=    60.00 Ry     beta= 0.30
     Davidson diagonalization with overlap
     ethr =  1.88E-08,  avg # of iterations =  9.9

     total cpu time spent up to now is     1605.3 secs

     total energy              =   -4214.53158697 Ry
     estimated scf accuracy    <       0.00005587 Ry

     total magnetization       =     5.50 Bohr mag/cell
     absolute magnetization    =     9.08 Bohr mag/cell

     iteration # 51     ecut=    60.00 Ry     beta= 0.30
     Davidson diagonalization with overlap
     ethr =  1.88E-08,  avg # of iterations = 10.2

     total cpu time spent up to now is     1648.5 secs

     total energy              =   -4214.52918092 Ry
     estimated scf accuracy    <       0.00011430 Ry

     total magnetization       =     5.52 Bohr mag/cell
     absolute magnetization    =     9.83 Bohr mag/cell

     iteration # 52     ecut=    60.00 Ry     beta= 0.30
     Davidson diagonalization with overlap
     ethr =  1.88E-08,  avg # of iterations = 12.3

     total cpu time spent up to now is     1695.0 secs

     total energy              =   -4214.52749888 Ry
     estimated scf accuracy    <       0.00025589 Ry

     total magnetization       =     5.52 Bohr mag/cell
     absolute magnetization    =    11.12 Bohr mag/cell

     iteration # 53     ecut=    60.00 Ry     beta= 0.30
     Davidson diagonalization with overlap
     c_bands:  1 eigenvalues not converged
     ethr =  1.88E-08,  avg # of iterations = 12.1

     total cpu time spent up to now is     1740.9 secs

     total energy              =   -4214.53177643 Ry
     estimated scf accuracy    <       0.00017024 Ry

     total magnetization       =     5.51 Bohr mag/cell
     absolute magnetization    =     9.69 Bohr mag/cell

     iteration # 54     ecut=    60.00 Ry     beta= 0.30
     Davidson diagonalization with overlap
     ethr =  1.88E-08,  avg # of iterations = 10.6

     total cpu time spent up to now is     1784.1 secs

     total energy              =   -4214.53318885 Ry
     estimated scf accuracy    <       0.00010214 Ry

     total magnetization       =     5.51 Bohr mag/cell
     absolute magnetization    =    10.47 Bohr mag/cell

     iteration # 55     ecut=    60.00 Ry     beta= 0.30
     Davidson diagonalization with overlap
     ethr =  1.88E-08,  avg # of iterations =  7.8

     total cpu time spent up to now is     1821.6 secs

     total energy              =   -4214.53285608 Ry
     estimated scf accuracy    <       0.00015904 Ry

     total magnetization       =     5.52 Bohr mag/cell
     absolute magnetization    =    10.82 Bohr mag/cell

     iteration # 56     ecut=    60.00 Ry     beta= 0.30
     Davidson diagonalization with overlap
     ethr =  1.88E-08,  avg # of iterations =  9.1

     total cpu time spent up to now is     1863.3 secs

     total energy              =   -4214.53350192 Ry
     estimated scf accuracy    <       0.00026786 Ry

     total magnetization       =     5.50 Bohr mag/cell
     absolute magnetization    =    11.35 Bohr mag/cell

     iteration # 57     ecut=    60.00 Ry     beta= 0.30
     Davidson diagonalization with overlap
     ethr =  1.88E-08,  avg # of iterations =  6.8

     total cpu time spent up to now is     1898.8 secs

     total energy              =   -4214.53121442 Ry
     estimated scf accuracy    <       0.00008213 Ry

     total magnetization       =     5.49 Bohr mag/cell
     absolute magnetization    =    11.08 Bohr mag/cell

     iteration # 58     ecut=    60.00 Ry     beta= 0.30
     Davidson diagonalization with overlap
     ethr =  1.88E-08,  avg # of iterations = 10.8

     total cpu time spent up to now is     1942.7 secs

     total energy              =   -4214.53301808 Ry
     estimated scf accuracy    <       0.00020286 Ry

     total magnetization       =     5.50 Bohr mag/cell
     absolute magnetization    =    10.25 Bohr mag/cell

     iteration # 59     ecut=    60.00 Ry     beta= 0.30
     Davidson diagonalization with overlap
     ethr =  1.88E-08,  avg # of iterations =  7.0

     total cpu time spent up to now is     1978.7 secs

     total energy              =   -4214.53275858 Ry
     estimated scf accuracy    <       0.00019368 Ry

     total magnetization       =     5.49 Bohr mag/cell
     absolute magnetization    =    10.00 Bohr mag/cell

     iteration # 60     ecut=    60.00 Ry     beta= 0.30
     Davidson diagonalization with overlap
     ethr =  1.88E-08,  avg # of iterations =  9.3

     total cpu time spent up to now is     2018.8 secs

     total energy              =   -4214.53340875 Ry
     estimated scf accuracy    <       0.00006754 Ry

     total magnetization       =     5.48 Bohr mag/cell
     absolute magnetization    =    10.47 Bohr mag/cell

     iteration # 61     ecut=    60.00 Ry     beta= 0.30
     Davidson diagonalization with overlap
     ethr =  1.88E-08,  avg # of iterations =  5.6

     total cpu time spent up to now is     2052.0 secs

     total energy              =   -4214.53338721 Ry
     estimated scf accuracy    <       0.00003953 Ry

     total magnetization       =     5.49 Bohr mag/cell
     absolute magnetization    =    10.63 Bohr mag/cell

     iteration # 62     ecut=    60.00 Ry     beta= 0.30
     Davidson diagonalization with overlap
     ethr =  1.72E-08,  avg # of iterations =  6.9

     total cpu time spent up to now is     2088.7 secs

     total energy              =   -4214.53241291 Ry
     estimated scf accuracy    <       0.00005542 Ry

     total magnetization       =     5.48 Bohr mag/cell
     absolute magnetization    =    10.90 Bohr mag/cell

     iteration # 63     ecut=    60.00 Ry     beta= 0.30
     Davidson diagonalization with overlap
     c_bands:  1 eigenvalues not converged
     ethr =  1.72E-08,  avg # of iterations = 10.7

     total cpu time spent up to now is     2132.1 secs

     total energy              =   -4214.53147879 Ry
     estimated scf accuracy    <       0.00003405 Ry

     total magnetization       =     5.46 Bohr mag/cell
     absolute magnetization    =    11.58 Bohr mag/cell

     iteration # 64     ecut=    60.00 Ry     beta= 0.30
     Davidson diagonalization with overlap
     c_bands:  1 eigenvalues not converged
     ethr =  1.48E-08,  avg # of iterations = 12.0

     total cpu time spent up to now is     2178.6 secs

     total energy              =   -4214.53411399 Ry
     estimated scf accuracy    <       0.00009343 Ry

     total magnetization       =     5.41 Bohr mag/cell
     absolute magnetization    =    12.46 Bohr mag/cell

     iteration # 65     ecut=    60.00 Ry     beta= 0.30
     Davidson diagonalization with overlap
     ethr =  1.48E-08,  avg # of iterations =  6.2

     total cpu time spent up to now is     2212.8 secs

     total energy              =   -4214.53407281 Ry
     estimated scf accuracy    <       0.00003877 Ry

     total magnetization       =     5.40 Bohr mag/cell
     absolute magnetization    =    12.56 Bohr mag/cell

     iteration # 66     ecut=    60.00 Ry     beta= 0.30
     Davidson diagonalization with overlap
     ethr =  1.48E-08,  avg # of iterations =  6.0

     total cpu time spent up to now is     2247.1 secs

     total energy              =   -4214.53397373 Ry
     estimated scf accuracy    <       0.00006740 Ry

     total magnetization       =     5.39 Bohr mag/cell
     absolute magnetization    =    12.37 Bohr mag/cell

     iteration # 67     ecut=    60.00 Ry     beta= 0.30
     Davidson diagonalization with overlap
     ethr =  1.48E-08,  avg # of iterations =  6.9

     total cpu time spent up to now is     2282.7 secs

     total energy              =   -4214.53398821 Ry
     estimated scf accuracy    <       0.00001423 Ry

     total magnetization       =     5.38 Bohr mag/cell
     absolute magnetization    =    12.62 Bohr mag/cell

     iteration # 68     ecut=    60.00 Ry     beta= 0.30
     Davidson diagonalization with overlap
     ethr =  6.19E-09,  avg # of iterations =  9.3

     total cpu time spent up to now is     2323.3 secs

     total energy              =   -4214.53418699 Ry
     estimated scf accuracy    <       0.00001831 Ry

     total magnetization       =     5.38 Bohr mag/cell
     absolute magnetization    =    12.88 Bohr mag/cell

     iteration # 69     ecut=    60.00 Ry     beta= 0.30
     Davidson diagonalization with overlap
     ethr =  6.19E-09,  avg # of iterations =  2.4

     total cpu time spent up to now is     2350.5 secs

     total energy              =   -4214.53381001 Ry
     estimated scf accuracy    <       0.00001925 Ry

     total magnetization       =     5.38 Bohr mag/cell
     absolute magnetization    =    12.89 Bohr mag/cell

     iteration # 70     ecut=    60.00 Ry     beta= 0.30
     Davidson diagonalization with overlap
     ethr =  6.19E-09,  avg # of iterations =  9.1

     total cpu time spent up to now is     2391.6 secs

     total energy              =   -4214.53416798 Ry
     estimated scf accuracy    <       0.00001365 Ry

     total magnetization       =     5.40 Bohr mag/cell
     absolute magnetization    =    12.55 Bohr mag/cell

     iteration # 71     ecut=    60.00 Ry     beta= 0.30
     Davidson diagonalization with overlap
     ethr =  5.93E-09,  avg # of iterations =  5.1

     total cpu time spent up to now is     2423.1 secs

     total energy              =   -4214.53405676 Ry
     estimated scf accuracy    <       0.00001363 Ry

     total magnetization       =     5.39 Bohr mag/cell
     absolute magnetization    =    12.60 Bohr mag/cell

     iteration # 72     ecut=    60.00 Ry     beta= 0.30
     Davidson diagonalization with overlap
     c_bands:  1 eigenvalues not converged
     ethr =  5.92E-09,  avg # of iterations =  8.5

     total cpu time spent up to now is     2462.4 secs

     total energy              =   -4214.53419042 Ry
     estimated scf accuracy    <       0.00000065 Ry

     total magnetization       =     5.38 Bohr mag/cell
     absolute magnetization    =    12.80 Bohr mag/cell

     iteration # 73     ecut=    60.00 Ry     beta= 0.30
     Davidson diagonalization with overlap
     ethr =  2.83E-10,  avg # of iterations =  5.8

     total cpu time spent up to now is     2496.9 secs

     total energy              =   -4214.53418958 Ry
     estimated scf accuracy    <       0.00000306 Ry

     total magnetization       =     5.39 Bohr mag/cell
     absolute magnetization    =    12.80 Bohr mag/cell

     iteration # 74     ecut=    60.00 Ry     beta= 0.30
     Davidson diagonalization with overlap
     ethr =  2.83E-10,  avg # of iterations =  6.5

     total cpu time spent up to now is     2531.9 secs

     total energy              =   -4214.53419079 Ry
     estimated scf accuracy    <       0.00000058 Ry

     total magnetization       =     5.38 Bohr mag/cell
     absolute magnetization    =    12.82 Bohr mag/cell

     iteration # 75     ecut=    60.00 Ry     beta= 0.30
     Davidson diagonalization with overlap
     ethr =  2.50E-10,  avg # of iterations =  6.5

     total cpu time spent up to now is     2567.3 secs

     total energy              =   -4214.53419232 Ry
     estimated scf accuracy    <       0.00000179 Ry

     total magnetization       =     5.38 Bohr mag/cell
     absolute magnetization    =    12.84 Bohr mag/cell

     iteration # 76     ecut=    60.00 Ry     beta= 0.30
     Davidson diagonalization with overlap
     ethr =  2.50E-10,  avg # of iterations =  3.9

     total cpu time spent up to now is     2596.5 secs

     total energy              =   -4214.53419249 Ry
     estimated scf accuracy    <       0.00000011 Ry

     total magnetization       =     5.38 Bohr mag/cell
     absolute magnetization    =    12.84 Bohr mag/cell

     iteration # 77     ecut=    60.00 Ry     beta= 0.30
     Davidson diagonalization with overlap
     ethr =  4.65E-11,  avg # of iterations =  6.1

     total cpu time spent up to now is     2631.4 secs

     total energy              =   -4214.53419262 Ry
     estimated scf accuracy    <       0.00000027 Ry

     total magnetization       =     5.38 Bohr mag/cell
     absolute magnetization    =    12.85 Bohr mag/cell

     iteration # 78     ecut=    60.00 Ry     beta= 0.30
     Davidson diagonalization with overlap
     ethr =  4.65E-11,  avg # of iterations =  5.0

     total cpu time spent up to now is     2661.7 secs

     total energy              =   -4214.53419259 Ry
     estimated scf accuracy    <       0.00000015 Ry

     total magnetization       =     5.38 Bohr mag/cell
     absolute magnetization    =    12.85 Bohr mag/cell

     iteration # 79     ecut=    60.00 Ry     beta= 0.30
     Davidson diagonalization with overlap
     ethr =  4.65E-11,  avg # of iterations =  5.3
 
     Magnetic moment per site  (integrated on atomic sphere of radius R)
     atom   1 (R=0.179)  charge= 12.1759  magn=  0.7005
     atom   2 (R=0.179)  charge= 14.4964  magn=  1.2045
     atom   3 (R=0.179)  charge= 12.1759  magn=  0.7005
     atom   4 (R=0.179)  charge= 12.2016  magn= -0.6631
     atom   5 (R=0.179)  charge= 12.1759  magn=  0.7005
     atom   6 (R=0.179)  charge= 12.2079  magn= -0.6398
     atom   7 (R=0.179)  charge= 12.1759  magn=  0.7005
     atom   8 (R=0.179)  charge= 12.2036  magn= -0.7110
     atom   9 (R=0.179)  charge= 12.1759  magn=  0.7005
     atom  10 (R=0.179)  charge= 12.2016  magn= -0.6631
     atom  11 (R=0.179)  charge= 12.1759  magn=  0.7005
     atom  12 (R=0.179)  charge= 14.4868  magn=  0.7707
     atom  13 (R=0.179)  charge= 12.1759  magn=  0.7005
     atom  14 (R=0.179)  charge= 12.2036  magn= -0.7110
     atom  15 (R=0.179)  charge= 12.1759  magn=  0.7005
     atom  16 (R=0.179)  charge= 14.4929  magn=  1.1972

     total cpu time spent up to now is     2695.1 secs

     End of self-consistent calculation

 ------ SPIN UP ------------


          k = 0.0000 0.0000 0.0000 (  9627 PWs)   bands (ev):

   -67.9321 -67.9260 -67.8375 -52.3796 -52.3362 -52.3362 -52.3362 -52.3177
   -52.3177 -52.3177 -52.3001 -51.5472 -51.5371 -51.5237 -51.5204 -51.5139
   -34.0135 -33.9878 -33.9878 -33.9873 -33.9826 -33.9826 -33.8941 -33.8941
   -33.8928 -23.9904 -23.9436 -23.9436 -23.8863 -23.8863 -23.8304 -23.7931
   -23.7808 -23.7786 -23.7501 -23.7501 -23.7478 -23.6714 -23.6633 -23.6633
   -23.5968 -23.5946 -23.5946 -23.5872 -23.5871 -23.5871 -23.5820 -23.5694
   -23.5691 -22.9906 -22.9461 -22.9461 -22.9063 -22.9063 -22.8285 -22.8085
   -22.7906 -22.7906 -22.7712 -22.7712 -22.7422 -22.7316 -22.7248 -22.7248
    11.5891  14.8815  14.9245  15.0147  15.1672  15.1679  15.1724  15.1724
    15.1979  15.3761  15.5220  15.5264  15.5264  15.5715  15.6642  16.8100
    16.9475  16.9475  17.0154  17.0154  17.0634  17.0634  17.0688  17.2076
    17.2100  17.2227  17.2559  17.2559  17.3532  17.6681  17.6681  17.6724
    17.8331  18.3265  18.4750  18.4750  18.7123  18.7905  18.7905  19.0027
    19.0027  19.0060  19.0369  19.0369  19.0404  19.2655  19.3055  19.3055
    19.3621  19.6058  19.7191  20.0661  20.0869  20.1014  20.1552  20.2244
    20.4172  20.4172  20.5018  20.6053  20.6053  20.6066  20.6515  20.6515
    20.8071  20.8071  20.8404  20.9522  20.9776  20.9905  20.9905  21.0358
    21.0561  21.2302

          k = 0.0000 0.0000 0.1667 (  9595 PWs)   bands (ev):

   -67.9320 -67.9260 -67.8375 -52.3769 -52.3392 -52.3350 -52.3350 -52.3189
   -52.3189 -52.3165 -52.3013 -51.5457 -51.5368 -51.5236 -51.5214 -51.5146
   -34.0135 -33.9876 -33.9876 -33.9873 -33.9827 -33.9826 -33.8940 -33.8939
   -33.8928 -23.9733 -23.9356 -23.9294 -23.8806 -23.8742 -23.8242 -23.7971
   -23.7881 -23.7763 -23.7605 -23.7599 -23.7378 -23.6706 -23.6665 -23.6598
   -23.6180 -23.6157 -23.5979 -23.5945 -23.5932 -23.5895 -23.5858 -23.5748
   -23.5707 -22.9665 -22.9328 -22.9283 -22.8955 -22.8941 -22.8275 -22.8031
   -22.7942 -22.7912 -22.7802 -22.7761 -22.7549 -22.7380 -22.7363 -22.7333
    11.7426  14.6918  14.9802  15.0010  15.1071  15.2200  15.2249  15.2518
    15.2774  15.2951  15.5408  15.5706  15.5745  15.6110  15.9608  16.8168
    16.8769  16.8863  16.9230  16.9654  16.9743  16.9750  17.0409  17.1054
    17.2168  17.2451  17.2964  17.4282  17.4427  17.5272  17.6123  17.6605
    18.2581  18.3612  18.4053  18.4445  18.6321  18.6380  18.6530  18.7830
    18.8541  18.9635  19.0607  19.0981  19.1353  19.1998  19.2636  19.2863
    19.4917  19.5721  19.7366  19.8195  19.8751  19.8920  19.8961  20.1545
    20.1819  20.3489  20.3612  20.3622  20.4238  20.5030  20.6142  20.6290
    20.6815  20.7193  20.8229  20.8421  20.9394  20.9804  20.9942  21.0393
    21.0493  21.2710

          k = 0.0000 0.0000 0.3333 (  9606 PWs)   bands (ev):

   -67.9320 -67.9260 -67.8375 -52.3693 -52.3471 -52.3316 -52.3316 -52.3223
   -52.3223 -52.3133 -52.3045 -51.5420 -51.5364 -51.5248 -51.5223 -51.5162
   -34.0133 -33.9874 -33.9870 -33.9869 -33.9834 -33.9832 -33.8940 -33.8939
   -33.8928 -23.9254 -23.9137 -23.8945 -23.8642 -23.8350 -23.8210 -23.8159
   -23.8096 -23.7895 -23.7839 -23.7550 -23.7064 -23.6910 -23.6870 -23.6751
   -23.6505 -23.6458 -23.6195 -23.6107 -23.6083 -23.5899 -23.5825 -23.5804
   -23.5739 -22.9098 -22.9014 -22.8873 -22.8666 -22.8626 -22.8257 -22.8099
   -22.8048 -22.7956 -22.7943 -22.7849 -22.7819 -22.7730 -22.7540 -22.7493
    12.1902  13.7785  15.1519  15.1623  15.3621  15.3658  15.3946  15.4723
    15.4995  15.5721  15.6055  15.6217  15.6237  15.6383  15.9831  16.3477
    16.4551  16.6423  16.8027  16.8716  16.9266  16.9582  17.2597  17.2887
    17.3409  17.3965  17.4017  17.5927  17.5958  17.6141  17.8712  17.9415
    18.0799  18.1363  18.3007  18.3281  18.3704  18.4191  18.5329  18.6544
    18.6734  18.7321  18.7828  18.8724  18.8899  18.9039  19.1543  19.2757
    19.3351  19.3457  19.3465  19.5066  19.6449  19.6748  19.8837  19.9447
    20.1464  20.2755  20.3176  20.4001  20.4268  20.5504  20.6665  20.7647
    20.7853  20.8319  20.9658  21.0053  21.0126  21.0349  21.0356  21.1628
    21.2180  21.3226

          k = 0.0000 0.0000-0.5000 (  9626 PWs)   bands (ev):

   -67.9320 -67.9260 -67.8375 -52.3611 -52.3555 -52.3270 -52.3270 -52.3270
   -52.3269 -52.3089 -52.3089 -51.5389 -51.5372 -51.5264 -51.5220 -51.5172
   -34.0132 -33.9875 -33.9865 -33.9864 -33.9838 -33.9837 -33.8940 -33.8939
   -33.8928 -23.8958 -23.8686 -23.8651 -23.8584 -23.8467 -23.8386 -23.8313
   -23.8154 -23.7790 -23.7714 -23.7602 -23.7334 -23.7114 -23.7073 -23.6632
   -23.6627 -23.6399 -23.6351 -23.6283 -23.6157 -23.5854 -23.5852 -23.5782
   -23.5782 -22.8789 -22.8471 -22.8462 -22.8459 -22.8400 -22.8345 -22.8311
   -22.8247 -22.8197 -22.8150 -22.8092 -22.7831 -22.7710 -22.7663 -22.7651
    12.8403  12.9502  15.2984  15.3331  15.4484  15.4851  15.5323  15.5353
    15.5363  15.5369  15.7197  15.7788  15.8275  15.8895  15.9253  15.9806
    16.0851  16.1770  16.7942  16.8713  16.9180  16.9322  17.5416  17.5514
    17.6383  17.6750  17.7021  17.7091  17.7274  17.7391  17.7439  17.8460
    17.9824  18.0464  18.0652  18.0738  18.1018  18.3825  18.3999  18.4696
    18.5073  18.5124  18.5623  18.6187  18.7851  18.7977  18.9305  19.0504
    19.0891  19.0902  19.1784  19.7802  19.9708  20.0272  20.0441  20.0773
    20.0832  20.0980  20.1913  20.2925  20.6253  20.7137  20.7182  20.7488
    20.7712  20.8005  20.8084  20.8971  20.9485  21.0201  21.0212  21.1887
    21.3361  21.3588

          k = 0.0000 0.1667 0.1667 (  9557 PWs)   bands (ev):

   -67.9320 -67.9259 -67.8375 -52.3742 -52.3381 -52.3375 -52.3338 -52.3203
   -52.3178 -52.3177 -52.3025 -51.5448 -51.5358 -51.5245 -51.5221 -51.5148
   -34.0108 -33.9878 -33.9874 -33.9868 -33.9829 -33.9828 -33.8953 -33.8940
   -33.8939 -23.9630 -23.9220 -23.9162 -23.8663 -23.8609 -23.8303 -23.8012
   -23.7926 -23.7785 -23.7606 -23.7585 -23.7381 -23.6792 -23.6626 -23.6580
   -23.6241 -23.6237 -23.6119 -23.6032 -23.5974 -23.5928 -23.5920 -23.5827
   -23.5746 -22.9597 -22.9197 -22.9144 -22.8822 -22.8807 -22.8282 -22.8025
   -22.7926 -22.7921 -22.7873 -22.7871 -22.7663 -22.7506 -22.7404 -22.7305
    11.8938  14.7432  14.7945  15.0334  15.1081  15.1581  15.2923  15.3346
    15.3427  15.3480  15.3788  15.6306  15.6369  15.9813  16.0003  16.7326
    16.7805  16.8463  16.8842  16.9108  17.0010  17.0178  17.0545  17.1006
    17.1426  17.2298  17.3485  17.4123  17.4482  17.4575  17.5257  18.0144
    18.1061  18.2031  18.3913  18.4481  18.5142  18.6149  18.7390  18.7570
    18.8260  18.8331  18.9462  19.0489  19.1340  19.2045  19.2177  19.4065
    19.4757  19.5009  19.5864  19.6374  19.6835  19.6903  19.9004  19.9348
    20.0225  20.0792  20.2560  20.2755  20.4337  20.4892  20.5188  20.6124
    20.7819  20.8733  20.8978  20.9591  21.0063  21.0203  21.0657  21.0936
    21.1561  21.2168

          k = 0.0000 0.1667 0.3333 (  9577 PWs)   bands (ev):

   -67.9320 -67.9259 -67.8375 -52.3669 -52.3455 -52.3341 -52.3304 -52.3240
   -52.3211 -52.3145 -52.3057 -51.5414 -51.5358 -51.5251 -51.5228 -51.5165
   -34.0107 -33.9880 -33.9868 -33.9861 -33.9834 -33.9832 -33.8954 -33.8940
   -33.8939 -23.9270 -23.8983 -23.8818 -23.8501 -23.8284 -23.8268 -23.8252
   -23.8100 -23.7805 -23.7731 -23.7539 -23.7113 -23.6932 -23.6871 -23.6744
   -23.6528 -23.6431 -23.6233 -23.6222 -23.6099 -23.5998 -23.5898 -23.5896
   -23.5790 -22.9258 -22.8934 -22.8793 -22.8554 -22.8524 -22.8321 -22.8259
   -22.8083 -22.8024 -22.7966 -22.7920 -22.7755 -22.7651 -22.7575 -22.7367
    12.3331  13.8808  14.9210  15.0737  15.2639  15.4582  15.4846  15.4866
    15.5552  15.6076  15.6687  15.6895  15.7199  15.9564  16.0406  16.3833
    16.4517  16.5968  16.8861  16.9048  16.9896  17.0133  17.0900  17.2251
    17.2393  17.3340  17.3696  17.4892  17.5858  17.6516  17.7545  18.0277
    18.0548  18.0814  18.1453  18.2354  18.3090  18.4003  18.4624  18.4975
    18.6021  18.6676  18.7398  18.7954  18.9736  19.0191  19.0704  19.1179
    19.2532  19.2940  19.4192  19.5480  19.6013  19.7177  19.8298  19.8866
    19.9879  20.1975  20.2248  20.2251  20.4178  20.4696  20.5538  20.7712
    20.8150  20.8169  20.9123  20.9215  21.0011  21.0413  21.0500  21.1196
    21.1646  21.2953

          k = 0.0000 0.1667-0.5000 (  9608 PWs)   bands (ev):

   -67.9320 -67.9260 -67.8375 -52.3589 -52.3536 -52.3292 -52.3289 -52.3258
   -52.3257 -52.3101 -52.3101 -51.5383 -51.5370 -51.5264 -51.5222 -51.5177
   -34.0107 -33.9882 -33.9865 -33.9856 -33.9838 -33.9836 -33.8954 -33.8941
   -33.8939 -23.8930 -23.8755 -23.8641 -23.8571 -23.8503 -23.8222 -23.8142
   -23.8029 -23.7711 -23.7661 -23.7557 -23.7348 -23.7115 -23.7080 -23.6678
   -23.6663 -23.6403 -23.6369 -23.6361 -23.6166 -23.5976 -23.5937 -23.5844
   -23.5844 -22.8900 -22.8759 -22.8576 -22.8451 -22.8438 -22.8375 -22.8285
   -22.8227 -22.8189 -22.8094 -22.7983 -22.7801 -22.7675 -22.7556 -22.7509
    12.9673  13.0781  14.9925  15.1014  15.4178  15.5736  15.6486  15.6565
    15.7326  15.7477  15.7679  15.8652  15.9072  15.9344  15.9900  16.0426
    16.1252  16.2111  16.8502  16.9109  16.9444  16.9786  17.3927  17.4146
    17.4188  17.5159  17.5491  17.5997  17.6161  17.6762  17.8519  17.9337
    17.9633  17.9912  18.0774  18.1278  18.1925  18.2224  18.3093  18.3313
    18.4458  18.4568  18.4634  18.4842  18.5474  18.6171  19.1682  19.1957
    19.2009  19.2188  19.2923  19.7702  19.8123  19.8537  19.9457  19.9490
    19.9501  20.0939  20.1972  20.3213  20.5319  20.5357  20.5586  20.6791
    20.6855  20.7164  20.7653  20.9571  20.9630  20.9872  21.1129  21.1323
    21.2274  21.2907

          k = 0.0000 0.3333 0.3333 (  9582 PWs)   bands (ev):

   -67.9319 -67.9260 -67.8375 -52.3602 -52.3418 -52.3400 -52.3285 -52.3270
   -52.3179 -52.3179 -52.3090 -51.5400 -51.5343 -51.5261 -51.5239 -51.5172
   -34.0053 -33.9886 -33.9865 -33.9852 -33.9836 -33.9833 -33.9010 -33.8941
   -33.8939 -23.9124 -23.8789 -23.8515 -23.8500 -23.8442 -23.8174 -23.8111
   -23.7967 -23.7681 -23.7591 -23.7404 -23.7094 -23.7019 -23.7000 -23.6751
   -23.6573 -23.6553 -23.6390 -23.6319 -23.6304 -23.6206 -23.6038 -23.5965
   -23.5855 -22.9260 -22.8935 -22.8622 -22.8600 -22.8570 -22.8377 -22.8266
   -22.8212 -22.8186 -22.8021 -22.7814 -22.7655 -22.7567 -22.7508 -22.7366
    12.7462  14.1173  14.1995  14.8341  15.5478  15.6123  15.6860  15.7397
    15.8106  15.8143  15.8333  15.8834  15.9162  15.9985  16.1080  16.4017
    16.4869  16.5200  16.6444  17.0131  17.0205  17.0861  17.0968  17.1095
    17.1332  17.2228  17.3188  17.4714  17.5305  17.6418  17.7001  17.7950
    17.9132  17.9477  18.0462  18.0686  18.1435  18.2084  18.3016  18.3489
    18.3718  18.4135  18.4825  18.6008  18.8045  18.8600  19.1185  19.2770
    19.2854  19.4091  19.4311  19.5200  19.6485  19.6580  19.6843  19.7753
    19.9112  20.0037  20.1108  20.1230  20.3547  20.4052  20.4823  20.7019
    20.7099  20.8027  20.9051  20.9119  20.9314  20.9564  21.0191  21.0759
    21.1668  21.1792

          k = 0.0000 0.3333-0.5000 (  9578 PWs)   bands (ev):

   -67.9319 -67.9259 -67.8375 -52.3530 -52.3484 -52.3353 -52.3341 -52.3225
   -52.3224 -52.3135 -52.3134 -51.5370 -51.5365 -51.5264 -51.5226 -51.5189
   -34.0053 -33.9889 -33.9864 -33.9847 -33.9837 -33.9834 -33.9010 -33.8940
   -33.8939 -23.8835 -23.8796 -23.8678 -23.8602 -23.8309 -23.8053 -23.8052
   -23.7718 -23.7523 -23.7451 -23.7364 -23.7266 -23.7113 -23.7086 -23.6760
   -23.6744 -23.6584 -23.6579 -23.6372 -23.6367 -23.6270 -23.6041 -23.5928
   -23.5919 -22.9041 -22.8984 -22.8843 -22.8785 -22.8416 -22.8321 -22.8235
   -22.8232 -22.8173 -22.8106 -22.7699 -22.7651 -22.7615 -22.7433 -22.7389
    13.3283  13.4387  14.4567  14.5802  15.6872  15.7930  15.8654  15.8816
    15.9028  15.9489  15.9605  16.0479  16.0502  16.1011  16.1483  16.2237
    16.2662  16.2839  16.8169  16.9512  16.9749  17.0923  17.1269  17.1534
    17.2086  17.2481  17.3015  17.3098  17.6101  17.6373  17.6528  17.7018
    17.8601  17.8669  17.8853  17.9701  17.9953  18.0927  18.1296  18.1704
    18.4086  18.4186  18.4518  18.4572  18.4633  18.4870  19.3411  19.3772
    19.3817  19.4233  19.4442  19.6094  19.6306  19.6507  19.6576  19.7405
    19.8265  19.9520  20.0417  20.3189  20.3686  20.4582  20.4645  20.4906
    20.5046  20.7968  20.8186  20.9196  20.9430  21.0086  21.0369  21.0375
    21.0455  21.1487

          k = 0.0000-0.5000-0.5000 (  9580 PWs)   bands (ev):

   -67.9319 -67.9259 -67.8376 -52.3470 -52.3413 -52.3413 -52.3412 -52.3180
   -52.3180 -52.3179 -52.3179 -51.5363 -51.5363 -51.5264 -51.5228 -51.5195
   -34.0024 -33.9891 -33.9864 -33.9844 -33.9838 -33.9833 -33.9040 -33.8941
   -33.8939 -23.8738 -23.8729 -23.8719 -23.8719 -23.8153 -23.8051 -23.8042
   -23.7466 -23.7417 -23.7409 -23.7143 -23.7140 -23.6936 -23.6930 -23.6886
   -23.6878 -23.6740 -23.6739 -23.6661 -23.6658 -23.6247 -23.6012 -23.5979
   -23.5978 -22.9060 -22.9009 -22.9003 -22.8988 -22.8400 -22.8289 -22.8239
   -22.8204 -22.8165 -22.8117 -22.7713 -22.7491 -22.7449 -22.7428 -22.7426
    13.8480  13.8728  13.8799  14.0821  15.8350  15.8505  15.8904  16.0630
    16.0758  16.1021  16.1046  16.1808  16.2057  16.2213  16.2809  16.2863
    16.4118  16.4506  16.4634  16.8418  17.0181  17.0347  17.0441  17.0589
    17.1041  17.1634  17.2031  17.2114  17.5004  17.5171  17.6418  17.6751
    17.7318  17.7672  17.7718  17.8308  17.8590  17.8604  17.9214  18.1043
    18.3771  18.3961  18.3998  18.4195  18.8442  18.8488  19.0707  19.0810
    19.4571  19.4671  19.5444  19.5581  19.5695  19.6157  19.8062  19.8161
    19.8219  19.8377  19.8448  20.1054  20.1224  20.3560  20.5830  20.7071
    20.7081  20.7089  20.7139  20.8547  20.9792  20.9813  20.9877  20.9926
    20.9935  21.1011

          k = 0.1667 0.1667 0.1667 (  9591 PWs)   bands (ev):

   -67.9320 -67.9260 -67.8375 -52.3716 -52.3376 -52.3366 -52.3353 -52.3192
   -52.3191 -52.3190 -52.3037 -51.5436 -51.5356 -51.5242 -51.5229 -51.5155
   -34.0108 -33.9877 -33.9875 -33.9864 -33.9834 -33.9827 -33.8954 -33.8940
   -33.8940 -23.9486 -23.9117 -23.9087 -23.8565 -23.8519 -23.8233 -23.8054
   -23.8048 -23.7787 -23.7564 -23.7509 -23.7485 -23.6752 -23.6716 -23.6528
   -23.6297 -23.6289 -23.6144 -23.6115 -23.6071 -23.6042 -23.5969 -23.5855
   -23.5841 -22.9441 -22.9193 -22.9067 -22.8751 -22.8623 -22.8270 -22.8163
   -22.7987 -22.7956 -22.7834 -22.7829 -22.7777 -22.7589 -22.7383 -22.7348
    12.0425  14.7320  14.8622  14.9866  15.1123  15.1576  15.2071  15.3763
    15.3870  15.4263  15.4425  15.4835  16.0323  16.0532  16.0552  16.6180
    16.7759  16.8110  16.8870  16.9693  16.9878  17.0314  17.0567  17.1191
    17.1518  17.1826  17.3414  17.3526  17.3684  17.3706  17.7621  17.9016
    18.0105  18.1218  18.3728  18.3737  18.4518  18.5799  18.6182  18.7698
    18.8013  18.8258  18.8919  18.9563  19.0009  19.0511  19.1403  19.3456
    19.4225  19.4295  19.4953  19.5871  19.6254  19.6906  19.7369  19.8230
    19.8268  20.2315  20.2383  20.3541  20.3840  20.4205  20.5875  20.6135
    20.8209  20.8341  20.9082  20.9279  20.9885  21.0123  21.0453  21.0928
    21.1026  21.1917

          k = 0.1667 0.1667 0.3333 (  9577 PWs)   bands (ev):

   -67.9320 -67.9259 -67.8375 -52.3645 -52.3442 -52.3330 -52.3323 -52.3228
   -52.3226 -52.3158 -52.3069 -51.5407 -51.5357 -51.5249 -51.5230 -51.5172
   -34.0107 -33.9879 -33.9871 -33.9859 -33.9837 -33.9828 -33.8954 -33.8940
   -33.8939 -23.9129 -23.8895 -23.8835 -23.8378 -23.8307 -23.8262 -23.8180
   -23.8074 -23.7795 -23.7697 -23.7508 -23.7193 -23.6916 -23.6807 -23.6732
   -23.6568 -23.6420 -23.6260 -23.6229 -23.6196 -23.6115 -23.6020 -23.5968
   -23.5886 -22.9132 -22.9026 -22.8838 -22.8516 -22.8413 -22.8370 -22.8295
   -22.8207 -22.7989 -22.7925 -22.7886 -22.7746 -22.7669 -22.7550 -22.7376
    12.4746  13.9828  15.0183  15.0486  15.1702  15.2267  15.5031  15.5333
    15.5981  15.6539  15.7187  15.7572  16.0060  16.0763  16.1277  16.4426
    16.4491  16.6473  16.8755  16.9459  16.9729  17.0476  17.0721  17.1133
    17.2158  17.3032  17.3951  17.4902  17.5266  17.5652  17.6941  17.8729
    17.9444  18.0677  18.1404  18.1615  18.2516  18.2974  18.3658  18.4180
    18.4673  18.5206  18.5585  18.6741  18.8034  18.9385  19.1234  19.1363
    19.2155  19.3349  19.4505  19.5092  19.6433  19.7319  19.7726  19.8193
    19.9626  20.1077  20.2387  20.3341  20.3489  20.5239  20.5893  20.6820
    20.7763  20.8157  20.8471  20.9566  20.9722  21.0347  21.0915  21.1233
    21.1508  21.1989

          k = 0.1667 0.1667-0.5000 (  9588 PWs)   bands (ev):

   -67.9320 -67.9260 -67.8375 -52.3568 -52.3520 -52.3284 -52.3276 -52.3275
   -52.3273 -52.3114 -52.3113 -51.5379 -51.5370 -51.5260 -51.5222 -51.5184
   -34.0106 -33.9881 -33.9867 -33.9860 -33.9834 -33.9833 -33.8954 -33.8940
   -33.8939 -23.8849 -23.8682 -23.8592 -23.8564 -23.8433 -23.8278 -23.8078
   -23.7998 -23.7720 -23.7550 -23.7534 -23.7224 -23.7117 -23.7048 -23.6722
   -23.6684 -23.6485 -23.6344 -23.6335 -23.6275 -23.6072 -23.6027 -23.5952
   -23.5948 -22.8903 -22.8776 -22.8713 -22.8665 -22.8399 -22.8371 -22.8257
   -22.8191 -22.8189 -22.7942 -22.7900 -22.7802 -22.7707 -22.7532 -22.7467
    13.0934  13.2071  15.1121  15.1370  15.1812  15.2667  15.7321  15.8194
    15.8464  15.8644  15.8782  15.9547  15.9788  16.0276  16.0810  16.0892
    16.1693  16.2551  16.8720  16.9745  16.9767  17.0147  17.3390  17.3472
    17.3879  17.4170  17.4344  17.5128  17.5133  17.6787  17.7907  17.8433
    17.8661  17.9511  17.9837  18.0463  18.0647  18.2153  18.2461  18.2974
    18.3121  18.3330  18.3601  18.3617  18.3809  18.4279  19.2479  19.2912
    19.3548  19.3550  19.4103  19.6240  19.6622  19.7290  19.8213  19.8941
    19.9765  20.0715  20.0867  20.3058  20.3717  20.6024  20.6108  20.7015
    20.7090  20.7878  20.7928  20.9276  20.9507  21.0139  21.0712  21.1170
    21.2333  21.2613

          k = 0.1667 0.3333 0.3333 (  9595 PWs)   bands (ev):

   -67.9319 -67.9260 -67.8376 -52.3581 -52.3403 -52.3387 -52.3291 -52.3272
   -52.3195 -52.3193 -52.3103 -51.5395 -51.5345 -51.5256 -51.5240 -51.5177
   -34.0052 -33.9885 -33.9867 -33.9852 -33.9836 -33.9833 -33.9010 -33.8940
   -33.8939 -23.8989 -23.8665 -23.8501 -23.8411 -23.8375 -23.8121 -23.8084
   -23.7935 -23.7690 -23.7570 -23.7367 -23.7201 -23.6965 -23.6943 -23.6776
   -23.6606 -23.6547 -23.6409 -23.6382 -23.6352 -23.6267 -23.6182 -23.6138
   -23.6007 -22.9118 -22.8852 -22.8641 -22.8615 -22.8597 -22.8430 -22.8251
   -22.8188 -22.8122 -22.7998 -22.7805 -22.7670 -22.7599 -22.7544 -22.7437
    12.8840  14.2312  14.3161  14.9667  15.2995  15.5274  15.5705  15.7440
    15.8242  15.8475  15.9451  16.0033  16.0731  16.2119  16.2973  16.4455
    16.4778  16.5975  16.6345  16.9785  16.9912  17.0520  17.1016  17.1570
    17.1705  17.2331  17.3356  17.3834  17.5067  17.5207  17.6472  17.7189
    17.7929  17.8523  17.9271  17.9671  18.1081  18.1311  18.1568  18.1629
    18.2073  18.2852  18.3453  18.3977  18.5787  18.6524  18.7884  19.3387
    19.4012  19.4706  19.4961  19.5560  19.6759  19.6869  19.7024  19.7665
    19.9590  20.0539  20.1857  20.2917  20.3735  20.4837  20.5914  20.6413
    20.8328  20.8986  20.9190  20.9273  20.9466  20.9666  21.0258  21.0718
    21.1219  21.1540

          k = 0.1667 0.3333-0.5000 (  9574 PWs)   bands (ev):

   -67.9319 -67.9259 -67.8375 -52.3510 -52.3469 -52.3339 -52.3328 -52.3244
   -52.3240 -52.3149 -52.3148 -51.5369 -51.5365 -51.5259 -51.5226 -51.5194
   -34.0052 -33.9886 -33.9864 -33.9851 -33.9835 -33.9834 -33.9010 -33.8940
   -33.8939 -23.8712 -23.8664 -23.8556 -23.8526 -23.8243 -23.8017 -23.7979
   -23.7768 -23.7568 -23.7462 -23.7321 -23.7187 -23.7112 -23.7060 -23.6823
   -23.6798 -23.6615 -23.6563 -23.6418 -23.6411 -23.6360 -23.6197 -23.6096
   -23.6082 -22.8941 -22.8888 -22.8804 -22.8752 -22.8365 -22.8328 -22.8283
   -22.8172 -22.8162 -22.8077 -22.7764 -22.7690 -22.7680 -22.7474 -22.7432
    13.4570  13.5700  14.5868  14.7113  15.4670  15.5522  15.9170  15.9346
    15.9862  16.0335  16.0618  16.1004  16.1524  16.1716  16.2810  16.3100
    16.3305  16.3718  16.8337  16.9546  16.9978  17.0849  17.0999  17.1496
    17.2222  17.2765  17.2870  17.3214  17.5122  17.5659  17.5846  17.6187
    17.6787  17.7090  17.7851  17.8634  17.8650  18.0306  18.0575  18.0650
    18.2087  18.2189  18.2560  18.2579  18.2955  18.3226  19.1055  19.1539
    19.4120  19.4582  19.4860  19.5906  19.6446  19.7262  19.7315  19.7827
    19.9846  20.0890  20.2117  20.3580  20.4781  20.5325  20.5625  20.6305
    20.7391  20.8193  20.8232  20.9177  20.9450  20.9932  20.9968  21.1081
    21.1442  21.1553

          k = 0.1667-0.5000-0.5000 (  9588 PWs)   bands (ev):

   -67.9319 -67.9259 -67.8376 -52.3451 -52.3399 -52.3398 -52.3398 -52.3199
   -52.3194 -52.3194 -52.3194 -51.5363 -51.5363 -51.5259 -51.5228 -51.5199
   -34.0023 -33.9888 -33.9863 -33.9846 -33.9837 -33.9834 -33.9040 -33.8940
   -33.8939 -23.8598 -23.8592 -23.8570 -23.8570 -23.8069 -23.7995 -23.7984
   -23.7507 -23.7451 -23.7443 -23.7104 -23.7098 -23.7015 -23.6911 -23.6883
   -23.6882 -23.6796 -23.6782 -23.6745 -23.6723 -23.6357 -23.6168 -23.6156
   -23.6154 -22.8935 -22.8886 -22.8877 -22.8862 -22.8367 -22.8293 -22.8282
   -22.8155 -22.8152 -22.8122 -22.7768 -22.7572 -22.7530 -22.7510 -22.7509
    13.9798  14.0038  14.0119  14.2175  15.8442  15.8530  15.8672  15.9988
    16.0005  16.0198  16.0250  16.2274  16.3892  16.4235  16.4503  16.4582
    16.4758  16.4783  16.4793  16.8632  17.0084  17.0138  17.0361  17.0838
    17.1007  17.1789  17.2169  17.2377  17.3962  17.4083  17.5001  17.5193
    17.6317  17.6380  17.6713  17.7431  17.8025  17.8042  17.8543  17.9698
    18.1966  18.1977  18.2029  18.2367  18.5599  18.5618  18.6927  18.6948
    19.5291  19.5386  19.5803  19.5920  19.6440  19.6713  19.8781  19.9016
    20.0743  20.1032  20.1495  20.2519  20.2605  20.6088  20.6481  20.8280
    20.8312  20.8330  20.8333  20.8985  20.9263  20.9329  20.9971  21.0038
    21.0205  21.0944

          k = 0.3333 0.3333 0.3333 (  9594 PWs)   bands (ev):

   -67.9319 -67.9260 -67.8375 -52.3523 -52.3378 -52.3357 -52.3324 -52.3245
   -52.3236 -52.3226 -52.3138 -51.5382 -51.5352 -51.5247 -51.5238 -51.5193
   -34.0052 -33.9881 -33.9868 -33.9856 -33.9835 -33.9832 -33.9010 -33.8940
   -33.8939 -23.8645 -23.8416 -23.8353 -23.8323 -23.8321 -23.7979 -23.7916
   -23.7791 -23.7695 -23.7458 -23.7446 -23.7254 -23.6888 -23.6856 -23.6830
   -23.6797 -23.6609 -23.6563 -23.6511 -23.6473 -23.6432 -23.6431 -23.6406
   -23.6295 -22.8790 -22.8750 -22.8682 -22.8672 -22.8582 -22.8365 -22.8221
   -22.8158 -22.8019 -22.8013 -22.7826 -22.7791 -22.7646 -22.7645 -22.7527
    13.2791  14.4571  14.6154  14.7363  15.2761  15.3858  15.4469  15.9270
    15.9839  16.1307  16.1670  16.2427  16.2968  16.3328  16.4709  16.5048
    16.6022  16.6309  16.6587  16.7644  17.0021  17.0141  17.1023  17.1442
    17.2363  17.2473  17.3154  17.3252  17.3665  17.4175  17.4764  17.6087
    17.6542  17.6820  17.7255  17.7491  17.8014  17.8061  17.8573  17.9942
    18.0395  18.0484  18.0663  18.1199  18.2147  18.2578  18.3531  19.0887
    19.4758  19.4796  19.5826  19.5876  19.7122  19.7527  19.7935  20.0028
    20.1061  20.2170  20.2843  20.4820  20.5176  20.6283  20.6455  20.8530
    20.8660  20.9057  20.9248  20.9296  20.9684  20.9822  21.0629  21.1050
    21.1594  21.2163

          k = 0.3333 0.3333-0.5000 (  9598 PWs)   bands (ev):

   -67.9319 -67.9260 -67.8376 -52.3456 -52.3430 -52.3312 -52.3291 -52.3287
   -52.3280 -52.3189 -52.3184 -51.5366 -51.5365 -51.5247 -51.5225 -51.5208
   -34.0051 -33.9880 -33.9866 -33.9860 -33.9833 -33.9832 -33.9010 -33.8939
   -33.8939 -23.8408 -23.8347 -23.8325 -23.8287 -23.8117 -23.7940 -23.7822
   -23.7802 -23.7554 -23.7408 -23.7373 -23.7093 -23.7035 -23.7012 -23.7011
   -23.6904 -23.6737 -23.6627 -23.6600 -23.6561 -23.6518 -23.6497 -23.6407
   -23.6407 -22.8764 -22.8716 -22.8685 -22.8652 -22.8322 -22.8285 -22.8211
   -22.8163 -22.8146 -22.7982 -22.7863 -22.7853 -22.7821 -22.7591 -22.7551
    13.8158  13.9397  14.9461  15.0023  15.0171  15.1458  15.9140  16.0008
    16.0624  16.1781  16.2289  16.2762  16.3027  16.4831  16.4834  16.5110
    16.5144  16.5831  16.8353  16.9440  17.0182  17.0203  17.1086  17.1323
    17.1660  17.2251  17.2959  17.2981  17.3283  17.3572  17.3596  17.4218
    17.4942  17.5170  17.6084  17.7109  17.7122  17.7961  17.8180  17.8663
    17.9038  17.9189  17.9192  17.9557  18.0085  18.0182  18.5503  18.5722
    19.5325  19.5597  19.5876  19.6305  19.7224  19.8002  19.9627  20.0318
    20.2000  20.2396  20.3822  20.5195  20.6464  20.7190  20.7544  20.8148
    20.8425  20.8723  20.8872  20.9217  20.9362  20.9929  21.0120  21.0252
    21.1203  21.1402

          k = 0.3333-0.5000-0.5000 (  9632 PWs)   bands (ev):

   -67.9320 -67.9260 -67.8376 -52.3398 -52.3360 -52.3360 -52.3360 -52.3253
   -52.3233 -52.3233 -52.3232 -51.5362 -51.5362 -51.5246 -51.5227 -51.5212
   -34.0022 -33.9880 -33.9863 -33.9855 -33.9837 -33.9836 -33.9040 -33.8940
   -33.8939 -23.8237 -23.8189 -23.8167 -23.8165 -23.7863 -23.7841 -23.7837
   -23.7576 -23.7504 -23.7501 -23.7307 -23.7111 -23.7102 -23.7099 -23.7088
   -23.6957 -23.6930 -23.6783 -23.6778 -23.6745 -23.6556 -23.6544 -23.6543
   -23.6488 -22.8639 -22.8605 -22.8566 -22.8551 -22.8289 -22.8287 -22.8281
   -22.8158 -22.8111 -22.8101 -22.7899 -22.7797 -22.7755 -22.7742 -22.7735
    14.3471  14.3688  14.3819  14.5993  15.4923  15.5218  15.5306  15.6707
    16.2525  16.2563  16.3017  16.4517  16.4862  16.4994  16.5550  16.7215
    16.7663  16.7940  16.7986  16.9384  16.9859  16.9920  17.0149  17.0479
    17.1552  17.1869  17.1936  17.2076  17.2088  17.2575  17.2599  17.2638
    17.4593  17.4637  17.4846  17.6398  17.6717  17.6888  17.6971  17.7047
    17.8341  17.8432  17.8445  17.8668  18.0285  18.0347  18.0987  18.1024
    19.6264  19.6470  19.6609  19.6618  19.7099  19.7462  20.1466  20.1698
    20.3138  20.3924  20.4273  20.4480  20.5194  20.7769  20.7878  20.8563
    20.9628  20.9886  20.9894  21.0372  21.0564  21.0659  21.0722  21.0965
    21.1529  21.1544

          k =-0.5000-0.5000-0.5000 (  9568 PWs)   bands (ev):

   -67.9319 -67.9259 -67.8375 -52.3326 -52.3326 -52.3326 -52.3325 -52.3325
   -52.3268 -52.3267 -52.3267 -51.5362 -51.5362 -51.5231 -51.5227 -51.5227
   -34.0021 -33.9872 -33.9862 -33.9862 -33.9836 -33.9836 -33.9040 -33.8939
   -33.8939 -23.7788 -23.7768 -23.7768 -23.7713 -23.7705 -23.7697 -23.7693
   -23.7582 -23.7582 -23.7549 -23.7527 -23.7502 -23.7502 -23.7488 -23.7399
   -23.6822 -23.6809 -23.6809 -23.6767 -23.6765 -23.6705 -23.6705 -23.6702
   -23.6702 -22.8467 -22.8447 -22.8270 -22.8241 -22.8238 -22.8238 -22.8191
   -22.8108 -22.8068 -22.8045 -22.8045 -22.8021 -22.7992 -22.7992 -22.7990
    14.7408  14.7558  14.7983  15.0973  15.0973  15.1365  15.1365  15.1481
    16.4433  16.4925  16.4967  16.5106  16.5181  16.5697  16.9011  16.9011
    16.9025  16.9025  16.9093  17.0037  17.0037  17.0143  17.0143  17.0605
    17.0840  17.1040  17.1794  17.1794  17.1819  17.1837  17.1837  17.2365
    17.2365  17.6113  17.6128  17.6152  17.6167  17.6192  17.6252  17.6267
    17.6355  17.6355  17.6436  17.6436  17.6452  17.6499  17.6502  17.6502
    19.6671  19.6931  19.7005  19.7088  19.7411  19.7734  20.3823  20.3823
    20.4750  20.4750  20.4768  20.5091  20.5489  20.6342  20.6342  20.9881
    20.9881  20.9966  21.0918  21.0918  21.1107  21.1107  21.1163  21.1182
    21.1182  21.2986

          k = 0.0000 0.1667 0.0000 (  9595 PWs)   bands (ev):

   -67.9320 -67.9260 -67.8375 -52.3768 -52.3392 -52.3350 -52.3350 -52.3189
   -52.3189 -52.3165 -52.3013 -51.5461 -51.5360 -51.5247 -51.5213 -51.5141
   -34.0108 -33.9876 -33.9876 -33.9871 -33.9827 -33.9827 -33.8953 -33.8941
   -33.8941 -23.9771 -23.9308 -23.9308 -23.8723 -23.8723 -23.8373 -23.7933
   -23.7861 -23.7734 -23.7618 -23.7618 -23.7355 -23.6787 -23.6605 -23.6605
   -23.6143 -23.6143 -23.5970 -23.5970 -23.5955 -23.5876 -23.5858 -23.5770
   -23.5705 -22.9730 -22.9297 -22.9297 -22.8926 -22.8926 -22.8292 -22.8032
   -22.7915 -22.7915 -22.7801 -22.7801 -22.7483 -22.7464 -22.7332 -22.7332
    11.7428  14.7101  14.9615  15.0330  15.0740  15.2251  15.2251  15.2422
    15.2901  15.2933  15.4727  15.5753  15.5753  15.6757  15.9512  16.8590
    16.8860  16.9012  16.9015  16.9015  16.9713  16.9713  17.0988  17.1254
    17.1266  17.1266  17.2983  17.4463  17.4463  17.6194  17.6194  17.7704
    18.1912  18.2367  18.4566  18.4566  18.6550  18.6550  18.6571  18.8343
    18.8343  18.9138  19.0723  19.1631  19.1688  19.1688  19.2287  19.3349
    19.5613  19.5613  19.6216  19.7140  19.8748  19.8748  20.0919  20.1647
    20.1647  20.2978  20.3733  20.3863  20.4746  20.5133  20.5133  20.6334
    20.6839  20.7393  20.7393  20.8857  20.9428  20.9987  21.0473  21.0523
    21.0706  21.2177

          k = 0.0000 0.3333 0.0000 (  9606 PWs)   bands (ev):

   -67.9319 -67.9260 -67.8376 -52.3693 -52.3470 -52.3316 -52.3316 -52.3223
   -52.3223 -52.3133 -52.3045 -51.5437 -51.5331 -51.5271 -51.5237 -51.5142
   -34.0053 -33.9873 -33.9869 -33.9869 -33.9833 -33.9833 -33.9010 -33.8941
   -33.8941 -23.9396 -23.8976 -23.8976 -23.8470 -23.8335 -23.8321 -23.8321
   -23.7908 -23.7908 -23.7770 -23.7534 -23.7041 -23.6993 -23.6832 -23.6832
   -23.6442 -23.6442 -23.6170 -23.6122 -23.6122 -23.5922 -23.5831 -23.5825
   -23.5737 -22.9266 -22.8901 -22.8901 -22.8593 -22.8593 -22.8323 -22.8046
   -22.8046 -22.7966 -22.7966 -22.7924 -22.7903 -22.7570 -22.7536 -22.7536
    12.1910  13.7840  15.1132  15.2361  15.3261  15.3670  15.3670  15.4536
    15.4880  15.5977  15.6265  15.6265  15.6341  15.6429  15.9619  16.3285
    16.4870  16.6391  16.8384  16.8384  16.9423  16.9423  17.0946  17.1268
    17.3341  17.3341  17.5583  17.6156  17.6156  17.8958  17.8958  17.9125
    17.9396  18.1755  18.1755  18.2118  18.5171  18.5171  18.5225  18.6992
    18.6992  18.7002  18.7262  18.9032  18.9032  19.1594  19.2142  19.3271
    19.3636  19.3636  19.3682  19.5450  19.5450  19.6074  19.6574  20.0052
    20.0052  20.1659  20.2423  20.3859  20.3859  20.5731  20.6752  20.8226
    20.8641  20.9309  21.0099  21.0401  21.0904  21.0904  21.1416  21.1728
    21.1753  21.3052

          k = 0.0000-0.5000 0.0000 (  9626 PWs)   bands (ev):

   -67.9320 -67.9260 -67.8376 -52.3610 -52.3554 -52.3270 -52.3270 -52.3269
   -52.3269 -52.3089 -52.3089 -51.5422 -51.5306 -51.5286 -51.5260 -51.5143
   -34.0022 -33.9874 -33.9864 -33.9864 -33.9838 -33.9838 -33.9040 -33.8941
   -33.8941 -23.8877 -23.8866 -23.8690 -23.8690 -23.8508 -23.8264 -23.8264
   -23.7734 -23.7713 -23.7713 -23.7434 -23.7434 -23.7282 -23.7247 -23.6609
   -23.6603 -23.6389 -23.6389 -23.6226 -23.6226 -23.5879 -23.5877 -23.5781
   -23.5781 -22.8683 -22.8622 -22.8472 -22.8472 -22.8443 -22.8443 -22.8229
   -22.8229 -22.8213 -22.8135 -22.8135 -22.7776 -22.7686 -22.7655 -22.7655
    12.8475  12.9468  15.2517  15.4159  15.4558  15.4834  15.5381  15.5381
    15.5398  15.5398  15.6562  15.7374  15.7653  15.9267  15.9685  16.0198
    16.0868  16.1695  16.8251  16.8251  16.9223  16.9223  17.2811  17.3267
    17.6180  17.6180  17.6360  17.7123  17.7360  17.7360  17.9740  17.9755
    18.0867  18.0867  18.1028  18.1028  18.2679  18.2679  18.4525  18.4689
    18.5121  18.5121  18.7520  18.7520  18.8100  18.8100  18.8635  19.0299
    19.0904  19.0989  19.2407  19.6731  19.8033  19.8033  19.9177  20.0659
    20.0898  20.0898  20.1945  20.5355  20.5355  20.6317  20.7244  20.7464
    20.8133  20.8133  20.8992  20.9925  21.0248  21.0254  21.1981  21.3039
    21.3304  21.3422

          k = 0.1667 0.0000 0.1667 (  9557 PWs)   bands (ev):

   -67.9320 -67.9259 -67.8374 -52.3742 -52.3390 -52.3367 -52.3338 -52.3203
   -52.3178 -52.3177 -52.3025 -51.5444 -51.5365 -51.5234 -51.5223 -51.5153
   -34.0133 -33.9878 -33.9873 -33.9869 -33.9832 -33.9824 -33.8939 -33.8939
   -33.8928 -23.9564 -23.9252 -23.9228 -23.8678 -23.8654 -23.8175 -23.8045
   -23.7922 -23.7825 -23.7617 -23.7579 -23.7392 -23.6746 -23.6624 -23.6599
   -23.6263 -23.6243 -23.6123 -23.6042 -23.5960 -23.5941 -23.5891 -23.5829
   -23.5732 -22.9464 -22.9350 -22.9192 -22.8782 -22.8768 -22.8259 -22.8043
   -22.7989 -22.7941 -22.7850 -22.7742 -22.7653 -22.7624 -22.7405 -22.7264
    11.8936  14.6611  14.9128  15.0201  15.0815  15.1903  15.2673  15.3412
    15.3465  15.3486  15.3733  15.6255  15.6324  15.9523  16.0239  16.7276
    16.8086  16.8411  16.8928  16.9569  17.0116  17.0391  17.0426  17.0624
    17.2267  17.2452  17.2543  17.3398  17.4477  17.4565  17.5798  17.9019
    18.1804  18.2198  18.3844  18.4237  18.6180  18.6480  18.6582  18.7996
    18.8119  18.8263  18.8944  19.0759  19.0918  19.2531  19.2578  19.2762
    19.4391  19.4783  19.5082  19.5492  19.7534  19.8632  19.8997  19.9779
    19.9903  20.0611  20.3152  20.3924  20.4042  20.4633  20.5945  20.6220
    20.7059  20.7247  20.7993  20.9000  21.0000  21.0119  21.0568  21.1488
    21.2457  21.2683

          k = 0.1667 0.3333 0.0000 (  9577 PWs)   bands (ev):

   -67.9319 -67.9259 -67.8375 -52.3668 -52.3454 -52.3341 -52.3304 -52.3240
   -52.3211 -52.3145 -52.3057 -51.5427 -51.5333 -51.5266 -51.5241 -51.5150
   -34.0052 -33.9880 -33.9868 -33.9861 -33.9834 -33.9833 -33.9010 -33.8941
   -33.8940 -23.9325 -23.8914 -23.8839 -23.8408 -23.8353 -23.8271 -23.8234
   -23.8076 -23.7816 -23.7732 -23.7485 -23.7095 -23.6989 -23.6840 -23.6770
   -23.6484 -23.6426 -23.6264 -23.6197 -23.6092 -23.6032 -23.5926 -23.5904
   -23.5792 -22.9314 -22.8911 -22.8810 -22.8534 -22.8468 -22.8351 -22.8231
   -22.8153 -22.8080 -22.7975 -22.7903 -22.7766 -22.7572 -22.7512 -22.7444
    12.3337  13.8860  14.9078  15.0712  15.3106  15.3938  15.4877  15.4893
    15.5452  15.6244  15.6854  15.6969  15.7221  15.9589  16.0261  16.3692
    16.4788  16.5964  16.8764  16.9295  16.9382  16.9841  17.0112  17.1173
    17.2713  17.3721  17.4727  17.4873  17.6283  17.6737  17.7470  17.9307
    17.9649  18.0785  18.2558  18.3174  18.3642  18.3972  18.4274  18.4544
    18.5927  18.6531  18.7473  18.9121  18.9560  19.0670  19.1409  19.1945
    19.2987  19.4191  19.4587  19.4755  19.6098  19.6319  19.6828  19.7624
    19.9014  20.0625  20.1647  20.2946  20.3666  20.4736  20.7231  20.8212
    20.8438  20.8992  20.9080  20.9898  21.0475  21.0862  21.1136  21.1364
    21.1542  21.2216

          k = 0.3333 0.0000 0.1667 (  9577 PWs)   bands (ev):

   -67.9320 -67.9259 -67.8375 -52.3669 -52.3458 -52.3338 -52.3304 -52.3239
   -52.3211 -52.3145 -52.3057 -51.5413 -51.5363 -51.5247 -51.5226 -51.5169
   -34.0132 -33.9875 -33.9874 -33.9864 -33.9837 -33.9826 -33.8939 -33.8939
   -33.8928 -23.9108 -23.9068 -23.8969 -23.8495 -23.8327 -23.8254 -23.8168
   -23.8084 -23.7838 -23.7778 -23.7558 -23.7123 -23.6924 -23.6783 -23.6725
   -23.6502 -23.6468 -23.6220 -23.6219 -23.6109 -23.6036 -23.5922 -23.5867
   -23.5769 -22.9139 -22.9026 -22.8987 -22.8502 -22.8450 -22.8278 -22.8235
   -22.8143 -22.7984 -22.7908 -22.7844 -22.7831 -22.7764 -22.7519 -22.7367
    12.3328  13.8766  14.9461  15.0670  15.2718  15.4314  15.4680  15.4878
    15.5805  15.5957  15.6822  15.6892  15.7167  15.9165  16.0619  16.4094
    16.4563  16.6114  16.8575  16.9492  16.9521  17.0223  17.0884  17.2210
    17.3196  17.3262  17.3649  17.4774  17.5017  17.6706  17.7736  17.9443
    17.9689  18.2411  18.2711  18.3063  18.3076  18.3302  18.4373  18.4542
    18.5277  18.6087  18.7039  18.8822  18.9447  18.9859  19.0666  19.1142
    19.3146  19.4108  19.4538  19.4863  19.6058  19.6459  19.8069  19.8095
    19.9465  20.2137  20.2357  20.2952  20.3623  20.6019  20.6457  20.7579
    20.7654  20.7684  20.8305  20.8803  20.9966  21.0635  21.0995  21.1386
    21.1594  21.2419

          k = 0.1667-0.5000 0.0000 (  9608 PWs)   bands (ev):

   -67.9319 -67.9260 -67.8376 -52.3588 -52.3535 -52.3292 -52.3289 -52.3258
   -52.3257 -52.3101 -52.3101 -51.5414 -51.5314 -51.5279 -51.5258 -51.5152
   -34.0022 -33.9881 -33.9864 -33.9856 -33.9838 -33.9837 -33.9040 -33.8941
   -33.8941 -23.8889 -23.8856 -23.8647 -23.8574 -23.8424 -23.8363 -23.8131
   -23.7795 -23.7658 -23.7635 -23.7410 -23.7366 -23.7210 -23.7192 -23.6660
   -23.6654 -23.6441 -23.6359 -23.6334 -23.6182 -23.5986 -23.5981 -23.5854
   -23.5848 -22.8840 -22.8806 -22.8595 -22.8544 -22.8452 -22.8412 -22.8258
   -22.8234 -22.8203 -22.8144 -22.7884 -22.7668 -22.7655 -22.7594 -22.7586
    12.9744  13.0746  14.9815  15.1002  15.4666  15.5774  15.6544  15.6591
    15.7140  15.7381  15.7448  15.8270  15.8314  15.9931  16.0233  16.0798
    16.1264  16.2048  16.8709  16.8802  16.9516  16.9828  17.1260  17.2636
    17.4068  17.5173  17.6072  17.6499  17.6645  17.6958  17.9315  17.9570
    18.0332  18.0520  18.1008  18.1034  18.1270  18.1938  18.3372  18.3514
    18.4317  18.5040  18.5199  18.5360  18.6356  18.6853  19.1905  19.1966
    19.1984  19.2894  19.3236  19.6547  19.6839  19.8384  19.8570  19.8915
    19.9833  20.0523  20.1653  20.2683  20.3240  20.4059  20.7012  20.7637
    20.7943  20.8025  20.9540  20.9687  21.0346  21.0483  21.1231  21.2375
    21.2562  21.2851

          k =-0.5000 0.0000 0.1667 (  9608 PWs)   bands (ev):

   -67.9320 -67.9260 -67.8375 -52.3589 -52.3539 -52.3292 -52.3285 -52.3258
   -52.3257 -52.3101 -52.3101 -51.5384 -51.5372 -51.5260 -51.5220 -51.5180
   -34.0132 -33.9875 -33.9869 -33.9868 -33.9833 -33.9832 -33.8940 -33.8939
   -33.8928 -23.8900 -23.8741 -23.8532 -23.8508 -23.8506 -23.8477 -23.8233
   -23.8100 -23.7740 -23.7600 -23.7587 -23.7180 -23.7116 -23.7045 -23.6679
   -23.6638 -23.6450 -23.6323 -23.6278 -23.6270 -23.5994 -23.5977 -23.5825
   -23.5814 -22.8876 -22.8687 -22.8672 -22.8629 -22.8441 -22.8439 -22.8223
   -22.8209 -22.8187 -22.7955 -22.7898 -22.7709 -22.7683 -22.7663 -22.7545
    12.9653  13.0783  15.0138  15.0965  15.4240  15.5775  15.6303  15.6503
    15.6555  15.7427  15.8185  15.8625  15.9324  15.9422  15.9978  16.0403
    16.1242  16.2151  16.8425  16.9289  16.9429  16.9892  17.4110  17.4229
    17.4557  17.4864  17.5423  17.5587  17.6193  17.6909  17.8707  17.8995
    17.9512  17.9990  18.0932  18.1010  18.2177  18.2198  18.3444  18.3459
    18.3706  18.4292  18.4586  18.5112  18.5289  18.5995  19.1717  19.2049
    19.2305  19.2883  19.2915  19.6745  19.8176  19.8221  19.9615  19.9820
    19.9873  20.0781  20.1033  20.2837  20.3440  20.6407  20.6436  20.6675
    20.7287  20.7608  20.7765  20.9282  21.0308  21.0314  21.0369  21.1669
    21.2868  21.3161

          k = 0.3333 0.0000 0.3333 (  9582 PWs)   bands (ev):

   -67.9320 -67.9260 -67.8375 -52.3604 -52.3444 -52.3377 -52.3281 -52.3270
   -52.3179 -52.3179 -52.3090 -51.5394 -51.5363 -51.5246 -51.5226 -51.5186
   -34.0132 -33.9877 -33.9874 -33.9868 -33.9833 -33.9822 -33.8939 -33.8938
   -33.8928 -23.8963 -23.8845 -23.8720 -23.8566 -23.8325 -23.8281 -23.8113
   -23.7978 -23.7694 -23.7693 -23.7431 -23.7106 -23.6982 -23.6754 -23.6697
   -23.6631 -23.6515 -23.6376 -23.6316 -23.6299 -23.6251 -23.6138 -23.5903
   -23.5815 -22.9195 -22.9072 -22.8716 -22.8688 -22.8609 -22.8241 -22.8192
   -22.8165 -22.8143 -22.7871 -22.7791 -22.7743 -22.7626 -22.7595 -22.7288
    12.7440  14.0377  14.2978  14.8399  15.5176  15.5802  15.6824  15.7926
    15.7991  15.8286  15.8457  15.8483  15.9087  15.9371  16.1670  16.4075
    16.5198  16.5566  16.7627  16.9000  16.9711  16.9906  17.1477  17.1724
    17.1990  17.2433  17.3692  17.4395  17.5174  17.6077  17.6475  17.7643
    17.9396  17.9704  18.0974  18.1368  18.1648  18.1715  18.2978  18.3034
    18.3376  18.4000  18.5089  18.5678  18.6975  18.7027  19.2382  19.2699
    19.3085  19.3876  19.4210  19.4373  19.6196  19.6552  19.7174  19.8080
    19.9661  20.0548  20.0849  20.1850  20.2973  20.4301  20.6221  20.6574
    20.6767  20.7689  20.8116  20.8677  20.9078  20.9079  21.0106  21.1069
    21.1305  21.2594

          k = 0.3333-0.5000 0.0000 (  9578 PWs)   bands (ev):

   -67.9319 -67.9259 -67.8375 -52.3530 -52.3484 -52.3352 -52.3342 -52.3225
   -52.3224 -52.3135 -52.3134 -51.5392 -51.5334 -51.5267 -51.5247 -51.5174
   -34.0023 -33.9888 -33.9863 -33.9847 -33.9837 -33.9835 -33.9040 -33.8941
   -33.8940 -23.8831 -23.8820 -23.8650 -23.8562 -23.8311 -23.8198 -23.7950
   -23.7791 -23.7518 -23.7364 -23.7362 -23.7210 -23.7096 -23.7087 -23.6753
   -23.6745 -23.6616 -23.6608 -23.6369 -23.6345 -23.6270 -23.6092 -23.5934
   -23.5912 -22.9015 -22.9003 -22.8860 -22.8807 -22.8416 -22.8340 -22.8246
   -22.8181 -22.8173 -22.8147 -22.7696 -22.7614 -22.7511 -22.7475 -22.7457
    13.3344  13.4347  14.4552  14.5776  15.7414  15.7810  15.8091  15.8912
    15.9163  15.9538  15.9617  16.0190  16.0258  16.1150  16.1806  16.2225
    16.2745  16.2813  16.8014  16.9316  16.9954  16.9992  17.0915  17.1461
    17.1596  17.3179  17.3349  17.3531  17.5773  17.6473  17.6617  17.6894
    17.8698  17.9202  17.9248  17.9767  18.0226  18.0351  18.0951  18.1548
    18.4481  18.4526  18.4563  18.4591  18.4630  18.4929  19.3823  19.3901
    19.4470  19.5013  19.5430  19.5470  19.6042  19.6336  19.6587  19.6599
    19.7779  19.9473  20.0022  20.0893  20.1323  20.4643  20.4669  20.7467
    20.7614  20.7961  20.8509  20.9088  20.9804  21.0062  21.0093  21.0398
    21.0520  21.1546

          k =-0.5000 0.0000 0.3333 (  9578 PWs)   bands (ev):

   -67.9320 -67.9259 -67.8375 -52.3530 -52.3500 -52.3353 -52.3326 -52.3225
   -52.3224 -52.3134 -52.3134 -51.5375 -51.5371 -51.5248 -51.5220 -51.5200
   -34.0131 -33.9874 -33.9874 -33.9874 -33.9826 -33.9826 -33.8939 -33.8938
   -33.8927 -23.8827 -23.8792 -23.8585 -23.8573 -23.8256 -23.8233 -23.8144
   -23.8136 -23.7615 -23.7383 -23.7300 -23.7087 -23.6983 -23.6951 -23.6766
   -23.6663 -23.6613 -23.6590 -23.6366 -23.6332 -23.6257 -23.6235 -23.5895
   -23.5847 -22.9041 -22.8978 -22.8965 -22.8898 -22.8404 -22.8403 -22.8171
   -22.8147 -22.8132 -22.7810 -22.7784 -22.7705 -22.7688 -22.7428 -22.7356
    13.3152  13.4401  14.4978  14.5734  15.6627  15.7082  15.7900  15.8992
    15.9394  15.9539  16.0443  16.0505  16.0816  16.1074  16.1312  16.2301
    16.2662  16.3125  16.9039  16.9419  17.0130  17.0527  17.0993  17.1047
    17.1705  17.3472  17.3486  17.3493  17.4883  17.5207  17.6725  17.6809
    17.8292  17.9157  17.9992  18.0517  18.0713  18.0976  18.1039  18.2448
    18.2692  18.3343  18.3807  18.3974  18.4513  18.4551  19.3280  19.3805
    19.3919  19.5226  19.5284  19.5357  19.5527  19.6131  19.6365  19.6539
    19.8734  20.0278  20.0876  20.1473  20.3491  20.4012  20.5498  20.6738
    20.7056  20.7563  20.8002  20.8802  20.8933  20.9097  20.9612  20.9943
    21.0091  21.1486

          k =-0.5000 0.0000-0.5000 (  9580 PWs)   bands (ev):

   -67.9320 -67.9259 -67.8375 -52.3471 -52.3471 -52.3413 -52.3355 -52.3180
   -52.3179 -52.3179 -52.3179 -51.5371 -51.5371 -51.5231 -51.5220 -51.5220
   -34.0132 -33.9877 -33.9877 -33.9874 -33.9823 -33.9823 -33.8938 -33.8938
   -33.8927 -23.8834 -23.8822 -23.8569 -23.8565 -23.8153 -23.8153 -23.8088
   -23.8088 -23.7519 -23.7070 -23.7070 -23.7021 -23.7012 -23.6825 -23.6825
   -23.6758 -23.6758 -23.6689 -23.6665 -23.6662 -23.6220 -23.6220 -23.5938
   -23.5865 -22.9153 -22.9088 -22.9055 -22.8991 -22.8386 -22.8386 -22.8144
   -22.8123 -22.8123 -22.7778 -22.7723 -22.7703 -22.7703 -22.7329 -22.7277
    13.6948  13.9001  14.0563  14.0563  15.7083  15.8421  15.8488  16.0622
    16.1212  16.1212  16.1379  16.1379  16.2254  16.2254  16.3519  16.3642
    16.3969  16.4556  16.7123  16.8169  16.8169  16.9313  16.9313  17.1031
    17.1326  17.1326  17.3726  17.3900  17.4183  17.5016  17.5185  17.5185
    17.7038  17.8105  17.8806  17.8806  17.9033  17.9487  17.9522  18.1925
    18.2594  18.2594  18.4224  18.4224  18.6552  18.6552  19.2050  19.2245
    19.3848  19.3932  19.4153  19.4745  19.5005  19.5615  19.7966  19.7966
    19.8672  20.0344  20.1764  20.1764  20.2500  20.2500  20.6566  20.6566
    20.6773  20.6889  20.7239  20.7240  20.8543  20.8543  20.9527  20.9527
    20.9917  21.0377

          k = 0.1667 0.3333 0.1667 (  9577 PWs)   bands (ev):

   -67.9319 -67.9259 -67.8375 -52.3645 -52.3438 -52.3337 -52.3319 -52.3231
   -52.3225 -52.3158 -52.3069 -51.5418 -51.5335 -51.5260 -51.5245 -51.5158
   -34.0052 -33.9881 -33.9868 -33.9857 -33.9835 -33.9833 -33.9010 -33.8940
   -33.8940 -23.9229 -23.8799 -23.8766 -23.8382 -23.8312 -23.8270 -23.8138
   -23.8114 -23.7775 -23.7719 -23.7445 -23.7167 -23.6955 -23.6795 -23.6790
   -23.6518 -23.6418 -23.6276 -23.6234 -23.6211 -23.6080 -23.6062 -23.5959
   -23.5921 -22.9257 -22.8827 -22.8817 -22.8575 -22.8415 -22.8376 -22.8343
   -22.8212 -22.8030 -22.8005 -22.7854 -22.7700 -22.7561 -22.7527 -22.7468
    12.4754  13.9918  14.9202  15.1446  15.1566  15.2499  15.4485  15.5682
    15.6229  15.6497  15.6798  15.7769  16.0257  16.0846  16.1280  16.3963
    16.4677  16.6598  16.7772  16.8845  16.9997  17.0419  17.0611  17.1522
    17.2259  17.3024  17.3771  17.5195  17.5954  17.6077  17.6163  17.8406
    17.9075  18.0085  18.2485  18.2528  18.2536  18.2964  18.3141  18.4317
    18.4515  18.5014  18.5839  18.7345  18.8181  19.0100  19.1374  19.2142
    19.2438  19.3521  19.3852  19.5108  19.6156  19.6831  19.7628  19.8604
    19.9034  20.0644  20.1583  20.2244  20.3044  20.4526  20.7415  20.7549
    20.8139  20.8291  20.9363  20.9417  21.0163  21.0679  21.0995  21.1520
    21.1567  21.1945

          k = 0.1667-0.5000 0.1667 (  9588 PWs)   bands (ev):

   -67.9319 -67.9260 -67.8376 -52.3567 -52.3517 -52.3284 -52.3284 -52.3275
   -52.3269 -52.3114 -52.3113 -51.5407 -51.5320 -51.5271 -51.5257 -51.5159
   -34.0022 -33.9883 -33.9864 -33.9853 -33.9838 -33.9836 -33.9040 -33.8941
   -33.8940 -23.8855 -23.8807 -23.8554 -23.8502 -23.8352 -23.8283 -23.8157
   -23.7840 -23.7638 -23.7539 -23.7477 -23.7220 -23.7164 -23.7155 -23.6710
   -23.6700 -23.6492 -23.6363 -23.6332 -23.6278 -23.6026 -23.6010 -23.6009
   -23.6004 -22.8883 -22.8866 -22.8619 -22.8591 -22.8446 -22.8386 -22.8299
   -22.8244 -22.8145 -22.8140 -22.7803 -22.7727 -22.7588 -22.7570 -22.7553
    13.1021  13.2032  15.0197  15.1782  15.2315  15.2728  15.7918  15.8206
    15.8258  15.8513  15.8795  15.8805  15.9483  16.0679  16.0727  16.1328
    16.1752  16.2474  16.8806  16.9517  16.9725  17.0298  17.0406  17.2409
    17.3442  17.4651  17.4800  17.5605  17.6875  17.6969  17.7997  17.8095
    17.9623  17.9761  17.9780  18.0699  18.0881  18.1538  18.2063  18.2265
    18.2639  18.3797  18.4305  18.4318  18.4620  18.5100  19.2919  19.2936
    19.3849  19.4125  19.4946  19.6304  19.6397  19.6899  19.7241  19.8287
    19.8873  19.9356  20.1211  20.1538  20.3217  20.5098  20.7533  20.7704
    20.7862  20.7868  20.9728  21.0067  21.0157  21.0769  21.1181  21.1467
    21.2213  21.2452

          k = 0.3333 0.1667 0.3333 (  9595 PWs)   bands (ev):

   -67.9320 -67.9260 -67.8375 -52.3583 -52.3426 -52.3365 -52.3292 -52.3269
   -52.3196 -52.3192 -52.3103 -51.5390 -51.5359 -51.5246 -51.5230 -51.5188
   -34.0106 -33.9878 -33.9874 -33.9863 -33.9833 -33.9826 -33.8954 -33.8939
   -33.8939 -23.8796 -23.8782 -23.8664 -23.8497 -23.8312 -23.8111 -23.8052
   -23.7943 -23.7735 -23.7622 -23.7383 -23.7218 -23.6939 -23.6769 -23.6742
   -23.6691 -23.6520 -23.6400 -23.6373 -23.6326 -23.6317 -23.6220 -23.6112
   -23.5973 -22.9065 -22.8936 -22.8747 -22.8688 -22.8629 -22.8236 -22.8218
   -22.8191 -22.8020 -22.7911 -22.7852 -22.7812 -22.7610 -22.7556 -22.7378
    12.8822  14.1545  14.4166  14.9749  15.2667  15.5059  15.6088  15.6699
    15.8442  15.9412  15.9420  15.9530  16.0205  16.2611  16.2621  16.4474
    16.5339  16.6458  16.7339  16.8116  17.0007  17.0537  17.0773  17.1990
    17.2189  17.2750  17.3213  17.3524  17.4954  17.5605  17.5869  17.7356
    17.7780  17.8635  17.9679  18.0027  18.0221  18.0638  18.1248  18.2057
    18.2636  18.3106  18.3154  18.4357  18.4474  18.5846  18.8474  19.3209
    19.3954  19.4533  19.4891  19.5799  19.6220  19.6706  19.7356  19.8455
    19.8790  20.0753  20.1921  20.3186  20.4245  20.5394  20.6360  20.7614
    20.7656  20.8036  20.8145  20.8909  20.9188  20.9423  21.0306  21.0573
    21.1437  21.1501

          k = 0.3333-0.5000 0.1667 (  9574 PWs)   bands (ev):

   -67.9319 -67.9259 -67.8375 -52.3510 -52.3467 -52.3339 -52.3330 -52.3244
   -52.3240 -52.3149 -52.3147 -51.5388 -51.5338 -51.5261 -51.5246 -51.5180
   -34.0023 -33.9886 -33.9863 -33.9849 -33.9837 -33.9835 -33.9040 -33.8940
   -33.8940 -23.8737 -23.8705 -23.8506 -23.8421 -23.8243 -23.8136 -23.7914
   -23.7841 -23.7548 -23.7463 -23.7326 -23.7099 -23.7083 -23.7029 -23.6823
   -23.6794 -23.6644 -23.6603 -23.6414 -23.6409 -23.6367 -23.6241 -23.6102
   -23.6073 -22.8943 -22.8925 -22.8768 -22.8724 -22.8387 -22.8378 -22.8230
   -22.8199 -22.8150 -22.8136 -22.7753 -22.7654 -22.7554 -22.7518 -22.7509
    13.4645  13.5654  14.5812  14.7080  15.4789  15.5563  15.8957  15.9251
    15.9834  16.0391  16.0761  16.1551  16.1668  16.1854  16.1898  16.3182
    16.3293  16.3824  16.7823  16.9440  17.0054  17.0274  17.1154  17.1436
    17.1692  17.3223  17.3352  17.3390  17.5138  17.5347  17.5866  17.5904
    17.7157  17.7601  17.7829  17.8790  17.9524  17.9568  18.0169  18.0466
    18.2248  18.2331  18.2694  18.2913  18.2936  18.3095  19.1543  19.1574
    19.4640  19.4676  19.5562  19.5565  19.6018  19.6723  19.7707  19.7851
    19.9541  20.1054  20.1184  20.1973  20.3037  20.5464  20.6606  20.7802
    20.7910  20.8247  20.9337  20.9605  20.9669  21.0201  21.0526  21.1154
    21.1211  21.1521

          k =-0.5000 0.1667 0.3333 (  9574 PWs)   bands (ev):

   -67.9320 -67.9259 -67.8375 -52.3510 -52.3481 -52.3339 -52.3313 -52.3244
   -52.3242 -52.3149 -52.3148 -51.5372 -51.5369 -51.5247 -51.5221 -51.5202
   -34.0106 -33.9878 -33.9872 -33.9867 -33.9828 -33.9828 -33.8954 -33.8939
   -33.8938 -23.8700 -23.8654 -23.8500 -23.8497 -23.8274 -23.8190 -23.8007
   -23.7967 -23.7629 -23.7358 -23.7310 -23.7078 -23.7063 -23.6952 -23.6826
   -23.6736 -23.6661 -23.6595 -23.6438 -23.6387 -23.6305 -23.6297 -23.6077
   -23.6044 -22.8955 -22.8889 -22.8888 -22.8819 -22.8379 -22.8364 -22.8179
   -22.8147 -22.8144 -22.7839 -22.7805 -22.7783 -22.7745 -22.7465 -22.7403
    13.4455  13.5711  14.6306  14.7045  15.4303  15.5571  15.7913  15.9259
    16.0150  16.0932  16.1254  16.1438  16.1787  16.1920  16.1961  16.3014
    16.3310  16.3834  16.9238  16.9580  17.0330  17.0645  17.0854  17.1020
    17.1472  17.3301  17.3635  17.3667  17.4385  17.4687  17.5716  17.5812
    17.6436  17.7312  17.8804  17.9666  17.9689  17.9786  18.0152  18.0881
    18.1312  18.1653  18.1794  18.1987  18.3362  18.3401  19.0968  19.1381
    19.4103  19.4581  19.4616  19.5904  19.6280  19.7163  19.7683  19.8804
    19.9428  20.0961  20.1436  20.2778  20.5248  20.5892  20.5895  20.6996
    20.7224  20.7566  20.8258  20.9035  20.9478  20.9780  21.0062  21.0724
    21.1383  21.1588

          k =-0.5000 0.1667-0.5000 (  9588 PWs)   bands (ev):

   -67.9320 -67.9259 -67.8375 -52.3451 -52.3451 -52.3398 -52.3343 -52.3199
   -52.3199 -52.3195 -52.3191 -51.5369 -51.5369 -51.5231 -51.5221 -51.5221
   -34.0106 -33.9874 -33.9874 -33.9874 -33.9825 -33.9825 -33.8954 -33.8938
   -33.8938 -23.8662 -23.8657 -23.8463 -23.8458 -23.8144 -23.8144 -23.7929
   -23.7929 -23.7553 -23.7044 -23.7044 -23.7009 -23.6985 -23.6945 -23.6945
   -23.6818 -23.6816 -23.6764 -23.6764 -23.6707 -23.6278 -23.6278 -23.6146
   -23.6089 -22.9029 -22.8973 -22.8913 -22.8850 -22.8358 -22.8358 -22.8150
   -22.8115 -22.8115 -22.7845 -22.7785 -22.7756 -22.7756 -22.7426 -22.7374
    13.8261  14.0313  14.1923  14.1923  15.7069  15.8196  15.8849  15.9631
    15.9631  15.9988  16.2443  16.2443  16.3875  16.4313  16.4313  16.4664
    16.4684  16.5352  16.6930  16.8335  16.8335  16.9373  16.9373  17.0949
    17.1456  17.1456  17.3073  17.3988  17.4016  17.4144  17.4782  17.4782
    17.5239  17.6357  17.7072  17.7072  17.8056  17.9021  17.9036  18.0533
    18.1119  18.1119  18.1550  18.1550  18.5029  18.5029  18.7467  18.7537
    19.4525  19.4889  19.5317  19.5958  19.6574  19.8180  19.8615  19.8876
    19.8876  20.1800  20.2301  20.2301  20.5723  20.5723  20.7177  20.7177
    20.7783  20.7785  20.8960  20.8960  20.8970  20.9060  20.9237  20.9237
    21.0028  21.0534

          k = 0.3333-0.5000 0.3333 (  9598 PWs)   bands (ev):

   -67.9319 -67.9260 -67.8376 -52.3456 -52.3422 -52.3312 -52.3312 -52.3287
   -52.3268 -52.3189 -52.3184 -51.5377 -51.5348 -51.5248 -51.5242 -51.5196
   -34.0022 -33.9883 -33.9862 -33.9853 -33.9837 -33.9835 -33.9040 -33.8940
   -33.8940 -23.8486 -23.8432 -23.8146 -23.8114 -23.8112 -23.7957 -23.7894
   -23.7859 -23.7533 -23.7508 -23.7381 -23.7031 -23.7005 -23.6997 -23.6903
   -23.6878 -23.6753 -23.6685 -23.6625 -23.6594 -23.6585 -23.6541 -23.6406
   -23.6354 -22.8780 -22.8741 -22.8565 -22.8557 -22.8459 -22.8303 -22.8197
   -22.8178 -22.8146 -22.8135 -22.7853 -22.7748 -22.7676 -22.7642 -22.7635
    13.8327  13.9330  14.8270  15.0068  15.1183  15.1574  15.9029  15.9931
    16.1713  16.1929  16.2201  16.2548  16.2571  16.3728  16.4828  16.4987
    16.5609  16.6063  16.7442  16.9284  17.0370  17.1052  17.1261  17.1435
    17.1767  17.2321  17.2476  17.2952  17.3161  17.3281  17.3449  17.4029
    17.5173  17.5391  17.6315  17.6944  17.7524  17.7837  17.8538  17.8798
    17.9080  17.9411  17.9416  17.9606  17.9624  18.0037  18.5544  18.5675
    19.5889  19.5996  19.6011  19.6280  19.6943  19.6992  20.0006  20.0307
    20.2696  20.3205  20.3569  20.3776  20.3933  20.7341  20.7975  20.8258
    20.8582  20.9138  20.9648  20.9692  21.0181  21.0183  21.0793  21.0847
    21.1300  21.1752

          k =-0.5000 0.3333-0.5000 (  9632 PWs)   bands (ev):

   -67.9320 -67.9260 -67.8376 -52.3398 -52.3398 -52.3360 -52.3311 -52.3253
   -52.3253 -52.3233 -52.3223 -51.5365 -51.5365 -51.5231 -51.5225 -51.5225
   -34.0052 -33.9874 -33.9867 -33.9867 -33.9832 -33.9832 -33.9010 -33.8939
   -33.8939 -23.8213 -23.8187 -23.8155 -23.8151 -23.7982 -23.7982 -23.7689
   -23.7689 -23.7606 -23.7243 -23.7243 -23.7214 -23.7213 -23.7027 -23.7007
   -23.6938 -23.6938 -23.6780 -23.6780 -23.6764 -23.6611 -23.6601 -23.6453
   -23.6453 -22.8727 -22.8697 -22.8559 -22.8495 -22.8290 -22.8290 -22.8171
   -22.8092 -22.8092 -22.8042 -22.7953 -22.7881 -22.7881 -22.7696 -22.7645
    14.2004  14.3982  14.5750  14.5750  15.3201  15.5605  15.6379  15.6379
    16.0977  16.2460  16.4509  16.4957  16.5831  16.5831  16.6351  16.6401
    16.7419  16.7419  16.8139  16.8786  16.8786  16.9430  16.9430  17.0733
    17.1347  17.1830  17.1833  17.1833  17.3473  17.3593  17.3593  17.3898
    17.4446  17.4446  17.4906  17.4940  17.5177  17.7406  17.7406  17.7709
    17.7789  17.7817  17.7888  17.7888  18.0453  18.0453  18.1472  18.1476
    19.5914  19.5933  19.6410  19.6653  19.7598  19.8315  20.1593  20.1593
    20.1920  20.4096  20.4249  20.4249  20.7635  20.7635  20.8236  20.8347
    20.8347  20.9369  20.9584  20.9947  20.9947  21.0506  21.0760  21.0760
    21.1008  21.1566

 ------ SPIN DOWN ----------


          k = 0.0000 0.0000 0.0000 (  9627 PWs)   bands (ev):

   -66.9194 -66.5272 -66.5152 -52.3198 -52.2956 -52.2567 -52.2512 -52.2186
   -51.5642 -51.5641 -51.5641 -51.5490 -51.5451 -51.5451 -51.5450 -51.5270
   -33.0078 -33.0078 -33.0032 -32.6285 -32.6285 -32.6183 -32.6183 -32.6170
   -32.6002 -23.9303 -23.8853 -23.8853 -23.8342 -23.8342 -23.7225 -23.6809
   -23.6692 -23.6692 -23.6472 -23.6472 -23.5618 -23.5466 -23.5466 -23.5045
   -23.0559 -23.0204 -23.0167 -23.0023 -23.0023 -22.9815 -22.9349 -22.8917
   -22.8917 -22.8532 -22.8377 -22.8377 -22.8369 -22.8221 -22.8168 -22.8168
   -22.8032 -22.7988 -22.7988 -22.7980 -22.7361 -22.7342 -22.7187 -22.7187
    11.6384  15.0720  15.2035  15.2807  15.2807  15.2832  15.3525  15.4050
    15.5377  15.5449  15.6995  15.7125  15.7125  15.7184  15.7973  17.2272
    17.2275  17.2275  17.2325  17.2370  17.2370  17.2962  17.3048  17.3048
    17.5219  17.5219  17.5325  17.7251  17.8830  17.9519  18.1813  18.1964
    18.1964  18.7417  18.7490  18.7490  18.9270  18.9583  18.9583  18.9859
    18.9859  19.0241  19.6181  19.6684  19.6684  19.7118  19.7118  19.7598
    19.9292  19.9636  19.9636  20.5883  20.7044  20.7044  20.7313  20.7335
    20.8273  20.8273  20.8399  20.8816  20.8902  20.9231  20.9235  20.9284
    20.9709  20.9888  20.9888  20.9985  21.0003  21.0021  21.0305  21.0758
    21.0872  21.6373

          k = 0.0000 0.0000 0.1667 (  9595 PWs)   bands (ev):

   -66.9193 -66.5272 -66.5152 -52.3179 -52.2967 -52.2564 -52.2517 -52.2192
   -51.5633 -51.5629 -51.5629 -51.5498 -51.5464 -51.5463 -51.5439 -51.5282
   -33.0078 -33.0076 -33.0032 -32.6283 -32.6282 -32.6184 -32.6183 -32.6170
   -32.6002 -23.9163 -23.8754 -23.8695 -23.8254 -23.8251 -23.7226 -23.6980
   -23.6841 -23.6811 -23.6594 -23.6523 -23.5685 -23.5594 -23.5467 -23.5093
   -23.0432 -23.0007 -22.9954 -22.9950 -22.9897 -22.9688 -22.9328 -22.8998
   -22.8920 -22.8565 -22.8443 -22.8361 -22.8333 -22.8153 -22.8141 -22.8111
   -22.8094 -22.8090 -22.8044 -22.7995 -22.7455 -22.7385 -22.7368 -22.7248
    11.7925  14.7848  15.1692  15.2827  15.3367  15.3389  15.3993  15.4445
    15.5642  15.6185  15.6592  15.7538  15.7590  15.7628  16.1873  17.0891
    17.1529  17.1567  17.2339  17.2351  17.3070  17.3102  17.3264  17.3540
    17.3618  17.3818  17.7328  17.7427  17.7544  17.8679  18.0288  18.0378
    18.7070  18.7395  18.7398  18.7678  18.7918  18.8553  18.8919  18.8980
    19.1271  19.1510  19.2612  19.2616  19.7960  19.8059  19.8323  19.8731
    19.8919  19.9087  19.9416  20.0602  20.1180  20.3027  20.3748  20.5067
    20.5380  20.7003  20.8064  20.8555  20.8818  20.9173  20.9177  20.9678
    20.9772  20.9935  21.0240  21.0589  21.0793  21.0967  21.1413  21.5738
    21.6236  21.6399

          k = 0.0000 0.0000 0.3333 (  9606 PWs)   bands (ev):

   -66.9193 -66.5272 -66.5152 -52.3129 -52.3003 -52.2557 -52.2530 -52.2205
   -51.5611 -51.5594 -51.5594 -51.5517 -51.5498 -51.5498 -51.5406 -51.5315
   -33.0077 -33.0076 -33.0032 -32.6280 -32.6278 -32.6188 -32.6186 -32.6168
   -32.6004 -23.8761 -23.8512 -23.8265 -23.7999 -23.7995 -23.7561 -23.7214
   -23.7127 -23.7103 -23.6876 -23.6804 -23.6063 -23.5516 -23.5470 -23.5224
   -23.0149 -22.9862 -22.9646 -22.9576 -22.9372 -22.9343 -22.9210 -22.9175
   -22.8921 -22.8711 -22.8704 -22.8353 -22.8323 -22.8222 -22.8193 -22.8154
   -22.8120 -22.8028 -22.7959 -22.7931 -22.7863 -22.7695 -22.7508 -22.7420
    12.2421  13.8435  15.3581  15.4539  15.4877  15.4890  15.6267  15.7180
    15.7312  15.7800  15.7874  15.7900  15.8596  15.9030  16.2576  16.7063
    16.7206  16.8549  17.1046  17.1072  17.1837  17.1862  17.5358  17.5921
    17.5978  17.6066  17.7753  17.9120  17.9917  18.0050  18.1709  18.1948
    18.3233  18.3820  18.5008  18.5128  18.7246  18.7382  18.8110  18.8251
    18.9550  18.9670  18.9986  19.1696  19.1915  19.4521  19.4916  19.5125
    19.5466  19.7612  19.7705  20.1003  20.1718  20.3254  20.3590  20.5312
    20.6363  20.6507  20.6625  20.7130  20.8526  20.9568  21.0164  21.0716
    21.1064  21.1313  21.1688  21.1910  21.3063  21.4392  21.5014  21.5141
    21.5228  21.5536

          k = 0.0000 0.0000-0.5000 (  9626 PWs)   bands (ev):

   -66.9194 -66.5272 -66.5152 -52.3078 -52.3046 -52.2545 -52.2545 -52.2211
   -51.5596 -51.5546 -51.5546 -51.5546 -51.5546 -51.5530 -51.5361 -51.5360
   -33.0078 -33.0076 -33.0032 -32.6278 -32.6275 -32.6190 -32.6188 -32.6167
   -32.6005 -23.8355 -23.8182 -23.8181 -23.7840 -23.7744 -23.7691 -23.7543
   -23.7418 -23.7245 -23.7089 -23.7051 -23.6180 -23.5470 -23.5412 -23.5356
   -22.9939 -22.9844 -22.9544 -22.9176 -22.9138 -22.9136 -22.9121 -22.9063
   -22.8935 -22.8919 -22.8650 -22.8573 -22.8502 -22.8267 -22.8266 -22.8206
   -22.8074 -22.8074 -22.8015 -22.7980 -22.7824 -22.7669 -22.7663 -22.7624
    12.9102  12.9911  15.5142  15.5895  15.6066  15.6473  15.6501  15.7068
    15.7096  15.7454  16.0045  16.0949  16.1939  16.1989  16.2178  16.2690
    16.2971  16.3091  17.1258  17.1262  17.1277  17.1294  17.8423  17.9400
    17.9531  17.9578  17.9629  17.9655  17.9980  18.0093  18.1461  18.2144
    18.2817  18.2819  18.3769  18.3952  18.4296  18.4328  18.6855  18.7022
    18.7552  18.7839  18.7879  18.8010  18.8314  18.8325  19.1474  19.2457
    20.0379  20.0881  20.2011  20.2184  20.3054  20.3078  20.3582  20.4501
    20.4807  20.4817  20.8531  20.8720  20.9283  20.9496  20.9586  20.9624
    21.0161  21.0697  21.2397  21.2566  21.2953  21.3295  21.5537  21.6693
    21.6862  21.6870

          k = 0.0000 0.1667 0.1667 (  9557 PWs)   bands (ev):

   -66.9193 -66.5271 -66.5151 -52.3160 -52.2962 -52.2584 -52.2523 -52.2193
   -51.5624 -51.5619 -51.5616 -51.5505 -51.5474 -51.5451 -51.5451 -51.5294
   -33.0077 -33.0076 -33.0023 -32.6282 -32.6281 -32.6188 -32.6185 -32.6174
   -32.6001 -23.8981 -23.8668 -23.8595 -23.8167 -23.8156 -23.7264 -23.7024
   -23.6890 -23.6881 -23.6707 -23.6557 -23.5757 -23.5616 -23.5473 -23.5407
   -23.0391 -22.9992 -22.9850 -22.9749 -22.9714 -22.9537 -22.9349 -22.9020
   -22.8945 -22.8564 -22.8472 -22.8336 -22.8292 -22.8248 -22.8158 -22.8143
   -22.8115 -22.8049 -22.8033 -22.7936 -22.7687 -22.7529 -22.7319 -22.7310
    11.9439  14.8370  14.8946  15.1917  15.3747  15.4151  15.4512  15.4607
    15.5274  15.6952  15.7165  15.7427  15.8078  16.2258  16.2385  16.9568
    17.0420  17.2159  17.2562  17.2899  17.2977  17.3099  17.3274  17.3560
    17.3736  17.4823  17.4993  17.6485  17.7672  17.7868  17.8821  18.4064
    18.4445  18.6266  18.6397  18.6801  18.7415  18.7416  18.9177  18.9741
    19.2679  19.3193  19.3229  19.3552  19.4133  19.4568  19.6685  19.7124
    19.8170  19.8771  19.8914  19.9522  19.9654  19.9899  20.3321  20.3563
    20.6615  20.7581  20.7892  20.8105  20.8654  20.9180  20.9305  20.9370
    20.9602  21.0355  21.0550  21.1711  21.2533  21.2938  21.2954  21.3530
    21.3619  21.6098

          k = 0.0000 0.1667 0.3333 (  9577 PWs)   bands (ev):

   -66.9193 -66.5272 -66.5151 -52.3113 -52.2995 -52.2573 -52.2538 -52.2206
   -51.5605 -51.5590 -51.5581 -51.5522 -51.5501 -51.5486 -51.5418 -51.5328
   -33.0077 -33.0075 -33.0023 -32.6279 -32.6277 -32.6193 -32.6188 -32.6169
   -32.6002 -23.8664 -23.8465 -23.8208 -23.7943 -23.7872 -23.7634 -23.7240
   -23.7157 -23.7099 -23.6922 -23.6699 -23.6116 -23.5578 -23.5478 -23.5409
   -23.0124 -22.9888 -22.9617 -22.9555 -22.9332 -22.9235 -22.9228 -22.9138
   -22.8924 -22.8802 -22.8672 -22.8467 -22.8361 -22.8232 -22.8189 -22.8159
   -22.8140 -22.8099 -22.7989 -22.7890 -22.7845 -22.7668 -22.7450 -22.7434
    12.3855  13.9476  15.0382  15.2198  15.5465  15.6053  15.6452  15.7845
    15.7921  15.8102  15.8752  15.9351  15.9495  16.2117  16.3230  16.6966
    16.7542  16.8202  17.1569  17.2265  17.2395  17.2521  17.4410  17.4925
    17.5415  17.5471  17.7361  17.7665  17.7954  18.0075  18.0900  18.2320
    18.2764  18.4558  18.4677  18.5431  18.5738  18.6260  18.6542  18.7244
    18.7665  18.8567  19.0563  19.0695  19.1730  19.2589  19.2650  19.5164
    19.6925  19.8100  19.8616  20.1295  20.1827  20.2522  20.2793  20.4338
    20.5954  20.6734  20.6838  20.7742  20.8289  20.8974  20.9908  21.0125
    21.0397  21.0882  21.1413  21.1921  21.2040  21.3281  21.4242  21.4275
    21.4721  21.4768

          k = 0.0000 0.1667-0.5000 (  9608 PWs)   bands (ev):

   -66.9193 -66.5272 -66.5152 -52.3066 -52.3035 -52.2557 -52.2557 -52.2212
   -51.5593 -51.5555 -51.5549 -51.5534 -51.5533 -51.5521 -51.5373 -51.5373
   -33.0077 -33.0075 -33.0023 -32.6278 -32.6276 -32.6196 -32.6190 -32.6167
   -32.6003 -23.8339 -23.8208 -23.8172 -23.7822 -23.7725 -23.7723 -23.7401
   -23.7344 -23.7101 -23.7072 -23.7052 -23.6251 -23.5502 -23.5481 -23.5464
   -22.9920 -22.9867 -22.9499 -22.9259 -22.9243 -22.9221 -22.9088 -22.8976
   -22.8868 -22.8867 -22.8815 -22.8695 -22.8618 -22.8369 -22.8241 -22.8199
   -22.8175 -22.8006 -22.7899 -22.7893 -22.7719 -22.7643 -22.7641 -22.7583
    13.0374  13.1205  15.1443  15.2112  15.7165  15.7400  15.7591  15.8176
    15.9629  15.9770  16.0826  16.1636  16.2388  16.2581  16.2757  16.3302
    16.3486  16.3578  17.1668  17.1698  17.1855  17.1931  17.7173  17.7670
    17.7685  17.8277  17.8280  17.8303  17.9488  17.9488  18.2230  18.2233
    18.2283  18.2800  18.4156  18.4445  18.4585  18.4774  18.5049  18.5387
    18.6005  18.6036  18.6104  18.6663  18.6707  18.7093  19.3823  19.4269
    20.1269  20.1291  20.1935  20.2164  20.2511  20.3301  20.4161  20.4801
    20.4962  20.5026  20.6521  20.6531  20.7366  20.8155  20.8553  20.9901
    20.9906  21.1068  21.1796  21.2123  21.2363  21.2855  21.4121  21.4640
    21.4665  21.4941

          k = 0.0000 0.3333 0.3333 (  9582 PWs)   bands (ev):

   -66.9193 -66.5272 -66.5151 -52.3078 -52.2977 -52.2609 -52.2556 -52.2207
   -51.5588 -51.5583 -51.5547 -51.5539 -51.5507 -51.5453 -51.5453 -51.5361
   -33.0077 -33.0075 -33.0006 -32.6278 -32.6278 -32.6211 -32.6189 -32.6170
   -32.6001 -23.8400 -23.8363 -23.8083 -23.7810 -23.7797 -23.7676 -23.7265
   -23.7185 -23.7092 -23.7008 -23.6453 -23.6246 -23.5883 -23.5723 -23.5496
   -23.0068 -22.9875 -22.9538 -22.9401 -22.9313 -22.9162 -22.9140 -22.9136
   -22.8890 -22.8857 -22.8749 -22.8678 -22.8576 -22.8483 -22.8433 -22.8136
   -22.8056 -22.7898 -22.7883 -22.7787 -22.7755 -22.7641 -22.7577 -22.7446
    12.8007  14.2107  14.2511  14.9533  15.8157  15.8766  15.9036  15.9430
    15.9755  15.9915  16.0497  16.1363  16.1822  16.3136  16.4157  16.6277
    16.7406  16.9444  16.9861  17.2064  17.3667  17.3833  17.3840  17.4091
    17.4388  17.5076  17.5924  17.6165  17.7700  18.0451  18.0899  18.1186
    18.1783  18.1954  18.2730  18.3599  18.3985  18.4201  18.4624  18.5110
    18.5391  18.6331  18.6933  18.7369  18.8139  19.1545  19.1745  19.4409
    19.9913  20.0156  20.0976  20.2133  20.2465  20.2898  20.3295  20.5286
    20.5507  20.6080  20.6339  20.6963  20.7515  20.7889  20.8139  20.8607
    20.9301  20.9357  21.0358  21.0445  21.1845  21.1944  21.2510  21.2808
    21.2879  21.3827

          k = 0.0000 0.3333-0.5000 (  9578 PWs)   bands (ev):

   -66.9193 -66.5272 -66.5151 -52.3039 -52.3010 -52.2583 -52.2583 -52.2213
   -51.5583 -51.5565 -51.5558 -51.5510 -51.5500 -51.5500 -51.5407 -51.5407
   -33.0076 -33.0075 -33.0006 -32.6277 -32.6277 -32.6214 -32.6189 -32.6167
   -32.6001 -23.8308 -23.8174 -23.8112 -23.7842 -23.7816 -23.7680 -23.7365
   -23.7074 -23.7055 -23.6896 -23.6711 -23.6377 -23.5777 -23.5760 -23.5501
   -22.9893 -22.9891 -22.9415 -22.9297 -22.9265 -22.9258 -22.9105 -22.9084
   -22.9007 -22.8939 -22.8920 -22.8789 -22.8763 -22.8537 -22.8460 -22.8051
   -22.8022 -22.7930 -22.7735 -22.7717 -22.7668 -22.7656 -22.7580 -22.7544
    13.3998  13.4881  14.5593  14.6548  15.9970  16.0167  16.0438  16.0865
    16.0990  16.1526  16.2803  16.2954  16.3450  16.3465  16.4570  16.4662
    16.5084  16.5703  17.2408  17.2475  17.3013  17.3240  17.4124  17.4526
    17.4701  17.4946  17.5897  17.6014  17.8336  17.8389  18.0666  18.0851
    18.1239  18.1548  18.2135  18.2206  18.2664  18.3098  18.3257  18.4050
    18.4673  18.5023  18.5318  18.5619  18.6347  18.6439  19.4984  19.5098
    20.0567  20.0878  20.3287  20.3435  20.3579  20.3924  20.4634  20.4727
    20.5052  20.5220  20.5463  20.5717  20.5887  20.5931  20.7997  20.9001
    20.9478  20.9605  21.0443  21.0965  21.0973  21.1087  21.1596  21.1760
    21.2330  21.2490

          k = 0.0000-0.5000-0.5000 (  9580 PWs)   bands (ev):

   -66.9193 -66.5272 -66.5151 -52.3025 -52.2996 -52.2597 -52.2597 -52.2214
   -51.5572 -51.5569 -51.5569 -51.5506 -51.5454 -51.5453 -51.5453 -51.5453
   -33.0077 -33.0074 -32.9997 -32.6277 -32.6277 -32.6223 -32.6189 -32.6167
   -32.5999 -23.8294 -23.8122 -23.8046 -23.7893 -23.7875 -23.7657 -23.7348
   -23.7069 -23.7060 -23.6645 -23.6361 -23.6228 -23.6165 -23.6073 -23.5511
   -22.9896 -22.9887 -22.9347 -22.9234 -22.9226 -22.9203 -22.9202 -22.9165
   -22.9083 -22.9080 -22.9049 -22.8860 -22.8714 -22.8584 -22.8578 -22.7990
   -22.7852 -22.7826 -22.7772 -22.7730 -22.7643 -22.7626 -22.7563 -22.7528
    13.9152  13.9645  13.9746  14.0985  16.1385  16.1751  16.1806  16.2041
    16.2746  16.2775  16.3639  16.4042  16.4085  16.4245  16.4911  16.5209
    16.8600  16.9472  16.9836  17.0006  17.2467  17.2496  17.2925  17.3211
    17.3214  17.3906  17.5116  17.5524  17.8480  17.9164  17.9529  17.9568
    17.9610  17.9785  17.9968  17.9990  18.1655  18.1891  18.1930  18.2872
    18.4051  18.4708  18.4795  18.4865  19.1033  19.1106  19.1216  19.1332
    20.1395  20.1437  20.1465  20.2275  20.5479  20.5707  20.5745  20.5860
    20.5882  20.6041  20.6252  20.6458  20.6561  20.7387  20.7451  20.7625
    20.7628  20.7652  20.7834  20.7877  21.0461  21.0772  21.0962  21.1117
    21.1258  21.1593

          k = 0.1667 0.1667 0.1667 (  9591 PWs)   bands (ev):

   -66.9193 -66.5272 -66.5151 -52.3144 -52.2971 -52.2580 -52.2528 -52.2200
   -51.5623 -51.5609 -51.5597 -51.5511 -51.5463 -51.5462 -51.5460 -51.5307
   -33.0077 -33.0077 -33.0023 -32.6283 -32.6278 -32.6191 -32.6183 -32.6173
   -32.6002 -23.8873 -23.8601 -23.8473 -23.8098 -23.8046 -23.7363 -23.7160
   -23.7094 -23.6827 -23.6667 -23.6622 -23.5774 -23.5667 -23.5580 -23.5417
   -23.0286 -22.9892 -22.9812 -22.9753 -22.9611 -22.9421 -22.9242 -22.9026
   -22.9024 -22.8581 -22.8514 -22.8469 -22.8320 -22.8213 -22.8203 -22.8150
   -22.8119 -22.8063 -22.7974 -22.7891 -22.7832 -22.7570 -22.7391 -22.7298
    12.0933  14.8436  14.9662  15.0566  15.2737  15.3963  15.4442  15.5326
    15.5647  15.6365  15.7822  15.8208  16.1882  16.2941  16.3418  16.8475
    17.1544  17.1621  17.1867  17.2971  17.3033  17.3356  17.3429  17.3534
    17.4370  17.4479  17.4790  17.5629  17.6563  17.6571  18.1949  18.2207
    18.2329  18.5408  18.6077  18.6258  18.6349  18.6424  19.0644  19.0724
    19.0953  19.1104  19.2578  19.2779  19.3195  19.4964  19.5001  19.5073
    19.5446  19.6324  19.7233  20.0115  20.0462  20.0870  20.5755  20.5777
    20.6189  20.6893  20.7156  20.7572  20.8586  20.8649  20.9110  20.9353
    20.9356  21.0316  21.0395  21.2154  21.2181  21.2710  21.2768  21.3348
    21.4409  21.5113

          k = 0.1667 0.1667 0.3333 (  9577 PWs)   bands (ev):

   -66.9193 -66.5272 -66.5151 -52.3101 -52.2999 -52.2571 -52.2541 -52.2213
   -51.5612 -51.5580 -51.5564 -51.5529 -51.5492 -51.5485 -51.5430 -51.5340
   -33.0076 -33.0075 -33.0023 -32.6280 -32.6276 -32.6193 -32.6185 -32.6170
   -32.6003 -23.8568 -23.8443 -23.8176 -23.7894 -23.7823 -23.7688 -23.7393
   -23.7109 -23.7080 -23.6830 -23.6651 -23.6135 -23.5677 -23.5559 -23.5453
   -23.0039 -22.9810 -22.9655 -22.9558 -22.9315 -22.9266 -22.9177 -22.9060
   -22.8989 -22.8760 -22.8664 -22.8557 -22.8411 -22.8346 -22.8260 -22.8230
   -22.8130 -22.8016 -22.8009 -22.7935 -22.7709 -22.7664 -22.7535 -22.7366
    12.5278  14.0544  15.1218  15.1636  15.3249  15.4081  15.7279  15.7812
    15.8081  15.8990  16.0248  16.0343  16.2588  16.3286  16.3948  16.6902
    16.7863  16.8804  17.1445  17.2610  17.2878  17.3319  17.3474  17.4446
    17.4685  17.5031  17.6882  17.7225  17.8113  17.9682  18.0120  18.0251
    18.3011  18.3463  18.4158  18.4735  18.5062  18.5693  18.5821  18.6104
    18.6532  18.6592  18.8520  18.9311  18.9605  19.0603  19.3313  19.3395
    19.8395  19.9030  19.9285  20.2020  20.2418  20.3218  20.4363  20.4870
    20.5329  20.6464  20.7118  20.7564  20.7971  20.8346  20.9609  20.9921
    21.0185  21.0465  21.0723  21.0905  21.1737  21.3048  21.3468  21.4082
    21.4473  21.5415

          k = 0.1667 0.1667-0.5000 (  9588 PWs)   bands (ev):

   -66.9193 -66.5272 -66.5151 -52.3058 -52.3035 -52.2557 -52.2556 -52.2220
   -51.5602 -51.5555 -51.5538 -51.5529 -51.5524 -51.5515 -51.5385 -51.5385
   -33.0076 -33.0075 -33.0023 -32.6278 -32.6277 -32.6193 -32.6187 -32.6168
   -32.6003 -23.8299 -23.8171 -23.8124 -23.8047 -23.7794 -23.7667 -23.7315
   -23.7212 -23.7057 -23.6995 -23.6938 -23.6288 -23.5667 -23.5525 -23.5487
   -22.9833 -22.9799 -22.9580 -22.9447 -22.9228 -22.9170 -22.9070 -22.8950
   -22.8935 -22.8820 -22.8788 -22.8739 -22.8560 -22.8407 -22.8350 -22.8342
   -22.8175 -22.8023 -22.7841 -22.7811 -22.7802 -22.7689 -22.7515 -22.7504
    13.1654  13.2509  15.2660  15.2818  15.2841  15.4054  16.0461  16.0495
    16.0754  16.1059  16.1622  16.2513  16.2721  16.2842  16.3537  16.4004
    16.4078  16.4107  17.1865  17.1903  17.2505  17.2633  17.6732  17.6852
    17.7373  17.7499  17.7547  17.7637  17.8125  17.8240  18.1830  18.2218
    18.2224  18.2515  18.2737  18.3242  18.3982  18.4218  18.4286  18.4359
    18.4558  18.4638  18.4730  18.4827  18.5417  18.5481  19.4845  19.4956
    20.2083  20.2232  20.2326  20.2690  20.2949  20.3089  20.3183  20.3320
    20.4749  20.4948  20.5069  20.5264  20.8419  20.9339  20.9704  20.9706
    21.0468  21.1303  21.1554  21.1790  21.2132  21.2479  21.3375  21.3644
    21.3828  21.3935

          k = 0.1667 0.3333 0.3333 (  9595 PWs)   bands (ev):

   -66.9193 -66.5272 -66.5151 -52.3068 -52.2981 -52.2605 -52.2559 -52.2215
   -51.5588 -51.5577 -51.5539 -51.5534 -51.5502 -51.5460 -51.5458 -51.5372
   -33.0076 -33.0075 -33.0006 -32.6278 -32.6277 -32.6209 -32.6188 -32.6172
   -32.6001 -23.8317 -23.8244 -23.8030 -23.7814 -23.7802 -23.7715 -23.7257
   -23.7098 -23.7049 -23.6967 -23.6585 -23.6252 -23.5956 -23.5804 -23.5638
   -22.9979 -22.9800 -22.9514 -22.9397 -22.9333 -22.9196 -22.9170 -22.9068
   -22.8874 -22.8796 -22.8725 -22.8710 -22.8590 -22.8394 -22.8384 -22.8198
   -22.8157 -22.7997 -22.7922 -22.7787 -22.7730 -22.7632 -22.7595 -22.7504
    12.9394  14.3263  14.3704  15.0868  15.4048  15.7119  15.7752  16.0157
    16.0503  16.1199  16.2488  16.2718  16.3765  16.4437  16.5949  16.6758
    16.8026  16.9373  16.9489  17.1997  17.2787  17.3748  17.4005  17.4864
    17.4901  17.5162  17.5370  17.5805  17.7563  17.9300  17.9914  18.0592
    18.0896  18.1217  18.1507  18.2782  18.3068  18.3244  18.3513  18.3770
    18.4106  18.4616  18.4952  18.5081  18.6146  18.8742  18.9026  19.4885
    20.1298  20.1424  20.2033  20.3120  20.3555  20.3796  20.4368  20.4602
    20.6517  20.6789  20.7138  20.7368  20.7556  20.7845  20.8315  20.8750
    20.9471  21.0135  21.0468  21.1832  21.1943  21.2133  21.2580  21.2936
    21.3394  21.3699

          k = 0.1667 0.3333-0.5000 (  9574 PWs)   bands (ev):

   -66.9193 -66.5272 -66.5151 -52.3032 -52.3009 -52.2582 -52.2582 -52.2221
   -51.5585 -51.5561 -51.5548 -51.5507 -51.5499 -51.5498 -51.5416 -51.5416
   -33.0076 -33.0075 -33.0006 -32.6277 -32.6277 -32.6210 -32.6188 -32.6170
   -32.6001 -23.8212 -23.8105 -23.8019 -23.7905 -23.7771 -23.7587 -23.7329
   -23.7040 -23.7039 -23.6881 -23.6793 -23.6446 -23.5865 -23.5848 -23.5672
   -22.9816 -22.9806 -22.9486 -22.9407 -22.9199 -22.9142 -22.9109 -22.9073
   -22.9017 -22.8897 -22.8806 -22.8800 -22.8607 -22.8508 -22.8426 -22.8168
   -22.8114 -22.7989 -22.7801 -22.7764 -22.7729 -22.7704 -22.7553 -22.7552
    13.5300  13.6203  14.6896  14.7865  15.6187  15.6764  16.2173  16.2292
    16.2588  16.2868  16.3130  16.3233  16.4448  16.4502  16.5639  16.5681
    16.5801  16.6234  17.2696  17.2773  17.3232  17.3471  17.3718  17.4205
    17.4962  17.4974  17.6041  17.6058  17.7867  17.7931  17.8923  17.9226
    18.0087  18.0592  18.1357  18.1591  18.1778  18.1917  18.2147  18.2490
    18.2997  18.3251  18.3612  18.3948  18.4296  18.4445  19.2437  19.2445
    20.2609  20.2879  20.3457  20.3476  20.4721  20.4870  20.5241  20.5365
    20.5518  20.5833  20.6070  20.6374  20.8164  20.8231  20.8587  20.9109
    21.0185  21.0519  21.0603  21.0922  21.1508  21.1532  21.2102  21.2251
    21.2385  21.3119

          k = 0.1667-0.5000-0.5000 (  9588 PWs)   bands (ev):

   -66.9193 -66.5272 -66.5152 -52.3018 -52.2996 -52.2597 -52.2597 -52.2222
   -51.5567 -51.5564 -51.5563 -51.5502 -51.5459 -51.5459 -51.5458 -51.5457
   -33.0076 -33.0075 -32.9997 -32.6277 -32.6277 -32.6220 -32.6189 -32.6170
   -32.6000 -23.8153 -23.8045 -23.7951 -23.7791 -23.7776 -23.7659 -23.7369
   -23.7067 -23.7038 -23.6634 -23.6482 -23.6348 -23.6267 -23.6192 -23.5709
   -22.9820 -22.9796 -22.9393 -22.9294 -22.9209 -22.9152 -22.9140 -22.9140
   -22.9063 -22.8951 -22.8900 -22.8772 -22.8676 -22.8558 -22.8553 -22.8052
   -22.7908 -22.7883 -22.7841 -22.7799 -22.7709 -22.7689 -22.7631 -22.7599
    14.0482  14.0956  14.1064  14.2350  16.0077  16.0186  16.0331  16.1425
    16.2606  16.3474  16.3894  16.3927  16.6811  16.6848  16.7002  16.7017
    16.8844  16.9671  16.9963  17.0145  17.2206  17.2590  17.2646  17.2858
    17.4088  17.4464  17.5229  17.5626  17.7215  17.7607  17.7923  17.8065
    17.9149  17.9190  17.9557  17.9568  18.0528  18.0920  18.0921  18.1306
    18.2446  18.3017  18.3192  18.3232  18.7639  18.7709  18.7952  18.7994
    20.4091  20.4301  20.4312  20.4873  20.5757  20.6397  20.6813  20.6960
    20.7091  20.7367  20.7478  20.7558  20.7814  20.7968  20.7985  20.8136
    20.8602  20.8691  20.8730  20.8749  21.0416  21.0871  21.0990  21.1026
    21.1135  21.1826

          k = 0.3333 0.3333 0.3333 (  9594 PWs)   bands (ev):

   -66.9193 -66.5272 -66.5152 -52.3042 -52.2992 -52.2595 -52.2569 -52.2230
   -51.5588 -51.5562 -51.5529 -51.5519 -51.5482 -51.5475 -51.5474 -51.5401
   -33.0075 -33.0075 -33.0006 -32.6278 -32.6276 -32.6205 -32.6186 -32.6176
   -32.6002 -23.8102 -23.8062 -23.7897 -23.7862 -23.7815 -23.7558 -23.7178
   -23.7064 -23.6987 -23.6897 -23.6844 -23.6293 -23.6168 -23.6056 -23.5831
   -22.9766 -22.9648 -22.9475 -22.9438 -22.9321 -22.9247 -22.9103 -22.9057
   -22.8827 -22.8775 -22.8670 -22.8648 -22.8638 -22.8367 -22.8331 -22.8254
   -22.8196 -22.8129 -22.8024 -22.7840 -22.7762 -22.7683 -22.7621 -22.7580
    13.3381  14.5816  14.6853  14.7672  15.3938  15.5209  15.5821  16.2896
    16.2998  16.3211  16.5014  16.5066  16.6371  16.6811  16.7409  16.7525
    16.8474  16.8595  16.9796  17.0186  17.2746  17.2774  17.4591  17.4866
    17.4998  17.6239  17.6335  17.6557  17.6778  17.6912  17.8978  17.9117
    17.9465  17.9543  17.9702  17.9789  18.0149  18.0390  18.0499  18.0527
    18.1260  18.1832  18.2287  18.2389  18.3842  18.4461  18.4484  19.1795
    20.3649  20.3747  20.3790  20.4304  20.5821  20.6123  20.6501  20.6826
    20.6917  20.7155  20.8173  20.8298  20.8631  20.8791  20.8958  21.0053
    21.0271  21.0876  21.1539  21.1569  21.1754  21.1928  21.2093  21.3269
    21.3289  21.3871

          k = 0.3333 0.3333-0.5000 (  9598 PWs)   bands (ev):

   -66.9193 -66.5272 -66.5152 -52.3017 -52.3009 -52.2582 -52.2582 -52.2237
   -51.5587 -51.5553 -51.5523 -51.5496 -51.5496 -51.5494 -51.5442 -51.5438
   -33.0075 -33.0075 -33.0006 -32.6277 -32.6277 -32.6202 -32.6186 -32.6177
   -32.6002 -23.8033 -23.8026 -23.7857 -23.7817 -23.7594 -23.7513 -23.7214
   -23.6985 -23.6957 -23.6950 -23.6879 -23.6586 -23.6232 -23.6021 -23.5987
   -22.9616 -22.9589 -22.9491 -22.9407 -22.9280 -22.9254 -22.9162 -22.9019
   -22.8936 -22.8697 -22.8663 -22.8637 -22.8457 -22.8430 -22.8381 -22.8339
   -22.8265 -22.8072 -22.7970 -22.7897 -22.7815 -22.7793 -22.7613 -22.7599
    13.8976  13.9953  15.0515  15.0876  15.1049  15.2103  16.0714  16.1124
    16.5242  16.5262  16.5596  16.5962  16.6017  16.6562  16.7686  16.7935
    16.8153  16.8169  17.2743  17.3104  17.3466  17.3612  17.3615  17.3756
    17.4330  17.4435  17.6102  17.6358  17.6689  17.6764  17.7196  17.7235
    17.8052  17.8195  17.8748  17.9413  17.9476  17.9558  17.9779  18.0151
    18.0409  18.0563  18.0647  18.0656  18.1239  18.1341  18.6923  18.6958
    20.5695  20.5858  20.6118  20.6171  20.6269  20.6675  20.6806  20.7189
    20.7409  20.7610  20.8111  20.8235  20.8694  20.9619  21.0258  21.0352
    21.0577  21.0652  21.0758  21.1005  21.1409  21.1650  21.1734  21.2155
    21.2204  21.2268

          k = 0.3333-0.5000-0.5000 (  9632 PWs)   bands (ev):

   -66.9194 -66.5273 -66.5152 -52.3003 -52.2995 -52.2596 -52.2596 -52.2237
   -51.5553 -51.5552 -51.5551 -51.5493 -51.5473 -51.5471 -51.5471 -51.5466
   -33.0076 -33.0075 -32.9997 -32.6276 -32.6276 -32.6211 -32.6188 -32.6180
   -32.6002 -23.7875 -23.7792 -23.7694 -23.7639 -23.7522 -23.7504 -23.7400
   -23.7083 -23.6985 -23.6794 -23.6662 -23.6657 -23.6498 -23.6466 -23.6179
   -22.9622 -22.9563 -22.9418 -22.9365 -22.9197 -22.9125 -22.9081 -22.9076
   -22.9075 -22.8676 -22.8673 -22.8519 -22.8495 -22.8448 -22.8438 -22.8151
   -22.8042 -22.8005 -22.7998 -22.7990 -22.7888 -22.7855 -22.7828 -22.7796
    14.4233  14.4635  14.4786  14.6210  15.6000  15.6057  15.6150  15.7418
    16.5979  16.6525  16.6987  16.6988  16.9489  17.0098  17.0244  17.0446
    17.0507  17.0579  17.0588  17.0602  17.1348  17.2339  17.2786  17.2931
    17.5363  17.5485  17.5568  17.5668  17.5873  17.6018  17.6173  17.6288
    17.7212  17.7522  17.7548  17.7576  17.8217  17.8219  17.8445  17.8465
    17.9239  17.9684  17.9910  17.9928  18.1841  18.1923  18.2146  18.2226
    20.6774  20.7306  20.7316  20.7573  20.7671  20.8393  20.8648  20.8831
    20.8849  20.9074  20.9119  20.9247  20.9951  20.9997  21.0122  21.0256
    21.0478  21.0592  21.0735  21.0736  21.1027  21.1365  21.1584  21.1924
    21.2756  21.2837

          k =-0.5000-0.5000-0.5000 (  9568 PWs)   bands (ev):

   -66.9193 -66.5272 -66.5151 -52.2995 -52.2995 -52.2596 -52.2596 -52.2245
   -51.5544 -51.5544 -51.5543 -51.5483 -51.5483 -51.5479 -51.5479 -51.5476
   -33.0074 -33.0074 -32.9997 -32.6274 -32.6274 -32.6202 -32.6187 -32.6187
   -32.6001 -23.7799 -23.7577 -23.7506 -23.7495 -23.7348 -23.7279 -23.7207
   -23.7086 -23.7086 -23.6978 -23.6952 -23.6760 -23.6760 -23.6508 -23.6508
   -22.9415 -22.9388 -22.9388 -22.9367 -22.9359 -22.9138 -22.9138 -22.9039
   -22.9039 -22.8621 -22.8356 -22.8356 -22.8304 -22.8304 -22.8278 -22.8144
   -22.8144 -22.8113 -22.8104 -22.8069 -22.8067 -22.8030 -22.8017 -22.8017
    14.8641  14.8807  14.9363  15.1268  15.1268  15.1756  15.1756  15.1768
    16.9831  16.9831  17.0097  17.0097  17.0376  17.0608  17.0608  17.0636
    17.0636  17.0811  17.1962  17.1988  17.2782  17.3000  17.3013  17.3074
    17.5537  17.5865  17.5865  17.5981  17.6083  17.6550  17.6550  17.6597
    17.6627  17.6627  17.6788  17.6788  17.6975  17.7019  17.7152  17.7216
    17.7242  17.7311  17.7316  17.7316  17.7323  17.7323  17.7521  17.7603
    20.7554  20.7908  20.9239  20.9239  20.9564  20.9726  20.9825  20.9825
    20.9842  20.9964  20.9964  21.0032  21.0058  21.0244  21.0273  21.0273
    21.1184  21.1184  21.1498  21.1508  21.1849  21.1849  21.1983  21.2784
    21.2784  21.3839

          k = 0.0000 0.1667 0.0000 (  9595 PWs)   bands (ev):

   -66.9193 -66.5272 -66.5152 -52.3178 -52.2951 -52.2588 -52.2517 -52.2187
   -51.5632 -51.5629 -51.5629 -51.5498 -51.5463 -51.5463 -51.5438 -51.5282
   -33.0078 -33.0078 -33.0023 -32.6284 -32.6284 -32.6184 -32.6184 -32.6178
   -32.6001 -23.9088 -23.8756 -23.8756 -23.8249 -23.8249 -23.7239 -23.6790
   -23.6790 -23.6735 -23.6613 -23.6613 -23.5697 -23.5469 -23.5469 -23.5460
   -23.0508 -22.9986 -22.9907 -22.9907 -22.9876 -22.9688 -22.9378 -22.8955
   -22.8955 -22.8517 -22.8389 -22.8324 -22.8324 -22.8206 -22.8183 -22.8183
   -22.8096 -22.8047 -22.7963 -22.7963 -22.7524 -22.7492 -22.7271 -22.7271
    11.7924  14.8032  15.1290  15.3180  15.3367  15.3367  15.4014  15.4177
    15.4921  15.6108  15.6703  15.7535  15.7535  15.8589  16.1883  17.0852
    17.1563  17.1563  17.2347  17.2347  17.2904  17.3130  17.3441  17.3616
    17.3616  17.3704  17.7224  17.7341  17.7341  17.9083  18.0408  18.0408
    18.6951  18.7470  18.7470  18.7489  18.8096  18.8439  18.9020  18.9020
    19.1030  19.1030  19.2866  19.2866  19.7423  19.7726  19.8566  19.8922
    19.8922  19.8936  20.0308  20.1254  20.1254  20.3002  20.3002  20.5259
    20.5259  20.7005  20.7756  20.8663  20.8707  20.9088  20.9088  20.9613
    20.9918  20.9931  21.0144  21.0517  21.0774  21.0909  21.1425  21.4888
    21.6411  21.6632

          k = 0.0000 0.3333 0.0000 (  9606 PWs)   bands (ev):

   -66.9193 -66.5272 -66.5152 -52.3134 -52.2941 -52.2634 -52.2527 -52.2188
   -51.5609 -51.5594 -51.5594 -51.5518 -51.5498 -51.5498 -51.5405 -51.5315
   -33.0077 -33.0077 -33.0006 -32.6280 -32.6280 -32.6195 -32.6188 -32.6188
   -32.6002 -23.8515 -23.8515 -23.8471 -23.7997 -23.7997 -23.7271 -23.7118
   -23.7118 -23.6880 -23.6880 -23.6552 -23.6415 -23.5906 -23.5476 -23.5476
   -23.0408 -22.9664 -22.9664 -22.9614 -22.9365 -22.9318 -22.9172 -22.9041
   -22.9041 -22.8508 -22.8482 -22.8344 -22.8271 -22.8271 -22.8172 -22.8115
   -22.8115 -22.8080 -22.8016 -22.7912 -22.7912 -22.7861 -22.7496 -22.7496
    12.2420  13.8459  15.2621  15.4874  15.4874  15.5048  15.5911  15.6745
    15.7323  15.7866  15.7866  15.8274  15.9075  15.9368  16.2814  16.6924
    16.7042  16.8758  17.1074  17.1074  17.1863  17.1863  17.5475  17.5875
    17.5967  17.5967  17.7582  17.9393  18.0111  18.0111  18.1757  18.1757
    18.3348  18.3665  18.5083  18.5083  18.7357  18.7357  18.8123  18.8123
    18.9593  18.9634  19.0293  19.2005  19.2005  19.4324  19.4775  19.5104
    19.5104  19.7676  19.7676  20.0821  20.1751  20.3487  20.3487  20.5113
    20.6429  20.6516  20.6516  20.6726  20.8948  20.9374  21.0209  21.0410
    21.1110  21.1575  21.1817  21.1817  21.3257  21.3994  21.5273  21.5376
    21.5498  21.5498

          k = 0.0000-0.5000 0.0000 (  9626 PWs)   bands (ev):

   -66.9193 -66.5273 -66.5152 -52.3108 -52.2935 -52.2661 -52.2533 -52.2189
   -51.5591 -51.5546 -51.5546 -51.5546 -51.5546 -51.5534 -51.5361 -51.5360
   -33.0077 -33.0077 -32.9998 -32.6278 -32.6278 -32.6204 -32.6190 -32.6190
   -32.6003 -23.8355 -23.8355 -23.7721 -23.7721 -23.7717 -23.7469 -23.7469
   -23.7316 -23.7286 -23.7016 -23.7016 -23.6383 -23.6086 -23.5480 -23.5480
   -23.0354 -22.9577 -22.9525 -22.9525 -22.9105 -22.9105 -22.8922 -22.8918
   -22.8813 -22.8596 -22.8488 -22.8432 -22.8431 -22.8400 -22.8279 -22.8279
   -22.8126 -22.8126 -22.7991 -22.7991 -22.7816 -22.7816 -22.7737 -22.7737
    12.9149  12.9862  15.3630  15.4984  15.6454  15.6454  15.7092  15.7092
    15.7497  15.8849  16.0259  16.0695  16.1703  16.1849  16.2204  16.2262
    16.2973  16.3705  17.1240  17.1240  17.1335  17.1335  17.8859  17.9034
    17.9242  17.9669  17.9735  17.9735  17.9950  17.9950  18.1927  18.2190
    18.2351  18.3338  18.4145  18.4145  18.4310  18.4310  18.7147  18.7147
    18.7314  18.7314  18.8068  18.8068  18.8167  18.8167  19.1398  19.2339
    20.0131  20.0668  20.2113  20.2113  20.3005  20.3005  20.3975  20.4021
    20.4201  20.5093  20.9037  20.9037  20.9183  20.9307  20.9675  20.9675
    21.0159  21.0365  21.2303  21.3032  21.3081  21.3372  21.6674  21.6680
    21.6783  21.7075

          k = 0.1667 0.0000 0.1667 (  9557 PWs)   bands (ev):

   -66.9193 -66.5271 -66.5151 -52.3162 -52.2977 -52.2562 -52.2521 -52.2199
   -51.5635 -51.5616 -51.5608 -51.5507 -51.5471 -51.5451 -51.5451 -51.5294
   -33.0077 -33.0076 -33.0032 -32.6284 -32.6278 -32.6186 -32.6181 -32.6168
   -32.6002 -23.9033 -23.8710 -23.8546 -23.8164 -23.8130 -23.7273 -23.7111
   -23.7069 -23.6924 -23.6616 -23.6468 -23.5711 -23.5636 -23.5572 -23.5138
   -23.0321 -22.9957 -22.9913 -22.9801 -22.9799 -22.9493 -22.9269 -22.9017
   -22.8998 -22.8578 -22.8493 -22.8474 -22.8217 -22.8196 -22.8189 -22.8142
   -22.8063 -22.8049 -22.8045 -22.8006 -22.7623 -22.7501 -22.7426 -22.7212
    11.9440  14.7771  14.9746  15.2172  15.3193  15.4418  15.4465  15.4683
    15.5319  15.6577  15.6989  15.7992  15.8124  16.1638  16.2585  16.9586
    17.0407  17.2174  17.2626  17.2946  17.2979  17.3096  17.3421  17.3626
    17.3787  17.4501  17.5033  17.6398  17.7569  17.7968  17.8721  18.4272
    18.4305  18.5997  18.6426  18.7159  18.7376  18.7385  18.9227  18.9772
    19.2745  19.2935  19.3671  19.3769  19.3937  19.4095  19.6743  19.7244
    19.7362  19.8951  19.9145  19.9616  19.9835  19.9864  20.3321  20.3723
    20.6635  20.7679  20.7880  20.7965  20.8653  20.9055  20.9382  20.9512
    20.9626  21.0404  21.0448  21.1788  21.2433  21.2474  21.2655  21.3927
    21.4041  21.5952

          k = 0.1667 0.3333 0.0000 (  9577 PWs)   bands (ev):

   -66.9193 -66.5272 -66.5151 -52.3118 -52.2950 -52.2627 -52.2535 -52.2195
   -51.5603 -51.5591 -51.5581 -51.5523 -51.5502 -51.5486 -51.5418 -51.5328
   -33.0077 -33.0076 -33.0006 -32.6279 -32.6279 -32.6202 -32.6188 -32.6179
   -32.6001 -23.8528 -23.8466 -23.8314 -23.7941 -23.7896 -23.7421 -23.7155
   -23.7152 -23.7049 -23.6920 -23.6475 -23.6230 -23.5929 -23.5588 -23.5483
   -23.0303 -22.9827 -22.9658 -22.9393 -22.9365 -22.9277 -22.9220 -22.9059
   -22.8999 -22.8562 -22.8556 -22.8418 -22.8366 -22.8358 -22.8212 -22.8208
   -22.8081 -22.8051 -22.7993 -22.7967 -22.7834 -22.7705 -22.7515 -22.7448
    12.3855  13.9503  15.0108  15.2084  15.5378  15.6039  15.7084  15.7450
    15.7854  15.8063  15.8746  15.9139  15.9769  16.2443  16.3390  16.6952
    16.7288  16.8337  17.1593  17.2404  17.2418  17.2520  17.4280  17.5006
    17.5317  17.5443  17.7495  17.7684  17.7945  18.0050  18.0959  18.2280
    18.2799  18.4539  18.4676  18.5457  18.5729  18.6188  18.6662  18.7216
    18.7652  18.8634  19.0638  19.1454  19.1692  19.1881  19.2573  19.5375
    19.6764  19.8108  19.8298  20.1148  20.1929  20.2511  20.2900  20.4300
    20.5677  20.6756  20.6785  20.7650  20.8680  20.9091  20.9894  21.0069
    21.0225  21.1057  21.1102  21.1864  21.2234  21.3826  21.4011  21.4268
    21.4914  21.5018

          k = 0.3333 0.0000 0.1667 (  9577 PWs)   bands (ev):

   -66.9193 -66.5272 -66.5151 -52.3116 -52.3007 -52.2555 -52.2532 -52.2213
   -51.5622 -51.5581 -51.5573 -51.5531 -51.5494 -51.5486 -51.5418 -51.5328
   -33.0076 -33.0075 -33.0032 -32.6282 -32.6276 -32.6188 -32.6182 -32.6167
   -32.6004 -23.8675 -23.8525 -23.8246 -23.7946 -23.7835 -23.7631 -23.7434
   -23.7238 -23.7085 -23.6770 -23.6579 -23.6088 -23.5643 -23.5503 -23.5253
   -23.0063 -22.9802 -22.9745 -22.9601 -22.9375 -22.9229 -22.9131 -22.9121
   -22.9028 -22.8709 -22.8671 -22.8535 -22.8397 -22.8371 -22.8165 -22.8121
   -22.8118 -22.8049 -22.8013 -22.7927 -22.7815 -22.7646 -22.7531 -22.7312
    12.3856  13.9469  15.0475  15.2303  15.5234  15.6011  15.6692  15.7720
    15.7885  15.8044  15.8758  15.9325  15.9797  16.1905  16.3109  16.6985
    16.7652  16.8200  17.1589  17.2217  17.2417  17.2496  17.4452  17.4929
    17.5403  17.5435  17.7179  17.7597  17.7985  18.0099  18.1018  18.2275
    18.2765  18.4659  18.4724  18.5410  18.5826  18.6149  18.6458  18.7172
    18.7673  18.8550  19.0256  19.1361  19.1773  19.1879  19.3028  19.5475
    19.6773  19.8157  19.8248  20.1327  20.1829  20.2459  20.3006  20.4379
    20.5818  20.6798  20.6923  20.7730  20.8322  20.9142  20.9886  20.9957
    21.0448  21.0834  21.1300  21.1577  21.2131  21.3780  21.3928  21.4144
    21.4784  21.5224

          k = 0.1667-0.5000 0.0000 (  9608 PWs)   bands (ev):

   -66.9193 -66.5272 -66.5152 -52.3094 -52.2944 -52.2652 -52.2541 -52.2195
   -51.5588 -51.5557 -51.5549 -51.5534 -51.5534 -51.5522 -51.5373 -51.5373
   -33.0077 -33.0077 -32.9998 -32.6278 -32.6278 -32.6211 -32.6190 -32.6181
   -32.6002 -23.8339 -23.8267 -23.7867 -23.7847 -23.7705 -23.7602 -23.7441
   -23.7180 -23.7096 -23.7024 -23.6855 -23.6314 -23.6124 -23.5590 -23.5488
   -23.0254 -22.9756 -22.9487 -22.9324 -22.9225 -22.9194 -22.8889 -22.8883
   -22.8810 -22.8764 -22.8739 -22.8546 -22.8541 -22.8533 -22.8408 -22.8210
   -22.8006 -22.7984 -22.7872 -22.7856 -22.7806 -22.7731 -22.7720 -22.7680
    13.0425  13.1156  15.1059  15.2057  15.6866  15.7326  15.7572  15.8174
    15.9837  16.0822  16.1051  16.1356  16.2305  16.2481  16.2658  16.2823
    16.3440  16.4141  17.1678  17.1744  17.1913  17.1924  17.7353  17.7512
    17.7814  17.7938  17.8232  17.8307  17.9424  17.9993  18.2142  18.2253
    18.2294  18.2935  18.4393  18.4485  18.5043  18.5173  18.5238  18.5238
    18.5261  18.5764  18.6121  18.6582  18.6604  18.7082  19.3784  19.4277
    20.1047  20.1226  20.1777  20.2086  20.2600  20.3272  20.4285  20.4408
    20.4752  20.5286  20.6199  20.6437  20.7642  20.8217  20.8978  20.9765
    20.9866  21.0832  21.2055  21.2598  21.2617  21.2929  21.4292  21.4317
    21.4704  21.4743

          k =-0.5000 0.0000 0.1667 (  9608 PWs)   bands (ev):

   -66.9193 -66.5272 -66.5152 -52.3070 -52.3046 -52.2545 -52.2544 -52.2220
   -51.5609 -51.5553 -51.5534 -51.5534 -51.5533 -51.5523 -51.5373 -51.5373
   -33.0077 -33.0075 -33.0032 -32.6279 -32.6277 -32.6187 -32.6186 -32.6167
   -32.6005 -23.8332 -23.8166 -23.8165 -23.8107 -23.7836 -23.7798 -23.7340
   -23.7272 -23.7068 -23.7013 -23.6908 -23.6209 -23.5635 -23.5412 -23.5369
   -22.9849 -22.9774 -22.9627 -22.9363 -22.9322 -22.9147 -22.9072 -22.8932
   -22.8889 -22.8782 -22.8782 -22.8728 -22.8492 -22.8491 -22.8463 -22.8260
   -22.8100 -22.8053 -22.7860 -22.7834 -22.7802 -22.7636 -22.7538 -22.7536
    13.0374  13.1207  15.1605  15.2096  15.7073  15.7423  15.7590  15.8137
    15.9396  15.9793  16.0891  16.1779  16.2408  16.2610  16.2735  16.3409
    16.3447  16.3460  17.1682  17.1730  17.1835  17.1888  17.7146  17.7658
    17.7693  17.8082  17.8280  17.8342  17.9461  17.9509  18.2159  18.2260
    18.2345  18.2708  18.3855  18.4563  18.5110  18.5135  18.5194  18.5344
    18.5464  18.5526  18.6454  18.6718  18.6752  18.7019  19.3897  19.4336
    20.0911  20.1548  20.1768  20.2259  20.2598  20.3292  20.4265  20.4750
    20.4972  20.4997  20.5997  20.6361  20.7983  20.8101  20.8510  20.9863
    20.9880  21.1046  21.1898  21.2133  21.2451  21.2847  21.4400  21.4612
    21.4694  21.5047

          k = 0.3333 0.0000 0.3333 (  9582 PWs)   bands (ev):

   -66.9193 -66.5272 -66.5151 -52.3085 -52.3022 -52.2551 -52.2537 -52.2229
   -51.5627 -51.5552 -51.5547 -51.5542 -51.5497 -51.5453 -51.5453 -51.5361
   -33.0076 -33.0075 -33.0032 -32.6283 -32.6277 -32.6186 -32.6180 -32.6167
   -32.6004 -23.8497 -23.8443 -23.8126 -23.8090 -23.7836 -23.7719 -23.7289
   -23.7281 -23.7046 -23.6651 -23.6428 -23.6200 -23.5994 -23.5467 -23.5322
   -22.9894 -22.9684 -22.9627 -22.9585 -22.9372 -22.9335 -22.9266 -22.9038
   -22.8765 -22.8756 -22.8714 -22.8688 -22.8626 -22.8612 -22.8505 -22.8221
   -22.8123 -22.8004 -22.7861 -22.7831 -22.7631 -22.7607 -22.7569 -22.7259
    12.8008  14.1616  14.3124  14.9644  15.8060  15.8709  15.8783  15.9694
    15.9798  16.0169  16.0419  16.1589  16.1760  16.2507  16.4245  16.6369
    16.7326  16.9088  17.0533  17.2068  17.3061  17.3691  17.3812  17.4015
    17.4327  17.5012  17.6199  17.6296  17.7626  18.0481  18.0742  18.1155
    18.1840  18.2030  18.2646  18.3639  18.4104  18.4387  18.4394  18.4926
    18.5669  18.6308  18.6367  18.7988  18.8035  19.1013  19.2375  19.4481
    19.9236  20.0790  20.0926  20.2144  20.2731  20.2836  20.3157  20.5355
    20.5572  20.6201  20.6429  20.7129  20.7364  20.7526  20.7790  20.8824
    20.9269  20.9355  21.0142  21.0324  21.1659  21.1757  21.2670  21.2824
    21.3482  21.3710

          k = 0.3333-0.5000 0.0000 (  9578 PWs)   bands (ev):

   -66.9193 -66.5272 -66.5151 -52.3058 -52.2968 -52.2629 -52.2565 -52.2208
   -51.5580 -51.5568 -51.5557 -51.5511 -51.5500 -51.5500 -51.5407 -51.5407
   -33.0076 -33.0075 -32.9997 -32.6278 -32.6277 -32.6219 -32.6189 -32.6171
   -32.6000 -23.8308 -23.8102 -23.7995 -23.7983 -23.7792 -23.7673 -23.7381
   -23.7096 -23.7045 -23.6767 -23.6546 -23.6223 -23.6221 -23.5840 -23.5503
   -23.0026 -22.9870 -22.9368 -22.9329 -22.9273 -22.9156 -22.9114 -22.9079
   -22.9020 -22.8852 -22.8845 -22.8782 -22.8752 -22.8607 -22.8504 -22.8114
   -22.7864 -22.7813 -22.7784 -22.7747 -22.7730 -22.7689 -22.7600 -22.7577
    13.4054  13.4827  14.5568  14.6503  15.9471  16.0173  16.0428  16.0863
    16.1044  16.1979  16.2936  16.3112  16.3395  16.3517  16.4504  16.4647
    16.4965  16.5748  17.2466  17.2469  17.3190  17.3479  17.4168  17.4199
    17.4578  17.4618  17.5716  17.6603  17.8359  17.8384  18.0678  18.0748
    18.1308  18.1564  18.2059  18.2132  18.2857  18.3104  18.3230  18.4014
    18.4589  18.4992  18.5399  18.5569  18.6376  18.6411  19.5021  19.5158
    20.0535  20.0835  20.3331  20.3431  20.3563  20.3673  20.4480  20.4740
    20.4832  20.5185  20.5410  20.5585  20.5953  20.6025  20.8288  20.8933
    21.0139  21.0252  21.0397  21.0424  21.0629  21.1395  21.1450  21.1793
    21.2307  21.2690

          k =-0.5000 0.0000 0.3333 (  9578 PWs)   bands (ev):

   -66.9193 -66.5272 -66.5151 -52.3054 -52.3046 -52.2544 -52.2544 -52.2237
   -51.5627 -51.5562 -51.5516 -51.5513 -51.5500 -51.5500 -51.5407 -51.5407
   -33.0075 -33.0075 -33.0031 -32.6281 -32.6280 -32.6182 -32.6182 -32.6166
   -32.6004 -23.8348 -23.8344 -23.8134 -23.8134 -23.7926 -23.7915 -23.7073
   -23.7024 -23.6909 -23.6715 -23.6676 -23.6303 -23.6053 -23.5409 -23.5394
   -22.9693 -22.9662 -22.9582 -22.9540 -22.9385 -22.9319 -22.9178 -22.9090
   -22.9055 -22.8864 -22.8834 -22.8686 -22.8672 -22.8581 -22.8412 -22.8385
   -22.8131 -22.7966 -22.7778 -22.7713 -22.7706 -22.7678 -22.7354 -22.7353
    13.3982  13.4892  14.5821  14.6504  16.0065  16.0274  16.0337  16.0752
    16.0893  16.0953  16.3011  16.3574  16.3672  16.3729  16.4272  16.4552
    16.4958  16.5478  17.2406  17.2510  17.2940  17.3012  17.4044  17.4477
    17.4667  17.4785  17.5860  17.6062  17.8392  17.8403  18.0678  18.0874
    18.1147  18.1492  18.2123  18.2158  18.2280  18.3170  18.3995  18.4031
    18.4791  18.4922  18.5197  18.5638  18.6309  18.6440  19.5143  19.5210
    20.0277  20.0893  20.3414  20.3590  20.3737  20.3740  20.4356  20.4736
    20.5112  20.5310  20.5373  20.5581  20.5755  20.6111  20.7823  20.8943
    21.0058  21.0161  21.0223  21.0390  21.0522  21.0926  21.1420  21.1699
    21.2236  21.2673

          k =-0.5000 0.0000-0.5000 (  9580 PWs)   bands (ev):

   -66.9193 -66.5272 -66.5151 -52.3046 -52.3046 -52.2544 -52.2544 -52.2246
   -51.5634 -51.5565 -51.5509 -51.5509 -51.5454 -51.5453 -51.5453 -51.5453
   -33.0075 -33.0075 -33.0032 -32.6282 -32.6282 -32.6179 -32.6179 -32.6166
   -32.6004 -23.8429 -23.8382 -23.8120 -23.8120 -23.7980 -23.7907 -23.7002
   -23.6685 -23.6666 -23.6666 -23.6624 -23.6434 -23.6392 -23.5407 -23.5407
   -22.9676 -22.9676 -22.9461 -22.9451 -22.9348 -22.9348 -22.9278 -22.9218
   -22.9218 -22.9038 -22.9038 -22.8626 -22.8563 -22.8563 -22.8428 -22.8423
   -22.8144 -22.7870 -22.7763 -22.7763 -22.7658 -22.7658 -22.7281 -22.7279
    13.8425  14.0095  14.0597  14.0597  16.1316  16.1316  16.2071  16.2305
    16.2466  16.2590  16.4166  16.4166  16.4401  16.4401  16.4723  16.5166
    16.8211  16.8211  17.0204  17.1295  17.2386  17.2386  17.2484  17.2498
    17.3138  17.3138  17.5745  17.5929  17.8914  17.8914  17.9070  17.9597
    17.9597  17.9837  18.0003  18.0023  18.0981  18.2078  18.2752  18.2752
    18.4383  18.4520  18.4520  18.5030  19.0547  19.0547  19.1809  19.1932
    20.0459  20.1301  20.2521  20.2521  20.5729  20.5854  20.5854  20.5858
    20.6201  20.6375  20.6539  20.6539  20.6541  20.6588  20.6588  20.7042
    20.7042  20.7753  20.8289  20.8350  20.9855  21.0030  21.0991  21.1040
    21.1040  21.1470

          k = 0.1667 0.3333 0.1667 (  9577 PWs)   bands (ev):

   -66.9193 -66.5272 -66.5151 -52.3104 -52.2957 -52.2621 -52.2542 -52.2201
   -51.5597 -51.5589 -51.5569 -51.5525 -51.5492 -51.5491 -51.5429 -51.5340
   -33.0076 -33.0076 -33.0006 -32.6279 -32.6278 -32.6205 -32.6187 -32.6177
   -32.6001 -23.8498 -23.8303 -23.8286 -23.7921 -23.7837 -23.7527 -23.7285
   -23.7117 -23.6963 -23.6931 -23.6523 -23.6161 -23.5966 -23.5641 -23.5579
   -23.0206 -22.9819 -22.9606 -22.9440 -22.9369 -22.9238 -22.9148 -22.9061
   -22.9005 -22.8586 -22.8572 -22.8562 -22.8466 -22.8305 -22.8294 -22.8200
   -22.8164 -22.8029 -22.7987 -22.7857 -22.7815 -22.7678 -22.7531 -22.7462
    12.5278  14.0582  15.0282  15.2445  15.2869  15.4411  15.7314  15.7593
    15.8595  15.8678  16.0077  16.0553  16.1988  16.4081  16.4166  16.6889
    16.7467  16.8931  17.1483  17.2614  17.2781  17.3363  17.3490  17.4635
    17.4744  17.5018  17.6953  17.7116  17.8168  17.9758  17.9987  18.0215
    18.3069  18.3419  18.4128  18.4708  18.5034  18.5783  18.6014  18.6091
    18.6301  18.6766  18.8686  18.9301  18.9865  19.0098  19.3290  19.3491
    19.8314  19.8847  19.9378  20.1877  20.2562  20.3131  20.4401  20.4883
    20.5145  20.6358  20.7196  20.7551  20.7926  20.8379  20.9754  21.0085
    21.0255  21.0340  21.0717  21.1088  21.1509  21.3139  21.3380  21.4152
    21.4702  21.5293

          k = 0.1667-0.5000 0.1667 (  9588 PWs)   bands (ev):

   -66.9193 -66.5272 -66.5151 -52.3081 -52.2950 -52.2645 -52.2549 -52.2202
   -51.5585 -51.5558 -51.5545 -51.5530 -51.5529 -51.5514 -51.5385 -51.5384
   -33.0076 -33.0076 -32.9997 -32.6278 -32.6277 -32.6214 -32.6189 -32.6178
   -32.6001 -23.8284 -23.8197 -23.7872 -23.7852 -23.7757 -23.7663 -23.7413
   -23.7130 -23.7057 -23.6961 -23.6766 -23.6302 -23.6184 -23.5659 -23.5574
   -23.0158 -22.9779 -22.9494 -22.9339 -22.9222 -22.9163 -22.8963 -22.8930
   -22.8885 -22.8839 -22.8695 -22.8601 -22.8562 -22.8540 -22.8240 -22.8234
   -22.8198 -22.7939 -22.7885 -22.7863 -22.7811 -22.7660 -22.7652 -22.7640
    13.1708  13.2457  15.1409  15.2740  15.3872  15.4072  15.9856  16.0377
    16.1137  16.1856  16.2108  16.2287  16.2632  16.2990  16.3270  16.3373
    16.4017  16.4666  17.1870  17.1930  17.2601  17.2664  17.6909  17.6970
    17.7085  17.7336  17.7551  17.7552  17.8095  17.8812  18.2049  18.2161
    18.2229  18.2506  18.3016  18.3259  18.3801  18.4088  18.4125  18.4402
    18.4532  18.4573  18.4647  18.4932  18.5156  18.5622  19.4809  19.5024
    20.1948  20.2007  20.2458  20.2573  20.2779  20.3099  20.3121  20.3362
    20.4594  20.4787  20.5036  20.5443  20.8842  20.9374  20.9691  21.0023
    21.0135  21.1181  21.1698  21.2245  21.2305  21.2542  21.3257  21.3448
    21.3510  21.4027

          k = 0.3333 0.1667 0.3333 (  9595 PWs)   bands (ev):

   -66.9193 -66.5272 -66.5151 -52.3072 -52.3013 -52.2565 -52.2547 -52.2229
   -51.5616 -51.5558 -51.5536 -51.5536 -51.5493 -51.5462 -51.5459 -51.5372
   -33.0076 -33.0075 -33.0023 -32.6281 -32.6277 -32.6191 -32.6182 -32.6171
   -32.6003 -23.8390 -23.8317 -23.8045 -23.8044 -23.7887 -23.7575 -23.7250
   -23.7246 -23.7036 -23.6723 -23.6580 -23.6222 -23.6045 -23.5571 -23.5538
   -22.9847 -22.9617 -22.9603 -22.9570 -22.9375 -22.9268 -22.9239 -22.9053
   -22.8773 -22.8732 -22.8711 -22.8649 -22.8627 -22.8624 -22.8410 -22.8235
   -22.8131 -22.8015 -22.7997 -22.7810 -22.7693 -22.7646 -22.7539 -22.7353
    12.9394  14.2765  14.4343  15.1006  15.3929  15.6673  15.8214  15.9891
    16.0494  16.1531  16.2427  16.2637  16.3795  16.4555  16.5519  16.6882
    16.7983  16.9150  17.0149  17.1645  17.2518  17.3821  17.3913  17.4793
    17.4882  17.5111  17.5343  17.5852  17.7689  17.9343  17.9965  18.0440
    18.0882  18.1257  18.1508  18.2844  18.2897  18.3302  18.3369  18.4051
    18.4148  18.4331  18.4873  18.5756  18.5848  18.8710  18.9051  19.4904
    20.1173  20.1678  20.1906  20.3099  20.3683  20.3994  20.4127  20.4516
    20.6407  20.6951  20.7041  20.7512  20.7763  20.8002  20.8224  20.8648
    20.9348  20.9971  21.0175  21.1642  21.1911  21.2551  21.2799  21.3093
    21.3169  21.3546

          k = 0.3333-0.5000 0.1667 (  9574 PWs)   bands (ev):

   -66.9193 -66.5272 -66.5151 -52.3049 -52.2971 -52.2624 -52.2569 -52.2215
   -51.5576 -51.5564 -51.5552 -51.5509 -51.5501 -51.5497 -51.5416 -51.5416
   -33.0076 -33.0075 -32.9997 -32.6277 -32.6276 -32.6217 -32.6188 -32.6173
   -32.6000 -23.8204 -23.8008 -23.7926 -23.7922 -23.7738 -23.7688 -23.7387
   -23.7076 -23.7053 -23.6725 -23.6599 -23.6309 -23.6308 -23.5935 -23.5663
   -22.9937 -22.9811 -22.9408 -22.9379 -22.9223 -22.9148 -22.9086 -22.9054
   -22.9040 -22.8817 -22.8770 -22.8711 -22.8675 -22.8563 -22.8455 -22.8155
   -22.7979 -22.7884 -22.7881 -22.7856 -22.7744 -22.7665 -22.7601 -22.7600
    13.5360  13.6146  14.6848  14.7815  15.6145  15.6783  16.2182  16.2361
    16.2526  16.2765  16.3000  16.3495  16.4557  16.4923  16.5428  16.5487
    16.5692  16.6335  17.2758  17.2761  17.3452  17.3657  17.3728  17.3834
    17.4847  17.4928  17.5861  17.6527  17.7934  17.7949  17.8894  17.9211
    18.0097  18.0588  18.1195  18.1588  18.1795  18.1898  18.2068  18.2457
    18.2979  18.3273  18.3654  18.3929  18.4371  18.4403  19.2465  19.2481
    20.2513  20.2826  20.3492  20.3658  20.4443  20.4811  20.4973  20.5366
    20.5432  20.6034  20.6039  20.6350  20.8136  20.8385  20.8648  20.9107
    21.0337  21.0660  21.0757  21.1280  21.1474  21.1553  21.1817  21.1998
    21.2570  21.2897

          k =-0.5000 0.1667 0.3333 (  9574 PWs)   bands (ev):

   -66.9193 -66.5272 -66.5151 -52.3042 -52.3034 -52.2556 -52.2556 -52.2237
   -51.5616 -51.5558 -51.5511 -51.5510 -51.5505 -51.5498 -51.5417 -51.5416
   -33.0075 -33.0075 -33.0023 -32.6279 -32.6279 -32.6186 -32.6183 -32.6171
   -32.6003 -23.8260 -23.8256 -23.8063 -23.8045 -23.7804 -23.7788 -23.7127
   -23.7003 -23.6910 -23.6791 -23.6745 -23.6404 -23.6110 -23.5581 -23.5568
   -22.9652 -22.9643 -22.9574 -22.9512 -22.9343 -22.9308 -22.9162 -22.9054
   -22.9003 -22.8782 -22.8748 -22.8668 -22.8615 -22.8592 -22.8407 -22.8388
   -22.8154 -22.8002 -22.7864 -22.7781 -22.7738 -22.7715 -22.7415 -22.7412
    13.5281  13.6213  14.7146  14.7818  15.5933  15.6801  16.2084  16.2131
    16.2777  16.2844  16.3123  16.3551  16.4557  16.4743  16.5450  16.5686
    16.5807  16.5896  17.2692  17.2795  17.3161  17.3241  17.3707  17.4182
    17.4866  17.4896  17.5904  17.6113  17.7947  17.7960  17.8917  17.9139
    18.0141  18.0464  18.1499  18.1564  18.1816  18.1938  18.2463  18.2471
    18.3099  18.3155  18.3701  18.3979  18.4188  18.4369  19.2440  19.2476
    20.2512  20.2918  20.3691  20.3715  20.4610  20.4717  20.5111  20.5190
    20.5544  20.5905  20.6133  20.6268  20.8045  20.8246  20.8375  20.9110
    21.0253  21.0535  21.0655  21.0798  21.1467  21.1688  21.1756  21.2069
    21.3135  21.3196

          k =-0.5000 0.1667-0.5000 (  9588 PWs)   bands (ev):

   -66.9193 -66.5272 -66.5152 -52.3034 -52.3034 -52.2556 -52.2556 -52.2246
   -51.5622 -51.5561 -51.5506 -51.5506 -51.5465 -51.5459 -51.5457 -51.5457
   -33.0075 -33.0075 -33.0023 -32.6281 -32.6281 -32.6181 -32.6181 -32.6175
   -32.6004 -23.8327 -23.8273 -23.7965 -23.7965 -23.7901 -23.7823 -23.7017
   -23.6751 -23.6690 -23.6655 -23.6655 -23.6592 -23.6544 -23.5617 -23.5617
   -22.9592 -22.9592 -22.9455 -22.9429 -22.9355 -22.9355 -22.9295 -22.9123
   -22.9123 -22.8891 -22.8891 -22.8628 -22.8555 -22.8555 -22.8408 -22.8404
   -22.8167 -22.7918 -22.7843 -22.7843 -22.7721 -22.7721 -22.7380 -22.7378
    13.9708  14.1398  14.1973  14.1973  15.9067  16.0143  16.1488  16.1488
    16.2544  16.2544  16.4193  16.5317  16.6065  16.6882  16.7168  16.7168
    16.8455  16.8455  17.0341  17.1443  17.1820  17.1820  17.2631  17.2651
    17.3854  17.3854  17.5840  17.6008  17.7535  17.7535  17.7586  17.7837
    17.9191  17.9191  17.9592  17.9615  18.0697  18.0877  18.1243  18.1243
    18.2784  18.2784  18.3014  18.3355  18.7673  18.7673  18.7943  18.8026
    20.3612  20.4616  20.4788  20.4788  20.6032  20.6276  20.6814  20.6814
    20.7073  20.7073  20.7210  20.7629  20.7629  20.8232  20.8356  20.8356
    20.8457  20.8494  20.8777  20.8834  20.9846  21.0443  21.0910  21.0910
    21.0913  21.1760

          k = 0.3333-0.5000 0.3333 (  9598 PWs)   bands (ev):

   -66.9193 -66.5272 -66.5152 -52.3025 -52.2980 -52.2612 -52.2580 -52.2230
   -51.5565 -51.5556 -51.5544 -51.5498 -51.5496 -51.5492 -51.5440 -51.5439
   -33.0075 -33.0075 -32.9997 -32.6276 -32.6275 -32.6213 -32.6188 -32.6177
   -32.6001 -23.7988 -23.7798 -23.7772 -23.7764 -23.7672 -23.7632 -23.7359
   -23.7117 -23.7001 -23.6720 -23.6625 -23.6515 -23.6514 -23.6198 -23.6003
   -22.9723 -22.9679 -22.9431 -22.9384 -22.9214 -22.9157 -22.9113 -22.9001
   -22.8979 -22.8752 -22.8733 -22.8602 -22.8548 -22.8474 -22.8217 -22.8214
   -22.8185 -22.8023 -22.7990 -22.7990 -22.7817 -22.7737 -22.7704 -22.7686
    13.9068  13.9877  14.9567  15.0893  15.1849  15.2242  16.0642  16.1152
    16.5235  16.5280  16.5506  16.5992  16.6107  16.6495  16.7579  16.7825
    16.8064  16.8470  17.2852  17.2878  17.3589  17.3668  17.3721  17.4103
    17.4297  17.4439  17.6443  17.6472  17.6560  17.6824  17.7141  17.7152
    17.7886  17.8119  17.8800  17.9111  17.9347  17.9443  17.9676  18.0045
    18.0187  18.0593  18.0606  18.0945  18.1412  18.1414  18.6956  18.6961
    20.5550  20.5726  20.5914  20.6299  20.6394  20.6877  20.7065  20.7298
    20.7462  20.7651  20.7662  20.7778  20.9061  20.9634  21.0377  21.0460
    21.0502  21.0922  21.0959  21.0979  21.1202  21.1349  21.1832  21.2001
    21.2105  21.2158

          k =-0.5000 0.3333-0.5000 (  9632 PWs)   bands (ev):

   -66.9194 -66.5273 -66.5152 -52.3009 -52.3009 -52.2582 -52.2582 -52.2246
   -51.5589 -51.5550 -51.5498 -51.5495 -51.5495 -51.5469 -51.5467 -51.5467
   -33.0075 -33.0075 -33.0006 -32.6277 -32.6277 -32.6194 -32.6185 -32.6185
   -32.6003 -23.8047 -23.7961 -23.7711 -23.7602 -23.7544 -23.7544 -23.7086
   -23.7001 -23.6919 -23.6896 -23.6857 -23.6641 -23.6641 -23.6136 -23.6136
   -22.9436 -22.9402 -22.9402 -22.9383 -22.9340 -22.9340 -22.9337 -22.8980
   -22.8980 -22.8626 -22.8523 -22.8523 -22.8492 -22.8492 -22.8361 -22.8354
   -22.8221 -22.8031 -22.8017 -22.8017 -22.7890 -22.7890 -22.7658 -22.7656
    14.3361  14.5061  14.5870  14.5870  15.4491  15.6237  15.7324  15.7324
    16.5940  16.5940  16.7317  16.8550  16.9091  16.9091  16.9842  17.0490
    17.0642  17.0716  17.0716  17.0980  17.0980  17.1782  17.2895  17.2918
    17.5074  17.5074  17.5768  17.5768  17.5844  17.6178  17.6256  17.6369
    17.7397  17.7397  17.7672  17.7945  17.8182  17.8182  17.8545  17.8583
    17.9445  17.9445  17.9906  17.9997  18.1668  18.1877  18.2202  18.2202
    20.7058  20.7140  20.7150  20.8042  20.8042  20.8172  20.8172  20.8843
    20.8843  20.8970  20.9188  20.9343  20.9574  20.9574  20.9761  21.0527
    21.0527  21.0596  21.0617  21.0692  21.0728  21.1716  21.2008  21.2008
    21.3123  21.3123

     the Fermi energy is    19.7485 ev

!    total energy              =   -4214.53419272 Ry
     total all-electron energy =    -34959.348613 Ry
     estimated scf accuracy    <       0.00000008 Ry
     smearing contrib. (-TS)   =      -0.00090908 Ry
     internal energy E=F+TS    =   -4214.53328363 Ry

     The total energy is F=E-TS. E is the sum of the following terms:
     one-electron contribution =   -1039.23620096 Ry
     hartree contribution      =     664.99785080 Ry
     xc contribution           =    -373.07762091 Ry
     ewald contribution        =   -2253.62220523 Ry
     one-center paw contrib.   =   -1213.59510734 Ry

     total magnetization       =     5.38 Bohr mag/cell
     absolute magnetization    =    12.86 Bohr mag/cell

     convergence has been achieved in  79 iterations

     Forces acting on atoms (cartesian axes, Ry/au):

     atom    1 type  2   force =     0.00212960   -0.00430160    0.00212960
     atom    2 type  1   force =     0.00000000    0.00000000    0.00000000
     atom    3 type  2   force =     0.00212960   -0.00430160   -0.00212960
     atom    4 type  2   force =     0.00000000    0.00000000    0.00000000
     atom    5 type  2   force =     0.00212960    0.00430160    0.00212960
     atom    6 type  2   force =     0.00000000    0.00000000    0.00000000
     atom    7 type  2   force =     0.00212960    0.00430160   -0.00212960
     atom    8 type  2   force =     0.00000000    0.00000000    0.00000000
     atom    9 type  2   force =    -0.00212960   -0.00430160    0.00212960
     atom   10 type  2   force =     0.00000000    0.00000000    0.00000000
     atom   11 type  2   force =    -0.00212960   -0.00430160   -0.00212960
     atom   12 type  1   force =     0.00000000    0.00000000    0.00000000
     atom   13 type  2   force =    -0.00212960    0.00430160    0.00212960
     atom   14 type  2   force =     0.00000000    0.00000000    0.00000000
     atom   15 type  2   force =    -0.00212960    0.00430160   -0.00212960
     atom   16 type  1   force =     0.00000000    0.00000000    0.00000000

     Total force =     0.014852     Total SCF correction =     0.000735


     Computing stress (Cartesian axis) and pressure

          total   stress  (Ry/bohr**3)                   (kbar)     P=       27.47
   0.00017158   0.00000000   0.00000000           25.24        0.00        0.00
   0.00000000   0.00021709   0.00000000            0.00       31.93        0.00
   0.00000000   0.00000000   0.00017158            0.00        0.00       25.24


     BFGS Geometry Optimization
     Energy error            =      0.0E+00 Ry
     Gradient error          =      4.3E-03 Ry/Bohr
     Cell gradient error     =      3.2E+01 kbar

     number of scf cycles    =   1
     number of bfgs steps    =   0

     enthalpy           new  =   -4214.5341927158 Ry

     new trust radius        =       0.0379440444 bohr
     new conv_thr            =       0.0000001000 Ry

     new unit-cell volume =   1239.22139 a.u.^3 (   183.63366 Ang^3 )
     density =      7.62734 g/cm^3

CELL_PARAMETERS (angstrom)
   5.681812163   0.000000000   0.000000000
   0.000000000   5.688248452   0.000000000
   0.000000000   0.000000000   5.681812163

ATOMIC_POSITIONS (crystal)
Cr               0.0001991918       -0.0004023491        0.0001991918
Fe               0.2500000000        0.2500000000        0.2500000000
Cr               0.0001991918       -0.0004023491        0.4998008082
Cr               0.2500000000        0.2500000000        0.7500000000
Cr               0.0001991918        0.5004023491        0.0001991918
Cr               0.2500000000        0.7500000000        0.2500000000
Cr               0.0001991918        0.5004023491        0.4998008082
Cr               0.2500000000        0.7500000000        0.7500000000
Cr               0.4998008082       -0.0004023491        0.0001991918
Cr               0.7500000000        0.2500000000        0.2500000000
Cr               0.4998008082       -0.0004023491        0.4998008082
Fe               0.7500000000        0.2500000000        0.7500000000
Cr               0.4998008082        0.5004023491        0.0001991918
Cr               0.7500000000        0.7500000000        0.2500000000
Cr               0.4998008082        0.5004023491        0.4998008082
Fe               0.7500000000        0.7500000000        0.7500000000



     Writing config-only to output data dir ./tmp/fecr_fe03cr13_vcr.save/ :
     XML data file
     NEW-OLD atomic charge density approx. for the potential

     Check: negative core charge=   -0.000004
     Generating pointlists ...

     total cpu time spent up to now is     2753.8 secs

     Self-consistent Calculation

     iteration #  1     ecut=    60.00 Ry     beta= 0.30
     Davidson diagonalization with overlap
     ethr =  1.00E-06,  avg # of iterations =  7.0

     total cpu time spent up to now is     2795.2 secs

     total energy              =   -4214.53663821 Ry
     estimated scf accuracy    <       0.00163952 Ry

     total magnetization       =     5.44 Bohr mag/cell
     absolute magnetization    =    13.03 Bohr mag/cell

     iteration #  2     ecut=    60.00 Ry     beta= 0.30
     Davidson diagonalization with overlap
     ethr =  7.13E-07,  avg # of iterations =  6.0

     total cpu time spent up to now is     2829.4 secs

     total energy              =   -4214.53546143 Ry
     estimated scf accuracy    <       0.03477767 Ry

     total magnetization       =     5.37 Bohr mag/cell
     absolute magnetization    =    12.99 Bohr mag/cell

     iteration #  3     ecut=    60.00 Ry     beta= 0.30
     Davidson diagonalization with overlap
     ethr =  7.13E-07,  avg # of iterations =  5.6

     total cpu time spent up to now is     2861.9 secs

     total energy              =   -4214.53660223 Ry
     estimated scf accuracy    <       0.00142707 Ry

     total magnetization       =     5.43 Bohr mag/cell
     absolute magnetization    =    13.05 Bohr mag/cell

     iteration #  4     ecut=    60.00 Ry     beta= 0.30
     Davidson diagonalization with overlap
     ethr =  6.20E-07,  avg # of iterations =  3.2

     total cpu time spent up to now is     2890.7 secs

     total energy              =   -4214.53629907 Ry
     estimated scf accuracy    <       0.00219515 Ry

     total magnetization       =     5.43 Bohr mag/cell
     absolute magnetization    =    13.06 Bohr mag/cell

     iteration #  5     ecut=    60.00 Ry     beta= 0.30
     Davidson diagonalization with overlap
     ethr =  6.20E-07,  avg # of iterations =  1.1

     total cpu time spent up to now is     2916.5 secs

     total energy              =   -4214.53623890 Ry
     estimated scf accuracy    <       0.00051446 Ry

     total magnetization       =     5.43 Bohr mag/cell
     absolute magnetization    =    13.07 Bohr mag/cell

     iteration #  6     ecut=    60.00 Ry     beta= 0.30
     Davidson diagonalization with overlap
     ethr =  2.24E-07,  avg # of iterations =  1.6

     total cpu time spent up to now is     2943.4 secs

     total energy              =   -4214.53613592 Ry
     estimated scf accuracy    <       0.00006440 Ry

     total magnetization       =     5.43 Bohr mag/cell
     absolute magnetization    =    13.08 Bohr mag/cell

     iteration #  7     ecut=    60.00 Ry     beta= 0.30
     Davidson diagonalization with overlap
     ethr =  2.80E-08,  avg # of iterations =  5.4

     total cpu time spent up to now is     2975.2 secs

     total energy              =   -4214.53560214 Ry
     estimated scf accuracy    <       0.00009589 Ry

     total magnetization       =     5.43 Bohr mag/cell
     absolute magnetization    =    13.09 Bohr mag/cell

     iteration #  8     ecut=    60.00 Ry     beta= 0.30
     Davidson diagonalization with overlap
     ethr =  2.80E-08,  avg # of iterations =  5.0

     total cpu time spent up to now is     3008.6 secs

     total energy              =   -4214.53559155 Ry
     estimated scf accuracy    <       0.00009216 Ry

     total magnetization       =     5.44 Bohr mag/cell
     absolute magnetization    =    13.15 Bohr mag/cell

     iteration #  9     ecut=    60.00 Ry     beta= 0.30
     Davidson diagonalization with overlap
     ethr =  2.80E-08,  avg # of iterations =  2.7

     total cpu time spent up to now is     3038.4 secs

     total energy              =   -4214.53561270 Ry
     estimated scf accuracy    <       0.00007078 Ry

     total magnetization       =     5.45 Bohr mag/cell
     absolute magnetization    =    13.18 Bohr mag/cell

     iteration # 10     ecut=    60.00 Ry     beta= 0.30
     Davidson diagonalization with overlap
     ethr =  2.80E-08,  avg # of iterations =  5.5

     total cpu time spent up to now is     3071.8 secs

     total energy              =   -4214.53560034 Ry
     estimated scf accuracy    <       0.00008487 Ry

     total magnetization       =     5.46 Bohr mag/cell
     absolute magnetization    =    13.25 Bohr mag/cell

     iteration # 11     ecut=    60.00 Ry     beta= 0.30
     Davidson diagonalization with overlap
     ethr =  2.80E-08,  avg # of iterations =  1.2

     total cpu time spent up to now is     3098.0 secs

     total energy              =   -4214.53560619 Ry
     estimated scf accuracy    <       0.00003146 Ry

     total magnetization       =     5.45 Bohr mag/cell
     absolute magnetization    =    13.23 Bohr mag/cell

     iteration # 12     ecut=    60.00 Ry     beta= 0.30
     Davidson diagonalization with overlap
     ethr =  1.37E-08,  avg # of iterations =  4.2

     total cpu time spent up to now is     3128.3 secs

     total energy              =   -4214.53562437 Ry
     estimated scf accuracy    <       0.00011911 Ry

     total magnetization       =     5.45 Bohr mag/cell
     absolute magnetization    =    13.20 Bohr mag/cell

     iteration # 13     ecut=    60.00 Ry     beta= 0.30
     Davidson diagonalization with overlap
     ethr =  1.37E-08,  avg # of iterations =  4.3

     total cpu time spent up to now is     3159.6 secs

     total energy              =   -4214.53561024 Ry
     estimated scf accuracy    <       0.00010341 Ry

     total magnetization       =     5.45 Bohr mag/cell
     absolute magnetization    =    13.28 Bohr mag/cell

     iteration # 14     ecut=    60.00 Ry     beta= 0.30
     Davidson diagonalization with overlap
     ethr =  1.37E-08,  avg # of iterations =  5.1

     total cpu time spent up to now is     3191.2 secs

     total energy              =   -4214.53562983 Ry
     estimated scf accuracy    <       0.00016384 Ry

     total magnetization       =     5.46 Bohr mag/cell
     absolute magnetization    =    13.25 Bohr mag/cell

     iteration # 15     ecut=    60.00 Ry     beta= 0.30
     Davidson diagonalization with overlap
     ethr =  1.37E-08,  avg # of iterations =  5.2

     total cpu time spent up to now is     3222.6 secs

     total energy              =   -4214.53564861 Ry
     estimated scf accuracy    <       0.00015983 Ry

     total magnetization       =     5.46 Bohr mag/cell
     absolute magnetization    =    13.33 Bohr mag/cell

     iteration # 16     ecut=    60.00 Ry     beta= 0.30
     Davidson diagonalization with overlap
     ethr =  1.37E-08,  avg # of iterations =  2.9

     total cpu time spent up to now is     3250.3 secs

     total energy              =   -4214.53565438 Ry
     estimated scf accuracy    <       0.00012029 Ry

     total magnetization       =     5.47 Bohr mag/cell
     absolute magnetization    =    13.36 Bohr mag/cell

     iteration # 17     ecut=    60.00 Ry     beta= 0.30
     Davidson diagonalization with overlap
     ethr =  1.37E-08,  avg # of iterations =  2.2

     total cpu time spent up to now is     3278.1 secs

     total energy              =   -4214.53565363 Ry
     estimated scf accuracy    <       0.00010400 Ry

     total magnetization       =     5.47 Bohr mag/cell
     absolute magnetization    =    13.37 Bohr mag/cell

     iteration # 18     ecut=    60.00 Ry     beta= 0.30
     Davidson diagonalization with overlap
     ethr =  1.37E-08,  avg # of iterations =  5.3

     total cpu time spent up to now is     3310.2 secs

     total energy              =   -4214.53566982 Ry
     estimated scf accuracy    <       0.00002636 Ry

     total magnetization       =     5.47 Bohr mag/cell
     absolute magnetization    =    13.45 Bohr mag/cell

     iteration # 19     ecut=    60.00 Ry     beta= 0.30
     Davidson diagonalization with overlap
     ethr =  1.15E-08,  avg # of iterations =  1.2

     total cpu time spent up to now is     3336.8 secs

     total energy              =   -4214.53565686 Ry
     estimated scf accuracy    <       0.00001648 Ry

     total magnetization       =     5.47 Bohr mag/cell
     absolute magnetization    =    13.46 Bohr mag/cell

     iteration # 20     ecut=    60.00 Ry     beta= 0.30
     Davidson diagonalization with overlap
     ethr =  7.17E-09,  avg # of iterations =  2.4

     total cpu time spent up to now is     3364.8 secs

     total energy              =   -4214.53567587 Ry
     estimated scf accuracy    <       0.00004010 Ry

     total magnetization       =     5.47 Bohr mag/cell
     absolute magnetization    =    13.43 Bohr mag/cell

     iteration # 21     ecut=    60.00 Ry     beta= 0.30
     Davidson diagonalization with overlap
     ethr =  7.17E-09,  avg # of iterations =  1.1

     total cpu time spent up to now is     3390.7 secs

     total energy              =   -4214.53567997 Ry
     estimated scf accuracy    <       0.00004044 Ry

     total magnetization       =     5.47 Bohr mag/cell
     absolute magnetization    =    13.44 Bohr mag/cell

     iteration # 22     ecut=    60.00 Ry     beta= 0.30
     Davidson diagonalization with overlap
     ethr =  7.17E-09,  avg # of iterations =  5.1

     total cpu time spent up to now is     3421.8 secs

     total energy              =   -4214.53569219 Ry
     estimated scf accuracy    <       0.00000902 Ry

     total magnetization       =     5.47 Bohr mag/cell
     absolute magnetization    =    13.50 Bohr mag/cell

     iteration # 23     ecut=    60.00 Ry     beta= 0.30
     Davidson diagonalization with overlap
     ethr =  3.92E-09,  avg # of iterations =  5.2

     total cpu time spent up to now is     3452.2 secs

     total energy              =   -4214.53568430 Ry
     estimated scf accuracy    <       0.00000855 Ry

     total magnetization       =     5.47 Bohr mag/cell
     absolute magnetization    =    13.53 Bohr mag/cell

     iteration # 24     ecut=    60.00 Ry     beta= 0.30
     Davidson diagonalization with overlap
     ethr =  3.72E-09,  avg # of iterations =  1.0

     total cpu time spent up to now is     3478.6 secs

     total energy              =   -4214.53564712 Ry
     estimated scf accuracy    <       0.00001418 Ry

     total magnetization       =     5.47 Bohr mag/cell
     absolute magnetization    =    13.52 Bohr mag/cell

     iteration # 25     ecut=    60.00 Ry     beta= 0.30
     Davidson diagonalization with overlap
     ethr =  3.72E-09,  avg # of iterations =  6.0

     total cpu time spent up to now is     3511.9 secs

     total energy              =   -4214.53567168 Ry
     estimated scf accuracy    <       0.00001680 Ry

     total magnetization       =     5.47 Bohr mag/cell
     absolute magnetization    =    13.42 Bohr mag/cell

     iteration # 26     ecut=    60.00 Ry     beta= 0.30
     Davidson diagonalization with overlap
     ethr =  3.72E-09,  avg # of iterations =  1.0

     total cpu time spent up to now is     3538.0 secs

     total energy              =   -4214.53565506 Ry
     estimated scf accuracy    <       0.00001632 Ry

     total magnetization       =     5.47 Bohr mag/cell
     absolute magnetization    =    13.43 Bohr mag/cell

     iteration # 27     ecut=    60.00 Ry     beta= 0.30
     Davidson diagonalization with overlap
     ethr =  3.72E-09,  avg # of iterations =  2.0

     total cpu time spent up to now is     3566.6 secs

     total energy              =   -4214.53565845 Ry
     estimated scf accuracy    <       0.00003198 Ry

     total magnetization       =     5.47 Bohr mag/cell
     absolute magnetization    =    13.42 Bohr mag/cell

     iteration # 28     ecut=    60.00 Ry     beta= 0.30
     Davidson diagonalization with overlap
     ethr =  3.72E-09,  avg # of iterations =  1.6

     total cpu time spent up to now is     3593.0 secs

     total energy              =   -4214.53564125 Ry
     estimated scf accuracy    <       0.00003106 Ry

     total magnetization       =     5.47 Bohr mag/cell
     absolute magnetization    =    13.42 Bohr mag/cell

     iteration # 29     ecut=    60.00 Ry     beta= 0.30
     Davidson diagonalization with overlap
     ethr =  3.72E-09,  avg # of iterations =  7.0

     total cpu time spent up to now is     3630.0 secs

     total energy              =   -4214.53568892 Ry
     estimated scf accuracy    <       0.00001795 Ry

     total magnetization       =     5.47 Bohr mag/cell
     absolute magnetization    =    13.56 Bohr mag/cell

     iteration # 30     ecut=    60.00 Ry     beta= 0.30
     Davidson diagonalization with overlap
     ethr =  3.72E-09,  avg # of iterations =  5.3

     total cpu time spent up to now is     3662.7 secs

     total energy              =   -4214.53570273 Ry
     estimated scf accuracy    <       0.00001069 Ry

     total magnetization       =     5.46 Bohr mag/cell
     absolute magnetization    =    13.62 Bohr mag/cell

     iteration # 31     ecut=    60.00 Ry     beta= 0.30
     Davidson diagonalization with overlap
     ethr =  3.72E-09,  avg # of iterations =  5.0

     total cpu time spent up to now is     3693.0 secs

     total energy              =   -4214.53570258 Ry
     estimated scf accuracy    <       0.00000545 Ry

     total magnetization       =     5.46 Bohr mag/cell
     absolute magnetization    =    13.66 Bohr mag/cell

     iteration # 32     ecut=    60.00 Ry     beta= 0.30
     Davidson diagonalization with overlap
     ethr =  2.37E-09,  avg # of iterations =  3.5

     total cpu time spent up to now is     3722.3 secs

     total energy              =   -4214.53569987 Ry
     estimated scf accuracy    <       0.00000555 Ry

     total magnetization       =     5.47 Bohr mag/cell
     absolute magnetization    =    13.65 Bohr mag/cell

     iteration # 33     ecut=    60.00 Ry     beta= 0.30
     Davidson diagonalization with overlap
     ethr =  2.37E-09,  avg # of iterations =  5.2

     total cpu time spent up to now is     3753.0 secs

     total energy              =   -4214.53564714 Ry
     estimated scf accuracy    <       0.00000617 Ry

     total magnetization       =     5.47 Bohr mag/cell
     absolute magnetization    =    13.63 Bohr mag/cell

     iteration # 34     ecut=    60.00 Ry     beta= 0.30
     Davidson diagonalization with overlap
     ethr =  2.37E-09,  avg # of iterations =  9.2

     total cpu time spent up to now is     3793.7 secs

     total energy              =   -4214.53572299 Ry
     estimated scf accuracy    <       0.00000858 Ry

     total magnetization       =     5.46 Bohr mag/cell
     absolute magnetization    =    13.78 Bohr mag/cell

     iteration # 35     ecut=    60.00 Ry     beta= 0.30
     Davidson diagonalization with overlap
     ethr =  2.37E-09,  avg # of iterations =  6.5

     total cpu time spent up to now is     3828.1 secs

     total energy              =   -4214.53572810 Ry
     estimated scf accuracy    <       0.00000451 Ry

     total magnetization       =     5.45 Bohr mag/cell
     absolute magnetization    =    13.83 Bohr mag/cell

     iteration # 36     ecut=    60.00 Ry     beta= 0.30
     Davidson diagonalization with overlap
     ethr =  1.96E-09,  avg # of iterations =  6.7

     total cpu time spent up to now is     3863.8 secs

     total energy              =   -4214.53574579 Ry
     estimated scf accuracy    <       0.00000339 Ry

     total magnetization       =     5.45 Bohr mag/cell
     absolute magnetization    =    13.90 Bohr mag/cell

     iteration # 37     ecut=    60.00 Ry     beta= 0.30
     Davidson diagonalization with overlap
     ethr =  1.48E-09,  avg # of iterations =  1.0

     total cpu time spent up to now is     3890.0 secs

     total energy              =   -4214.53574189 Ry
     estimated scf accuracy    <       0.00000303 Ry

     total magnetization       =     5.45 Bohr mag/cell
     absolute magnetization    =    13.90 Bohr mag/cell

     iteration # 38     ecut=    60.00 Ry     beta= 0.30
     Davidson diagonalization with overlap
     ethr =  1.32E-09,  avg # of iterations =  6.2

     total cpu time spent up to now is     3924.4 secs

     total energy              =   -4214.53561736 Ry
     estimated scf accuracy    <       0.00000209 Ry

     total magnetization       =     5.45 Bohr mag/cell
     absolute magnetization    =    13.95 Bohr mag/cell

     iteration # 39     ecut=    60.00 Ry     beta= 0.30
     Davidson diagonalization with overlap
     ethr =  9.11E-10,  avg # of iterations = 11.4

     total cpu time spent up to now is     3969.5 secs

     total energy              =   -4214.53573334 Ry
     estimated scf accuracy    <       0.00000172 Ry

     total magnetization       =     5.43 Bohr mag/cell
     absolute magnetization    =    14.14 Bohr mag/cell

     iteration # 40     ecut=    60.00 Ry     beta= 0.30
     Davidson diagonalization with overlap
     ethr =  7.49E-10,  avg # of iterations =  9.3

     total cpu time spent up to now is     4010.1 secs

     total energy              =   -4214.53574216 Ry
     estimated scf accuracy    <       0.00000073 Ry

     total magnetization       =     5.44 Bohr mag/cell
     absolute magnetization    =    14.06 Bohr mag/cell

     iteration # 41     ecut=    60.00 Ry     beta= 0.30
     Davidson diagonalization with overlap
     ethr =  3.16E-10,  avg # of iterations =  8.9

     total cpu time spent up to now is     4051.6 secs

     total energy              =   -4214.53575248 Ry
     estimated scf accuracy    <       0.00000037 Ry

     total magnetization       =     5.43 Bohr mag/cell
     absolute magnetization    =    14.12 Bohr mag/cell

     iteration # 42     ecut=    60.00 Ry     beta= 0.30
     Davidson diagonalization with overlap
     ethr =  1.61E-10,  avg # of iterations =  9.6

     total cpu time spent up to now is     4092.1 secs

     total energy              =   -4214.53575570 Ry
     estimated scf accuracy    <       0.00000036 Ry

     total magnetization       =     5.43 Bohr mag/cell
     absolute magnetization    =    14.07 Bohr mag/cell

     iteration # 43     ecut=    60.00 Ry     beta= 0.30
     Davidson diagonalization with overlap
     ethr =  1.57E-10,  avg # of iterations =  8.9

     total cpu time spent up to now is     4131.6 secs

     total energy              =   -4214.53574960 Ry
     estimated scf accuracy    <       0.00000024 Ry

     total magnetization       =     5.43 Bohr mag/cell
     absolute magnetization    =    14.10 Bohr mag/cell

     iteration # 44     ecut=    60.00 Ry     beta= 0.30
     Davidson diagonalization with overlap
     ethr =  1.03E-10,  avg # of iterations = 10.9

     total cpu time spent up to now is     4175.0 secs

     total energy              =   -4214.53575994 Ry
     estimated scf accuracy    <       0.00000020 Ry

     total magnetization       =     5.43 Bohr mag/cell
     absolute magnetization    =    14.16 Bohr mag/cell

     iteration # 45     ecut=    60.00 Ry     beta= 0.30
     Davidson diagonalization with overlap
     ethr =  8.65E-11,  avg # of iterations =  5.9

     total cpu time spent up to now is     4208.8 secs

     total energy              =   -4214.53575155 Ry
     estimated scf accuracy    <       0.00000024 Ry

     total magnetization       =     5.43 Bohr mag/cell
     absolute magnetization    =    14.17 Bohr mag/cell

     iteration # 46     ecut=    60.00 Ry     beta= 0.30
     Davidson diagonalization with overlap
     ethr =  8.65E-11,  avg # of iterations = 10.8

     total cpu time spent up to now is     4252.3 secs

     total energy              =   -4214.53575649 Ry
     estimated scf accuracy    <       0.00000225 Ry

     total magnetization       =     5.43 Bohr mag/cell
     absolute magnetization    =    14.11 Bohr mag/cell

     iteration # 47     ecut=    60.00 Ry     beta= 0.30
     Davidson diagonalization with overlap
     ethr =  8.65E-11,  avg # of iterations =  8.3

     total cpu time spent up to now is     4291.9 secs

     total energy              =   -4214.53576035 Ry
     estimated scf accuracy    <       0.00000023 Ry

     total magnetization       =     5.43 Bohr mag/cell
     absolute magnetization    =    14.15 Bohr mag/cell

     iteration # 48     ecut=    60.00 Ry     beta= 0.30
     Davidson diagonalization with overlap
     ethr =  8.65E-11,  avg # of iterations =  5.7

     total cpu time spent up to now is     4325.5 secs

     total energy              =   -4214.53576070 Ry
     estimated scf accuracy    <       0.00000018 Ry

     total magnetization       =     5.43 Bohr mag/cell
     absolute magnetization    =    14.14 Bohr mag/cell

     iteration # 49     ecut=    60.00 Ry     beta= 0.30
     Davidson diagonalization with overlap
     ethr =  7.79E-11,  avg # of iterations =  4.0
 
     Magnetic moment per site  (integrated on atomic sphere of radius R)
     atom   1 (R=0.179)  charge= 12.1578  magn=  0.7972
     atom   2 (R=0.179)  charge= 14.4790  magn=  1.1648
     atom   3 (R=0.179)  charge= 12.1578  magn=  0.7972
     atom   4 (R=0.179)  charge= 12.1809  magn= -0.7843
     atom   5 (R=0.179)  charge= 12.1578  magn=  0.7972
     atom   6 (R=0.179)  charge= 12.1924  magn= -0.7411
     atom   7 (R=0.179)  charge= 12.1578  magn=  0.7972
     atom   8 (R=0.179)  charge= 12.1864  magn= -0.8194
     atom   9 (R=0.179)  charge= 12.1578  magn=  0.7972
     atom  10 (R=0.179)  charge= 12.1809  magn= -0.7843
     atom  11 (R=0.179)  charge= 12.1578  magn=  0.7972
     atom  12 (R=0.179)  charge= 14.4657  magn=  0.6726
     atom  13 (R=0.179)  charge= 12.1578  magn=  0.7972
     atom  14 (R=0.179)  charge= 12.1864  magn= -0.8194
     atom  15 (R=0.179)  charge= 12.1578  magn=  0.7972
     atom  16 (R=0.179)  charge= 14.4758  magn=  1.1548

     total cpu time spent up to now is     4355.4 secs

     End of self-consistent calculation

 ------ SPIN UP ------------


          k = 0.0000 0.0000 0.0000 (  9627 PWs)   bands (ev):

   -68.2003 -68.1938 -68.0830 -52.7372 -52.7002 -52.7000 -52.7000 -52.6828
   -52.6828 -52.6826 -52.6662 -51.7995 -51.7957 -51.7813 -51.7802 -51.7743
   -34.2771 -34.2562 -34.2545 -34.2545 -34.2484 -34.2484 -34.1408 -34.1375
   -34.1375 -24.3144 -24.2748 -24.2748 -24.2211 -24.2211 -24.1771 -24.1488
   -24.1351 -24.1346 -24.1075 -24.1075 -24.1047 -24.0250 -24.0182 -24.0182
   -23.9608 -23.9608 -23.9604 -23.9527 -23.9517 -23.9517 -23.9486 -23.9358
   -23.9346 -23.2398 -23.2003 -23.2003 -23.1571 -23.1571 -23.1001 -23.0673
   -23.0615 -23.0615 -23.0456 -23.0456 -23.0265 -23.0039 -23.0036 -23.0036
    11.3256  14.6349  14.6784  14.7656  14.9286  14.9338  14.9338  14.9391
    14.9616  15.1046  15.2195  15.2306  15.2306  15.2915  15.3889  16.5586
    16.6823  16.6823  16.7560  16.7570  16.7570  16.7604  16.7604  16.9458
    16.9609  16.9730  17.0037  17.0037  17.1044  17.3647  17.3647  17.3652
    17.5916  18.0603  18.1887  18.1887  18.4365  18.5225  18.5225  18.6489
    18.6539  18.6539  18.6860  18.6911  18.6911  18.9537  19.0429  19.0443
    19.0443  19.2936  19.4722  19.6896  19.7268  19.7892  19.8496  19.8787
    20.1343  20.1343  20.1576  20.2753  20.2790  20.2790  20.3068  20.3068
    20.4549  20.4549  20.5412  20.6086  20.6086  20.6135  20.6175  20.6405
    20.6666  20.6764

          k = 0.0000 0.0000 0.1660 (  9595 PWs)   bands (ev):

   -68.2002 -68.1937 -68.0829 -52.7348 -52.7025 -52.6991 -52.6988 -52.6840
   -52.6837 -52.6817 -52.6673 -51.7983 -51.7952 -51.7824 -51.7801 -51.7749
   -34.2771 -34.2562 -34.2544 -34.2543 -34.2484 -34.2483 -34.1407 -34.1375
   -34.1374 -24.2987 -24.2680 -24.2618 -24.2164 -24.2100 -24.1712 -24.1517
   -24.1414 -24.1307 -24.1159 -24.1145 -24.0958 -24.0257 -24.0208 -24.0151
   -23.9799 -23.9770 -23.9614 -23.9594 -23.9588 -23.9552 -23.9504 -23.9415
   -23.9361 -23.2206 -23.1887 -23.1863 -23.1480 -23.1470 -23.0993 -23.0632
   -23.0631 -23.0629 -23.0526 -23.0515 -23.0379 -23.0155 -23.0110 -23.0079
    11.4774  14.4094  14.7307  14.7498  14.8562  14.9789  14.9835  15.0204
    15.0396  15.0556  15.2642  15.2713  15.2815  15.3334  15.6874  16.5622
    16.5872  16.6197  16.6478  16.6868  16.7116  16.7227  16.7800  16.8301
    16.9551  16.9790  17.0424  17.1487  17.1639  17.2714  17.3180  17.3632
    17.9682  18.0859  18.1189  18.1673  18.3317  18.3519  18.3613  18.4607
    18.5199  18.6776  18.7400  18.7731  18.8101  18.8636  18.9539  18.9668
    19.2010  19.2612  19.4024  19.4767  19.5328  19.5890  19.6324  19.8135
    19.8403  19.9827  20.0258  20.0480  20.0645  20.1754  20.2784  20.2837
    20.3680  20.4229  20.5177  20.5332  20.6122  20.6242  20.6640  20.6664
    20.6687  20.9642

          k = 0.0000 0.0000 0.3319 (  9606 PWs)   bands (ev):

   -68.2003 -68.1938 -68.0830 -52.7283 -52.7092 -52.6959 -52.6956 -52.6872
   -52.6869 -52.6787 -52.6704 -51.7953 -51.7938 -51.7854 -51.7799 -51.7763
   -34.2769 -34.2564 -34.2540 -34.2539 -34.2488 -34.2487 -34.1407 -34.1375
   -34.1374 -24.2554 -24.2495 -24.2307 -24.2028 -24.1739 -24.1708 -24.1626
   -24.1584 -24.1389 -24.1333 -24.1092 -24.0659 -24.0468 -24.0388 -24.0317
   -24.0070 -24.0032 -23.9832 -23.9727 -23.9706 -23.9563 -23.9473 -23.9473
   -23.9391 -23.1736 -23.1605 -23.1532 -23.1239 -23.1210 -23.0977 -23.0773
   -23.0764 -23.0707 -23.0642 -23.0581 -23.0503 -23.0465 -23.0283 -23.0190
    11.9203  13.4951  14.8984  14.9095  15.1132  15.1158  15.1404  15.2276
    15.2541  15.3046  15.3352  15.3359  15.3425  15.3967  15.7220  16.0953
    16.1695  16.3972  16.5439  16.6020  16.6608  16.6945  16.9914  17.0127
    17.0792  17.1300  17.1321  17.2994  17.3184  17.3305  17.5764  17.6427
    17.8058  17.8423  18.0067  18.0510  18.0879  18.1271  18.2286  18.3545
    18.3610  18.4222  18.4791  18.5442  18.5753  18.5912  18.8400  18.9544
    19.0082  19.0175  19.0273  19.1898  19.3162  19.3677  19.5616  19.6261
    19.8132  19.9610  20.0165  20.0758  20.0960  20.1946  20.3022  20.4571
    20.4679  20.4698  20.6231  20.6538  20.6578  20.6922  20.7047  20.8060
    20.9123  21.0028

          k = 0.0000 0.0000-0.4979 (  9626 PWs)   bands (ev):

   -68.2003 -68.1938 -68.0830 -52.7212 -52.7164 -52.6916 -52.6914 -52.6914
   -52.6912 -52.6746 -52.6744 -51.7941 -51.7907 -51.7890 -51.7797 -51.7771
   -34.2769 -34.2565 -34.2537 -34.2536 -34.2491 -34.2490 -34.1407 -34.1375
   -34.1374 -24.2347 -24.2082 -24.2039 -24.1961 -24.1906 -24.1823 -24.1764
   -24.1612 -24.1254 -24.1155 -24.1044 -24.0855 -24.0696 -24.0646 -24.0255
   -24.0236 -23.9975 -23.9936 -23.9878 -23.9774 -23.9521 -23.9518 -23.9433
   -23.9431 -23.1391 -23.1252 -23.1189 -23.1184 -23.1020 -23.0967 -23.0960
   -23.0923 -23.0868 -23.0842 -23.0789 -23.0590 -23.0379 -23.0363 -23.0329
    12.5671  12.6697  15.0399  15.0793  15.1797  15.2190  15.2693  15.2705
    15.2714  15.2729  15.4746  15.5247  15.5849  15.6225  15.6736  15.7090
    15.8457  15.9283  16.5364  16.6056  16.6530  16.6662  17.2685  17.2876
    17.3632  17.3929  17.4110  17.4400  17.4546  17.4570  17.4645  17.5745
    17.6957  17.7386  17.7472  17.7638  17.7918  18.0962  18.1124  18.1674
    18.2042  18.2071  18.2472  18.3079  18.4828  18.4896  18.6298  18.7319
    18.7695  18.7740  18.8698  19.4516  19.6264  19.6983  19.7317  19.7546
    19.7647  19.7791  19.8840  19.9432  20.2693  20.3536  20.3933  20.4363
    20.4578  20.4822  20.4913  20.5315  20.6374  20.6393  20.6459  20.8824
    20.9655  21.0085

          k = 0.0000 0.1658 0.1660 (  9557 PWs)   bands (ev):

   -68.2002 -68.1937 -68.0829 -52.7325 -52.7016 -52.7011 -52.6977 -52.6852
   -52.6828 -52.6826 -52.6684 -51.7973 -51.7945 -51.7829 -51.7811 -51.7750
   -34.2750 -34.2563 -34.2542 -34.2540 -34.2485 -34.2485 -34.1427 -34.1375
   -34.1374 -24.2899 -24.2556 -24.2498 -24.2035 -24.1980 -24.1772 -24.1532
   -24.1445 -24.1323 -24.1162 -24.1122 -24.0957 -24.0329 -24.0187 -24.0133
   -23.9861 -23.9842 -23.9733 -23.9676 -23.9611 -23.9589 -23.9562 -23.9475
   -23.9402 -23.2123 -23.1775 -23.1751 -23.1375 -23.1369 -23.0996 -23.0681
   -23.0657 -23.0647 -23.0572 -23.0560 -23.0374 -23.0316 -23.0170 -23.0066
    11.6266  14.4573  14.5114  14.7757  14.8569  14.9053  15.0516  15.0993
    15.1005  15.1059  15.1365  15.3453  15.3545  15.7047  15.7248  16.4493
    16.5212  16.5882  16.6190  16.6557  16.7338  16.7515  16.7543  16.8358
    16.8863  16.9682  17.0789  17.1496  17.1580  17.1905  17.2383  17.7274
    17.8180  17.9277  18.1055  18.1557  18.2237  18.3062  18.4331  18.4505
    18.5289  18.5402  18.6284  18.7285  18.8177  18.8672  18.9100  19.0882
    19.1566  19.1851  19.2522  19.3368  19.3486  19.3590  19.5756  19.5907
    19.7073  19.7458  19.9553  19.9637  20.0793  20.1480  20.1938  20.2610
    20.4834  20.5249  20.5825  20.6493  20.6497  20.6920  20.6978  20.7619
    20.8292  20.8536

          k = 0.0000 0.1658 0.3319 (  9577 PWs)   bands (ev):

   -68.2002 -68.1937 -68.0829 -52.7262 -52.7078 -52.6980 -52.6945 -52.6886
   -52.6858 -52.6798 -52.6715 -51.7945 -51.7933 -51.7856 -51.7806 -51.7766
   -34.2749 -34.2566 -34.2539 -34.2535 -34.2489 -34.2487 -34.1427 -34.1375
   -34.1374 -24.2578 -24.2348 -24.2188 -24.1906 -24.1746 -24.1724 -24.1652
   -24.1574 -24.1299 -24.1258 -24.1081 -24.0702 -24.0483 -24.0387 -24.0316
   -24.0107 -24.0007 -23.9858 -23.9849 -23.9725 -23.9650 -23.9559 -23.9535
   -23.9438 -23.1825 -23.1525 -23.1470 -23.1151 -23.1145 -23.1004 -23.0960
   -23.0804 -23.0714 -23.0654 -23.0653 -23.0457 -23.0402 -23.0311 -23.0112
    12.0615  13.5972  14.6409  14.8088  15.0106  15.2006  15.2348  15.2392
    15.3130  15.3609  15.3966  15.4383  15.4460  15.6877  15.7773  16.1278
    16.1693  16.3480  16.6286  16.6320  16.7250  16.7495  16.8179  16.9574
    16.9630  17.0671  17.1023  17.2036  17.3133  17.3701  17.4594  17.7451
    17.7614  17.7958  17.8590  17.9423  18.0228  18.0993  18.1712  18.1919
    18.3065  18.3641  18.4176  18.4949  18.6604  18.6970  18.7488  18.7898
    18.9563  18.9695  19.0940  19.2267  19.2458  19.4030  19.5041  19.5529
    19.6680  19.8799  19.9060  19.9341  20.0958  20.1249  20.2062  20.4573
    20.4600  20.5049  20.5606  20.6083  20.6728  20.6770  20.6925  20.7625
    20.8471  20.9770

          k = 0.0000 0.1658-0.4979 (  9608 PWs)   bands (ev):

   -68.2002 -68.1938 -68.0830 -52.7193 -52.7147 -52.6936 -52.6931 -52.6903
   -52.6901 -52.6757 -52.6755 -51.7935 -51.7903 -51.7890 -51.7801 -51.7777
   -34.2749 -34.2568 -34.2537 -34.2532 -34.2491 -34.2489 -34.1428 -34.1375
   -34.1374 -24.2305 -24.2129 -24.2030 -24.1972 -24.1930 -24.1674 -24.1613
   -24.1493 -24.1191 -24.1106 -24.1004 -24.0865 -24.0695 -24.0651 -24.0294
   -24.0268 -23.9999 -23.9962 -23.9950 -23.9782 -23.9634 -23.9597 -23.9488
   -23.9487 -23.1489 -23.1389 -23.1237 -23.1220 -23.1046 -23.1003 -23.0957
   -23.0905 -23.0887 -23.0791 -23.0709 -23.0563 -23.0389 -23.0262 -23.0229
    12.6929  12.7966  14.7226  14.8261  15.1622  15.3030  15.3861  15.3920
    15.4747  15.4943  15.5248  15.6058  15.6562  15.6695  15.7302  15.7754
    15.8844  15.9612  16.5931  16.6418  16.6764  16.7136  17.1159  17.1372
    17.1518  17.2411  17.2669  17.3313  17.3333  17.3920  17.5699  17.6504
    17.6687  17.6991  17.7812  17.8232  17.8996  17.9309  18.0144  18.0294
    18.1435  18.1470  18.1527  18.1861  18.2443  18.3150  18.8450  18.8787
    18.8900  18.9073  18.9756  19.4269  19.4687  19.5285  19.6152  19.6179
    19.6396  19.7711  19.8719  19.9956  20.1995  20.2198  20.2337  20.3362
    20.3738  20.3999  20.4518  20.5876  20.6197  20.6588  20.7705  20.7993
    20.8806  20.9644

          k = 0.0000 0.3315 0.3319 (  9582 PWs)   bands (ev):

   -68.2002 -68.1937 -68.0830 -52.7205 -52.7045 -52.7031 -52.6927 -52.6914
   -52.6829 -52.6828 -52.6745 -51.7926 -51.7921 -51.7862 -51.7824 -51.7773
   -34.2708 -34.2570 -34.2537 -34.2529 -34.2490 -34.2487 -34.1470 -34.1375
   -34.1374 -24.2450 -24.2172 -24.1928 -24.1907 -24.1853 -24.1634 -24.1567
   -24.1394 -24.1161 -24.1126 -24.0962 -24.0687 -24.0561 -24.0494 -24.0347
   -24.0173 -24.0145 -23.9988 -23.9942 -23.9934 -23.9828 -23.9667 -23.9600
   -23.9500 -23.1789 -23.1489 -23.1320 -23.1240 -23.1151 -23.1005 -23.0981
   -23.0949 -23.0890 -23.0704 -23.0555 -23.0374 -23.0300 -23.0285 -23.0132
    12.4702  13.8336  13.9143  14.5635  15.2924  15.3500  15.4354  15.4955
    15.5426  15.5595  15.5826  15.6248  15.6386  15.7388  15.8458  16.1188
    16.2247  16.2705  16.3820  16.7318  16.7606  16.8103  16.8368  16.8387
    16.8674  16.9506  17.0483  17.2016  17.2632  17.3289  17.4140  17.5144
    17.6339  17.6694  17.7561  17.7779  17.8608  17.9104  18.0056  18.0563
    18.0582  18.1170  18.1605  18.3052  18.4869  18.5658  18.8065  18.9492
    18.9757  19.0774  19.1028  19.1945  19.3216  19.3269  19.3540  19.4530
    19.5952  19.6604  19.7855  19.8144  20.0179  20.0866  20.1858  20.3843
    20.3929  20.4860  20.5606  20.5638  20.6035  20.6399  20.6606  20.7507
    20.8161  20.8546

          k = 0.0000 0.3315-0.4979 (  9578 PWs)   bands (ev):

   -68.2002 -68.1937 -68.0830 -52.7142 -52.7102 -52.6988 -52.6977 -52.6872
   -52.6870 -52.6788 -52.6786 -51.7921 -51.7894 -51.7889 -51.7809 -51.7790
   -34.2708 -34.2572 -34.2536 -34.2526 -34.2490 -34.2488 -34.1470 -34.1375
   -34.1374 -24.2192 -24.2163 -24.2073 -24.2007 -24.1719 -24.1525 -24.1516
   -24.1190 -24.0977 -24.0911 -24.0907 -24.0798 -24.0690 -24.0655 -24.0371
   -24.0345 -24.0190 -24.0189 -23.9991 -23.9983 -23.9871 -23.9676 -23.9563
   -23.9557 -23.1592 -23.1551 -23.1397 -23.1338 -23.1210 -23.0967 -23.0964
   -23.0915 -23.0866 -23.0798 -23.0413 -23.0406 -23.0388 -23.0183 -23.0149
    13.0511  13.1551  14.1795  14.2964  15.4277  15.5293  15.6093  15.6400
    15.6404  15.6857  15.6970  15.7731  15.7885  15.8284  15.8931  15.9777
    16.0007  16.0310  16.5495  16.6740  16.7201  16.8303  16.8540  16.8717
    16.9478  16.9627  17.0208  17.0380  17.3419  17.3636  17.3736  17.4231
    17.5536  17.5750  17.6140  17.6563  17.6906  17.8032  17.8225  17.8914
    18.1100  18.1119  18.1528  18.1646  18.1659  18.1943  19.0118  19.0503
    19.0835  19.0969  19.1577  19.2710  19.2713  19.2882  19.3332  19.4105
    19.5177  19.6307  19.7164  19.9799  20.0252  20.1476  20.1579  20.1947
    20.2066  20.4818  20.5023  20.5665  20.5963  20.6886  20.6920  20.7001
    20.7266  20.8250

          k = 0.0000-0.4973-0.4979 (  9580 PWs)   bands (ev):

   -68.2002 -68.1937 -68.0830 -52.7091 -52.7042 -52.7039 -52.7037 -52.6832
   -52.6830 -52.6828 -52.6826 -51.7914 -51.7889 -51.7889 -51.7815 -51.7798
   -34.2687 -34.2574 -34.2536 -34.2523 -34.2490 -34.2487 -34.1492 -34.1375
   -34.1374 -24.2116 -24.2107 -24.2097 -24.2092 -24.1565 -24.1511 -24.1509
   -24.0924 -24.0887 -24.0869 -24.0708 -24.0696 -24.0547 -24.0527 -24.0471
   -24.0460 -24.0364 -24.0358 -24.0274 -24.0248 -23.9841 -23.9645 -23.9611
   -23.9609 -23.1586 -23.1538 -23.1538 -23.1532 -23.1197 -23.0970 -23.0943
   -23.0917 -23.0846 -23.0805 -23.0417 -23.0260 -23.0226 -23.0203 -23.0197
    13.5721  13.5902  13.5994  13.7906  15.5796  15.5978  15.6510  15.7895
    15.8012  15.8221  15.8427  15.9284  15.9362  15.9425  16.0270  16.0283
    16.1465  16.1837  16.2172  16.5644  16.7588  16.7691  16.7763  16.7876
    16.8142  16.8679  16.9417  16.9483  17.2343  17.2525  17.3597  17.3895
    17.4647  17.4658  17.4731  17.5389  17.5720  17.5777  17.5955  17.8290
    18.0789  18.0978  18.1015  18.1234  18.5498  18.5523  18.7596  18.7695
    19.1246  19.1362  19.2089  19.2229  19.2440  19.2903  19.4638  19.4706
    19.5077  19.5251  19.5291  19.7727  19.7948  20.0606  20.2634  20.3924
    20.3926  20.3976  20.4059  20.5425  20.6124  20.6135  20.6641  20.6698
    20.6742  20.7699

          k = 0.1660 0.1658 0.1660 (  9591 PWs)   bands (ev):

   -68.2002 -68.1938 -68.0830 -52.7303 -52.7009 -52.7003 -52.6991 -52.6841
   -52.6840 -52.6839 -52.6696 -51.7963 -51.7941 -51.7837 -51.7811 -51.7756
   -34.2750 -34.2564 -34.2543 -34.2537 -34.2488 -34.2484 -34.1427 -34.1375
   -34.1375 -24.2767 -24.2455 -24.2436 -24.1945 -24.1908 -24.1707 -24.1546
   -24.1540 -24.1324 -24.1115 -24.1066 -24.1042 -24.0294 -24.0263 -24.0104
   -23.9899 -23.9897 -23.9755 -23.9753 -23.9702 -23.9671 -23.9627 -23.9511
   -23.9484 -23.1996 -23.1763 -23.1664 -23.1321 -23.1234 -23.0986 -23.0835
   -23.0709 -23.0666 -23.0528 -23.0503 -23.0499 -23.0393 -23.0126 -23.0123
    11.7738  14.4513  14.5767  14.6978  14.8569  14.8992  14.9520  15.1343
    15.1493  15.1817  15.2011  15.2384  15.7560  15.7763  15.7818  16.3478
    16.5178  16.5464  16.6261  16.7014  16.7139  16.7615  16.7904  16.8507
    16.8834  16.9117  17.0702  17.0743  17.0938  17.1012  17.4821  17.6169
    17.7256  17.8403  18.0815  18.0899  18.1582  18.2674  18.3158  18.4793
    18.4999  18.5208  18.5928  18.6484  18.6820  18.7273  18.8193  19.0197
    19.0947  19.1046  19.1670  19.2743  19.2916  19.3569  19.4078  19.4936
    19.5090  19.9067  19.9190  20.0404  20.0522  20.0860  20.2528  20.2745
    20.5042  20.5270  20.5892  20.5979  20.6429  20.6461  20.6942  20.7643
    20.7657  20.8479

          k = 0.1660 0.1658 0.3319 (  9577 PWs)   bands (ev):

   -68.2002 -68.1937 -68.0829 -52.7242 -52.7065 -52.6969 -52.6963 -52.6875
   -52.6872 -52.6810 -52.6726 -51.7938 -51.7929 -51.7861 -51.7806 -51.7771
   -34.2749 -34.2566 -34.2541 -34.2534 -34.2490 -34.2484 -34.1427 -34.1374
   -34.1374 -24.2449 -24.2255 -24.2202 -24.1805 -24.1739 -24.1702 -24.1604
   -24.1548 -24.1297 -24.1218 -24.1052 -24.0768 -24.0468 -24.0347 -24.0305
   -24.0139 -24.0015 -23.9888 -23.9848 -23.9814 -23.9756 -23.9648 -23.9623
   -23.9528 -23.1717 -23.1605 -23.1459 -23.1123 -23.1092 -23.1026 -23.0973
   -23.0928 -23.0707 -23.0651 -23.0592 -23.0494 -23.0375 -23.0276 -23.0134
    12.2017  13.6992  14.7359  14.7697  14.9083  14.9598  15.2428  15.2878
    15.3515  15.4098  15.4694  15.5108  15.7387  15.8090  15.8600  16.1737
    16.1854  16.3905  16.6128  16.6803  16.7086  16.7826  16.8013  16.8435
    16.9426  17.0323  17.1228  17.2152  17.2428  17.2812  17.4137  17.5886
    17.6584  17.7829  17.8527  17.8706  17.9556  18.0082  18.0655  18.1231
    18.1714  18.2182  18.2506  18.3690  18.4867  18.6137  18.8086  18.8220
    18.9049  19.0042  19.1213  19.1780  19.3097  19.4139  19.4432  19.4891
    19.6444  19.7717  19.9141  20.0242  20.0457  20.1904  20.2542  20.3435
    20.4637  20.4980  20.5106  20.6160  20.6286  20.6867  20.7508  20.7834
    20.8117  20.8660

          k = 0.1660 0.1658-0.4979 (  9588 PWs)   bands (ev):

   -68.2002 -68.1937 -68.0830 -52.7175 -52.7133 -52.6926 -52.6919 -52.6919
   -52.6915 -52.6769 -52.6767 -51.7929 -51.7903 -51.7890 -51.7801 -51.7782
   -34.2749 -34.2567 -34.2538 -34.2534 -34.2488 -34.2487 -34.1427 -34.1374
   -34.1373 -24.2226 -24.2057 -24.1989 -24.1950 -24.1854 -24.1702 -24.1550
   -24.1469 -24.1190 -24.1028 -24.1022 -24.0752 -24.0690 -24.0622 -24.0335
   -24.0287 -24.0061 -23.9947 -23.9943 -23.9887 -23.9718 -23.9676 -23.9588
   -23.9585 -23.1479 -23.1398 -23.1312 -23.1305 -23.1078 -23.1069 -23.0960
   -23.0899 -23.0895 -23.0639 -23.0616 -23.0546 -23.0412 -23.0253 -23.0205
    12.8182  12.9247  14.8403  14.8679  14.9052  14.9912  15.4838  15.5622
    15.5877  15.6178  15.6221  15.6904  15.7113  15.7737  15.8152  15.8270
    15.9270  16.0039  16.6124  16.7085  16.7087  16.7458  17.0629  17.0673
    17.1222  17.1438  17.1538  17.2352  17.2450  17.3897  17.5076  17.5593
    17.5789  17.6592  17.6820  17.7513  17.7765  17.9195  17.9530  17.9986
    18.0153  18.0271  18.0534  18.0654  18.0855  18.1312  18.9226  18.9660
    19.0365  19.0508  19.0950  19.2659  19.3250  19.3872  19.4995  19.5610
    19.6600  19.7563  19.7673  20.0051  20.0576  20.2589  20.2960  20.3449
    20.3896  20.4674  20.4717  20.5947  20.6160  20.6826  20.7230  20.7591
    20.8844  20.9316

          k = 0.1660 0.3315 0.3319 (  9595 PWs)   bands (ev):

   -68.2002 -68.1937 -68.0830 -52.7186 -52.7032 -52.7019 -52.6932 -52.6914
   -52.6843 -52.6841 -52.6757 -51.7921 -51.7917 -51.7866 -51.7823 -51.7778
   -34.2708 -34.2569 -34.2537 -34.2529 -34.2489 -34.2488 -34.1470 -34.1375
   -34.1374 -24.2325 -24.2051 -24.1905 -24.1828 -24.1782 -24.1586 -24.1526
   -24.1384 -24.1186 -24.1100 -24.0920 -24.0774 -24.0515 -24.0458 -24.0359
   -24.0194 -24.0136 -24.0019 -24.0005 -23.9972 -23.9884 -23.9800 -23.9757
   -23.9638 -23.1674 -23.1431 -23.1299 -23.1253 -23.1197 -23.1052 -23.0979
   -23.0916 -23.0828 -23.0692 -23.0541 -23.0400 -23.0372 -23.0276 -23.0195
    12.6068  13.9468  14.0300  14.6941  15.0177  15.2615  15.3018  15.4975
    15.5749  15.6012  15.6930  15.7470  15.8137  15.9466  16.0262  16.1661
    16.2172  16.3381  16.3726  16.7094  16.7244  16.7843  16.8343  16.8843
    16.8995  16.9656  17.0507  17.1131  17.2229  17.2432  17.3684  17.4363
    17.5066  17.5726  17.6432  17.6792  17.8260  17.8301  17.8619  17.8715
    17.9098  17.9900  18.0386  18.1041  18.2676  18.3568  18.4847  19.0115
    19.0724  19.1479  19.1704  19.2282  19.3414  19.3549  19.3744  19.4366
    19.6324  19.7308  19.8642  19.9640  20.0468  20.1574  20.2749  20.3358
    20.5145  20.5622  20.5788  20.5842  20.6249  20.6304  20.6823  20.7450
    20.7798  20.8188

          k = 0.1660 0.3315-0.4979 (  9574 PWs)   bands (ev):

   -68.2002 -68.1937 -68.0830 -52.7125 -52.7088 -52.6975 -52.6964 -52.6890
   -52.6884 -52.6802 -52.6799 -51.7917 -51.7894 -51.7889 -51.7809 -51.7794
   -34.2708 -34.2570 -34.2536 -34.2528 -34.2489 -34.2487 -34.1469 -34.1375
   -34.1374 -24.2079 -24.2040 -24.1952 -24.1924 -24.1671 -24.1486 -24.1446
   -24.1238 -24.1036 -24.0931 -24.0855 -24.0726 -24.0684 -24.0629 -24.0425
   -24.0390 -24.0207 -24.0172 -24.0036 -24.0022 -23.9960 -23.9818 -23.9716
   -23.9705 -23.1509 -23.1474 -23.1371 -23.1330 -23.1133 -23.0982 -23.0977
   -23.0894 -23.0848 -23.0770 -23.0492 -23.0445 -23.0430 -23.0221 -23.0187
    13.1787  13.2851  14.3079  14.4258  15.1927  15.2725  15.6656  15.6824
    15.7379  15.7638  15.8072  15.8242  15.8886  15.9080  16.0246  16.0550
    16.0682  16.1135  16.5660  16.6847  16.7346  16.8174  16.8354  16.8712
    16.9512  16.9988  17.0072  17.0479  17.2380  17.2878  17.3135  17.3299
    17.3814  17.4297  17.4967  17.5687  17.5722  17.7465  17.7673  17.7775
    17.9125  17.9283  17.9607  17.9658  18.0012  18.0282  18.7968  18.8445
    19.0809  19.1285  19.1553  19.2534  19.3178  19.3831  19.4053  19.4509
    19.6677  19.7645  19.8798  20.0261  20.1318  20.2163  20.2477  20.3201
    20.4270  20.5015  20.5034  20.5631  20.5965  20.6737  20.6745  20.7624
    20.8110  20.8185

          k = 0.1660-0.4973-0.4979 (  9588 PWs)   bands (ev):

   -68.2002 -68.1937 -68.0830 -52.7074 -52.7028 -52.7026 -52.7024 -52.6850
   -52.6843 -52.6842 -52.6839 -51.7910 -51.7889 -51.7889 -51.7814 -51.7802
   -34.2686 -34.2572 -34.2536 -34.2525 -34.2490 -34.2487 -34.1492 -34.1375
   -34.1374 -24.1993 -24.1969 -24.1957 -24.1952 -24.1494 -24.1459 -24.1458
   -24.0963 -24.0920 -24.0904 -24.0681 -24.0657 -24.0607 -24.0496 -24.0467
   -24.0466 -24.0407 -24.0385 -24.0345 -24.0306 -23.9947 -23.9787 -23.9771
   -23.9770 -23.1484 -23.1436 -23.1436 -23.1432 -23.1156 -23.0983 -23.0946
   -23.0909 -23.0827 -23.0809 -23.0477 -23.0331 -23.0298 -23.0275 -23.0271
    13.7024  13.7198  13.7298  13.9244  15.5704  15.5773  15.5892  15.7154
    15.7454  15.7565  15.7842  15.9647  16.1312  16.1584  16.1860  16.1870
    16.2128  16.2172  16.2325  16.5855  16.7443  16.7507  16.7633  16.7999
    16.8353  16.8876  16.9541  16.9673  17.1301  17.1432  17.2224  17.2336
    17.3341  17.3355  17.3972  17.4663  17.5236  17.5297  17.5447  17.6939
    17.9001  17.9093  17.9094  17.9450  18.2667  18.2674  18.3905  18.3925
    19.1943  19.2057  19.2452  19.2556  19.3183  19.3409  19.5363  19.5729
    19.7471  19.7801  19.8143  19.9177  19.9220  20.3020  20.3274  20.5092
    20.5127  20.5149  20.5253  20.5729  20.5765  20.5856  20.6728  20.6806
    20.6942  20.7603

          k = 0.3319 0.3315 0.3319 (  9594 PWs)   bands (ev):

   -68.2002 -68.1937 -68.0830 -52.7135 -52.7006 -52.6990 -52.6964 -52.6888
   -52.6880 -52.6873 -52.6790 -51.7910 -51.7908 -51.7876 -51.7818 -51.7791
   -34.2707 -34.2567 -34.2538 -34.2532 -34.2488 -34.2487 -34.1470 -34.1374
   -34.1374 -24.2011 -24.1806 -24.1768 -24.1723 -24.1722 -24.1441 -24.1381
   -24.1266 -24.1200 -24.0985 -24.0975 -24.0816 -24.0441 -24.0424 -24.0389
   -24.0349 -24.0181 -24.0172 -24.0101 -24.0089 -24.0057 -24.0033 -24.0020
   -23.9901 -23.1403 -23.1351 -23.1279 -23.1274 -23.1233 -23.1001 -23.0963
   -23.0891 -23.0747 -23.0705 -23.0578 -23.0523 -23.0391 -23.0371 -23.0269
    12.9987  14.1739  14.3275  14.4466  14.9980  15.1079  15.1694  15.6770
    15.7352  15.8796  15.9130  15.9836  16.0326  16.0694  16.2034  16.2060
    16.3396  16.3682  16.4007  16.4989  16.7387  16.7465  16.8381  16.8746
    16.9617  16.9703  17.0418  17.0539  17.0965  17.1344  17.2035  17.3285
    17.3697  17.3955  17.4483  17.4617  17.5177  17.5227  17.5687  17.7053
    17.7497  17.7643  17.7793  17.8204  17.9208  17.9661  18.0578  18.7757
    19.1445  19.1485  19.2493  19.2513  19.3838  19.4207  19.4603  19.6690
    19.7731  19.8826  19.9542  20.1515  20.1944  20.3003  20.3081  20.5363
    20.5388  20.5705  20.5960  20.5974  20.6297  20.6441  20.7331  20.7729
    20.8254  20.8798

          k = 0.3319 0.3315-0.4979 (  9598 PWs)   bands (ev):

   -68.2002 -68.1937 -68.0830 -52.7076 -52.7052 -52.6949 -52.6930 -52.6929
   -52.6921 -52.6838 -52.6833 -51.7906 -51.7894 -51.7891 -51.7809 -51.7804
   -34.2707 -34.2566 -34.2537 -34.2534 -34.2488 -34.2487 -34.1470 -34.1374
   -34.1374 -24.1800 -24.1750 -24.1721 -24.1677 -24.1555 -24.1386 -24.1304
   -24.1286 -24.1043 -24.0903 -24.0886 -24.0636 -24.0614 -24.0575 -24.0574
   -24.0488 -24.0308 -24.0222 -24.0186 -24.0163 -24.0131 -24.0105 -24.0010
   -24.0004 -23.1345 -23.1315 -23.1291 -23.1273 -23.0996 -23.0996 -23.0931
   -23.0877 -23.0875 -23.0674 -23.0592 -23.0585 -23.0543 -23.0331 -23.0299
    13.5353  13.6520  14.6629  14.7178  14.7285  14.8563  15.6289  15.7104
    15.8141  15.9180  15.9749  16.0167  16.0505  16.2164  16.2277  16.2483
    16.2507  16.3222  16.5683  16.6694  16.7519  16.7610  16.8427  16.8681
    16.9011  16.9450  17.0177  17.0183  17.0447  17.0761  17.0877  17.1386
    17.2271  17.2471  17.3211  17.4273  17.4303  17.5155  17.5289  17.5764
    17.6208  17.6341  17.6414  17.6648  17.7189  17.7309  18.2479  18.2720
    19.1987  19.2263  19.2528  19.2916  19.3945  19.4673  19.6198  19.6985
    19.8683  19.9068  20.0437  20.1774  20.2959  20.3996  20.4212  20.4957
    20.4986  20.5542  20.5600  20.5953  20.6078  20.6759  20.6765  20.6938
    20.7946  20.8050

          k = 0.3319-0.4973-0.4979 (  9632 PWs)   bands (ev):

   -68.2002 -68.1938 -68.0831 -52.7027 -52.6993 -52.6990 -52.6988 -52.6897
   -52.6879 -52.6878 -52.6875 -51.7902 -51.7889 -51.7889 -51.7814 -51.7810
   -34.2685 -34.2566 -34.2535 -34.2531 -34.2490 -34.2489 -34.1492 -34.1375
   -34.1374 -24.1659 -24.1595 -24.1578 -24.1576 -24.1334 -24.1325 -24.1301
   -24.1026 -24.0981 -24.0957 -24.0853 -24.0653 -24.0651 -24.0629 -24.0627
   -24.0525 -24.0517 -24.0383 -24.0381 -24.0343 -24.0148 -24.0145 -24.0141
   -24.0088 -23.1239 -23.1204 -23.1182 -23.1179 -23.1045 -23.0974 -23.0941
   -23.0897 -23.0811 -23.0796 -23.0622 -23.0530 -23.0497 -23.0476 -23.0475
    14.0660  14.0813  14.0957  14.3020  15.2061  15.2315  15.2366  15.3723
    15.9922  15.9993  16.0587  16.1863  16.2182  16.2529  16.2869  16.4615
    16.4956  16.5336  16.5343  16.6587  16.7206  16.7224  16.7461  16.7695
    16.8919  16.9186  16.9250  16.9321  16.9447  16.9861  16.9888  16.9924
    17.1752  17.1780  17.1984  17.3687  17.3819  17.4126  17.4214  17.4337
    17.5455  17.5587  17.5637  17.5849  17.7401  17.7482  17.8062  17.8103
    19.2870  19.3088  19.3218  19.3256  19.3830  19.4142  19.8000  19.8373
    19.9738  20.0573  20.0840  20.1074  20.1726  20.4249  20.4426  20.5297
    20.6453  20.6638  20.6681  20.7124  20.7338  20.7385  20.7441  20.7634
    20.8277  20.8296

          k =-0.4979-0.4973-0.4979 (  9568 PWs)   bands (ev):

   -68.2002 -68.1937 -68.0830 -52.6964 -52.6960 -52.6960 -52.6956 -52.6956
   -52.6912 -52.6912 -52.6908 -51.7897 -51.7888 -51.7888 -51.7814 -51.7814
   -34.2684 -34.2562 -34.2534 -34.2534 -34.2489 -34.2489 -34.1492 -34.1373
   -34.1373 -24.1256 -24.1246 -24.1246 -24.1168 -24.1146 -24.1145 -24.1135
   -24.1056 -24.1056 -24.1038 -24.1012 -24.0988 -24.0988 -24.0978 -24.0868
   -24.0423 -24.0419 -24.0419 -24.0367 -24.0349 -24.0306 -24.0306 -24.0294
   -24.0294 -23.1104 -23.1071 -23.0948 -23.0948 -23.0936 -23.0934 -23.0859
   -23.0794 -23.0764 -23.0752 -23.0752 -23.0729 -23.0729 -23.0718 -23.0716
    14.4593  14.4682  14.5084  14.8053  14.8053  14.8369  14.8369  14.8449
    16.1782  16.2271  16.2456  16.2460  16.2517  16.3234  16.6349  16.6357
    16.6357  16.6427  16.6427  16.7329  16.7329  16.7458  16.7458  16.7747
    16.8296  16.8588  16.8993  16.9047  16.9047  16.9173  16.9173  16.9649
    16.9649  17.3246  17.3300  17.3302  17.3351  17.3472  17.3472  17.3492
    17.3500  17.3532  17.3548  17.3548  17.3601  17.3695  17.3824  17.3824
    19.3265  19.3542  19.3579  19.3707  19.4139  19.4408  20.0392  20.0392
    20.1207  20.1353  20.1353  20.1696  20.2052  20.2830  20.2830  20.6621
    20.6621  20.6663  20.7641  20.7641  20.7865  20.7865  20.7910  20.7955
    20.7955  20.9761

          k = 0.0000 0.1658 0.0000 (  9595 PWs)   bands (ev):

   -68.2002 -68.1937 -68.0830 -52.7348 -52.7027 -52.6988 -52.6988 -52.6839
   -52.6839 -52.6815 -52.6673 -51.7984 -51.7950 -51.7819 -51.7813 -51.7744
   -34.2751 -34.2561 -34.2544 -34.2544 -34.2484 -34.2484 -34.1427 -34.1375
   -34.1375 -24.3029 -24.2632 -24.2632 -24.2085 -24.2085 -24.1839 -24.1472
   -24.1417 -24.1275 -24.1170 -24.1170 -24.0931 -24.0324 -24.0156 -24.0156
   -23.9775 -23.9775 -23.9601 -23.9601 -23.9592 -23.9546 -23.9514 -23.9409
   -23.9370 -23.2237 -23.1871 -23.1871 -23.1461 -23.1461 -23.1004 -23.0641
   -23.0631 -23.0631 -23.0528 -23.0528 -23.0293 -23.0195 -23.0108 -23.0108
    11.4772  14.4202  14.7103  14.7850  14.8233  14.9838  14.9838  15.0126
    15.0503  15.0527  15.1990  15.2818  15.2818  15.4005  15.6713  16.5944
    16.6086  16.6269  16.6298  16.6298  16.7004  16.7004  16.8471  16.8593
    16.8593  16.8757  17.0326  17.1705  17.1705  17.3251  17.3251  17.5169
    17.8966  17.9733  18.1657  18.1657  18.3505  18.3505  18.3720  18.5176
    18.5176  18.6068  18.7267  18.8636  18.8636  18.8749  18.8800  19.0148
    19.2704  19.2704  19.3058  19.3947  19.5256  19.5256  19.7878  19.8282
    19.8282  19.9730  20.0046  20.0511  20.1347  20.1904  20.1904  20.2985
    20.3498  20.4412  20.4412  20.5852  20.6210  20.6242  20.6727  20.6750
    20.7542  20.9127

          k = 0.0000 0.3315 0.0000 (  9606 PWs)   bands (ev):

   -68.2002 -68.1938 -68.0830 -52.7284 -52.7093 -52.6957 -52.6957 -52.6871
   -52.6871 -52.6785 -52.6703 -51.7956 -51.7932 -51.7841 -51.7834 -51.7746
   -34.2708 -34.2562 -34.2539 -34.2539 -34.2488 -34.2488 -34.1470 -34.1375
   -34.1375 -24.2706 -24.2337 -24.2337 -24.1927 -24.1807 -24.1720 -24.1720
   -24.1405 -24.1405 -24.1330 -24.1075 -24.0635 -24.0530 -24.0365 -24.0365
   -24.0022 -24.0022 -23.9818 -23.9733 -23.9733 -23.9561 -23.9483 -23.9472
   -23.9400 -23.1813 -23.1549 -23.1549 -23.1192 -23.1192 -23.1020 -23.0777
   -23.0777 -23.0645 -23.0645 -23.0613 -23.0566 -23.0360 -23.0278 -23.0278
    11.9197  13.4957  14.8609  14.9811  15.0739  15.1175  15.1175  15.2204
    15.2238  15.3361  15.3441  15.3441  15.3719  15.3913  15.6956  16.0768
    16.1934  16.3904  16.5696  16.5696  16.6729  16.6729  16.8397  16.8726
    17.0648  17.0648  17.2884  17.3195  17.3195  17.6042  17.6042  17.6445
    17.6740  17.8812  17.8812  17.9200  18.2199  18.2199  18.2391  18.3903
    18.3960  18.3960  18.4391  18.5707  18.5707  18.8407  18.8903  19.0168
    19.0449  19.0449  19.0560  19.2356  19.2356  19.2599  19.3387  19.6906
    19.6906  19.8599  19.9029  20.0668  20.0668  20.2223  20.3101  20.5035
    20.5071  20.6318  20.6344  20.6611  20.7671  20.7671  20.7982  20.8562
    20.8690  20.9662

          k = 0.0000-0.4973 0.0000 (  9626 PWs)   bands (ev):

   -68.2002 -68.1938 -68.0830 -52.7215 -52.7163 -52.6916 -52.6916 -52.6912
   -52.6912 -52.6746 -52.6742 -51.7935 -51.7920 -51.7862 -51.7844 -51.7746
   -34.2685 -34.2563 -34.2537 -34.2537 -34.2491 -34.2491 -34.1492 -34.1376
   -34.1376 -24.2263 -24.2255 -24.2093 -24.2093 -24.1961 -24.1697 -24.1697
   -24.1297 -24.1180 -24.1180 -24.0901 -24.0901 -24.0807 -24.0799 -24.0242
   -24.0210 -23.9967 -23.9967 -23.9827 -23.9827 -23.9521 -23.9516 -23.9443
   -23.9440 -23.1261 -23.1252 -23.1252 -23.1238 -23.1058 -23.1058 -23.0954
   -23.0887 -23.0887 -23.0793 -23.0793 -23.0492 -23.0429 -23.0375 -23.0375
    12.5726  12.6621  14.9972  15.1602  15.1846  15.2156  15.2741  15.2741
    15.2756  15.2756  15.4062  15.4780  15.5361  15.6706  15.6960  15.7413
    15.8481  15.9146  16.5580  16.5580  16.6528  16.6528  17.0202  17.0799
    17.3450  17.3450  17.3588  17.4289  17.4462  17.4462  17.6883  17.7091
    17.7763  17.7763  17.7882  17.7882  17.9676  17.9676  18.1748  18.1774
    18.2107  18.2107  18.4527  18.4527  18.5053  18.5053  18.5834  18.7136
    18.7760  18.7777  18.9202  19.3543  19.4791  19.4791  19.5698  19.7221
    19.7740  19.7740  19.8836  20.2105  20.2105  20.2789  20.3595  20.4343
    20.4992  20.4992  20.6103  20.6274  20.6458  20.6471  20.8923  20.9516
    21.0094  21.0156

          k = 0.1660 0.0000 0.1660 (  9557 PWs)   bands (ev):

   -68.2002 -68.1937 -68.0829 -52.7325 -52.7021 -52.7003 -52.6979 -52.6850
   -52.6828 -52.6828 -52.6684 -51.7972 -51.7947 -51.7833 -51.7801 -51.7755
   -34.2770 -34.2562 -34.2545 -34.2539 -34.2487 -34.2482 -34.1407 -34.1374
   -34.1374 -24.2831 -24.2578 -24.2565 -24.2050 -24.2027 -24.1648 -24.1562
   -24.1442 -24.1353 -24.1165 -24.1119 -24.0972 -24.0290 -24.0173 -24.0165
   -23.9864 -23.9847 -23.9747 -23.9694 -23.9594 -23.9592 -23.9544 -23.9488
   -23.9389 -23.2043 -23.1891 -23.1757 -23.1361 -23.1341 -23.0981 -23.0710
   -23.0665 -23.0602 -23.0597 -23.0470 -23.0468 -23.0364 -23.0115 -23.0054
    11.6268  14.3816  14.6231  14.7684  14.8278  14.9374  15.0270  15.1044
    15.1064  15.1073  15.1319  15.3355  15.3455  15.6804  15.7505  16.4494
    16.5466  16.5831  16.6328  16.6787  16.7490  16.7614  16.7834  16.8004
    16.9510  16.9828  16.9867  17.0790  17.1557  17.1868  17.2899  17.6206
    17.8903  17.9353  18.0971  18.1408  18.3144  18.3387  18.3747  18.5015
    18.5087  18.5193  18.5883  18.7581  18.7680  18.9209  18.9293  18.9432
    19.1443  19.1542  19.1967  19.2342  19.4063  19.5233  19.5667  19.6529
    19.7068  19.7242  19.9928  20.0416  20.0779  20.1493  20.2522  20.2769
    20.3648  20.4200  20.4929  20.5830  20.6411  20.6761  20.6866  20.8173
    20.8578  20.9266

          k = 0.1660 0.3315 0.0000 (  9577 PWs)   bands (ev):

   -68.2002 -68.1937 -68.0830 -52.7263 -52.7079 -52.6979 -52.6945 -52.6886
   -52.6860 -52.6796 -52.6714 -51.7947 -51.7929 -51.7841 -51.7836 -51.7753
   -34.2708 -34.2565 -34.2538 -34.2535 -34.2489 -34.2488 -34.1470 -34.1375
   -34.1375 -24.2637 -24.2283 -24.2209 -24.1867 -24.1810 -24.1685 -24.1640
   -24.1540 -24.1313 -24.1287 -24.1035 -24.0684 -24.0523 -24.0367 -24.0330
   -24.0073 -24.0007 -23.9868 -23.9841 -23.9710 -23.9669 -23.9565 -23.9550
   -23.9446 -23.1846 -23.1519 -23.1479 -23.1141 -23.1117 -23.1019 -23.0907
   -23.0846 -23.0806 -23.0655 -23.0618 -23.0457 -23.0308 -23.0299 -23.0201
    12.0612  13.5980  14.6324  14.8064  15.0536  15.1413  15.2393  15.2415
    15.3057  15.3658  15.4272  15.4396  15.4408  15.6928  15.7583  16.1151
    16.1904  16.3455  16.6077  16.6670  16.6679  16.7136  16.7438  16.8606
    17.0005  17.1039  17.1875  17.2107  17.3557  17.3944  17.4578  17.6448
    17.6798  17.7874  17.9672  18.0276  18.0719  18.1089  18.1334  18.1510
    18.2995  18.3428  18.4215  18.6019  18.6492  18.7497  18.8248  18.8720
    18.9716  19.0949  19.1290  19.1730  19.2584  19.3098  19.3614  19.4743
    19.5793  19.7320  19.8581  19.9633  20.0482  20.1259  20.3856  20.4982
    20.5055  20.5442  20.6043  20.6301  20.7212  20.7294  20.7949  20.8048
    20.8273  20.8917

          k = 0.3319 0.0000 0.1660 (  9577 PWs)   bands (ev):

   -68.2002 -68.1937 -68.0829 -52.7262 -52.7080 -52.6976 -52.6947 -52.6884
   -52.6860 -52.6798 -52.6715 -51.7946 -51.7933 -51.7860 -51.7800 -51.7768
   -34.2769 -34.2564 -34.2543 -34.2536 -34.2490 -34.2483 -34.1407 -34.1374
   -34.1373 -24.2426 -24.2417 -24.2321 -24.1902 -24.1775 -24.1692 -24.1619
   -24.1551 -24.1351 -24.1269 -24.1098 -24.0711 -24.0474 -24.0335 -24.0296
   -24.0086 -24.0038 -23.9855 -23.9835 -23.9732 -23.9679 -23.9576 -23.9519
   -23.9426 -23.1700 -23.1644 -23.1589 -23.1117 -23.1096 -23.0962 -23.0962
   -23.0840 -23.0757 -23.0615 -23.0559 -23.0493 -23.0486 -23.0211 -23.0146
    12.0615  13.5935  14.6680  14.8053  15.0144  15.1875  15.2118  15.2375
    15.3378  15.3440  15.4122  15.4314  15.4457  15.6534  15.7978  16.1524
    16.1771  16.3630  16.5922  16.6810  16.6905  16.7586  16.8204  16.9516
    17.0498  17.0577  17.0931  17.1931  17.2250  17.3880  17.4824  17.6603
    17.6769  17.9502  17.9846  18.0162  18.0205  18.0427  18.1348  18.1530
    18.2244  18.3093  18.3802  18.5758  18.6295  18.6725  18.7514  18.7853
    18.9868  19.0828  19.1355  19.1828  19.2470  19.3175  19.4843  19.5149
    19.6108  19.9031  19.9333  19.9564  20.0493  20.2489  20.3023  20.4072
    20.4408  20.4574  20.5095  20.5688  20.6286  20.7264  20.7474  20.7728
    20.8307  20.9121

          k = 0.1660-0.4973 0.0000 (  9608 PWs)   bands (ev):

   -68.2002 -68.1938 -68.0830 -52.7196 -52.7146 -52.6936 -52.6929 -52.6905
   -52.6901 -52.6757 -52.6753 -51.7929 -51.7918 -51.7855 -51.7850 -51.7754
   -34.2686 -34.2567 -34.2536 -34.2532 -34.2491 -34.2490 -34.1492 -34.1376
   -34.1375 -24.2258 -24.2243 -24.2057 -24.1981 -24.1879 -24.1779 -24.1570
   -24.1310 -24.1150 -24.1129 -24.0877 -24.0861 -24.0750 -24.0743 -24.0286
   -24.0254 -24.0031 -23.9942 -23.9935 -23.9791 -23.9625 -23.9617 -23.9505
   -23.9496 -23.1418 -23.1382 -23.1237 -23.1236 -23.1186 -23.1034 -23.0982
   -23.0924 -23.0868 -23.0801 -23.0598 -23.0400 -23.0385 -23.0339 -23.0327
    12.6987  12.7892  14.7150  14.8250  15.2080  15.3063  15.3915  15.3933
    15.4624  15.4854  15.4880  15.5680  15.5936  15.7338  15.7509  15.8027
    15.8866  15.9490  16.5999  16.6147  16.6810  16.7134  16.8610  17.0143
    17.1263  17.2417  17.3302  17.3656  17.3858  17.4156  17.6374  17.6586
    17.7514  17.7651  17.7968  17.8004  17.8317  17.8832  18.0438  18.0596
    18.1379  18.2147  18.2177  18.2330  18.3392  18.3860  18.8691  18.8755
    18.8980  18.9691  19.0033  19.3341  19.3500  19.5095  19.5256  19.5507
    19.6560  19.7357  19.8396  19.9569  20.0017  20.0801  20.3919  20.4395
    20.4504  20.4703  20.6142  20.6596  20.6660  20.6785  20.8099  20.8923
    20.9184  20.9648

          k =-0.4979 0.0000 0.1660 (  9608 PWs)   bands (ev):

   -68.2003 -68.1938 -68.0830 -52.7193 -52.7150 -52.6934 -52.6926 -52.6905
   -52.6903 -52.6758 -52.6755 -51.7934 -51.7907 -51.7891 -51.7797 -51.7777
   -34.2768 -34.2564 -34.2539 -34.2538 -34.2488 -34.2487 -34.1408 -34.1374
   -34.1373 -24.2285 -24.2126 -24.1925 -24.1920 -24.1908 -24.1855 -24.1688
   -24.1565 -24.1211 -24.1075 -24.1073 -24.0716 -24.0689 -24.0622 -24.0296
   -24.0247 -24.0037 -23.9911 -23.9891 -23.9866 -23.9645 -23.9626 -23.9478
   -23.9469 -23.1448 -23.1350 -23.1265 -23.1219 -23.1173 -23.1169 -23.0952
   -23.0899 -23.0897 -23.0643 -23.0628 -23.0435 -23.0363 -23.0336 -23.0290
    12.6914  12.7970  14.7464  14.8235  15.1621  15.3092  15.3845  15.3865
    15.3885  15.4843  15.5707  15.6052  15.6728  15.6863  15.7408  15.7729
    15.8838  15.9652  16.5813  16.6640  16.6757  16.7241  17.1349  17.1433
    17.1829  17.2147  17.2765  17.2834  17.3451  17.4041  17.5789  17.6185
    17.6584  17.7017  17.7864  17.7967  17.9239  17.9368  18.0424  18.0440
    18.0737  18.1104  18.1553  18.2164  18.2229  18.3040  18.8498  18.8820
    18.9177  18.9692  18.9754  19.3485  19.4792  19.4947  19.6313  19.6506
    19.6541  19.7492  19.7902  19.9717  20.0202  20.3200  20.3243  20.3372
    20.4011  20.4151  20.4626  20.6230  20.6553  20.6633  20.7141  20.8218
    20.9598  20.9635

          k = 0.3319 0.0000 0.3319 (  9582 PWs)   bands (ev):

   -68.2002 -68.1937 -68.0829 -52.7205 -52.7064 -52.7012 -52.6922 -52.6916
   -52.6830 -52.6829 -52.6746 -51.7927 -51.7923 -51.7875 -51.7799 -51.7781
   -34.2768 -34.2564 -34.2544 -34.2538 -34.2487 -34.2481 -34.1407 -34.1374
   -34.1373 -24.2325 -24.2190 -24.2055 -24.1980 -24.1725 -24.1713 -24.1588
   -24.1423 -24.1208 -24.1172 -24.0987 -24.0698 -24.0528 -24.0332 -24.0292
   -24.0220 -24.0118 -23.9956 -23.9950 -23.9925 -23.9886 -23.9747 -23.9554
   -23.9473 -23.1725 -23.1599 -23.1414 -23.1255 -23.1221 -23.0949 -23.0933
   -23.0922 -23.0909 -23.0585 -23.0460 -23.0433 -23.0378 -23.0273 -23.0083
    12.4694  13.7587  14.0114  14.5714  15.2560  15.3364  15.4192  15.5233
    15.5496  15.5837  15.5927  15.5943  15.6299  15.6775  15.9057  16.1287
    16.2610  16.3068  16.4989  16.6224  16.7177  16.7293  16.8894  16.8935
    16.9306  16.9652  17.0979  17.1693  17.2494  17.3025  17.3671  17.4785
    17.6427  17.6943  17.8058  17.8429  17.8641  17.8746  17.9835  18.0273
    18.0383  18.1076  18.2223  18.2379  18.3869  18.4087  18.9082  18.9440
    18.9900  19.0546  19.0969  19.1084  19.3024  19.3191  19.3799  19.4775
    19.6480  19.7078  19.7759  19.8911  19.9633  20.1217  20.3212  20.3276
    20.3572  20.4571  20.5017  20.5199  20.5355  20.5924  20.6936  20.7702
    20.7776  20.8384

          k = 0.3319-0.4973 0.0000 (  9578 PWs)   bands (ev):

   -68.2002 -68.1937 -68.0830 -52.7144 -52.7101 -52.6988 -52.6975 -52.6874
   -52.6870 -52.6788 -52.6785 -51.7915 -51.7912 -51.7866 -51.7836 -51.7776
   -34.2686 -34.2572 -34.2536 -34.2526 -34.2490 -34.2488 -34.1492 -34.1375
   -34.1374 -24.2198 -24.2192 -24.2052 -24.1948 -24.1723 -24.1657 -24.1431
   -24.1241 -24.0996 -24.0919 -24.0829 -24.0760 -24.0661 -24.0641 -24.0373
   -24.0339 -24.0222 -24.0208 -23.9984 -23.9961 -23.9869 -23.9714 -23.9572
   -23.9551 -23.1549 -23.1543 -23.1410 -23.1402 -23.1210 -23.0979 -23.0976
   -23.0922 -23.0826 -23.0824 -23.0405 -23.0367 -23.0276 -23.0240 -23.0224
    13.0569  13.1483  14.1802  14.2941  15.4757  15.5188  15.5637  15.6444
    15.6457  15.6907  15.6981  15.7601  15.7604  15.8467  15.9167  15.9787
    16.0026  16.0234  16.5384  16.6520  16.7248  16.7359  16.8293  16.8603
    16.9022  17.0449  17.0569  17.0712  17.3006  17.3719  17.3881  17.4093
    17.5954  17.6114  17.6224  17.6826  17.7160  17.7484  17.7910  17.8755
    18.1498  18.1583  18.1594  18.1638  18.1653  18.1963  19.0554  19.0616
    19.1261  19.2103  19.2144  19.2353  19.2742  19.2796  19.3081  19.3301
    19.4599  19.6302  19.6759  19.7702  19.8138  20.1492  20.1646  20.4250
    20.4259  20.4812  20.5254  20.5750  20.6481  20.6514  20.6548  20.7313
    20.7319  20.8320

          k =-0.4979 0.0000 0.3319 (  9578 PWs)   bands (ev):

   -68.2002 -68.1937 -68.0829 -52.7141 -52.7113 -52.6987 -52.6963 -52.6874
   -52.6872 -52.6789 -52.6787 -51.7919 -51.7906 -51.7893 -51.7797 -51.7790
   -34.2768 -34.2564 -34.2542 -34.2542 -34.2483 -34.2483 -34.1407 -34.1374
   -34.1373 -24.2204 -24.2174 -24.1940 -24.1938 -24.1640 -24.1618 -24.1611
   -24.1601 -24.1102 -24.0919 -24.0851 -24.0652 -24.0551 -24.0539 -24.0376
   -24.0270 -24.0217 -24.0193 -23.9995 -23.9958 -23.9853 -23.9832 -23.9544
   -23.9505 -23.1579 -23.1529 -23.1507 -23.1441 -23.1143 -23.1142 -23.0919
   -23.0894 -23.0889 -23.0525 -23.0491 -23.0359 -23.0350 -23.0210 -23.0142
    13.0401  13.1572  14.2211  14.2933  15.3990  15.4633  15.5282  15.6300
    15.6787  15.6900  15.7856  15.7914  15.8142  15.8413  15.8843  15.9845
    16.0030  16.0576  16.6325  16.6701  16.7541  16.7958  16.8258  16.8375
    16.8948  17.0627  17.0756  17.0788  17.2156  17.2481  17.3907  17.4069
    17.5292  17.5963  17.7231  17.7598  17.7779  17.7815  17.7854  17.9533
    17.9938  18.0588  18.0840  18.0973  18.1477  18.1561  18.9986  19.0479
    19.0659  19.2018  19.2138  19.2313  19.2352  19.2747  19.2757  19.2925
    19.5400  19.7235  19.7646  19.8264  20.0416  20.0974  20.2455  20.3604
    20.3725  20.4122  20.4867  20.5716  20.5793  20.5911  20.6335  20.6422
    20.6485  20.8246

          k =-0.4979 0.0000-0.4979 (  9580 PWs)   bands (ev):

   -68.2002 -68.1937 -68.0829 -52.7085 -52.7085 -52.7043 -52.6992 -52.6833
   -52.6830 -52.6830 -52.6828 -51.7906 -51.7906 -51.7898 -51.7797 -51.7797
   -34.2768 -34.2564 -34.2544 -34.2544 -34.2481 -34.2481 -34.1407 -34.1373
   -34.1373 -24.2204 -24.2201 -24.1909 -24.1892 -24.1638 -24.1638 -24.1462
   -24.1462 -24.1016 -24.0635 -24.0635 -24.0594 -24.0588 -24.0432 -24.0432
   -24.0363 -24.0363 -24.0293 -24.0292 -24.0274 -23.9817 -23.9817 -23.9584
   -23.9523 -23.1669 -23.1618 -23.1566 -23.1514 -23.1130 -23.1130 -23.0902
   -23.0889 -23.0889 -23.0487 -23.0440 -23.0358 -23.0358 -23.0123 -23.0078
    13.4232  13.6173  13.7723  13.7723  15.4642  15.5815  15.5856  15.7849
    15.8695  15.8695  15.8858  15.8858  15.9431  15.9431  16.0938  16.1101
    16.1317  16.1911  16.4510  16.5549  16.5549  16.6756  16.6756  16.8084
    16.8505  16.8505  17.1072  17.1253  17.1534  17.2398  17.2464  17.2464
    17.4023  17.4889  17.5550  17.5550  17.6318  17.6552  17.6660  17.9030
    17.9886  17.9886  18.1228  18.1228  18.3606  18.3606  18.8767  18.8935
    19.0491  19.0633  19.0715  19.1627  19.1782  19.2235  19.4475  19.4475
    19.5337  19.7288  19.8436  19.8436  19.9538  19.9538  20.3444  20.3444
    20.3846  20.3896  20.3940  20.4095  20.5443  20.5443  20.5808  20.5808
    20.6676  20.7229

          k = 0.1660 0.3315 0.1660 (  9577 PWs)   bands (ev):

   -68.2002 -68.1937 -68.0830 -52.7242 -52.7064 -52.6973 -52.6960 -52.6877
   -52.6872 -52.6809 -52.6726 -51.7940 -51.7926 -51.7847 -51.7833 -51.7760
   -34.2708 -34.2566 -34.2538 -34.2532 -34.2489 -34.2488 -34.1469 -34.1375
   -34.1375 -24.2547 -24.2174 -24.2146 -24.1824 -24.1777 -24.1672 -24.1582
   -24.1545 -24.1281 -24.1270 -24.0998 -24.0743 -24.0496 -24.0342 -24.0340
   -24.0100 -24.0016 -23.9889 -23.9844 -23.9840 -23.9711 -23.9693 -23.9591
   -23.9570 -23.1798 -23.1460 -23.1456 -23.1173 -23.1069 -23.1036 -23.0989
   -23.0940 -23.0730 -23.0723 -23.0563 -23.0410 -23.0319 -23.0294 -23.0219
    12.2015  13.7038  14.6443  14.8613  14.8909  14.9869  15.1922  15.3245
    15.3721  15.4064  15.4297  15.5264  15.7580  15.8182  15.8554  16.1413
    16.1898  16.3962  16.5183  16.6157  16.7306  16.7726  16.7961  16.8833
    16.9504  17.0331  17.1061  17.2357  17.3123  17.3345  17.3407  17.5567
    17.6211  17.7193  17.9592  17.9601  17.9675  18.0103  18.0172  18.1265
    18.1546  18.2052  18.2683  18.4316  18.5043  18.6898  18.8167  18.9054
    18.9341  19.0226  19.0569  19.1808  19.2916  19.3487  19.4469  19.5229
    19.5899  19.7494  19.8259  19.9153  19.9704  20.1270  20.4193  20.4402
    20.4600  20.5073  20.5916  20.6122  20.6551  20.7497  20.7620  20.8128
    20.8235  20.8633

          k = 0.1660-0.4973 0.1660 (  9588 PWs)   bands (ev):

   -68.2002 -68.1937 -68.0830 -52.7177 -52.7130 -52.6927 -52.6923 -52.6920
   -52.6912 -52.6769 -52.6765 -51.7924 -51.7916 -51.7855 -51.7850 -51.7761
   -34.2686 -34.2568 -34.2536 -34.2530 -34.2490 -34.2489 -34.1492 -34.1375
   -34.1375 -24.2222 -24.2189 -24.1962 -24.1923 -24.1808 -24.1699 -24.1592
   -24.1323 -24.1166 -24.1034 -24.0945 -24.0731 -24.0723 -24.0701 -24.0331
   -24.0292 -24.0067 -23.9968 -23.9929 -23.9890 -23.9658 -23.9650 -23.9645
   -23.9636 -23.1452 -23.1429 -23.1291 -23.1213 -23.1143 -23.1069 -23.0989
   -23.0960 -23.0820 -23.0800 -23.0530 -23.0460 -23.0328 -23.0311 -23.0310
    12.8256  12.9171  14.7518  14.9015  14.9613  14.9959  15.5379  15.5643
    15.5686  15.5921  15.6252  15.6468  15.6819  15.7956  15.8117  15.8548
    15.9330  15.9904  16.6135  16.6808  16.7032  16.7635  16.7703  16.9894
    17.0596  17.1903  17.2081  17.2777  17.4044  17.4054  17.5142  17.5320
    17.6687  17.6836  17.6940  17.7694  17.7881  17.8444  17.9136  17.9407
    17.9769  18.0842  18.1292  18.1423  18.1673  18.2123  18.9663  18.9689
    19.0630  19.1059  19.1633  19.2989  19.3109  19.3544  19.4073  19.4952
    19.5667  19.6116  19.8145  19.8339  20.0084  20.1711  20.4210  20.4215
    20.4660  20.4682  20.6519  20.6615  20.6906  20.7458  20.7655  20.7994
    20.8683  20.9248

          k = 0.3319 0.1658 0.3319 (  9595 PWs)   bands (ev):

   -68.2002 -68.1937 -68.0830 -52.7186 -52.7048 -52.7000 -52.6935 -52.6910
   -52.6845 -52.6842 -52.6758 -51.7922 -51.7919 -51.7875 -51.7805 -51.7784
   -34.2749 -34.2565 -34.2542 -34.2536 -34.2488 -34.2483 -34.1427 -34.1374
   -34.1374 -24.2172 -24.2135 -24.2010 -24.1904 -24.1712 -24.1562 -24.1523
   -24.1409 -24.1229 -24.1124 -24.0941 -24.0789 -24.0492 -24.0344 -24.0320
   -24.0266 -24.0116 -24.0020 -23.9978 -23.9948 -23.9944 -23.9830 -23.9738
   -23.9614 -23.1620 -23.1493 -23.1415 -23.1280 -23.1233 -23.0952 -23.0951
   -23.0919 -23.0785 -23.0595 -23.0576 -23.0518 -23.0304 -23.0288 -23.0160
    12.6060  13.8741  14.1290  14.7040  14.9850  15.2352  15.3423  15.4254
    15.5979  15.6898  15.6910  15.7003  15.7621  15.9884  15.9975  16.1728
    16.2756  16.3862  16.4700  16.5466  16.7403  16.7944  16.7973  16.9299
    16.9578  16.9941  17.0353  17.0816  17.2101  17.2908  17.3114  17.4503
    17.4856  17.5840  17.6768  17.7147  17.7253  17.7686  17.8372  17.9087
    17.9792  18.0150  18.0192  18.1234  18.1434  18.2868  18.5351  18.9959
    19.0637  19.1353  19.1620  19.2458  19.2802  19.3382  19.4049  19.5252
    19.5493  19.7527  19.8613  20.0029  20.1078  20.2345  20.3033  20.4244
    20.4467  20.4896  20.4901  20.5455  20.5952  20.6031  20.7057  20.7215
    20.7791  20.8041

          k = 0.3319-0.4973 0.1660 (  9574 PWs)   bands (ev):

   -68.2002 -68.1937 -68.0830 -52.7126 -52.7086 -52.6976 -52.6964 -52.6891
   -52.6884 -52.6802 -52.6797 -51.7912 -51.7909 -51.7869 -51.7834 -51.7781
   -34.2686 -34.2570 -34.2535 -34.2527 -34.2490 -34.2488 -34.1492 -34.1375
   -34.1374 -24.2109 -24.2082 -24.1918 -24.1815 -24.1666 -24.1602 -24.1393
   -24.1287 -24.1044 -24.0934 -24.0870 -24.0654 -24.0650 -24.0580 -24.0432
   -24.0377 -24.0236 -24.0202 -24.0027 -24.0015 -23.9964 -23.9851 -23.9726
   -23.9699 -23.1489 -23.1481 -23.1343 -23.1338 -23.1153 -23.1033 -23.0939
   -23.0929 -23.0825 -23.0813 -23.0472 -23.0402 -23.0311 -23.0278 -23.0271
    13.1859  13.2780  14.3045  14.4227  15.2045  15.2753  15.6432  15.6679
    15.7331  15.7823  15.8045  15.8973  15.8982  15.9262  15.9293  16.0517
    16.0768  16.1172  16.5190  16.6668  16.7412  16.7549  16.8495  16.8626
    16.9125  17.0443  17.0521  17.0652  17.2364  17.2624  17.3050  17.3057
    17.4284  17.4768  17.4900  17.5869  17.6515  17.6748  17.7282  17.7666
    17.9366  17.9400  17.9795  17.9932  17.9991  18.0170  18.8435  18.8479
    19.1328  19.1384  19.2190  19.2297  19.2700  19.3459  19.4441  19.4467
    19.6301  19.7881  19.7908  19.8715  19.9732  20.2246  20.3455  20.4383
    20.4706  20.5087  20.5987  20.6250  20.6330  20.6865  20.7119  20.7834
    20.7919  20.8344

          k =-0.4979 0.1658 0.3319 (  9574 PWs)   bands (ev):

   -68.2002 -68.1937 -68.0829 -52.7123 -52.7097 -52.6974 -52.6952 -52.6891
   -52.6887 -52.6802 -52.6799 -51.7915 -51.7902 -51.7892 -51.7801 -51.7794
   -34.2748 -34.2565 -34.2540 -34.2539 -34.2484 -34.2484 -34.1427 -34.1374
   -34.1373 -24.2082 -24.2042 -24.1879 -24.1860 -24.1679 -24.1598 -24.1469
   -24.1441 -24.1113 -24.0893 -24.0850 -24.0646 -24.0620 -24.0532 -24.0427
   -24.0332 -24.0247 -24.0193 -24.0054 -24.0005 -23.9914 -23.9902 -23.9705
   -23.9678 -23.1508 -23.1465 -23.1443 -23.1392 -23.1097 -23.1079 -23.0925
   -23.0896 -23.0888 -23.0554 -23.0517 -23.0461 -23.0425 -23.0226 -23.0174
    13.1689  13.2867  14.3518  14.4223  15.1550  15.2772  15.5481  15.6681
    15.7438  15.8176  15.8699  15.8856  15.9183  15.9352  15.9448  16.0526
    16.0644  16.1268  16.6519  16.6885  16.7662  16.8014  16.8189  16.8371
    16.8759  17.0452  17.0879  17.0903  17.1667  17.1958  17.2953  17.2957
    17.3596  17.4332  17.5941  17.6644  17.6678  17.6838  17.7293  17.7983
    17.8422  17.8745  17.8957  17.9124  18.0376  18.0441  18.7809  18.8238
    19.0805  19.1270  19.1312  19.2524  19.2995  19.3702  19.4431  19.5467
    19.6143  19.7734  19.8188  19.9629  20.2052  20.2675  20.2840  20.3825
    20.3948  20.4100  20.5099  20.5910  20.5960  20.6488  20.6565  20.7385
    20.7985  20.8153

          k =-0.4979 0.1658-0.4979 (  9588 PWs)   bands (ev):

   -68.2002 -68.1937 -68.0829 -52.7068 -52.7068 -52.7030 -52.6981 -52.6847
   -52.6847 -52.6846 -52.6839 -51.7902 -51.7902 -51.7897 -51.7801 -51.7801
   -34.2748 -34.2564 -34.2542 -34.2542 -34.2482 -34.2482 -34.1427 -34.1373
   -34.1373 -24.2048 -24.2044 -24.1815 -24.1798 -24.1593 -24.1593 -24.1357
   -24.1357 -24.1047 -24.0614 -24.0614 -24.0576 -24.0568 -24.0524 -24.0524
   -24.0416 -24.0398 -24.0368 -24.0368 -24.0311 -23.9883 -23.9883 -23.9767
   -23.9718 -23.1569 -23.1525 -23.1453 -23.1401 -23.1092 -23.1092 -23.0906
   -23.0881 -23.0881 -23.0548 -23.0498 -23.0417 -23.0417 -23.0207 -23.0163
    13.5527  13.7467  13.9063  13.9063  15.4298  15.5776  15.6075  15.6878
    15.6878  15.7326  15.9895  15.9895  16.1327  16.1656  16.1656  16.2037
    16.2065  16.2694  16.4332  16.5712  16.5712  16.6802  16.6802  16.8028
    16.8646  16.8646  17.0430  17.1324  17.1375  17.1479  17.2067  17.2067
    17.2371  17.3353  17.3977  17.3977  17.5251  17.6097  17.6187  17.7650
    17.8304  17.8304  17.8691  17.8691  18.2042  18.2042  18.4320  18.4447
    19.1214  19.1571  19.1986  19.2567  19.3329  19.4751  19.5276  19.5493
    19.5493  19.8588  19.8976  19.8976  20.2555  20.2555  20.4053  20.4053
    20.4486  20.4632  20.5626  20.5626  20.5838  20.5838  20.5929  20.5966
    20.6784  20.7189

          k = 0.3319-0.4973 0.3319 (  9598 PWs)   bands (ev):

   -68.2002 -68.1937 -68.0830 -52.7078 -52.7045 -52.6949 -52.6945 -52.6930
   -52.6911 -52.6838 -52.6831 -51.7905 -51.7900 -51.7877 -51.7826 -51.7795
   -34.2686 -34.2568 -34.2535 -34.2530 -34.2489 -34.2489 -34.1492 -34.1374
   -34.1374 -24.1875 -24.1821 -24.1573 -24.1561 -24.1520 -24.1437 -24.1333
   -24.1332 -24.1027 -24.0997 -24.0897 -24.0591 -24.0589 -24.0576 -24.0467
   -24.0441 -24.0307 -24.0258 -24.0217 -24.0194 -24.0172 -24.0149 -24.0016
   -23.9967 -23.1353 -23.1330 -23.1216 -23.1177 -23.1091 -23.1040 -23.0921
   -23.0897 -23.0839 -23.0807 -23.0584 -23.0487 -23.0420 -23.0388 -23.0383
    13.5511  13.6432  14.5470  14.7175  14.8339  14.8661  15.6193  15.7018
    15.9215  15.9337  15.9641  15.9913  16.0095  16.1210  16.2149  16.2324
    16.3027  16.3376  16.4799  16.6500  16.7712  16.8377  16.8531  16.8779
    16.9233  16.9559  16.9639  17.0279  17.0441  17.0500  17.0519  17.1279
    17.2380  17.2534  17.3596  17.4145  17.4730  17.4867  17.5760  17.5997
    17.6277  17.6530  17.6603  17.6725  17.6744  17.7139  18.2549  18.2683
    19.2522  19.2621  19.2660  19.2923  19.3682  19.3682  19.6584  19.6998
    19.9295  19.9909  20.0194  20.0453  20.0560  20.4096  20.4516  20.4856
    20.5378  20.5941  20.6376  20.6430  20.6764  20.6921  20.7581  20.7617
    20.8057  20.8375

          k =-0.4979 0.3315-0.4979 (  9632 PWs)   bands (ev):

   -68.2002 -68.1938 -68.0830 -52.7022 -52.7022 -52.6995 -52.6951 -52.6894
   -52.6894 -52.6881 -52.6869 -51.7897 -51.7894 -51.7894 -51.7809 -51.7809
   -34.2707 -34.2563 -34.2537 -34.2537 -34.2487 -34.2487 -34.1470 -34.1374
   -34.1374 -24.1639 -24.1606 -24.1547 -24.1529 -24.1430 -24.1430 -24.1160
   -24.1160 -24.1096 -24.0769 -24.0769 -24.0744 -24.0727 -24.0576 -24.0570
   -24.0519 -24.0519 -24.0382 -24.0382 -24.0369 -24.0195 -24.0177 -24.0065
   -24.0065 -23.1317 -23.1295 -23.1165 -23.1110 -23.1003 -23.1003 -23.0915
   -23.0852 -23.0852 -23.0725 -23.0657 -23.0565 -23.0565 -23.0440 -23.0398
    13.9219  14.1092  14.2839  14.2839  15.0346  15.2626  15.3465  15.3465
    15.8493  15.9822  16.1933  16.2309  16.3201  16.3201  16.3780  16.3795
    16.4786  16.4786  16.5459  16.6158  16.6158  16.6823  16.6823  16.7858
    16.8708  16.9046  16.9046  16.9235  17.0811  17.0891  17.0891  17.1120
    17.1591  17.1591  17.2137  17.2229  17.2369  17.4642  17.4642  17.4842
    17.4927  17.4977  17.5045  17.5045  17.7540  17.7540  17.8512  17.8584
    19.2561  19.2590  19.3045  19.3239  19.4310  19.4970  19.8202  19.8202
    19.8451  20.0734  20.0855  20.0855  20.4127  20.4127  20.4644  20.5142
    20.5142  20.6051  20.6410  20.6761  20.6761  20.7265  20.7449  20.7449
    20.7775  20.8283

 ------ SPIN DOWN ----------


          k = 0.0000 0.0000 0.0000 (  9627 PWs)   bands (ev):

   -67.2775 -66.8436 -66.8281 -52.6893 -52.6701 -52.6371 -52.6332 -52.5931
   -51.8233 -51.8230 -51.8230 -51.8139 -51.8052 -51.8052 -51.8050 -51.7882
   -33.3684 -33.3555 -33.3555 -32.9409 -32.9409 -32.9337 -32.9275 -32.9275
   -32.9137 -24.2624 -24.2235 -24.2235 -24.1783 -24.1783 -24.0753 -24.0483
   -24.0418 -24.0418 -24.0182 -24.0182 -23.9320 -23.9156 -23.9156 -23.8857
   -23.3099 -23.2713 -23.2689 -23.2569 -23.2569 -23.2352 -23.2060 -23.1636
   -23.1636 -23.1160 -23.1007 -23.0985 -23.0985 -23.0840 -23.0840 -23.0813
   -23.0793 -23.0793 -23.0636 -23.0615 -23.0282 -23.0135 -23.0018 -23.0018
    11.3765  14.8375  14.9616  15.0255  15.0255  15.0280  15.1104  15.1190
    15.2858  15.3117  15.4261  15.4394  15.4406  15.4406  15.4948  16.9139
    16.9207  16.9207  16.9549  16.9549  16.9580  17.0384  17.0391  17.0391
    17.2810  17.2810  17.2849  17.4169  17.5888  17.6607  17.9451  17.9636
    17.9636  18.4337  18.4337  18.4414  18.6026  18.6063  18.6063  18.6515
    18.6515  18.6630  19.3568  19.4160  19.4160  19.4594  19.4594  19.4979
    19.5642  19.5883  19.5883  20.2512  20.3626  20.3626  20.3802  20.3865
    20.4754  20.4754  20.5318  20.5696  20.5849  20.6028  20.6088  20.6242
    20.6407  20.6548  20.6591  20.6685  20.6685  20.6813  20.6886  20.7018
    20.7187  21.3439

          k = 0.0000 0.0000 0.1660 (  9595 PWs)   bands (ev):

   -67.2775 -66.8436 -66.8281 -52.6877 -52.6710 -52.6369 -52.6336 -52.5936
   -51.8226 -51.8221 -51.8218 -51.8143 -51.8064 -51.8062 -51.8041 -51.7893
   -33.3684 -33.3555 -33.3554 -32.9408 -32.9407 -32.9336 -32.9276 -32.9274
   -32.9137 -24.2501 -24.2153 -24.2089 -24.1706 -24.1706 -24.0792 -24.0582
   -24.0532 -24.0512 -24.0275 -24.0220 -23.9342 -23.9299 -23.9157 -23.8895
   -23.2987 -23.2561 -23.2518 -23.2505 -23.2450 -23.2253 -23.2028 -23.1710
   -23.1621 -23.1214 -23.1077 -23.0970 -23.0965 -23.0934 -23.0876 -23.0780
   -23.0756 -23.0750 -23.0696 -23.0629 -23.0359 -23.0186 -23.0170 -23.0067
    11.5288  14.5010  14.9311  15.0388  15.0799  15.0824  15.1411  15.2000
    15.2820  15.3889  15.3951  15.4798  15.4813  15.4891  15.9113  16.7828
    16.8605  16.8652  16.9630  16.9637  17.0299  17.0412  17.0827  17.0883
    17.0916  17.1141  17.4595  17.4681  17.4738  17.5818  17.7743  17.7860
    18.3705  18.4270  18.4397  18.4706  18.4984  18.5379  18.5641  18.5729
    18.8364  18.8459  18.9336  18.9356  19.4399  19.5302  19.5413  19.5763
    19.5938  19.6197  19.6302  19.7428  19.8025  19.9647  20.0338  20.1807
    20.2019  20.3543  20.4651  20.5255  20.5524  20.5938  20.6064  20.6205
    20.6527  20.6777  20.7015  20.7158  20.7271  20.8100  20.8519  21.2131
    21.2490  21.3408

          k = 0.0000 0.0000 0.3319 (  9606 PWs)   bands (ev):

   -67.2775 -66.8436 -66.8281 -52.6837 -52.6738 -52.6364 -52.6345 -52.5946
   -51.8215 -51.8188 -51.8185 -51.8152 -51.8097 -51.8095 -51.8010 -51.7924
   -33.3684 -33.3555 -33.3553 -32.9406 -32.9404 -32.9335 -32.9278 -32.9276
   -32.9139 -24.2152 -24.1953 -24.1700 -24.1491 -24.1471 -24.1131 -24.0824
   -24.0767 -24.0620 -24.0492 -24.0431 -23.9701 -23.9234 -23.9161 -23.8998
   -23.2729 -23.2449 -23.2263 -23.2144 -23.2003 -23.1979 -23.1912 -23.1874
   -23.1581 -23.1393 -23.1326 -23.1174 -23.0945 -23.0932 -23.0912 -23.0799
   -23.0747 -23.0661 -23.0646 -23.0634 -23.0604 -23.0550 -23.0272 -23.0205
    11.9737  13.5615  15.1092  15.2036  15.2262  15.2285  15.3450  15.4645
    15.4684  15.5037  15.5134  15.5159  15.6236  15.6617  15.9959  16.4122
    16.4725  16.6099  16.8264  16.8289  16.9148  16.9172  17.2486  17.3174
    17.3223  17.3324  17.4744  17.6276  17.7243  17.7401  17.8852  17.9054
    18.0038  18.0809  18.2106  18.2296  18.4216  18.4219  18.5005  18.5049
    18.6193  18.6525  18.6828  18.8694  18.8954  19.1561  19.1643  19.1920
    19.2229  19.4469  19.4481  19.8093  19.8888  20.0289  20.0644  20.2121
    20.3063  20.3406  20.3412  20.3978  20.5081  20.5932  20.6689  20.6983
    20.7914  20.8011  20.8341  20.8504  21.0060  21.1343  21.1615  21.1907
    21.2121  21.2298

          k = 0.0000 0.0000-0.4979 (  9626 PWs)   bands (ev):

   -67.2775 -66.8436 -66.8282 -52.6797 -52.6773 -52.6355 -52.6355 -52.5951
   -51.8209 -51.8158 -51.8144 -51.8142 -51.8141 -51.8139 -51.7968 -51.7966
   -33.3684 -33.3555 -33.3553 -32.9405 -32.9403 -32.9334 -32.9279 -32.9277
   -32.9140 -24.1827 -24.1655 -24.1652 -24.1351 -24.1278 -24.1223 -24.1004
   -24.1001 -24.0830 -24.0625 -24.0609 -23.9836 -23.9162 -23.9150 -23.9103
   -23.2535 -23.2430 -23.2186 -23.1873 -23.1832 -23.1751 -23.1735 -23.1719
   -23.1618 -23.1553 -23.1396 -23.1296 -23.1278 -23.0983 -23.0877 -23.0874
   -23.0785 -23.0760 -23.0705 -23.0703 -23.0528 -23.0402 -23.0398 -23.0366
    12.6391  12.7115  15.2459  15.3280  15.3463  15.3807  15.3817  15.4372
    15.4436  15.4713  15.7538  15.8480  15.9116  15.9411  15.9557  16.0352
    16.0525  16.0649  16.8536  16.8544  16.8554  16.8593  17.5481  17.6331
    17.6659  17.6752  17.6782  17.6914  17.7180  17.7209  17.8226  17.9019
    17.9837  17.9848  18.0984  18.1179  18.1431  18.1533  18.3812  18.3869
    18.4594  18.4773  18.4784  18.4878  18.5247  18.5260  18.8276  18.9206
    19.7294  19.7891  19.8877  19.8924  19.9901  19.9960  20.0462  20.1343
    20.1793  20.1803  20.5259  20.5428  20.5852  20.6161  20.6461  20.6506
    20.6688  20.6963  20.9283  20.9320  20.9811  20.9952  21.2398  21.3289
    21.3860  21.3872

          k = 0.0000 0.1658 0.1660 (  9557 PWs)   bands (ev):

   -67.2774 -66.8435 -66.8280 -52.6861 -52.6704 -52.6386 -52.6342 -52.5936
   -51.8218 -51.8214 -51.8206 -51.8146 -51.8075 -51.8053 -51.8051 -51.7904
   -33.3677 -33.3554 -33.3553 -32.9407 -32.9406 -32.9342 -32.9276 -32.9275
   -32.9136 -24.2331 -24.2080 -24.2003 -24.1635 -24.1624 -24.0823 -24.0617
   -24.0576 -24.0532 -24.0363 -24.0256 -23.9423 -23.9312 -23.9161 -23.9157
   -23.2948 -23.2540 -23.2408 -23.2345 -23.2315 -23.2122 -23.2048 -23.1728
   -23.1641 -23.1207 -23.1109 -23.1012 -23.0988 -23.0871 -23.0867 -23.0824
   -23.0742 -23.0741 -23.0686 -23.0653 -23.0445 -23.0428 -23.0128 -23.0125
    11.6783  14.5522  14.6063  14.9446  15.1241  15.1668  15.1913  15.2012
    15.2801  15.4273  15.4650  15.5089  15.5336  15.9463  15.9616  16.6641
    16.7708  16.9071  16.9859  17.0108  17.0179  17.0348  17.0662  17.0893
    17.1100  17.2302  17.2338  17.3602  17.4865  17.5273  17.6201  18.1090
    18.1592  18.3102  18.3337  18.3785  18.4207  18.4341  18.6179  18.6624
    18.9538  19.0000  19.0092  19.0407  19.0931  19.1273  19.3366  19.3789
    19.5030  19.5695  19.6029  19.6192  19.6837  19.7008  20.0294  20.0553
    20.3360  20.4181  20.4590  20.4808  20.5378  20.5944  20.6129  20.6230
    20.6289  20.6766  20.7101  20.8782  20.9128  20.9387  20.9858  20.9913
    21.0555  21.3076

          k = 0.0000 0.1658 0.3319 (  9577 PWs)   bands (ev):

   -67.2775 -66.8436 -66.8281 -52.6824 -52.6730 -52.6378 -52.6352 -52.5947
   -51.8208 -51.8188 -51.8173 -51.8151 -51.8104 -51.8083 -51.8022 -51.7936
   -33.3677 -33.3554 -33.3553 -32.9405 -32.9404 -32.9343 -32.9278 -32.9274
   -32.9137 -24.2055 -24.1915 -24.1653 -24.1445 -24.1368 -24.1174 -24.0827
   -24.0792 -24.0619 -24.0529 -24.0364 -23.9742 -23.9304 -23.9171 -23.9167
   -23.2704 -23.2469 -23.2179 -23.2168 -23.1976 -23.1912 -23.1868 -23.1841
   -23.1582 -23.1439 -23.1316 -23.1252 -23.1028 -23.0868 -23.0864 -23.0829
   -23.0813 -23.0786 -23.0698 -23.0605 -23.0535 -23.0534 -23.0237 -23.0228
    12.1154  13.6652  14.7538  14.9583  15.2933  15.3414  15.3913  15.5164
    15.5283  15.5458  15.6007  15.6966  15.7104  15.9408  16.0606  16.4059
    16.5030  16.5703  16.8680  16.9537  16.9678  16.9827  17.1659  17.2074
    17.2687  17.2695  17.4581  17.4920  17.5180  17.7145  17.8138  17.9375
    17.9810  18.1592  18.1729  18.2417  18.2761  18.3113  18.3451  18.4147
    18.4631  18.5392  18.7551  18.7625  18.8507  18.9319  18.9481  19.1724
    19.3885  19.4906  19.5379  19.8384  19.8984  19.9814  19.9842  20.1176
    20.2810  20.3561  20.3658  20.4554  20.4890  20.5850  20.6411  20.6576
    20.7245  20.7571  20.7773  20.8447  20.8923  21.0010  21.0808  21.1213
    21.1319  21.1679

          k = 0.0000 0.1658-0.4979 (  9608 PWs)   bands (ev):

   -67.2775 -66.8436 -66.8281 -52.6786 -52.6762 -52.6366 -52.6366 -52.5952
   -51.8204 -51.8164 -51.8146 -51.8137 -51.8129 -51.8127 -51.7980 -51.7978
   -33.3677 -33.3555 -33.3553 -32.9405 -32.9403 -32.9343 -32.9279 -32.9275
   -32.9138 -24.1815 -24.1659 -24.1632 -24.1322 -24.1261 -24.1244 -24.0991
   -24.0849 -24.0708 -24.0628 -24.0605 -23.9896 -23.9247 -23.9215 -23.9171
   -23.2516 -23.2450 -23.2140 -23.1931 -23.1841 -23.1816 -23.1791 -23.1610
   -23.1533 -23.1525 -23.1501 -23.1383 -23.1362 -23.1059 -23.0866 -23.0828
   -23.0798 -23.0718 -23.0701 -23.0694 -23.0474 -23.0379 -23.0376 -23.0357
    12.7651  12.8398  14.8737  14.9331  15.4520  15.4711  15.4890  15.5482
    15.7066  15.7098  15.8311  15.9163  15.9556  15.9806  16.0296  16.0918
    16.1022  16.1122  16.8908  16.8942  16.9120  16.9235  17.4270  17.4712
    17.4828  17.5462  17.5474  17.5525  17.6569  17.6630  17.9204  17.9342
    17.9347  17.9731  18.1376  18.1506  18.1736  18.1760  18.2081  18.2420
    18.2909  18.2969  18.3117  18.3536  18.3710  18.3988  19.0461  19.0884
    19.8101  19.8106  19.8889  19.9112  19.9399  20.0243  20.1036  20.1668
    20.1911  20.1995  20.3578  20.3607  20.4277  20.5035  20.5131  20.6312
    20.6447  20.7400  20.8724  20.8861  20.9218  20.9528  21.0835  21.1111
    21.1355  21.1391

          k = 0.0000 0.3315 0.3319 (  9582 PWs)   bands (ev):

   -67.2775 -66.8436 -66.8281 -52.6793 -52.6714 -52.6409 -52.6369 -52.5947
   -51.8191 -51.8189 -51.8151 -51.8141 -51.8120 -51.8054 -51.8052 -51.7967
   -33.3663 -33.3554 -33.3553 -32.9405 -32.9404 -32.9359 -32.9278 -32.9273
   -32.9136 -24.1834 -24.1808 -24.1545 -24.1323 -24.1311 -24.1181 -24.0881
   -24.0746 -24.0618 -24.0601 -24.0169 -23.9862 -23.9611 -23.9461 -23.9181
   -23.2648 -23.2460 -23.2107 -23.2014 -23.1955 -23.1855 -23.1782 -23.1777
   -23.1529 -23.1475 -23.1406 -23.1366 -23.1243 -23.1115 -23.1055 -23.0811
   -23.0721 -23.0652 -23.0617 -23.0576 -23.0502 -23.0483 -23.0333 -23.0272
    12.5262  13.9295  13.9649  14.6821  15.5633  15.6190  15.6297  15.6713
    15.7106  15.7258  15.7695  15.8936  15.9343  16.0562  16.1570  16.3395
    16.4892  16.6818  16.7184  16.9062  17.0813  17.1035  17.1179  17.1323
    17.1766  17.2318  17.3321  17.3434  17.4503  17.7829  17.7970  17.8329
    17.8824  17.9127  17.9665  18.0688  18.1077  18.1128  18.1643  18.1988
    18.2268  18.3262  18.4087  18.4437  18.4876  18.8200  18.8582  19.1005
    19.6809  19.6957  19.7833  19.9120  19.9468  19.9970  20.0320  20.2355
    20.2604  20.2876  20.3531  20.3645  20.4320  20.4660  20.4991  20.5496
    20.5962  20.6141  20.6823  20.7122  20.8434  20.8548  20.8988  20.9192
    20.9716  21.0433

          k = 0.0000 0.3315-0.4979 (  9578 PWs)   bands (ev):

   -67.2775 -66.8436 -66.8281 -52.6762 -52.6739 -52.6389 -52.6389 -52.5953
   -51.8192 -51.8172 -51.8158 -51.8129 -51.8098 -51.8096 -51.8011 -51.8009
   -33.3663 -33.3554 -33.3552 -32.9404 -32.9404 -32.9360 -32.9278 -32.9271
   -32.9136 -24.1792 -24.1619 -24.1563 -24.1307 -24.1307 -24.1226 -24.0966
   -24.0635 -24.0596 -24.0465 -24.0395 -24.0018 -23.9526 -23.9513 -23.9185
   -23.2487 -23.2473 -23.2053 -23.1930 -23.1843 -23.1840 -23.1783 -23.1689
   -23.1619 -23.1581 -23.1548 -23.1499 -23.1413 -23.1171 -23.1076 -23.0735
   -23.0691 -23.0672 -23.0570 -23.0545 -23.0402 -23.0402 -23.0398 -23.0365
    13.1248  13.2049  14.2830  14.3697  15.7331  15.7519  15.7641  15.8075
    15.8353  15.9008  16.0245  16.0492  16.0590  16.0668  16.2083  16.2179
    16.2497  16.3169  16.9549  16.9591  17.0291  17.0548  17.1303  17.1676
    17.1824  17.2237  17.3235  17.3310  17.5548  17.5587  17.7568  17.7731
    17.8117  17.8440  17.9261  17.9353  17.9969  18.0383  18.0518  18.1158
    18.1469  18.1920  18.2316  18.2568  18.3316  18.3407  19.1436  19.1568
    19.7503  19.7855  20.0156  20.0754  20.0809  20.0898  20.1521  20.1563
    20.1957  20.2084  20.2377  20.2602  20.2811  20.2818  20.4683  20.5646
    20.6456  20.6532  20.6875  20.7752  20.7807  20.7835  20.8038  20.8466
    20.8789  20.9130

          k = 0.0000-0.4973-0.4979 (  9580 PWs)   bands (ev):

   -67.2775 -66.8436 -66.8281 -52.6749 -52.6727 -52.6402 -52.6402 -52.5953
   -51.8177 -51.8174 -51.8173 -51.8126 -51.8057 -51.8055 -51.8053 -51.8051
   -33.3657 -33.3554 -33.3552 -32.9404 -32.9404 -32.9368 -32.9278 -32.9270
   -32.9134 -24.1782 -24.1580 -24.1504 -24.1362 -24.1311 -24.1208 -24.0954
   -24.0640 -24.0592 -24.0178 -24.0082 -23.9953 -23.9895 -23.9819 -23.9192
   -23.2478 -23.2477 -23.1991 -23.1828 -23.1816 -23.1798 -23.1791 -23.1789
   -23.1737 -23.1666 -23.1644 -23.1559 -23.1334 -23.1219 -23.1203 -23.0719
   -23.0553 -23.0546 -23.0496 -23.0481 -23.0476 -23.0474 -23.0403 -23.0381
    13.6399  13.6851  13.6963  13.8046  15.8743  15.9251  15.9284  15.9443
    15.9833  15.9900  16.0862  16.1165  16.1548  16.1560  16.2434  16.2746
    16.5820  16.6809  16.7188  16.7267  16.9527  16.9567  17.0169  17.0376
    17.0394  17.1384  17.2592  17.3030  17.5259  17.5907  17.6474  17.6623
    17.6671  17.6709  17.7196  17.7260  17.9100  17.9203  17.9302  18.0054
    18.0849  18.1593  18.1820  18.1859  18.7683  18.7769  18.8055  18.8174
    19.8279  19.8437  19.8472  19.9310  20.2219  20.2578  20.2793  20.2800
    20.3048  20.3086  20.3145  20.3356  20.3425  20.4094  20.4305  20.4365
    20.4454  20.4630  20.4675  20.4714  20.7078  20.7174  20.7774  20.7925
    20.7935  20.8112

          k = 0.1660 0.1658 0.1660 (  9591 PWs)   bands (ev):

   -67.2775 -66.8436 -66.8281 -52.6848 -52.6712 -52.6383 -52.6345 -52.5942
   -51.8215 -51.8206 -51.8194 -51.8148 -51.8064 -51.8063 -51.8061 -51.7916
   -33.3677 -33.3554 -33.3554 -32.9407 -32.9405 -32.9343 -32.9276 -32.9275
   -32.9137 -24.2238 -24.2013 -24.1900 -24.1574 -24.1531 -24.0935 -24.0776
   -24.0629 -24.0514 -24.0341 -24.0302 -23.9434 -23.9338 -23.9284 -23.9166
   -23.2852 -23.2452 -23.2388 -23.2327 -23.2212 -23.2058 -23.1923 -23.1715
   -23.1710 -23.1237 -23.1163 -23.1151 -23.0987 -23.0923 -23.0838 -23.0800
   -23.0778 -23.0735 -23.0718 -23.0581 -23.0563 -23.0449 -23.0192 -23.0120
    11.8261  14.5648  14.6773  14.7649  15.0252  15.1395  15.1851  15.2761
    15.3112  15.3892  15.5484  15.5854  15.9150  16.0133  16.0641  16.5699
    16.8659  16.8708  16.9144  17.0208  17.0377  17.0673  17.0674  17.0945
    17.1626  17.1748  17.2105  17.2844  17.3905  17.3955  17.8988  17.9358
    17.9469  18.2305  18.3082  18.3112  18.3367  18.3381  18.7520  18.7534
    18.7858  18.7926  18.9459  18.9651  18.9970  19.1757  19.1840  19.1919
    19.2296  19.3028  19.3795  19.7324  19.7704  19.8049  20.2602  20.2672
    20.2992  20.3568  20.3910  20.4410  20.5384  20.5431  20.5903  20.6141
    20.6156  20.6773  20.6866  20.8753  20.8778  20.9267  20.9608  21.0228
    21.1274  21.1916

          k = 0.1660 0.1658 0.3319 (  9577 PWs)   bands (ev):

   -67.2775 -66.8436 -66.8281 -52.6814 -52.6734 -52.6376 -52.6354 -52.5953
   -51.8209 -51.8179 -51.8165 -51.8152 -51.8093 -51.8089 -51.8032 -51.7947
   -33.3677 -33.3554 -33.3553 -32.9406 -32.9403 -32.9342 -32.9277 -32.9274
   -32.9138 -24.1973 -24.1881 -24.1633 -24.1397 -24.1339 -24.1217 -24.0951
   -24.0737 -24.0604 -24.0470 -24.0325 -23.9755 -23.9357 -23.9279 -23.9203
   -23.2620 -23.2391 -23.2236 -23.2154 -23.1946 -23.1901 -23.1842 -23.1729
   -23.1665 -23.1417 -23.1325 -23.1272 -23.1063 -23.1009 -23.0989 -23.0890
   -23.0801 -23.0712 -23.0693 -23.0659 -23.0504 -23.0439 -23.0310 -23.0183
    12.2564  13.7720  14.8370  14.8810  15.0636  15.1405  15.4715  15.5226
    15.5472  15.6484  15.7820  15.7924  15.9875  16.0544  16.1295  16.4095
    16.5354  16.6191  16.8659  16.9898  17.0084  17.0528  17.0731  17.1782
    17.1879  17.2306  17.4048  17.4440  17.5341  17.6762  17.7286  17.7419
    18.0004  18.0568  18.1170  18.1696  18.2072  18.2588  18.2822  18.3123
    18.3477  18.3574  18.5456  18.6261  18.6441  18.7363  18.9966  19.0033
    19.5335  19.5855  19.6135  19.9107  19.9556  20.0343  20.1369  20.1711
    20.2233  20.3330  20.4029  20.4360  20.4717  20.5190  20.6274  20.6486
    20.6955  20.7136  20.7426  20.7498  20.8176  20.9679  20.9998  21.0996
    21.1106  21.2223

          k = 0.1660 0.1658-0.4979 (  9588 PWs)   bands (ev):

   -67.2775 -66.8436 -66.8281 -52.6780 -52.6762 -52.6366 -52.6366 -52.5958
   -51.8206 -51.8163 -51.8135 -51.8129 -51.8127 -51.8126 -51.7991 -51.7989
   -33.3677 -33.3554 -33.3552 -32.9405 -32.9403 -32.9342 -32.9277 -32.9274
   -32.9138 -24.1769 -24.1630 -24.1593 -24.1516 -24.1306 -24.1200 -24.0915
   -24.0746 -24.0634 -24.0583 -24.0535 -23.9931 -23.9343 -23.9264 -23.9230
   -23.2432 -23.2381 -23.2186 -23.2051 -23.1873 -23.1778 -23.1700 -23.1618
   -23.1596 -23.1479 -23.1472 -23.1422 -23.1302 -23.1085 -23.1033 -23.1003
   -23.0811 -23.0721 -23.0590 -23.0585 -23.0552 -23.0434 -23.0296 -23.0294
    12.8923  12.9693  14.9939  15.0058  15.0109  15.1246  15.7803  15.7867
    15.8177  15.8401  15.9081  15.9894  16.0008  16.0076  16.1058  16.1580
    16.1582  16.1642  16.9127  16.9185  16.9719  16.9866  17.3845  17.3921
    17.4537  17.4630  17.4736  17.4843  17.5385  17.5492  17.8722  17.9197
    17.9286  17.9575  17.9824  18.0294  18.1085  18.1266  18.1369  18.1384
    18.1579  18.1640  18.1709  18.1780  18.2428  18.2492  19.1302  19.1417
    19.8958  19.9069  19.9170  19.9708  19.9987  20.0017  20.0382  20.0463
    20.1660  20.1892  20.1953  20.2224  20.5024  20.6205  20.6291  20.6342
    20.7154  20.7704  20.8421  20.8599  20.8966  20.9160  21.0007  21.0202
    21.0333  21.0501

          k = 0.1660 0.3315 0.3319 (  9595 PWs)   bands (ev):

   -67.2775 -66.8436 -66.8281 -52.6785 -52.6716 -52.6406 -52.6372 -52.5953
   -51.8188 -51.8182 -51.8147 -51.8139 -51.8110 -51.8062 -51.8060 -51.7978
   -33.3663 -33.3554 -33.3553 -32.9405 -32.9404 -32.9358 -32.9277 -32.9274
   -32.9136 -24.1756 -24.1700 -24.1507 -24.1319 -24.1315 -24.1222 -24.0855
   -24.0681 -24.0599 -24.0568 -24.0272 -23.9865 -23.9663 -23.9514 -23.9327
   -23.2564 -23.2388 -23.2106 -23.2018 -23.1941 -23.1839 -23.1776 -23.1737
   -23.1538 -23.1450 -23.1362 -23.1358 -23.1269 -23.1071 -23.1019 -23.0875
   -23.0836 -23.0698 -23.0676 -23.0576 -23.0552 -23.0413 -23.0365 -23.0318
    12.6635  14.0444  14.0833  14.8140  15.1203  15.4431  15.5043  15.7563
    15.7938  15.8620  16.0001  16.0213  16.1083  16.1812  16.3253  16.3882
    16.5449  16.6760  16.6818  16.9114  17.0082  17.0928  17.1242  17.2022
    17.2215  17.2369  17.2497  17.3080  17.4780  17.6570  17.7081  17.7663
    17.7953  17.8396  17.8554  17.9734  18.0147  18.0306  18.0450  18.0762
    18.1200  18.1677  18.1944  18.2148  18.3039  18.5564  18.5960  19.1329
    19.8167  19.8249  19.8863  20.0392  20.0546  20.0773  20.1377  20.1606
    20.3294  20.3591  20.3991  20.4259  20.4464  20.4676  20.5129  20.5593
    20.6147  20.6772  20.6969  20.8511  20.8524  20.8772  20.9059  20.9830
    21.0139  21.0329

          k = 0.1660 0.3315-0.4979 (  9574 PWs)   bands (ev):

   -67.2775 -66.8436 -66.8281 -52.6757 -52.6739 -52.6389 -52.6389 -52.5959
   -51.8189 -51.8166 -51.8148 -51.8124 -51.8100 -51.8099 -51.8020 -51.8019
   -33.3663 -33.3553 -33.3552 -32.9404 -32.9404 -32.9358 -32.9277 -32.9272
   -32.9136 -24.1695 -24.1565 -24.1483 -24.1379 -24.1280 -24.1128 -24.0924
   -24.0620 -24.0576 -24.0464 -24.0461 -24.0065 -23.9586 -23.9580 -23.9348
   -23.2402 -23.2398 -23.2089 -23.2004 -23.1826 -23.1749 -23.1728 -23.1667
   -23.1653 -23.1545 -23.1478 -23.1467 -23.1317 -23.1159 -23.1052 -23.0848
   -23.0796 -23.0747 -23.0557 -23.0554 -23.0537 -23.0472 -23.0361 -23.0350
    13.2539  13.3359  14.4117  14.4997  15.3405  15.3951  15.9511  15.9635
    15.9885  16.0279  16.0407  16.0553  16.1781  16.1913  16.3107  16.3121
    16.3186  16.3711  16.9868  16.9928  17.0457  17.0708  17.0884  17.1421
    17.2141  17.2239  17.3258  17.3332  17.5086  17.5135  17.6015  17.6306
    17.7042  17.7566  17.8562  17.8730  17.8933  17.9081  17.9343  17.9579
    17.9915  18.0233  18.0613  18.0937  18.1392  18.1538  18.9087  18.9087
    19.9495  19.9786  20.0548  20.0622  20.1533  20.1779  20.2065  20.2260
    20.2389  20.2719  20.2926  20.3265  20.4870  20.5129  20.5470  20.5779
    20.7047  20.7214  20.7361  20.7688  20.8109  20.8227  20.8743  20.8846
    20.8944  20.9609

          k = 0.1660-0.4973-0.4979 (  9588 PWs)   bands (ev):

   -67.2775 -66.8436 -66.8281 -52.6744 -52.6727 -52.6402 -52.6402 -52.5959
   -51.8170 -51.8168 -51.8166 -51.8121 -51.8062 -51.8061 -51.8059 -51.8058
   -33.3657 -33.3553 -33.3552 -32.9404 -32.9404 -32.9367 -32.9278 -32.9271
   -32.9135 -24.1648 -24.1517 -24.1424 -24.1279 -24.1228 -24.1208 -24.0967
   -24.0646 -24.0572 -24.0177 -24.0171 -24.0049 -23.9973 -23.9911 -23.9367
   -23.2403 -23.2389 -23.2018 -23.1929 -23.1772 -23.1748 -23.1739 -23.1716
   -23.1661 -23.1599 -23.1573 -23.1473 -23.1302 -23.1208 -23.1194 -23.0780
   -23.0614 -23.0613 -23.0566 -23.0550 -23.0529 -23.0527 -23.0454 -23.0438
    13.7714  13.8148  13.8265  13.9396  15.7273  15.7327  15.7574  15.8536
    15.9938  16.0976  16.1294  16.1363  16.4175  16.4231  16.4262  16.4422
    16.6062  16.7000  16.7296  16.7387  16.9413  16.9696  16.9758  17.0113
    17.1303  17.1852  17.2663  17.3099  17.4104  17.4520  17.4953  17.5117
    17.6254  17.6341  17.6779  17.6853  17.7871  17.8115  17.8176  17.8445
    17.9328  17.9995  18.0307  18.0315  18.4469  18.4559  18.4922  18.4937
    20.0916  20.1159  20.1205  20.1824  20.2527  20.3118  20.3611  20.3881
    20.3964  20.4338  20.4382  20.4475  20.4711  20.4815  20.4873  20.4967
    20.5355  20.5544  20.5590  20.5628  20.7084  20.7419  20.7686  20.7805
    20.7843  20.8414

          k = 0.3319 0.3315 0.3319 (  9594 PWs)   bands (ev):

   -67.2775 -66.8436 -66.8281 -52.6765 -52.6725 -52.6399 -52.6379 -52.5965
   -51.8184 -51.8165 -51.8136 -51.8128 -51.8088 -51.8079 -51.8079 -51.8006
   -33.3663 -33.3553 -33.3552 -32.9404 -32.9403 -32.9357 -32.9276 -32.9275
   -32.9137 -24.1576 -24.1530 -24.1378 -24.1364 -24.1319 -24.1097 -24.0784
   -24.0670 -24.0560 -24.0512 -24.0468 -23.9892 -23.9793 -23.9729 -23.9546
   -23.2358 -23.2240 -23.2076 -23.2034 -23.1907 -23.1855 -23.1705 -23.1701
   -23.1449 -23.1406 -23.1364 -23.1359 -23.1331 -23.1036 -23.1027 -23.0920
   -23.0904 -23.0832 -23.0764 -23.0652 -23.0548 -23.0462 -23.0419 -23.0372
    13.0591  14.3034  14.3970  14.4743  15.1180  15.2400  15.2990  16.0276
    16.0374  16.0664  16.2462  16.2499  16.3455  16.3971  16.4676  16.4790
    16.5841  16.6033  16.7217  16.7614  16.9918  16.9920  17.1735  17.2142
    17.2207  17.3532  17.3589  17.3721  17.3927  17.4147  17.6039  17.6288
    17.6535  17.6732  17.6788  17.6911  17.7271  17.7533  17.7536  17.7743
    17.8388  17.8843  17.9436  17.9498  18.0807  18.1531  18.1537  18.8441
    20.0533  20.0604  20.0888  20.1148  20.2654  20.3038  20.3402  20.3680
    20.3791  20.4020  20.4989  20.5121  20.5458  20.5622  20.5719  20.6726
    20.6838  20.7660  20.8133  20.8282  20.8431  20.8584  20.8695  21.0056
    21.0171  21.0606

          k = 0.3319 0.3315-0.4979 (  9598 PWs)   bands (ev):

   -67.2775 -66.8436 -66.8281 -52.6745 -52.6739 -52.6389 -52.6389 -52.5971
   -51.8183 -51.8156 -51.8122 -51.8108 -51.8105 -51.8102 -51.8045 -51.8044
   -33.3663 -33.3553 -33.3552 -32.9404 -32.9404 -32.9356 -32.9276 -32.9274
   -32.9137 -24.1516 -24.1512 -24.1345 -24.1313 -24.1129 -24.1055 -24.0811
   -24.0613 -24.0554 -24.0530 -24.0490 -24.0151 -23.9844 -23.9708 -23.9671
   -23.2202 -23.2187 -23.2077 -23.2002 -23.1874 -23.1845 -23.1762 -23.1618
   -23.1530 -23.1403 -23.1356 -23.1354 -23.1192 -23.1127 -23.1070 -23.1008
   -23.0949 -23.0808 -23.0700 -23.0653 -23.0607 -23.0571 -23.0420 -23.0397
    13.6192  13.7081  14.7700  14.8028  14.8180  14.9169  15.7837  15.8196
    16.2575  16.2599  16.2892  16.3337  16.3414  16.3941  16.5091  16.5409
    16.5498  16.5543  16.9917  17.0314  17.0678  17.0817  17.0910  17.0974
    17.1457  17.1517  17.3369  17.3584  17.3911  17.3957  17.4491  17.4560
    17.5261  17.5316  17.5783  17.6453  17.6615  17.6680  17.6916  17.7304
    17.7559  17.7595  17.7762  17.7796  17.8465  17.8594  18.3826  18.3846
    20.2587  20.2647  20.2953  20.3000  20.3227  20.3533  20.3653  20.4066
    20.4234  20.4450  20.4953  20.5078  20.5398  20.6331  20.7007  20.7090
    20.7428  20.7467  20.7533  20.7729  20.8143  20.8290  20.8479  20.8778
    20.8879  20.8910

          k = 0.3319-0.4973-0.4979 (  9632 PWs)   bands (ev):

   -67.2775 -66.8437 -66.8282 -52.6732 -52.6726 -52.6402 -52.6402 -52.5971
   -51.8153 -51.8151 -51.8148 -51.8109 -51.8079 -51.8076 -51.8075 -51.8074
   -33.3657 -33.3553 -33.3552 -32.9403 -32.9403 -32.9364 -32.9277 -32.9275
   -32.9136 -24.1382 -24.1309 -24.1214 -24.1189 -24.1061 -24.0998 -24.0985
   -24.0657 -24.0534 -24.0426 -24.0303 -24.0227 -24.0143 -24.0091 -23.9793
   -23.2208 -23.2163 -23.2020 -23.1974 -23.1785 -23.1722 -23.1677 -23.1654
   -23.1651 -23.1403 -23.1358 -23.1249 -23.1164 -23.1137 -23.1106 -23.0894
   -23.0756 -23.0751 -23.0729 -23.0727 -23.0674 -23.0661 -23.0615 -23.0602
    14.1433  14.1796  14.1949  14.3216  15.3129  15.3157  15.3210  15.4411
    16.3246  16.3978  16.4354  16.4418  16.6696  16.7384  16.7530  16.7641
    16.7788  16.7800  16.7902  16.7944  16.8544  16.9660  17.0032  17.0158
    17.2531  17.2583  17.2873  17.2930  17.2952  17.3265  17.3432  17.3488
    17.4582  17.4677  17.4729  17.4875  17.5392  17.5423  17.5683  17.5781
    17.6252  17.6804  17.7077  17.7098  17.8905  17.9002  17.9281  17.9308
    20.3546  20.3997  20.4085  20.4409  20.4527  20.5402  20.5460  20.5669
    20.5727  20.5759  20.5951  20.6032  20.6767  20.6802  20.6876  20.6947
    20.7173  20.7388  20.7414  20.7574  20.7712  20.8116  20.8359  20.8514
    20.9497  20.9504

          k =-0.4979-0.4973-0.4979 (  9568 PWs)   bands (ev):

   -67.2774 -66.8436 -66.8281 -52.6726 -52.6726 -52.6402 -52.6402 -52.5977
   -51.8139 -51.8139 -51.8135 -51.8093 -51.8093 -51.8089 -51.8088 -51.8088
   -33.3656 -33.3552 -33.3552 -32.9402 -32.9402 -32.9361 -32.9276 -32.9276
   -32.9136 -24.1325 -24.1139 -24.1071 -24.1057 -24.0935 -24.0864 -24.0757
   -24.0640 -24.0640 -24.0573 -24.0516 -24.0331 -24.0331 -24.0096 -24.0096
   -23.2003 -23.1981 -23.1981 -23.1968 -23.1957 -23.1736 -23.1736 -23.1607
   -23.1607 -23.1350 -23.1100 -23.1100 -23.1030 -23.1022 -23.0997 -23.0867
   -23.0867 -23.0859 -23.0826 -23.0819 -23.0804 -23.0797 -23.0797 -23.0785
    14.5876  14.6006  14.6535  14.8312  14.8312  14.8726  14.8735  14.8735
    16.7210  16.7210  16.7352  16.7352  16.7562  16.7795  16.7795  16.7840
    16.7840  16.7951  16.9318  16.9343  17.0135  17.0326  17.0329  17.0374
    17.2715  17.3052  17.3052  17.3082  17.3266  17.3612  17.3612  17.3686
    17.3733  17.3733  17.3986  17.3986  17.3990  17.4233  17.4481  17.4544
    17.4634  17.4642  17.4642  17.4676  17.4676  17.4681  17.4794  17.4842
    20.4342  20.4615  20.6037  20.6037  20.6502  20.6502  20.6551  20.6644
    20.6644  20.6710  20.6772  20.6787  20.6922  20.6957  20.6962  20.6962
    20.7922  20.7922  20.8320  20.8420  20.8663  20.8663  20.8713  20.9482
    20.9482  21.0492

          k = 0.0000 0.1658 0.0000 (  9595 PWs)   bands (ev):

   -67.2775 -66.8436 -66.8281 -52.6876 -52.6695 -52.6389 -52.6337 -52.5931
   -51.8227 -51.8218 -51.8218 -51.8143 -51.8064 -51.8064 -51.8039 -51.7893
   -33.3677 -33.3555 -33.3555 -32.9408 -32.9408 -32.9342 -32.9276 -32.9276
   -32.9136 -24.2424 -24.2153 -24.2153 -24.1706 -24.1706 -24.0758 -24.0496
   -24.0496 -24.0411 -24.0291 -24.0291 -23.9398 -23.9188 -23.9158 -23.9158
   -23.3053 -23.2527 -23.2481 -23.2481 -23.2465 -23.2233 -23.2087 -23.1666
   -23.1666 -23.1146 -23.1026 -23.0975 -23.0975 -23.0846 -23.0846 -23.0800
   -23.0755 -23.0755 -23.0725 -23.0650 -23.0403 -23.0302 -23.0087 -23.0087
    11.5285  14.5115  14.8915  15.0719  15.0801  15.0801  15.1429  15.1723
    15.2084  15.3834  15.4384  15.4806  15.4806  15.5595  15.9075  16.7761
    16.8643  16.8643  16.9554  16.9554  17.0251  17.0359  17.0950  17.0963
    17.0963  17.1109  17.4238  17.4715  17.4715  17.6234  17.7881  17.7881
    18.3849  18.4355  18.4355  18.4660  18.4758  18.5397  18.5729  18.5729
    18.8081  18.8081  18.9591  18.9591  19.4249  19.4453  19.5500  19.6232
    19.6238  19.6238  19.6647  19.8024  19.8024  19.9696  19.9696  20.1922
    20.1922  20.3614  20.4301  20.5368  20.5546  20.5874  20.5874  20.6058
    20.6454  20.6833  20.6949  20.7303  20.7370  20.7973  20.8563  21.1276
    21.3476  21.3607

          k = 0.0000 0.3315 0.0000 (  9606 PWs)   bands (ev):

   -67.2775 -66.8436 -66.8281 -52.6838 -52.6685 -52.6428 -52.6348 -52.5932
   -51.8215 -51.8186 -51.8186 -51.8154 -51.8097 -51.8097 -51.8008 -51.7924
   -33.3664 -33.3554 -33.3554 -32.9406 -32.9406 -32.9356 -32.9278 -32.9278
   -32.9137 -24.1953 -24.1953 -24.1853 -24.1492 -24.1492 -24.0775 -24.0750
   -24.0750 -24.0507 -24.0507 -24.0224 -23.9997 -23.9609 -23.9164 -23.9164
   -23.2961 -23.2287 -23.2287 -23.2247 -23.1983 -23.1927 -23.1892 -23.1742
   -23.1742 -23.1127 -23.1113 -23.0984 -23.0984 -23.0972 -23.0783 -23.0783
   -23.0768 -23.0754 -23.0740 -23.0684 -23.0684 -23.0681 -23.0272 -23.0272
    11.9723  13.5591  15.0172  15.2264  15.2264  15.2284  15.3345  15.4232
    15.4643  15.5141  15.5141  15.5930  15.6555  15.6683  16.0140  16.4075
    16.4449  16.6267  16.8263  16.8263  16.9087  16.9087  17.2625  17.3215
    17.3257  17.3257  17.4516  17.6565  17.7445  17.7445  17.8946  17.8946
    18.0397  18.0489  18.2217  18.2217  18.4240  18.4240  18.4983  18.4983
    18.6500  18.6553  18.6814  18.8986  18.8986  19.1405  19.1500  19.1971
    19.1971  19.4438  19.4438  19.7871  19.8855  20.0594  20.0594  20.1919
    20.3064  20.3321  20.3321  20.3548  20.5593  20.5850  20.6691  20.6718
    20.8052  20.8264  20.8414  20.8414  21.0268  21.0927  21.1777  21.2282
    21.2282  21.2287

          k = 0.0000-0.4973 0.0000 (  9626 PWs)   bands (ev):

   -67.2775 -66.8437 -66.8282 -52.6816 -52.6679 -52.6450 -52.6354 -52.5933
   -51.8207 -51.8161 -51.8143 -51.8143 -51.8139 -51.8139 -51.7968 -51.7964
   -33.3657 -33.3555 -33.3555 -32.9405 -32.9405 -32.9362 -32.9279 -32.9279
   -32.9137 -24.1826 -24.1826 -24.1257 -24.1257 -24.1161 -24.1033 -24.1033
   -24.0797 -24.0785 -24.0615 -24.0615 -24.0035 -23.9807 -23.9167 -23.9167
   -23.2911 -23.2254 -23.2168 -23.2168 -23.1804 -23.1804 -23.1522 -23.1491
   -23.1486 -23.1285 -23.1278 -23.1247 -23.1067 -23.1061 -23.0993 -23.0993
   -23.0745 -23.0745 -23.0726 -23.0723 -23.0543 -23.0543 -23.0472 -23.0472
    12.6418  12.7029  15.1103  15.2280  15.3783  15.3783  15.4419  15.4419
    15.4726  15.6261  15.7666  15.8152  15.8985  15.9249  15.9495  15.9912
    16.0483  16.1290  16.8492  16.8492  16.8529  16.8529  17.5987  17.6163
    17.6326  17.6799  17.6989  17.6989  17.7130  17.7130  17.8625  17.8947
    17.9369  18.0424  18.1343  18.1343  18.1456  18.1456  18.4058  18.4058
    18.4310  18.4310  18.5054  18.5054  18.5124  18.5124  18.8332  18.9141
    19.7001  19.7660  19.8824  19.8824  19.9868  19.9868  20.0805  20.0827
    20.1168  20.2024  20.5758  20.5787  20.5953  20.5953  20.6622  20.6622
    20.6675  20.6690  20.9319  20.9624  20.9958  21.0048  21.3521  21.3611
    21.3720  21.3742

          k = 0.1660 0.0000 0.1660 (  9557 PWs)   bands (ev):

   -67.2774 -66.8435 -66.8280 -52.6864 -52.6718 -52.6368 -52.6339 -52.5941
   -51.8225 -51.8208 -51.8204 -51.8147 -51.8072 -51.8053 -51.8053 -51.7905
   -33.3683 -33.3554 -33.3553 -32.9408 -32.9404 -32.9335 -32.9276 -32.9274
   -32.9137 -24.2388 -24.2107 -24.1960 -24.1630 -24.1601 -24.0874 -24.0740
   -24.0611 -24.0585 -24.0308 -24.0182 -23.9361 -23.9312 -23.9280 -23.8930
   -23.2885 -23.2508 -23.2465 -23.2384 -23.2365 -23.2110 -23.1962 -23.1707
   -23.1693 -23.1243 -23.1127 -23.1077 -23.1043 -23.0877 -23.0845 -23.0805
   -23.0772 -23.0711 -23.0695 -23.0641 -23.0401 -23.0379 -23.0203 -23.0049
    11.6787  14.4984  14.6826  14.9695  15.0752  15.1819  15.1951  15.2088
    15.2874  15.3807  15.4684  15.5322  15.5466  15.8907  15.9819  16.6677
    16.7711  16.9100  16.9928  17.0188  17.0205  17.0380  17.0841  17.1046
    17.1078  17.2004  17.2242  17.3501  17.4780  17.5314  17.6092  18.1336
    18.1461  18.2825  18.3290  18.3945  18.4265  18.4407  18.6268  18.6608
    18.9578  18.9899  19.0453  19.0488  19.0730  19.0939  19.3388  19.3878
    19.4230  19.5886  19.6268  19.6558  19.6776  19.7059  20.0148  20.0736
    20.3388  20.4337  20.4510  20.4676  20.5489  20.5904  20.6154  20.6268
    20.6412  20.6824  20.6867  20.8838  20.9082  20.9091  20.9516  21.0150
    21.0918  21.2958

          k = 0.1660 0.3315 0.0000 (  9577 PWs)   bands (ev):

   -67.2775 -66.8436 -66.8281 -52.6825 -52.6692 -52.6423 -52.6354 -52.5937
   -51.8208 -51.8187 -51.8174 -51.8152 -51.8103 -51.8085 -51.8020 -51.7935
   -33.3663 -33.3554 -33.3554 -32.9405 -32.9405 -32.9356 -32.9278 -32.9276
   -32.9136 -24.1928 -24.1915 -24.1750 -24.1445 -24.1397 -24.0973 -24.0785
   -24.0705 -24.0612 -24.0536 -24.0175 -23.9871 -23.9621 -23.9285 -23.9170
   -23.2867 -23.2418 -23.2251 -23.2065 -23.1995 -23.1897 -23.1885 -23.1767
   -23.1671 -23.1201 -23.1179 -23.1122 -23.1055 -23.0999 -23.0919 -23.0858
   -23.0756 -23.0735 -23.0709 -23.0653 -23.0577 -23.0569 -23.0286 -23.0251
    12.1144  13.6635  14.7334  14.9470  15.2847  15.3399  15.4466  15.4913
    15.5161  15.5360  15.5996  15.6786  15.7358  15.9742  16.0717  16.4028
    16.4784  16.5812  16.8678  16.9619  16.9633  16.9765  17.1481  17.2192
    17.2647  17.2741  17.4723  17.4946  17.5169  17.7181  17.8238  17.9343
    17.9873  18.1556  18.1692  18.2425  18.2776  18.3140  18.3590  18.4125
    18.4604  18.5397  18.7643  18.8278  18.8514  18.8628  18.9519  19.1886
    19.3710  19.4905  19.5104  19.8207  19.9034  19.9837  20.0009  20.1157
    20.2472  20.3507  20.3610  20.4401  20.5370  20.5909  20.6369  20.6544
    20.7191  20.7445  20.7794  20.8408  20.9110  21.0569  21.0635  21.1218
    21.1558  21.1832

          k = 0.3319 0.0000 0.1660 (  9577 PWs)   bands (ev):

   -67.2775 -66.8436 -66.8281 -52.6828 -52.6742 -52.6363 -52.6346 -52.5952
   -51.8218 -51.8176 -51.8174 -51.8156 -51.8099 -51.8086 -51.8022 -51.7936
   -33.3683 -33.3554 -33.3553 -32.9406 -32.9403 -32.9334 -32.9278 -32.9274
   -32.9139 -24.2078 -24.1950 -24.1688 -24.1443 -24.1350 -24.1191 -24.0985
   -24.0832 -24.0606 -24.0431 -24.0263 -23.9720 -23.9321 -23.9224 -23.9021
   -23.2645 -23.2382 -23.2329 -23.2182 -23.1977 -23.1898 -23.1816 -23.1806
   -23.1689 -23.1372 -23.1334 -23.1198 -23.1143 -23.0992 -23.0964 -23.0850
   -23.0754 -23.0727 -23.0666 -23.0605 -23.0529 -23.0471 -23.0289 -23.0137
    12.1159  13.6650  14.7655  14.9694  15.2757  15.3365  15.4152  15.4920
    15.5207  15.5543  15.5966  15.6949  15.7389  15.9198  16.0484  16.4091
    16.5157  16.5721  16.8700  16.9498  16.9699  16.9806  17.1717  17.2100
    17.2683  17.2711  17.4377  17.4857  17.5113  17.7194  17.8221  17.9267
    17.9864  18.1677  18.1785  18.2325  18.2779  18.3146  18.3424  18.4148
    18.4560  18.5320  18.7284  18.8210  18.8523  18.8637  18.9871  19.1914
    19.3776  19.5030  19.5070  19.8434  19.8998  19.9704  20.0073  20.1296
    20.2624  20.3625  20.3734  20.4473  20.5001  20.5947  20.6357  20.6494
    20.7296  20.7530  20.7665  20.8475  20.8545  21.0543  21.0588  21.1102
    21.1392  21.2115

          k = 0.1660-0.4973 0.0000 (  9608 PWs)   bands (ev):

   -67.2775 -66.8436 -66.8281 -52.6805 -52.6686 -52.6444 -52.6360 -52.5938
   -51.8203 -51.8167 -51.8144 -51.8137 -51.8131 -51.8128 -51.7980 -51.7976
   -33.3657 -33.3554 -33.3554 -32.9405 -32.9405 -32.9364 -32.9279 -32.9277
   -32.9137 -24.1815 -24.1736 -24.1367 -24.1304 -24.1245 -24.1103 -24.1014
   -24.0700 -24.0628 -24.0620 -24.0482 -23.9993 -23.9833 -23.9288 -23.9174
   -23.2821 -23.2376 -23.2116 -23.2020 -23.1873 -23.1865 -23.1533 -23.1487
   -23.1467 -23.1409 -23.1406 -23.1337 -23.1172 -23.1162 -23.1055 -23.0860
   -23.0796 -23.0657 -23.0648 -23.0584 -23.0533 -23.0484 -23.0471 -23.0451
    12.7685  12.8316  14.8405  14.9289  15.4270  15.4596  15.4872  15.5468
    15.7163  15.8282  15.8452  15.8810  15.9434  15.9887  16.0004  16.0489
    16.0939  16.1709  16.8885  16.8909  16.9118  16.9180  17.4563  17.4574
    17.5010  17.5107  17.5436  17.5504  17.6519  17.7144  17.9185  17.9267
    17.9345  17.9861  18.1580  18.1600  18.1986  18.2189  18.2266  18.2282
    18.2290  18.2726  18.3264  18.3482  18.3655  18.4022  19.0489  19.0891
    19.7907  19.8015  19.8718  19.9008  19.9338  20.0173  20.1132  20.1256
    20.1661  20.2193  20.3325  20.3585  20.4565  20.5159  20.5621  20.6217
    20.6430  20.7199  20.9040  20.9198  20.9474  20.9617  21.0941  21.1117
    21.1118  21.1199

          k =-0.4979 0.0000 0.1660 (  9608 PWs)   bands (ev):

   -67.2775 -66.8436 -66.8281 -52.6791 -52.6773 -52.6355 -52.6355 -52.5958
   -51.8212 -51.8163 -51.8136 -51.8136 -51.8132 -51.8130 -51.7980 -51.7978
   -33.3684 -33.3554 -33.3553 -32.9405 -32.9404 -32.9334 -32.9277 -32.9276
   -32.9139 -24.1798 -24.1642 -24.1641 -24.1572 -24.1339 -24.1296 -24.0939
   -24.0800 -24.0643 -24.0593 -24.0511 -23.9869 -23.9317 -23.9150 -23.9115
   -23.2450 -23.2359 -23.2238 -23.2003 -23.1946 -23.1730 -23.1724 -23.1633
   -23.1563 -23.1504 -23.1442 -23.1403 -23.1258 -23.1119 -23.1109 -23.1036
   -23.0733 -23.0693 -23.0610 -23.0595 -23.0509 -23.0375 -23.0320 -23.0316
    12.7655  12.8403  14.8893  14.9357  15.4487  15.4694  15.4878  15.5407
    15.6796  15.7171  15.8358  15.9296  15.9583  15.9839  16.0284  16.0989
    16.1000  16.1053  16.8913  16.8983  16.9115  16.9191  17.4287  17.4767
    17.4888  17.5303  17.5379  17.5499  17.6604  17.6702  17.9164  17.9169
    17.9380  17.9614  18.1095  18.1649  18.2155  18.2161  18.2162  18.2327
    18.2428  18.2451  18.3458  18.3669  18.3751  18.3990  19.0506  19.0909
    19.7830  19.8416  19.8738  19.9238  19.9380  20.0160  20.1190  20.1626
    20.1941  20.1951  20.3075  20.3439  20.4885  20.4945  20.5127  20.6316
    20.6436  20.7363  20.8824  20.8874  20.9303  20.9514  21.1066  21.1070
    21.1344  21.1376

          k = 0.3319 0.0000 0.3319 (  9582 PWs)   bands (ev):

   -67.2775 -66.8436 -66.8281 -52.6803 -52.6754 -52.6359 -52.6350 -52.5965
   -51.8219 -51.8164 -51.8152 -51.8143 -51.8111 -51.8054 -51.8054 -51.7968
   -33.3683 -33.3553 -33.3553 -32.9407 -32.9404 -32.9334 -32.9276 -32.9272
   -32.9139 -24.1918 -24.1880 -24.1576 -24.1570 -24.1365 -24.1238 -24.0874
   -24.0837 -24.0575 -24.0344 -24.0150 -23.9803 -23.9665 -23.9194 -23.9077
   -23.2461 -23.2283 -23.2195 -23.2180 -23.1989 -23.1904 -23.1899 -23.1684
   -23.1513 -23.1355 -23.1352 -23.1344 -23.1308 -23.1285 -23.1253 -23.1032
   -23.0754 -23.0663 -23.0570 -23.0547 -23.0437 -23.0357 -23.0349 -23.0108
    12.5276  13.8867  14.0231  14.6942  15.5581  15.5973  15.6251  15.6899
    15.7090  15.7579  15.7606  15.9154  15.9314  15.9883  16.1660  16.3527
    16.4849  16.6525  16.7913  16.9073  17.0464  17.0871  17.1048  17.1421
    17.1551  17.2258  17.3379  17.3717  17.4392  17.7777  17.7877  17.8316
    17.8865  17.8970  17.9589  18.0650  18.1240  18.1323  18.1377  18.1873
    18.2497  18.3315  18.3512  18.4819  18.5031  18.7772  18.8968  19.1025
    19.6220  19.7652  19.7741  19.9176  19.9803  19.9911  20.0227  20.2495
    20.2511  20.3034  20.3563  20.3895  20.4067  20.4437  20.4611  20.5634
    20.5966  20.6073  20.6863  20.6946  20.8247  20.8365  20.9057  20.9596
    20.9690  21.0382

          k = 0.3319-0.4973 0.0000 (  9578 PWs)   bands (ev):

   -67.2775 -66.8436 -66.8281 -52.6776 -52.6705 -52.6426 -52.6378 -52.5948
   -51.8191 -51.8174 -51.8156 -51.8129 -51.8099 -51.8096 -51.8012 -51.8008
   -33.3657 -33.3554 -33.3553 -32.9404 -32.9404 -32.9367 -32.9278 -32.9272
   -32.9135 -24.1792 -24.1563 -24.1460 -24.1452 -24.1248 -24.1220 -24.0974
   -24.0632 -24.0618 -24.0338 -24.0230 -23.9942 -23.9907 -23.9572 -23.9186
   -23.2609 -23.2459 -23.1979 -23.1971 -23.1877 -23.1874 -23.1716 -23.1678
   -23.1627 -23.1489 -23.1454 -23.1452 -23.1379 -23.1249 -23.1138 -23.0807
   -23.0574 -23.0570 -23.0527 -23.0520 -23.0510 -23.0484 -23.0414 -23.0406
    13.1296  13.1974  14.2828  14.3659  15.6897  15.7474  15.7646  15.8057
    15.8400  15.9510  16.0347  16.0508  16.0591  16.0731  16.1990  16.2200
    16.2350  16.3235  16.9557  16.9563  17.0397  17.0831  17.1364  17.1403
    17.1751  17.1776  17.3046  17.3945  17.5563  17.5588  17.7563  17.7693
    17.8218  17.8439  17.9209  17.9267  18.0176  18.0363  18.0520  18.1136
    18.1386  18.1925  18.2382  18.2537  18.3340  18.3376  19.1492  19.1601
    19.7436  19.7865  20.0178  20.0472  20.0823  20.0863  20.1307  20.1630
    20.1795  20.2044  20.2330  20.2481  20.2820  20.2937  20.5009  20.5594
    20.6813  20.7045  20.7053  20.7394  20.7456  20.7843  20.8074  20.8516
    20.8960  20.9124

          k =-0.4979 0.0000 0.3319 (  9578 PWs)   bands (ev):

   -67.2775 -66.8436 -66.8281 -52.6779 -52.6772 -52.6355 -52.6355 -52.5971
   -51.8219 -51.8169 -51.8130 -51.8129 -51.8100 -51.8098 -51.8012 -51.8010
   -33.3683 -33.3553 -33.3552 -32.9406 -32.9405 -32.9333 -32.9274 -32.9273
   -32.9139 -24.1799 -24.1776 -24.1618 -24.1618 -24.1399 -24.1398 -24.0697
   -24.0558 -24.0492 -24.0399 -24.0320 -23.9975 -23.9718 -23.9147 -23.9135
   -23.2268 -23.2255 -23.2168 -23.2145 -23.1982 -23.1934 -23.1766 -23.1673
   -23.1639 -23.1461 -23.1432 -23.1417 -23.1357 -23.1343 -23.1208 -23.1169
   -23.0759 -23.0636 -23.0493 -23.0480 -23.0473 -23.0414 -23.0196 -23.0186
    13.1250  13.2070  14.3051  14.3697  15.7484  15.7488  15.7638  15.7920
    15.8324  15.8379  16.0431  16.0753  16.0890  16.1250  16.1782  16.2079
    16.2409  16.3008  16.9541  16.9636  17.0275  17.0398  17.1230  17.1666
    17.1820  17.2085  17.3161  17.3392  17.5513  17.5536  17.7584  17.7797
    17.8000  17.8362  17.9133  17.9328  17.9520  18.0357  18.1155  18.1188
    18.1791  18.1840  18.2162  18.2681  18.3208  18.3332  19.1534  19.1596
    19.7288  19.7954  20.0554  20.0656  20.0730  20.0852  20.1226  20.1664
    20.2052  20.2268  20.2307  20.2438  20.2631  20.3057  20.4490  20.5645
    20.6606  20.7033  20.7040  20.7306  20.7354  20.7762  20.7839  20.8392
    20.8909  20.9368

          k =-0.4979 0.0000-0.4979 (  9580 PWs)   bands (ev):

   -67.2775 -66.8436 -66.8281 -52.6772 -52.6772 -52.6355 -52.6355 -52.5977
   -51.8221 -51.8171 -51.8127 -51.8127 -51.8057 -51.8055 -51.8055 -51.8053
   -33.3683 -33.3552 -33.3552 -32.9406 -32.9406 -32.9333 -32.9272 -32.9272
   -32.9139 -24.1850 -24.1826 -24.1608 -24.1608 -24.1442 -24.1388 -24.0541
   -24.0404 -24.0314 -24.0198 -24.0198 -24.0182 -24.0113 -23.9146 -23.9146
   -23.2240 -23.2240 -23.2064 -23.2058 -23.1943 -23.1943 -23.1873 -23.1770
   -23.1770 -23.1606 -23.1590 -23.1321 -23.1321 -23.1316 -23.1229 -23.1227
   -23.0772 -23.0571 -23.0468 -23.0468 -23.0444 -23.0444 -23.0143 -23.0131
    13.5765  13.7303  13.7724  13.7724  15.8750  15.8750  15.9220  15.9532
    15.9698  16.0099  16.1520  16.1520  16.1608  16.1608  16.2342  16.2687
    16.5548  16.5548  16.7459  16.8792  16.9532  16.9540  16.9753  16.9753
    17.0348  17.0348  17.3214  17.3456  17.5622  17.5622  17.5997  17.6711
    17.6777  17.6777  17.6970  17.7063  17.8432  17.9333  17.9999  17.9999
    18.1411  18.1411  18.1469  18.2108  18.7309  18.7309  18.8415  18.8515
    19.7510  19.8413  19.9475  19.9475  20.2539  20.2723  20.2953  20.2953
    20.3184  20.3275  20.3404  20.3404  20.3536  20.3537  20.3537  20.3731
    20.3731  20.4676  20.5022  20.5252  20.6669  20.6809  20.7686  20.7686
    20.7792  20.7944

          k = 0.1660 0.3315 0.1660 (  9577 PWs)   bands (ev):

   -67.2775 -66.8436 -66.8281 -52.6814 -52.6698 -52.6418 -52.6359 -52.5943
   -51.8201 -51.8186 -51.8166 -51.8150 -51.8094 -51.8091 -51.8030 -51.7947
   -33.3663 -33.3554 -33.3553 -32.9405 -32.9405 -32.9357 -32.9277 -32.9276
   -32.9136 -24.1909 -24.1762 -24.1727 -24.1424 -24.1344 -24.1062 -24.0879
   -24.0650 -24.0566 -24.0561 -24.0216 -23.9819 -23.9643 -23.9320 -23.9281
   -23.2777 -23.2401 -23.2224 -23.2052 -23.1989 -23.1886 -23.1836 -23.1735
   -23.1655 -23.1288 -23.1218 -23.1207 -23.1094 -23.0980 -23.0926 -23.0906
   -23.0831 -23.0728 -23.0707 -23.0604 -23.0588 -23.0492 -23.0313 -23.0264
    12.2554  13.7713  14.7534  14.9562  15.0248  15.1742  15.4726  15.4993
    15.6075  15.6080  15.7678  15.8115  15.9276  16.1366  16.1472  16.4057
    16.4960  16.6289  16.8669  16.9828  16.9998  17.0462  17.0672  17.1969
    17.2005  17.2338  17.4137  17.4391  17.5446  17.6866  17.7184  17.7406
    18.0136  18.0404  18.1109  18.1746  18.2084  18.2718  18.2972  18.3040
    18.3292  18.3740  18.5606  18.6275  18.6759  18.6861  18.9971  19.0138
    19.5224  19.5701  19.6166  19.8928  19.9650  20.0312  20.1467  20.1700
    20.1997  20.3219  20.3978  20.4554  20.4706  20.5138  20.6340  20.6552
    20.6985  20.7183  20.7400  20.7770  20.7979  20.9766  20.9974  21.1084
    21.1249  21.2158

          k = 0.1660-0.4973 0.1660 (  9588 PWs)   bands (ev):

   -67.2775 -66.8436 -66.8281 -52.6794 -52.6691 -52.6438 -52.6366 -52.5943
   -51.8198 -51.8167 -51.8139 -51.8131 -51.8127 -51.8126 -51.7991 -51.7987
   -33.3657 -33.3554 -33.3553 -32.9405 -32.9404 -32.9364 -32.9278 -32.9275
   -32.9136 -24.1751 -24.1679 -24.1356 -24.1326 -24.1286 -24.1177 -24.0961
   -24.0681 -24.0634 -24.0521 -24.0406 -23.9992 -23.9876 -23.9333 -23.9278
   -23.2733 -23.2383 -23.2127 -23.1966 -23.1918 -23.1824 -23.1602 -23.1557
   -23.1489 -23.1445 -23.1365 -23.1351 -23.1197 -23.1171 -23.0958 -23.0915
   -23.0868 -23.0711 -23.0618 -23.0583 -23.0560 -23.0444 -23.0431 -23.0416
    12.8959  12.9609  14.8763  14.9972  15.1116  15.1255  15.7261  15.7708
    15.8454  15.9235  15.9526  15.9760  15.9763  16.0225  16.0780  16.1008
    16.1488  16.2210  16.9111  16.9118  16.9745  16.9862  17.3919  17.4056
    17.4371  17.4510  17.4740  17.4750  17.5350  17.6074  17.9069  17.9090
    17.9388  17.9406  18.0158  18.0354  18.0888  18.1093  18.1220  18.1343
    18.1566  18.1650  18.1743  18.1901  18.2243  18.2658  19.1321  19.1478
    19.8752  19.8842  19.9372  19.9430  19.9658  20.0290  20.0389  20.0413
    20.1449  20.1654  20.1947  20.2347  20.5497  20.6228  20.6275  20.6561
    20.6985  20.7663  20.8652  20.8881  20.9152  20.9242  20.9821  21.0143
    21.0180  21.0577

          k = 0.3319 0.1658 0.3319 (  9595 PWs)   bands (ev):

   -67.2775 -66.8436 -66.8281 -52.6791 -52.6745 -52.6372 -52.6359 -52.5965
   -51.8209 -51.8164 -51.8146 -51.8140 -51.8103 -51.8064 -51.8061 -51.7978
   -33.3677 -33.3553 -33.3553 -32.9406 -32.9404 -32.9342 -32.9275 -32.9274
   -32.9138 -24.1825 -24.1760 -24.1529 -24.1510 -24.1387 -24.1126 -24.0844
   -24.0818 -24.0571 -24.0396 -24.0269 -23.9820 -23.9702 -23.9299 -23.9266
   -23.2424 -23.2211 -23.2195 -23.2154 -23.1976 -23.1898 -23.1824 -23.1700
   -23.1484 -23.1389 -23.1366 -23.1348 -23.1289 -23.1254 -23.1118 -23.1022
   -23.0778 -23.0696 -23.0686 -23.0567 -23.0496 -23.0400 -23.0326 -23.0188
    12.6645  14.0003  14.1438  14.8281  15.1082  15.3991  15.5498  15.7329
    15.7884  15.8983  15.9959  16.0131  16.1140  16.1841  16.2815  16.4050
    16.5436  16.6612  16.7510  16.8883  16.9707  17.1021  17.1211  17.2033
    17.2241  17.2312  17.2356  17.3055  17.4926  17.6552  17.7091  17.7577
    17.7979  17.8246  17.8552  17.9879  17.9897  18.0311  18.0366  18.0992
    18.1256  18.1446  18.1916  18.2710  18.2806  18.5586  18.5856  19.1325
    19.8063  19.8513  19.8770  20.0387  20.0662  20.1034  20.1160  20.1507
    20.3200  20.3751  20.3952  20.4470  20.4553  20.4807  20.4991  20.5412
    20.6177  20.6600  20.6740  20.8354  20.8461  20.8982  20.9470  20.9726
    20.9916  21.0263

          k = 0.3319-0.4973 0.1660 (  9574 PWs)   bands (ev):

   -67.2775 -66.8436 -66.8281 -52.6768 -52.6707 -52.6423 -52.6381 -52.5953
   -51.8185 -51.8169 -51.8149 -51.8124 -51.8101 -51.8100 -51.8021 -51.8017
   -33.3657 -33.3553 -33.3552 -32.9404 -32.9403 -32.9366 -32.9278 -32.9273
   -32.9135 -24.1684 -24.1491 -24.1412 -24.1391 -24.1231 -24.1214 -24.0963
   -24.0655 -24.0595 -24.0309 -24.0270 -24.0011 -23.9976 -23.9632 -23.9340
   -23.2525 -23.2399 -23.2028 -23.2003 -23.1839 -23.1786 -23.1735 -23.1639
   -23.1629 -23.1437 -23.1432 -23.1390 -23.1309 -23.1239 -23.1108 -23.0846
   -23.0705 -23.0646 -23.0623 -23.0595 -23.0534 -23.0466 -23.0419 -23.0401
    13.2590  13.3282  14.4094  14.4955  15.3385  15.3945  15.9517  15.9727
    15.9873  15.9952  16.0300  16.0928  16.1853  16.2330  16.2866  16.2983
    16.3070  16.3806  16.9878  16.9888  17.0616  17.0857  17.0862  17.1101
    17.2048  17.2168  17.3116  17.3827  17.5126  17.5197  17.6045  17.6289
    17.7063  17.7550  17.8452  17.8665  17.8990  17.9027  17.9277  17.9562
    17.9880  18.0286  18.0653  18.0941  18.1466  18.1513  18.9107  18.9141
    19.9370  19.9783  20.0640  20.0700  20.1295  20.1703  20.1766  20.2220
    20.2296  20.2895  20.2920  20.3223  20.5055  20.5164  20.5552  20.5776
    20.7001  20.7417  20.7535  20.7939  20.8149  20.8285  20.8557  20.8616
    20.9180  20.9427

          k =-0.4979 0.1658 0.3319 (  9574 PWs)   bands (ev):

   -67.2775 -66.8436 -66.8281 -52.6768 -52.6762 -52.6366 -52.6366 -52.5971
   -51.8209 -51.8164 -51.8124 -51.8123 -51.8104 -51.8101 -51.8021 -51.8020
   -33.3676 -33.3553 -33.3552 -32.9405 -32.9405 -32.9341 -32.9274 -32.9273
   -32.9138 -24.1722 -24.1700 -24.1537 -24.1527 -24.1309 -24.1293 -24.0737
   -24.0555 -24.0504 -24.0461 -24.0375 -24.0040 -23.9753 -23.9304 -23.9293
   -23.2234 -23.2226 -23.2161 -23.2105 -23.1951 -23.1916 -23.1759 -23.1643
   -23.1592 -23.1438 -23.1404 -23.1343 -23.1324 -23.1310 -23.1176 -23.1156
   -23.0796 -23.0686 -23.0574 -23.0532 -23.0520 -23.0478 -23.0245 -23.0233
    13.2533  13.3376  14.4354  14.4991  15.3180  15.3955  15.9488  15.9533
    16.0006  16.0069  16.0409  16.0921  16.1885  16.2239  16.2933  16.3094
    16.3224  16.3423  16.9858  16.9968  17.0459  17.0548  17.0847  17.1418
    17.2077  17.2172  17.3119  17.3362  17.5076  17.5128  17.6082  17.6207
    17.7079  17.7453  17.8559  17.8731  17.8881  17.9011  17.9621  17.9625
    18.0100  18.0157  18.0760  18.1033  18.1234  18.1393  18.9058  18.9094
    19.9440  19.9921  20.0740  20.0769  20.1464  20.1571  20.2017  20.2121
    20.2467  20.2775  20.3019  20.3145  20.4716  20.5161  20.5248  20.5813
    20.7024  20.7279  20.7462  20.7648  20.8166  20.8184  20.8465  20.8778
    20.9500  20.9562

          k =-0.4979 0.1658-0.4979 (  9588 PWs)   bands (ev):

   -67.2775 -66.8436 -66.8281 -52.6762 -52.6762 -52.6365 -52.6365 -52.5977
   -51.8210 -51.8165 -51.8122 -51.8122 -51.8064 -51.8063 -51.8060 -51.8060
   -33.3677 -33.3552 -33.3552 -32.9405 -32.9405 -32.9341 -32.9273 -32.9273
   -32.9138 -24.1762 -24.1731 -24.1463 -24.1463 -24.1381 -24.1320 -24.0563
   -24.0445 -24.0364 -24.0309 -24.0233 -24.0191 -24.0191 -23.9329 -23.9329
   -23.2156 -23.2156 -23.2050 -23.2041 -23.1949 -23.1949 -23.1889 -23.1693
   -23.1693 -23.1489 -23.1474 -23.1325 -23.1306 -23.1306 -23.1199 -23.1197
   -23.0807 -23.0624 -23.0552 -23.0552 -23.0504 -23.0504 -23.0228 -23.0217
    13.7030  13.8588  13.9081  13.9081  15.6314  15.7257  15.8665  15.8665
    15.9943  15.9943  16.1559  16.2735  16.3588  16.4280  16.4472  16.4472
    16.5790  16.5790  16.7573  16.8913  16.9131  16.9131  16.9725  16.9735
    17.1109  17.1109  17.3269  17.3503  17.4381  17.4381  17.4655  17.4964
    17.6381  17.6381  17.6582  17.6675  17.7956  17.8051  17.8442  17.8442
    17.9760  17.9760  18.0171  18.0507  18.4565  18.4565  18.4771  18.4823
    20.0528  20.1566  20.1689  20.1689  20.2849  20.3124  20.3716  20.3716
    20.3901  20.3901  20.4204  20.4329  20.4329  20.5145  20.5228  20.5330
    20.5330  20.5362  20.5503  20.5720  20.6805  20.7135  20.7560  20.7560
    20.7709  20.8296

          k = 0.3319-0.4973 0.3319 (  9598 PWs)   bands (ev):

   -67.2775 -66.8436 -66.8281 -52.6750 -52.6715 -52.6414 -52.6390 -52.5965
   -51.8170 -51.8158 -51.8138 -51.8106 -51.8105 -51.8101 -51.8045 -51.8042
   -33.3657 -33.3553 -33.3552 -32.9404 -32.9403 -32.9364 -32.9277 -32.9274
   -32.9136 -24.1473 -24.1318 -24.1289 -24.1256 -24.1214 -24.1150 -24.0907
   -24.0699 -24.0553 -24.0361 -24.0242 -24.0182 -24.0133 -23.9810 -23.9674
   -23.2320 -23.2266 -23.2038 -23.1994 -23.1818 -23.1733 -23.1729 -23.1599
   -23.1580 -23.1421 -23.1380 -23.1293 -23.1254 -23.1170 -23.0944 -23.0896
   -23.0879 -23.0794 -23.0738 -23.0715 -23.0606 -23.0536 -23.0511 -23.0476
    13.6270  13.6990  14.6819  14.8019  14.8961  14.9292  15.7778  15.8195
    16.2540  16.2680  16.2787  16.3413  16.3532  16.3827  16.4975  16.5260
    16.5379  16.5878  16.9968  17.0049  17.0759  17.0818  17.0896  17.1235
    17.1432  17.1678  17.3691  17.3742  17.3865  17.4043  17.4469  17.4485
    17.5184  17.5247  17.5919  17.6321  17.6351  17.6391  17.6842  17.7150
    17.7221  17.7742  17.7796  17.8034  17.8645  17.8692  18.3849  18.3885
    20.2381  20.2504  20.2874  20.3109  20.3132  20.3621  20.3910  20.4127
    20.4430  20.4533  20.4561  20.4640  20.5830  20.6295  20.7123  20.7169
    20.7264  20.7669  20.7744  20.7757  20.7955  20.8100  20.8554  20.8777
    20.8783  20.8858

          k =-0.4979 0.3315-0.4979 (  9632 PWs)   bands (ev):

   -67.2775 -66.8437 -66.8282 -52.6739 -52.6739 -52.6389 -52.6389 -52.5977
   -51.8179 -51.8150 -51.8109 -51.8109 -51.8095 -51.8079 -51.8072 -51.8072
   -33.3664 -33.3552 -33.3552 -32.9404 -32.9404 -32.9355 -32.9275 -32.9275
   -32.9138 -24.1525 -24.1459 -24.1235 -24.1140 -24.1069 -24.1069 -24.0679
   -24.0643 -24.0532 -24.0502 -24.0488 -24.0184 -24.0184 -23.9789 -23.9789
   -23.2026 -23.1993 -23.1985 -23.1985 -23.1928 -23.1921 -23.1921 -23.1574
   -23.1574 -23.1343 -23.1228 -23.1228 -23.1192 -23.1178 -23.1121 -23.1115
   -23.0896 -23.0753 -23.0745 -23.0745 -23.0663 -23.0663 -23.0468 -23.0455
    14.0634  14.2207  14.2929  14.2929  15.1689  15.3270  15.4361  15.4361
    16.3263  16.3263  16.4642  16.6008  16.6416  16.6416  16.7182  16.7765
    16.7817  16.7980  16.7980  16.8270  16.8270  16.9186  17.0125  17.0131
    17.2305  17.2305  17.2798  17.2798  17.3077  17.3410  17.3533  17.3748
    17.4582  17.4582  17.4886  17.5237  17.5456  17.5456  17.5616  17.5706
    17.6550  17.6550  17.7110  17.7249  17.8730  17.8909  17.9277  17.9277
    20.3845  20.3950  20.4032  20.4864  20.4864  20.5043  20.5043  20.5522
    20.5522  20.5802  20.6047  20.6248  20.6348  20.6348  20.6723  20.7186
    20.7186  20.7383  20.7421  20.7467  20.7599  20.8418  20.8535  20.8535
    20.9858  20.9858

     the Fermi energy is    19.4205 ev

!    total energy              =   -4214.53576072 Ry
     total all-electron energy =    -34959.350181 Ry
     estimated scf accuracy    <       0.00000005 Ry
     smearing contrib. (-TS)   =       0.00019390 Ry
     internal energy E=F+TS    =   -4214.53595463 Ry

     The total energy is F=E-TS. E is the sum of the following terms:
     one-electron contribution =   -1055.11964574 Ry
     hartree contribution      =     670.31376842 Ry
     xc contribution           =    -372.92163804 Ry
     ewald contribution        =   -2243.22440750 Ry
     one-center paw contrib.   =   -1213.58403177 Ry

     total magnetization       =     5.43 Bohr mag/cell
     absolute magnetization    =    14.14 Bohr mag/cell

     convergence has been achieved in  49 iterations

     Forces acting on atoms (cartesian axes, Ry/au):

     atom    1 type  2   force =     0.00093664   -0.00227899    0.00093664
     atom    2 type  1   force =     0.00000000    0.00000000    0.00000000
     atom    3 type  2   force =     0.00093664   -0.00227899   -0.00093664
     atom    4 type  2   force =     0.00000000    0.00000000    0.00000000
     atom    5 type  2   force =     0.00093664    0.00227899    0.00093664
     atom    6 type  2   force =     0.00000000    0.00000000    0.00000000
     atom    7 type  2   force =     0.00093664    0.00227899   -0.00093664
     atom    8 type  2   force =     0.00000000    0.00000000    0.00000000
     atom    9 type  2   force =    -0.00093664   -0.00227899    0.00093664
     atom   10 type  2   force =     0.00000000    0.00000000    0.00000000
     atom   11 type  2   force =    -0.00093664   -0.00227899   -0.00093664
     atom   12 type  1   force =     0.00000000    0.00000000    0.00000000
     atom   13 type  2   force =    -0.00093664    0.00227899    0.00093664
     atom   14 type  2   force =     0.00000000    0.00000000    0.00000000
     atom   15 type  2   force =    -0.00093664    0.00227899   -0.00093664
     atom   16 type  1   force =     0.00000000    0.00000000    0.00000000

     Total force =     0.007456     Total SCF correction =     0.000447


     Computing stress (Cartesian axis) and pressure

          total   stress  (Ry/bohr**3)                   (kbar)     P=       -3.51
  -0.00003254   0.00000000   0.00000000           -4.79        0.00        0.00
   0.00000000  -0.00000642   0.00000000            0.00       -0.94        0.00
   0.00000000   0.00000000  -0.00003254            0.00        0.00       -4.79

     Energy error            =      1.6E-03 Ry
     Gradient error          =      2.3E-03 Ry/Bohr
     Cell gradient error     =      4.8E+00 kbar

     number of scf cycles    =   2
     number of bfgs steps    =   1

     enthalpy           old  =   -4214.5341927158 Ry
     enthalpy           new  =   -4214.5357607224 Ry

     CASE: enthalpy          _new < enthalpy          _old

     new trust radius        =       0.0045769609 bohr
     new conv_thr            =       0.0000000157 Ry

     new unit-cell volume =   1237.59400 a.u.^3 (   183.39251 Ang^3 )
     density =      7.63737 g/cm^3

CELL_PARAMETERS (angstrom)
   5.678118480   0.000000000   0.000000000
   0.000000000   5.688171664   0.000000000
   0.000000000   0.000000000   5.678118480

ATOMIC_POSITIONS (crystal)
Cr               0.0002856665       -0.0006109119        0.0002856665
Fe               0.2500000000        0.2500000000        0.2500000000
Cr               0.0002856665       -0.0006109119        0.4997143335
Cr               0.2500000000        0.2500000000        0.7500000000
Cr               0.0002856665        0.5006109119        0.0002856665
Cr               0.2500000000        0.7500000000        0.2500000000
Cr               0.0002856665        0.5006109119        0.4997143335
Cr               0.2500000000        0.7500000000        0.7500000000
Cr               0.4997143335       -0.0006109119        0.0002856665
Cr               0.7500000000        0.2500000000        0.2500000000
Cr               0.4997143335       -0.0006109119        0.4997143335
Fe               0.7500000000        0.2500000000        0.7500000000
Cr               0.4997143335        0.5006109119        0.0002856665
Cr               0.7500000000        0.7500000000        0.2500000000
Cr               0.4997143335        0.5006109119        0.4997143335
Fe               0.7500000000        0.7500000000        0.7500000000



     Writing config-only to output data dir ./tmp/fecr_fe03cr13_vcr.save/ :
     XML data file
     NEW-OLD atomic charge density approx. for the potential

     Check: negative core charge=   -0.000003
     Generating pointlists ...

     total cpu time spent up to now is     4414.7 secs

     Self-consistent Calculation

     iteration #  1     ecut=    60.00 Ry     beta= 0.30
     Davidson diagonalization with overlap
     ethr =  1.00E-06,  avg # of iterations =  5.7

     Threshold (ethr) on eigenvalues was too large:
     Diagonalizing with lowered threshold

     Davidson diagonalization with overlap
     ethr =  5.33E-08,  avg # of iterations =  4.7

     total cpu time spent up to now is     4463.2 secs

     total energy              =   -4214.53576132 Ry
     estimated scf accuracy    <       0.00015291 Ry

     total magnetization       =     5.42 Bohr mag/cell
     absolute magnetization    =    14.12 Bohr mag/cell

     iteration #  2     ecut=    60.00 Ry     beta= 0.30
     Davidson diagonalization with overlap
     ethr =  6.65E-08,  avg # of iterations =  6.3

     total cpu time spent up to now is     4498.2 secs

     total energy              =   -4214.53561391 Ry
     estimated scf accuracy    <       0.00533090 Ry

     total magnetization       =     5.45 Bohr mag/cell
     absolute magnetization    =    14.13 Bohr mag/cell

     iteration #  3     ecut=    60.00 Ry     beta= 0.30
     Davidson diagonalization with overlap
     ethr =  6.65E-08,  avg # of iterations =  5.8

     total cpu time spent up to now is     4531.8 secs

     total energy              =   -4214.53581564 Ry
     estimated scf accuracy    <       0.00030487 Ry

     total magnetization       =     5.43 Bohr mag/cell
     absolute magnetization    =    14.12 Bohr mag/cell

     iteration #  4     ecut=    60.00 Ry     beta= 0.30
     Davidson diagonalization with overlap
     ethr =  6.65E-08,  avg # of iterations =  1.1

     total cpu time spent up to now is     4558.0 secs

     total energy              =   -4214.53582855 Ry
     estimated scf accuracy    <       0.00000901 Ry

     total magnetization       =     5.42 Bohr mag/cell
     absolute magnetization    =    14.11 Bohr mag/cell

     iteration #  5     ecut=    60.00 Ry     beta= 0.30
     Davidson diagonalization with overlap
     ethr =  3.92E-09,  avg # of iterations =  6.2

     total cpu time spent up to now is     4591.8 secs

     total energy              =   -4214.53583175 Ry
     estimated scf accuracy    <       0.00004256 Ry

     total magnetization       =     5.43 Bohr mag/cell
     absolute magnetization    =    14.11 Bohr mag/cell

     iteration #  6     ecut=    60.00 Ry     beta= 0.30
     Davidson diagonalization with overlap
     ethr =  3.92E-09,  avg # of iterations =  2.5

     total cpu time spent up to now is     4619.6 secs

     total energy              =   -4214.53583393 Ry
     estimated scf accuracy    <       0.00000749 Ry

     total magnetization       =     5.42 Bohr mag/cell
     absolute magnetization    =    14.11 Bohr mag/cell

     iteration #  7     ecut=    60.00 Ry     beta= 0.30
     Davidson diagonalization with overlap
     ethr =  3.25E-09,  avg # of iterations =  4.0

     total cpu time spent up to now is     4649.2 secs

     total energy              =   -4214.53583599 Ry
     estimated scf accuracy    <       0.00000456 Ry

     total magnetization       =     5.42 Bohr mag/cell
     absolute magnetization    =    14.11 Bohr mag/cell

     iteration #  8     ecut=    60.00 Ry     beta= 0.30
     Davidson diagonalization with overlap
     ethr =  1.98E-09,  avg # of iterations =  5.2

     total cpu time spent up to now is     4679.7 secs

     total energy              =   -4214.53583714 Ry
     estimated scf accuracy    <       0.00000805 Ry

     total magnetization       =     5.42 Bohr mag/cell
     absolute magnetization    =    14.10 Bohr mag/cell

     iteration #  9     ecut=    60.00 Ry     beta= 0.30
     Davidson diagonalization with overlap
     ethr =  1.98E-09,  avg # of iterations =  1.1

     total cpu time spent up to now is     4705.3 secs

     total energy              =   -4214.53583736 Ry
     estimated scf accuracy    <       0.00000636 Ry

     total magnetization       =     5.42 Bohr mag/cell
     absolute magnetization    =    14.10 Bohr mag/cell

     iteration # 10     ecut=    60.00 Ry     beta= 0.30
     Davidson diagonalization with overlap
     ethr =  1.98E-09,  avg # of iterations =  1.4

     total cpu time spent up to now is     4731.9 secs

     total energy              =   -4214.53583758 Ry
     estimated scf accuracy    <       0.00000287 Ry

     total magnetization       =     5.42 Bohr mag/cell
     absolute magnetization    =    14.10 Bohr mag/cell

     iteration # 11     ecut=    60.00 Ry     beta= 0.30
     Davidson diagonalization with overlap
     ethr =  1.25E-09,  avg # of iterations =  3.5

     total cpu time spent up to now is     4760.0 secs

     total energy              =   -4214.53583811 Ry
     estimated scf accuracy    <       0.00000068 Ry

     total magnetization       =     5.42 Bohr mag/cell
     absolute magnetization    =    14.09 Bohr mag/cell

     iteration # 12     ecut=    60.00 Ry     beta= 0.30
     Davidson diagonalization with overlap
     ethr =  2.94E-10,  avg # of iterations =  5.3

     total cpu time spent up to now is     4791.3 secs

     total energy              =   -4214.53583829 Ry
     estimated scf accuracy    <       0.00000188 Ry

     total magnetization       =     5.42 Bohr mag/cell
     absolute magnetization    =    14.08 Bohr mag/cell

     iteration # 13     ecut=    60.00 Ry     beta= 0.30
     Davidson diagonalization with overlap
     ethr =  2.94E-10,  avg # of iterations =  1.1

     total cpu time spent up to now is     4817.0 secs

     total energy              =   -4214.53583827 Ry
     estimated scf accuracy    <       0.00000143 Ry

     total magnetization       =     5.42 Bohr mag/cell
     absolute magnetization    =    14.08 Bohr mag/cell

     iteration # 14     ecut=    60.00 Ry     beta= 0.30
     Davidson diagonalization with overlap
     ethr =  2.94E-10,  avg # of iterations =  3.2

     total cpu time spent up to now is     4846.0 secs

     total energy              =   -4214.53583849 Ry
     estimated scf accuracy    <       0.00000021 Ry

     total magnetization       =     5.42 Bohr mag/cell
     absolute magnetization    =    14.08 Bohr mag/cell

     iteration # 15     ecut=    60.00 Ry     beta= 0.30
     Davidson diagonalization with overlap
     ethr =  9.15E-11,  avg # of iterations =  6.2

     total cpu time spent up to now is     4879.8 secs

     total energy              =   -4214.53583859 Ry
     estimated scf accuracy    <       0.00000159 Ry

     total magnetization       =     5.42 Bohr mag/cell
     absolute magnetization    =    14.07 Bohr mag/cell

     iteration # 16     ecut=    60.00 Ry     beta= 0.30
     Davidson diagonalization with overlap
     ethr =  9.15E-11,  avg # of iterations =  5.9

     total cpu time spent up to now is     4914.3 secs

     total energy              =   -4214.53583895 Ry
     estimated scf accuracy    <       0.00000139 Ry

     total magnetization       =     5.42 Bohr mag/cell
     absolute magnetization    =    14.07 Bohr mag/cell

     iteration # 17     ecut=    60.00 Ry     beta= 0.30
     Davidson diagonalization with overlap
     ethr =  9.15E-11,  avg # of iterations =  5.3

     total cpu time spent up to now is     4946.4 secs

     total energy              =   -4214.53583913 Ry
     estimated scf accuracy    <       0.00000097 Ry

     total magnetization       =     5.42 Bohr mag/cell
     absolute magnetization    =    14.06 Bohr mag/cell

     iteration # 18     ecut=    60.00 Ry     beta= 0.30
     Davidson diagonalization with overlap
     ethr =  9.15E-11,  avg # of iterations =  5.0

     total cpu time spent up to now is     4977.2 secs

     total energy              =   -4214.53583929 Ry
     estimated scf accuracy    <       0.00000027 Ry

     total magnetization       =     5.42 Bohr mag/cell
     absolute magnetization    =    14.05 Bohr mag/cell

     iteration # 19     ecut=    60.00 Ry     beta= 0.30
     Davidson diagonalization with overlap
     ethr =  9.15E-11,  avg # of iterations =  5.1

     total cpu time spent up to now is     5008.1 secs

     total energy              =   -4214.53583938 Ry
     estimated scf accuracy    <       0.00000020 Ry

     total magnetization       =     5.42 Bohr mag/cell
     absolute magnetization    =    14.05 Bohr mag/cell

     iteration # 20     ecut=    60.00 Ry     beta= 0.30
     Davidson diagonalization with overlap
     ethr =  8.90E-11,  avg # of iterations =  1.9

     total cpu time spent up to now is     5035.4 secs

     total energy              =   -4214.53583940 Ry
     estimated scf accuracy    <       0.00000009 Ry

     total magnetization       =     5.42 Bohr mag/cell
     absolute magnetization    =    14.05 Bohr mag/cell

     iteration # 21     ecut=    60.00 Ry     beta= 0.30
     Davidson diagonalization with overlap
     ethr =  4.00E-11,  avg # of iterations =  6.2

     total cpu time spent up to now is     5069.6 secs

     total energy              =   -4214.53583956 Ry
     estimated scf accuracy    <       0.00000031 Ry

     total magnetization       =     5.42 Bohr mag/cell
     absolute magnetization    =    14.04 Bohr mag/cell

     iteration # 22     ecut=    60.00 Ry     beta= 0.30
     Davidson diagonalization with overlap
     ethr =  4.00E-11,  avg # of iterations =  5.2

     total cpu time spent up to now is     5101.0 secs

     total energy              =   -4214.53583921 Ry
     estimated scf accuracy    <       0.00000007 Ry

     total magnetization       =     5.42 Bohr mag/cell
     absolute magnetization    =    14.04 Bohr mag/cell

     iteration # 23     ecut=    60.00 Ry     beta= 0.30
     Davidson diagonalization with overlap
     ethr =  2.97E-11,  avg # of iterations =  9.2

     total cpu time spent up to now is     5141.0 secs

     total energy              =   -4214.53583958 Ry
     estimated scf accuracy    <       0.00000017 Ry

     total magnetization       =     5.42 Bohr mag/cell
     absolute magnetization    =    14.02 Bohr mag/cell

     iteration # 24     ecut=    60.00 Ry     beta= 0.30
     Davidson diagonalization with overlap
     ethr =  2.97E-11,  avg # of iterations =  6.2

     total cpu time spent up to now is     5175.7 secs

     total energy              =   -4214.53583891 Ry
     estimated scf accuracy    <       0.00000010 Ry

     total magnetization       =     5.42 Bohr mag/cell
     absolute magnetization    =    14.03 Bohr mag/cell

     iteration # 25     ecut=    60.00 Ry     beta= 0.30
     Davidson diagonalization with overlap
     ethr =  2.97E-11,  avg # of iterations =  9.1

     total cpu time spent up to now is     5214.6 secs

     total energy              =   -4214.53584005 Ry
     estimated scf accuracy    <       0.00000005 Ry

     total magnetization       =     5.42 Bohr mag/cell
     absolute magnetization    =    14.01 Bohr mag/cell

     iteration # 26     ecut=    60.00 Ry     beta= 0.30
     Davidson diagonalization with overlap
     ethr =  2.20E-11,  avg # of iterations =  5.3

     total cpu time spent up to now is     5246.3 secs

     total energy              =   -4214.53584010 Ry
     estimated scf accuracy    <       0.00000006 Ry

     total magnetization       =     5.42 Bohr mag/cell
     absolute magnetization    =    14.01 Bohr mag/cell

     iteration # 27     ecut=    60.00 Ry     beta= 0.30
     Davidson diagonalization with overlap
     ethr =  2.20E-11,  avg # of iterations =  2.1

     total cpu time spent up to now is     5273.5 secs

     total energy              =   -4214.53584011 Ry
     estimated scf accuracy    <       0.00000004 Ry

     total magnetization       =     5.42 Bohr mag/cell
     absolute magnetization    =    14.01 Bohr mag/cell

     iteration # 28     ecut=    60.00 Ry     beta= 0.30
     Davidson diagonalization with overlap
     ethr =  1.52E-11,  avg # of iterations =  5.8

     total cpu time spent up to now is     5306.1 secs

     total energy              =   -4214.53584014 Ry
     estimated scf accuracy    <       0.00000007 Ry

     total magnetization       =     5.42 Bohr mag/cell
     absolute magnetization    =    14.01 Bohr mag/cell

     iteration # 29     ecut=    60.00 Ry     beta= 0.30
     Davidson diagonalization with overlap
     ethr =  1.52E-11,  avg # of iterations =  3.5

     total cpu time spent up to now is     5335.2 secs

     total energy              =   -4214.53584009 Ry
     estimated scf accuracy    <       0.00000003 Ry

     total magnetization       =     5.42 Bohr mag/cell
     absolute magnetization    =    14.01 Bohr mag/cell

     iteration # 30     ecut=    60.00 Ry     beta= 0.30
     Davidson diagonalization with overlap
     ethr =  1.41E-11,  avg # of iterations =  6.7

     total cpu time spent up to now is     5371.1 secs

     total energy              =   -4214.53583951 Ry
     estimated scf accuracy    <       0.00000008 Ry

     total magnetization       =     5.42 Bohr mag/cell
     absolute magnetization    =    14.00 Bohr mag/cell

     iteration # 31     ecut=    60.00 Ry     beta= 0.30
     Davidson diagonalization with overlap
     ethr =  1.41E-11,  avg # of iterations =  9.2

     total cpu time spent up to now is     5412.7 secs

     total energy              =   -4214.53584024 Ry
     estimated scf accuracy    <       0.00000004 Ry

     total magnetization       =     5.42 Bohr mag/cell
     absolute magnetization    =    13.99 Bohr mag/cell

     iteration # 32     ecut=    60.00 Ry     beta= 0.30
     Davidson diagonalization with overlap
     ethr =  1.41E-11,  avg # of iterations =  5.7

     total cpu time spent up to now is     5446.2 secs

     total energy              =   -4214.53584023 Ry
     estimated scf accuracy    <       0.00000002 Ry

     total magnetization       =     5.42 Bohr mag/cell
     absolute magnetization    =    13.99 Bohr mag/cell

     iteration # 33     ecut=    60.00 Ry     beta= 0.30
     Davidson diagonalization with overlap
     ethr =  7.64E-12,  avg # of iterations =  6.8

     total cpu time spent up to now is     5482.6 secs

     total energy              =   -4214.53584029 Ry
     estimated scf accuracy    <       0.00000002 Ry

     total magnetization       =     5.42 Bohr mag/cell
     absolute magnetization    =    13.99 Bohr mag/cell

     iteration # 34     ecut=    60.00 Ry     beta= 0.30
     Davidson diagonalization with overlap
     ethr =  7.64E-12,  avg # of iterations =  5.2

     total cpu time spent up to now is     5514.4 secs

     total energy              =   -4214.53584030 Ry
     estimated scf accuracy    <       0.00000002 Ry

     total magnetization       =     5.42 Bohr mag/cell
     absolute magnetization    =    13.99 Bohr mag/cell

     iteration # 35     ecut=    60.00 Ry     beta= 0.30
     Davidson diagonalization with overlap
     ethr =  6.97E-12,  avg # of iterations =  5.1
 
     Magnetic moment per site  (integrated on atomic sphere of radius R)
     atom   1 (R=0.179)  charge= 12.1595  magn=  0.7868
     atom   2 (R=0.179)  charge= 14.4805  magn=  1.1704
     atom   3 (R=0.179)  charge= 12.1595  magn=  0.7868
     atom   4 (R=0.179)  charge= 12.1817  magn= -0.7739
     atom   5 (R=0.179)  charge= 12.1595  magn=  0.7868
     atom   6 (R=0.179)  charge= 12.1959  magn= -0.7264
     atom   7 (R=0.179)  charge= 12.1595  magn=  0.7868
     atom   8 (R=0.179)  charge= 12.1892  magn= -0.8056
     atom   9 (R=0.179)  charge= 12.1595  magn=  0.7868
     atom  10 (R=0.179)  charge= 12.1817  magn= -0.7739
     atom  11 (R=0.179)  charge= 12.1595  magn=  0.7868
     atom  12 (R=0.179)  charge= 14.4660  magn=  0.6781
     atom  13 (R=0.179)  charge= 12.1595  magn=  0.7868
     atom  14 (R=0.179)  charge= 12.1892  magn= -0.8056
     atom  15 (R=0.179)  charge= 12.1595  magn=  0.7868
     atom  16 (R=0.179)  charge= 14.4774  magn=  1.1620

     total cpu time spent up to now is     5546.5 secs

     End of self-consistent calculation

 ------ SPIN UP ------------


          k = 0.0000 0.0000 0.0000 (  9627 PWs)   bands (ev):

   -68.1770 -68.1703 -68.0555 -52.7035 -52.6659 -52.6656 -52.6656 -52.6483
   -52.6483 -52.6480 -52.6316 -51.7762 -51.7741 -51.7578 -51.7575 -51.7526
   -34.2533 -34.2339 -34.2316 -34.2316 -34.2244 -34.2244 -34.1142 -34.1096
   -34.1096 -24.2840 -24.2441 -24.2441 -24.1893 -24.1893 -24.1455 -24.1152
   -24.1016 -24.1010 -24.0739 -24.0739 -24.0707 -23.9924 -23.9845 -23.9845
   -23.9264 -23.9264 -23.9257 -23.9179 -23.9174 -23.9174 -23.9139 -23.9009
   -23.9004 -23.2175 -23.1776 -23.1776 -23.1344 -23.1344 -23.0782 -23.0448
   -23.0387 -23.0387 -23.0208 -23.0208 -23.0009 -22.9802 -22.9789 -22.9789
    11.3504  14.6593  14.7019  14.7893  14.9507  14.9561  14.9561  14.9626
    14.9830  15.1300  15.2451  15.2600  15.2600  15.3147  15.4155  16.5851
    16.7040  16.7040  16.7835  16.7864  16.7864  16.7872  16.7872  16.9731
    16.9834  16.9945  17.0270  17.0270  17.1259  17.3925  17.3940  17.3940
    17.6133  18.0875  18.2142  18.2142  18.4635  18.5441  18.5441  18.6791
    18.6885  18.6885  18.7152  18.7259  18.7259  18.9808  19.0670  19.0670
    19.0725  19.3241  19.4962  19.7244  19.7632  19.8214  19.8849  19.9033
    20.1600  20.1600  20.1885  20.3058  20.3058  20.3098  20.3397  20.3397
    20.4894  20.4894  20.5698  20.6438  20.6438  20.6448  20.6551  20.6680
    20.7011  20.7139

          k = 0.0000 0.0000 0.1661 (  9595 PWs)   bands (ev):

   -68.1770 -68.1702 -68.0555 -52.7010 -52.6681 -52.6648 -52.6644 -52.6495
   -52.6492 -52.6472 -52.6327 -51.7749 -51.7736 -51.7586 -51.7577 -51.7532
   -34.2532 -34.2340 -34.2314 -34.2314 -34.2245 -34.2244 -34.1141 -34.1096
   -34.1094 -24.2682 -24.2372 -24.2311 -24.1846 -24.1781 -24.1395 -24.1183
   -24.1080 -24.0972 -24.0825 -24.0808 -24.0621 -23.9920 -23.9881 -23.9814
   -23.9456 -23.9426 -23.9267 -23.9250 -23.9249 -23.9205 -23.9161 -23.9069
   -23.9018 -23.1978 -23.1659 -23.1633 -23.1252 -23.1241 -23.0774 -23.0407
   -23.0403 -23.0398 -23.0283 -23.0265 -23.0125 -22.9908 -22.9864 -22.9843
    11.5025  14.4378  14.7548  14.7732  14.8802  15.0014  15.0060  15.0441
    15.0615  15.0781  15.2887  15.2968  15.3106  15.3582  15.7143  16.5885
    16.6167  16.6436  16.6736  16.7145  16.7360  16.7451  16.8045  16.8540
    16.9795  17.0064  17.0650  17.1738  17.1889  17.2946  17.3459  17.3898
    17.9956  18.1143  18.1438  18.1910  18.3561  18.3770  18.3929  18.4911
    18.5480  18.7024  18.7720  18.8024  18.8411  18.8965  18.9806  18.9954
    19.2254  19.2921  19.4323  19.5077  19.5679  19.6209  19.6579  19.8443
    19.8717  20.0154  20.0557  20.0780  20.0990  20.2072  20.3077  20.3161
    20.3988  20.4468  20.5470  20.5594  20.6475  20.6556  20.6973  20.6981
    20.7032  20.9926

          k = 0.0000 0.0000 0.3321 (  9606 PWs)   bands (ev):

   -68.1770 -68.1702 -68.0555 -52.6944 -52.6750 -52.6615 -52.6612 -52.6527
   -52.6524 -52.6442 -52.6358 -51.7727 -51.7712 -51.7619 -51.7577 -51.7544
   -34.2530 -34.2341 -34.2311 -34.2310 -34.2248 -34.2247 -34.1141 -34.1095
   -34.1094 -24.2245 -24.2182 -24.1997 -24.1707 -24.1417 -24.1381 -24.1306
   -24.1253 -24.1055 -24.1008 -24.0756 -24.0320 -24.0131 -24.0053 -23.9980
   -23.9739 -23.9693 -23.9487 -23.9392 -23.9360 -23.9219 -23.9131 -23.9128
   -23.9048 -23.1499 -23.1375 -23.1298 -23.1006 -23.0975 -23.0757 -23.0538
   -23.0521 -23.0454 -23.0412 -23.0335 -23.0277 -23.0221 -23.0047 -22.9956
    11.9460  13.5228  14.9227  14.9342  15.1367  15.1390  15.1650  15.2529
    15.2781  15.3281  15.3586  15.3610  15.3703  15.4197  15.7476  16.1183
    16.1978  16.4206  16.5698  16.6276  16.6881  16.7209  17.0141  17.0350
    17.1027  17.1579  17.1584  17.3260  17.3464  17.3545  17.6042  17.6685
    17.8284  17.8667  18.0360  18.0777  18.1168  18.1541  18.2532  18.3843
    18.3870  18.4515  18.5048  18.5746  18.6084  18.6187  18.8698  18.9843
    19.0378  19.0465  19.0548  19.2199  19.3486  19.3952  19.5934  19.6517
    19.8436  19.9936  20.0450  20.1076  20.1254  20.2259  20.3368  20.4880
    20.4995  20.5023  20.6583  20.6859  20.6894  20.7211  20.7335  20.8393
    20.9398  21.0310

          k = 0.0000 0.0000-0.4982 (  9626 PWs)   bands (ev):

   -68.1770 -68.1703 -68.0555 -52.6873 -52.6822 -52.6573 -52.6570 -52.6569
   -52.6566 -52.6401 -52.6398 -51.7721 -51.7668 -51.7661 -51.7576 -51.7551
   -34.2530 -34.2342 -34.2309 -34.2308 -34.2251 -34.2249 -34.1141 -34.1096
   -34.1094 -24.2029 -24.1771 -24.1723 -24.1643 -24.1584 -24.1501 -24.1435
   -24.1282 -24.0938 -24.0828 -24.0713 -24.0517 -24.0360 -24.0307 -23.9915
   -23.9891 -23.9637 -23.9604 -23.9545 -23.9428 -23.9177 -23.9173 -23.9090
   -23.9088 -23.1158 -23.1020 -23.0943 -23.0938 -23.0772 -23.0748 -23.0721
   -23.0678 -23.0638 -23.0606 -23.0551 -23.0345 -23.0154 -23.0133 -23.0097
    12.5945  12.6957  15.0654  15.1062  15.2029  15.2426  15.2931  15.2958
    15.2959  15.2982  15.4998  15.5488  15.6089  15.6502  15.6938  15.7350
    15.8704  15.9502  16.5622  16.6308  16.6801  16.6930  17.2934  17.3119
    17.3849  17.4217  17.4318  17.4690  17.4810  17.4864  17.4880  17.6010
    17.7187  17.7686  17.7744  17.7920  17.8226  18.1210  18.1419  18.1950
    18.2284  18.2350  18.2750  18.3360  18.5120  18.5163  18.6578  18.7621
    18.7990  18.7991  18.8989  19.4828  19.6578  19.7300  19.7580  19.7865
    19.7970  19.8078  19.9157  19.9720  20.3028  20.3851  20.4262  20.4655
    20.4882  20.5108  20.5205  20.5645  20.6726  20.6748  20.6751  20.9091
    20.9978  21.0375

          k = 0.0000 0.1658 0.1661 (  9557 PWs)   bands (ev):

   -68.1769 -68.1702 -68.0554 -52.6987 -52.6673 -52.6667 -52.6632 -52.6508
   -52.6484 -52.6481 -52.6338 -51.7739 -51.7729 -51.7591 -51.7587 -51.7534
   -34.2512 -34.2340 -34.2313 -34.2311 -34.2246 -34.2245 -34.1160 -34.1095
   -34.1095 -24.2593 -24.2246 -24.2190 -24.1716 -24.1660 -24.1454 -24.1202
   -24.1113 -24.0989 -24.0827 -24.0787 -24.0619 -23.9999 -23.9853 -23.9797
   -23.9520 -23.9503 -23.9394 -23.9331 -23.9265 -23.9244 -23.9217 -23.9132
   -23.9055 -23.1897 -23.1545 -23.1519 -23.1144 -23.1139 -23.0777 -23.0450
   -23.0416 -23.0400 -23.0335 -23.0331 -23.0138 -23.0064 -22.9927 -22.9823
    11.6517  14.4838  14.5383  14.7995  14.8804  14.9295  15.0744  15.1229
    15.1232  15.1287  15.1583  15.3740  15.3805  15.7287  15.7507  16.4757
    16.5454  16.6120  16.6429  16.6822  16.7563  16.7738  16.7820  16.8620
    16.9119  16.9926  17.1063  17.1739  17.1858  17.2153  17.2652  17.7536
    17.8437  17.9532  18.1337  18.1828  18.2535  18.3316  18.4623  18.4770
    18.5559  18.5665  18.6575  18.7582  18.8469  18.8987  18.9395  19.1159
    19.1861  19.2150  19.2844  19.3629  19.3818  19.3896  19.6078  19.6215
    19.7367  19.7763  19.9865  19.9901  20.1118  20.1807  20.2239  20.2945
    20.5104  20.5575  20.6105  20.6784  20.6842  20.7230  20.7329  20.7928
    20.8594  20.8889

          k = 0.0000 0.1658 0.3321 (  9577 PWs)   bands (ev):

   -68.1770 -68.1702 -68.0555 -52.6923 -52.6735 -52.6637 -52.6600 -52.6542
   -52.6513 -52.6453 -52.6369 -51.7721 -51.7705 -51.7619 -51.7584 -51.7548
   -34.2511 -34.2343 -34.2310 -34.2306 -34.2249 -34.2247 -34.1161 -34.1095
   -34.1094 -24.2269 -24.2033 -24.1878 -24.1585 -24.1421 -24.1400 -24.1329
   -24.1252 -24.0965 -24.0928 -24.0745 -24.0363 -24.0148 -24.0051 -23.9979
   -23.9773 -23.9669 -23.9513 -23.9513 -23.9382 -23.9307 -23.9217 -23.9190
   -23.9092 -23.1594 -23.1293 -23.1234 -23.0916 -23.0913 -23.0777 -23.0727
   -23.0552 -23.0474 -23.0427 -23.0421 -23.0211 -23.0165 -23.0077 -22.9870
    12.0873  13.6247  14.6663  14.8329  15.0352  15.2256  15.2582  15.2624
    15.3380  15.3836  15.4218  15.4657  15.4692  15.7114  15.8025  16.1511
    16.1967  16.3713  16.6548  16.6580  16.7513  16.7761  16.8427  16.9800
    16.9856  17.0939  17.1267  17.2300  17.3415  17.3951  17.4868  17.7709
    17.7874  17.8206  17.8863  17.9688  18.0508  18.1247  18.2000  18.2190
    18.3349  18.3909  18.4493  18.5232  18.6897  18.7266  18.7770  18.8186
    18.9835  19.0002  19.1241  19.2564  19.2790  19.4321  19.5327  19.5831
    19.6966  19.9123  19.9366  19.9610  20.1264  20.1564  20.2368  20.4898
    20.4915  20.5371  20.5940  20.6370  20.7018  20.7091  20.7276  20.7965
    20.8764  21.0066

          k = 0.0000 0.1658-0.4982 (  9608 PWs)   bands (ev):

   -68.1770 -68.1702 -68.0555 -52.6854 -52.6805 -52.6592 -52.6587 -52.6558
   -52.6555 -52.6413 -52.6410 -51.7716 -51.7664 -51.7659 -51.7581 -51.7557
   -34.2510 -34.2344 -34.2309 -34.2304 -34.2251 -34.2249 -34.1161 -34.1096
   -34.1094 -24.1987 -24.1813 -24.1712 -24.1662 -24.1609 -24.1352 -24.1287
   -24.1163 -24.0870 -24.0778 -24.0672 -24.0527 -24.0359 -24.0311 -23.9955
   -23.9923 -23.9665 -23.9627 -23.9612 -23.9437 -23.9294 -23.9254 -23.9142
   -23.9141 -23.1254 -23.1153 -23.1004 -23.0984 -23.0815 -23.0753 -23.0733
   -23.0660 -23.0658 -23.0554 -23.0467 -23.0318 -23.0164 -23.0024 -22.9991
    12.7202  12.8225  14.7479  14.8504  15.1891  15.3263  15.4114  15.4172
    15.4984  15.5190  15.5506  15.6294  15.6811  15.6964  15.7516  15.7998
    15.9091  15.9831  16.6189  16.6672  16.7037  16.7404  17.1402  17.1615
    17.1767  17.2640  17.2921  17.3574  17.3600  17.4180  17.5951  17.6807
    17.6946  17.7287  17.8070  17.8533  17.9260  17.9570  18.0426  18.0563
    18.1719  18.1720  18.1813  18.2144  18.2704  18.3413  18.8748  18.9085
    18.9198  18.9329  19.0056  19.4590  19.4997  19.5591  19.6480  19.6485
    19.6665  19.8011  19.9014  20.0261  20.2321  20.2514  20.2632  20.3641
    20.4023  20.4324  20.4812  20.6228  20.6543  20.6884  20.8049  20.8273
    20.9114  20.9934

          k = 0.0000 0.3315 0.3321 (  9582 PWs)   bands (ev):

   -68.1769 -68.1702 -68.0555 -52.6866 -52.6703 -52.6688 -52.6583 -52.6569
   -52.6484 -52.6482 -52.6399 -51.7710 -51.7685 -51.7621 -51.7604 -51.7556
   -34.2470 -34.2346 -34.2309 -34.2301 -34.2250 -34.2247 -34.1202 -34.1096
   -34.1094 -24.2139 -24.1856 -24.1606 -24.1599 -24.1531 -24.1315 -24.1248
   -24.1068 -24.0829 -24.0793 -24.0626 -24.0348 -24.0227 -24.0162 -24.0009
   -23.9833 -23.9807 -23.9648 -23.9601 -23.9591 -23.9487 -23.9321 -23.9254
   -23.9153 -23.1562 -23.1259 -23.1084 -23.1006 -23.0922 -23.0766 -23.0756
   -23.0723 -23.0638 -23.0467 -23.0315 -23.0147 -23.0055 -23.0039 -22.9887
    12.4960  13.8595  13.9410  14.5883  15.3168  15.3759  15.4593  15.5211
    15.5671  15.5826  15.6063  15.6484  15.6651  15.7624  15.8689  16.1449
    16.2481  16.2930  16.4068  16.7594  16.7855  16.8333  16.8633  16.8642
    16.8906  16.9752  17.0719  17.2283  17.2877  17.3594  17.4389  17.5428
    17.6621  17.6957  17.7829  17.8033  17.8890  17.9391  18.0323  18.0847
    18.0863  18.1440  18.1912  18.3326  18.5151  18.5940  18.8363  18.9791
    19.0054  19.1076  19.1326  19.2251  19.3524  19.3568  19.3840  19.4809
    19.6223  19.6929  19.8159  19.8442  20.0486  20.1172  20.2122  20.4138
    20.4241  20.5159  20.5930  20.5989  20.6326  20.6715  20.6951  20.7798
    20.8508  20.8844

          k = 0.0000 0.3315-0.4982 (  9578 PWs)   bands (ev):

   -68.1769 -68.1702 -68.0555 -52.6802 -52.6759 -52.6645 -52.6633 -52.6527
   -52.6524 -52.6443 -52.6440 -51.7707 -51.7653 -51.7652 -51.7591 -51.7573
   -34.2470 -34.2348 -34.2308 -34.2298 -34.2250 -34.2247 -34.1202 -34.1095
   -34.1094 -24.1874 -24.1849 -24.1755 -24.1687 -24.1412 -24.1207 -24.1197
   -24.0859 -24.0645 -24.0580 -24.0577 -24.0460 -24.0355 -24.0314 -24.0031
   -24.0002 -23.9852 -23.9852 -23.9652 -23.9642 -23.9532 -23.9329 -23.9217
   -23.9211 -23.1359 -23.1322 -23.1169 -23.1111 -23.0976 -23.0747 -23.0711
   -23.0691 -23.0617 -23.0564 -23.0184 -23.0167 -23.0140 -22.9938 -22.9905
    13.0782  13.1810  14.2054  14.3212  15.4541  15.5532  15.6320  15.6656
    15.6679  15.7100  15.7222  15.7994  15.8094  15.8533  15.9185  16.0023
    16.0238  16.0532  16.5773  16.6993  16.7454  16.8549  16.8802  16.8948
    16.9735  16.9872  17.0452  17.0605  17.3704  17.3879  17.3999  17.4478
    17.5826  17.6036  17.6405  17.6848  17.7218  17.8319  17.8505  17.9157
    18.1373  18.1383  18.1788  18.1932  18.1934  18.2226  19.0416  19.0803
    19.1089  19.1274  19.1856  19.3025  19.3066  19.3216  19.3629  19.4412
    19.5450  19.6592  19.7442  20.0116  20.0565  20.1780  20.1867  20.2213
    20.2355  20.5114  20.5341  20.5984  20.6319  20.7206  20.7235  20.7302
    20.7558  20.8538

          k = 0.0000-0.4973-0.4982 (  9580 PWs)   bands (ev):

   -68.1769 -68.1702 -68.0555 -52.6752 -52.6700 -52.6696 -52.6693 -52.6488
   -52.6485 -52.6483 -52.6479 -51.7702 -51.7646 -51.7646 -51.7598 -51.7583
   -34.2450 -34.2350 -34.2308 -34.2296 -34.2250 -34.2246 -34.1224 -34.1096
   -34.1094 -24.1802 -24.1785 -24.1781 -24.1773 -24.1263 -24.1198 -24.1192
   -24.0585 -24.0565 -24.0534 -24.0374 -24.0356 -24.0214 -24.0182 -24.0134
   -24.0119 -24.0024 -24.0015 -23.9939 -23.9902 -23.9503 -23.9297 -23.9266
   -23.9262 -23.1351 -23.1317 -23.1314 -23.1303 -23.0963 -23.0750 -23.0693
   -23.0686 -23.0595 -23.0574 -23.0196 -23.0010 -22.9980 -22.9956 -22.9949
    13.6004  13.6152  13.6259  13.8151  15.6020  15.6224  15.6800  15.8172
    15.8281  15.8464  15.8622  15.9540  15.9605  15.9629  16.0520  16.0528
    16.1697  16.2081  16.2472  16.5847  16.7820  16.7981  16.7997  16.8171
    16.8366  16.8889  16.9664  16.9722  17.2577  17.2771  17.3913  17.4143
    17.4927  17.4962  17.4998  17.5718  17.5994  17.6081  17.6216  17.8526
    18.1056  18.1226  18.1304  18.1511  18.5793  18.5805  18.7892  18.7990
    19.1536  19.1669  19.2392  19.2544  19.2745  19.3219  19.4924  19.5066
    19.5346  19.5540  19.5544  19.8017  19.8266  20.0898  20.2936  20.4165
    20.4192  20.4283  20.4392  20.5715  20.6476  20.6502  20.6939  20.7001
    20.7054  20.7993

          k = 0.1661 0.1658 0.1661 (  9591 PWs)   bands (ev):

   -68.1770 -68.1702 -68.0555 -52.6964 -52.6665 -52.6660 -52.6647 -52.6497
   -52.6496 -52.6493 -52.6350 -51.7728 -51.7725 -51.7599 -51.7587 -51.7540
   -34.2512 -34.2341 -34.2314 -34.2308 -34.2248 -34.2244 -34.1161 -34.1095
   -34.1095 -24.2460 -24.2145 -24.2126 -24.1624 -24.1588 -24.1387 -24.1216
   -24.1211 -24.0991 -24.0780 -24.0731 -24.0705 -23.9964 -23.9927 -23.9767
   -23.9557 -23.9557 -23.9412 -23.9409 -23.9359 -23.9329 -23.9281 -23.9164
   -23.9141 -23.1767 -23.1532 -23.1433 -23.1088 -23.1001 -23.0766 -23.0594
   -23.0464 -23.0435 -23.0295 -23.0271 -23.0262 -23.0142 -22.9883 -22.9880
    11.7991  14.4789  14.6025  14.7261  14.8810  14.9228  14.9760  15.1566
    15.1724  15.2047  15.2250  15.2606  15.7810  15.8018  15.8084  16.3734
    16.5417  16.5709  16.6522  16.7255  16.7415  16.7851  16.8152  16.8736
    16.9107  16.9379  17.0964  17.0994  17.1186  17.1278  17.5077  17.6430
    17.7518  17.8646  18.1078  18.1198  18.1869  18.2948  18.3418  18.5040
    18.5277  18.5496  18.6210  18.6767  18.7122  18.7574  18.8498  19.0489
    19.1242  19.1351  19.1971  19.3043  19.3220  19.3900  19.4374  19.5231
    19.5386  19.9377  19.9507  20.0726  20.0798  20.1183  20.2829  20.3063
    20.5317  20.5564  20.6184  20.6287  20.6782  20.6789  20.7264  20.7950
    20.7977  20.8786

          k = 0.1661 0.1658 0.3321 (  9577 PWs)   bands (ev):

   -68.1770 -68.1702 -68.0555 -52.6902 -52.6723 -52.6626 -52.6619 -52.6531
   -52.6527 -52.6465 -52.6381 -51.7716 -51.7699 -51.7625 -51.7584 -51.7553
   -34.2510 -34.2343 -34.2312 -34.2306 -34.2249 -34.2245 -34.1161 -34.1095
   -34.1094 -24.2138 -24.1940 -24.1890 -24.1484 -24.1416 -24.1376 -24.1281
   -24.1228 -24.0964 -24.0889 -24.0716 -24.0430 -24.0132 -24.0010 -23.9968
   -23.9803 -23.9677 -23.9544 -23.9510 -23.9471 -23.9414 -23.9307 -23.9279
   -23.9186 -23.1484 -23.1372 -23.1225 -23.0885 -23.0860 -23.0793 -23.0746
   -23.0691 -23.0459 -23.0419 -23.0364 -23.0246 -23.0138 -23.0039 -22.9891
    12.2276  13.7268  14.7616  14.7972  14.9329  14.9844  15.2675  15.3110
    15.3751  15.4347  15.4922  15.5344  15.7634  15.8337  15.8855  16.2007
    16.2089  16.4149  16.6386  16.7049  16.7355  16.8090  16.8278  16.8681
    16.9662  17.0580  17.1469  17.2421  17.2693  17.3071  17.4386  17.6148
    17.6829  17.8086  17.8805  17.8980  17.9821  18.0363  18.0919  18.1507
    18.1980  18.2456  18.2784  18.3968  18.5168  18.6423  18.8384  18.8497
    18.9337  19.0362  19.1522  19.2081  19.3394  19.4428  19.4743  19.5201
    19.6719  19.8038  19.9450  20.0556  20.0730  20.2215  20.2849  20.3740
    20.4941  20.5299  20.5427  20.6485  20.6586  20.7193  20.7813  20.8141
    20.8427  20.8971

          k = 0.1661 0.1658-0.4982 (  9588 PWs)   bands (ev):

   -68.1770 -68.1702 -68.0555 -52.6835 -52.6791 -52.6583 -52.6575 -52.6575
   -52.6570 -52.6425 -52.6421 -51.7710 -51.7664 -51.7659 -51.7581 -51.7562
   -34.2510 -34.2343 -34.2309 -34.2306 -34.2248 -34.2247 -34.1161 -34.1095
   -34.1094 -24.1907 -24.1741 -24.1676 -24.1631 -24.1534 -24.1378 -24.1225
   -24.1143 -24.0870 -24.0694 -24.0693 -24.0414 -24.0355 -24.0281 -23.9996
   -23.9943 -23.9725 -23.9612 -23.9606 -23.9542 -23.9376 -23.9332 -23.9246
   -23.9243 -23.1244 -23.1163 -23.1075 -23.1073 -23.0834 -23.0831 -23.0739
   -23.0667 -23.0660 -23.0399 -23.0375 -23.0302 -23.0183 -23.0013 -22.9965
    12.8456  12.9508  14.8660  14.8949  14.9302  15.0164  15.5090  15.5854
    15.6120  15.6438  15.6463  15.7148  15.7394  15.7977  15.8393  15.8495
    15.9520  16.0260  16.6381  16.7340  16.7356  16.7733  17.0895  17.0922
    17.1477  17.1666  17.1786  17.2614  17.2726  17.4155  17.5339  17.5844
    17.6068  17.6852  17.7081  17.7784  17.8029  17.9478  17.9782  18.0268
    18.0426  18.0533  18.0813  18.0928  18.1104  18.1587  18.9533  18.9957
    19.0669  19.0766  19.1255  19.2984  19.3566  19.4182  19.5279  19.5931
    19.6890  19.7830  19.7976  20.0351  20.0892  20.2905  20.3258  20.3744
    20.4223  20.4989  20.5015  20.6278  20.6457  20.7117  20.7552  20.7936
    20.9163  20.9612

          k = 0.1661 0.3315 0.3321 (  9595 PWs)   bands (ev):

   -68.1769 -68.1702 -68.0555 -52.6846 -52.6689 -52.6676 -52.6588 -52.6570
   -52.6498 -52.6496 -52.6412 -51.7706 -51.7681 -51.7625 -51.7603 -51.7561
   -34.2470 -34.2346 -34.2309 -34.2302 -34.2249 -34.2247 -34.1202 -34.1095
   -34.1095 -24.2013 -24.1735 -24.1591 -24.1510 -24.1460 -24.1266 -24.1206
   -24.1059 -24.0855 -24.0769 -24.0585 -24.0437 -24.0180 -24.0125 -24.0023
   -23.9854 -23.9798 -23.9679 -23.9663 -23.9631 -23.9542 -23.9456 -23.9412
   -23.9292 -23.1445 -23.1198 -23.1065 -23.1018 -23.0965 -23.0816 -23.0755
   -23.0686 -23.0582 -23.0458 -23.0300 -23.0166 -23.0124 -23.0035 -22.9951
    12.6328  13.9730  14.0568  14.7192  15.0452  15.2866  15.3268  15.5208
    15.5983  15.6267  15.7176  15.7703  15.8376  15.9700  16.0519  16.1922
    16.2405  16.3616  16.3969  16.7340  16.7504  16.8112  16.8584  16.9083
    16.9256  16.9894  17.0778  17.1391  17.2495  17.2687  17.3942  17.4638
    17.5322  17.5992  17.6705  17.7051  17.8543  17.8591  17.8886  17.8983
    17.9372  18.0175  18.0672  18.1305  18.2952  18.3850  18.5127  19.0417
    19.1028  19.1778  19.2011  19.2592  19.3719  19.3851  19.4045  19.4660
    19.6625  19.7588  19.8941  19.9954  20.0781  20.1880  20.3057  20.3636
    20.5444  20.5954  20.6110  20.6158  20.6568  20.6615  20.7148  20.7746
    20.8117  20.8501

          k = 0.1661 0.3315-0.4982 (  9574 PWs)   bands (ev):

   -68.1769 -68.1702 -68.0555 -52.6784 -52.6745 -52.6632 -52.6621 -52.6545
   -52.6539 -52.6457 -52.6453 -51.7703 -51.7653 -51.7652 -51.7591 -51.7577
   -34.2470 -34.2347 -34.2308 -34.2300 -34.2249 -34.2247 -34.1202 -34.1095
   -34.1094 -24.1759 -24.1724 -24.1633 -24.1606 -24.1359 -24.1166 -24.1127
   -24.0910 -24.0706 -24.0599 -24.0524 -24.0388 -24.0349 -24.0288 -24.0087
   -24.0047 -23.9871 -23.9833 -23.9698 -23.9681 -23.9621 -23.9473 -23.9371
   -23.9360 -23.1274 -23.1243 -23.1140 -23.1102 -23.0901 -23.0753 -23.0738
   -23.0664 -23.0603 -23.0534 -23.0259 -23.0197 -23.0193 -22.9977 -22.9943
    13.2060  13.3112  14.3341  14.4509  15.2198  15.2982  15.6888  15.7071
    15.7658  15.7897  15.8334  15.8499  15.9117  15.9285  16.0499  16.0794
    16.0921  16.1364  16.5936  16.7102  16.7597  16.8440  16.8606  16.8949
    16.9772  17.0232  17.0318  17.0708  17.2635  17.3133  17.3412  17.3558
    17.4094  17.4573  17.5232  17.5980  17.5989  17.7740  17.7948  17.8027
    17.9373  17.9567  17.9872  17.9934  18.0278  18.0545  18.8247  18.8736
    19.1112  19.1591  19.1870  19.2842  19.3483  19.4122  19.4364  19.4832
    19.6962  19.7939  19.9090  20.0580  20.1636  20.2470  20.2769  20.3476
    20.4577  20.5332  20.5335  20.5954  20.6299  20.7031  20.7056  20.7939
    20.8449  20.8476

          k = 0.1661-0.4973-0.4982 (  9588 PWs)   bands (ev):

   -68.1769 -68.1702 -68.0555 -52.6734 -52.6687 -52.6682 -52.6679 -52.6506
   -52.6499 -52.6496 -52.6493 -51.7699 -51.7646 -51.7646 -51.7598 -51.7587
   -34.2449 -34.2348 -34.2307 -34.2298 -34.2250 -34.2247 -34.1224 -34.1095
   -34.1094 -24.1680 -24.1646 -24.1639 -24.1632 -24.1188 -24.1144 -24.1140
   -24.0624 -24.0598 -24.0570 -24.0346 -24.0316 -24.0278 -24.0152 -24.0128
   -24.0127 -24.0070 -24.0041 -24.0012 -23.9961 -23.9609 -23.9440 -23.9428
   -23.9425 -23.1248 -23.1212 -23.1210 -23.1201 -23.0923 -23.0759 -23.0688
   -23.0685 -23.0578 -23.0578 -23.0255 -23.0083 -23.0053 -23.0029 -23.0023
    13.7309  13.7450  13.7565  13.9491  15.5990  15.6023  15.6157  15.7390
    15.7711  15.7788  15.8127  15.9843  16.1574  16.1818  16.2093  16.2104
    16.2369  16.2435  16.2627  16.6059  16.7700  16.7736  16.7920  16.8226
    16.8625  16.9088  16.9801  16.9908  17.1539  17.1677  17.2485  17.2657
    17.3620  17.3629  17.4223  17.4971  17.5508  17.5597  17.5696  17.7177
    17.9242  17.9357  17.9381  17.9720  18.2948  18.2956  18.4186  18.4201
    19.2233  19.2363  19.2761  19.2871  19.3497  19.3724  19.5628  19.6085
    19.7759  19.8112  19.8425  19.9505  19.9515  20.3326  20.3580  20.5341
    20.5398  20.5455  20.5586  20.6053  20.6109  20.6146  20.7023  20.7109
    20.7262  20.7932

          k = 0.3321 0.3315 0.3321 (  9594 PWs)   bands (ev):

   -68.1769 -68.1702 -68.0555 -52.6794 -52.6663 -52.6647 -52.6620 -52.6544
   -52.6535 -52.6528 -52.6445 -51.7697 -51.7668 -51.7636 -51.7599 -51.7574
   -34.2470 -34.2344 -34.2309 -34.2304 -34.2248 -34.2247 -34.1202 -34.1095
   -34.1094 -24.1697 -24.1489 -24.1451 -24.1401 -24.1400 -24.1120 -24.1058
   -24.0942 -24.0873 -24.0653 -24.0642 -24.0480 -24.0105 -24.0090 -24.0052
   -24.0012 -23.9843 -23.9830 -23.9761 -23.9748 -23.9716 -23.9694 -23.9678
   -23.9559 -23.1167 -23.1116 -23.1043 -23.1041 -23.0999 -23.0766 -23.0739
   -23.0663 -23.0515 -23.0463 -23.0333 -23.0282 -23.0147 -23.0133 -23.0026
    13.0253  14.2009  14.3542  14.4741  15.0239  15.1339  15.1954  15.7007
    15.7596  15.9063  15.9383  16.0071  16.0561  16.0944  16.2303  16.2322
    16.3638  16.3924  16.4251  16.5230  16.7648  16.7705  16.8662  16.9000
    16.9883  16.9945  17.0679  17.0799  17.1210  17.1617  17.2289  17.3519
    17.3967  17.4203  17.4741  17.4891  17.5431  17.5500  17.5939  17.7311
    17.7774  17.7923  17.8050  17.8461  17.9475  17.9930  18.0846  18.8044
    19.1754  19.1797  19.2810  19.2818  19.4140  19.4518  19.4907  19.6986
    19.8050  19.9135  19.9828  20.1840  20.2265  20.3312  20.3376  20.5671
    20.5717  20.6018  20.6267  20.6277  20.6600  20.6767  20.7637  20.8021
    20.8551  20.9107

          k = 0.3321 0.3315-0.4982 (  9598 PWs)   bands (ev):

   -68.1769 -68.1702 -68.0555 -52.6735 -52.6709 -52.6605 -52.6586 -52.6585
   -52.6576 -52.6494 -52.6487 -51.7693 -51.7652 -51.7652 -51.7591 -51.7586
   -34.2469 -34.2343 -34.2308 -34.2305 -34.2247 -34.2247 -34.1202 -34.1094
   -34.1094 -24.1479 -24.1433 -24.1404 -24.1355 -24.1235 -24.1060 -24.0984
   -24.0966 -24.0718 -24.0571 -24.0557 -24.0297 -24.0278 -24.0241 -24.0233
   -24.0146 -23.9971 -23.9885 -23.9848 -23.9822 -23.9790 -23.9764 -23.9672
   -23.9663 -23.1105 -23.1082 -23.1055 -23.1042 -23.0764 -23.0756 -23.0706
   -23.0648 -23.0638 -23.0437 -23.0347 -23.0347 -23.0306 -23.0086 -23.0056
    13.5631  13.6785  14.6900  14.7456  14.7548  14.8827  15.6567  15.7370
    15.8395  15.9409  15.9999  16.0416  16.0784  16.2387  16.2540  16.2726
    16.2742  16.3467  16.5955  16.6943  16.7789  16.7869  16.8698  16.8931
    16.9262  16.9697  17.0415  17.0438  17.0706  17.1024  17.1137  17.1630
    17.2546  17.2739  17.3456  17.4520  17.4543  17.5408  17.5545  17.6024
    17.6456  17.6596  17.6694  17.6896  17.7452  17.7577  18.2746  18.2997
    19.2300  19.2585  19.2841  19.3223  19.4248  19.4990  19.6489  19.7318
    19.8996  19.9377  20.0731  20.2085  20.3272  20.4313  20.4538  20.5258
    20.5307  20.5828  20.5898  20.6257  20.6396  20.7059  20.7062  20.7232
    20.8241  20.8367

          k = 0.3321-0.4973-0.4982 (  9632 PWs)   bands (ev):

   -68.1770 -68.1703 -68.0556 -52.6686 -52.6651 -52.6646 -52.6644 -52.6554
   -52.6535 -52.6533 -52.6529 -51.7691 -51.7645 -51.7645 -51.7598 -51.7594
   -34.2448 -34.2343 -34.2307 -34.2303 -34.2250 -34.2248 -34.1224 -34.1095
   -34.1094 -24.1344 -24.1268 -24.1258 -24.1253 -24.1015 -24.1009 -24.0989
   -24.0688 -24.0660 -24.0624 -24.0529 -24.0318 -24.0317 -24.0300 -24.0289
   -24.0183 -24.0182 -24.0045 -24.0036 -23.9999 -23.9807 -23.9806 -23.9800
   -23.9744 -23.0994 -23.0967 -23.0951 -23.0951 -23.0816 -23.0747 -23.0686
   -23.0672 -23.0580 -23.0551 -23.0397 -23.0285 -23.0256 -23.0232 -23.0231
    14.0952  14.1072  14.1229  14.3273  15.2354  15.2597  15.2631  15.3976
    16.0149  16.0248  16.0884  16.2099  16.2425  16.2830  16.3077  16.4887
    16.5178  16.5586  16.5621  16.6797  16.7448  16.7465  16.7743  16.7922
    16.9196  16.9404  16.9462  16.9596  16.9719  17.0152  17.0169  17.0180
    17.1986  17.2005  17.2227  17.3976  17.4051  17.4363  17.4486  17.4638
    17.5685  17.5837  17.5919  17.6113  17.7662  17.7759  17.8314  17.8362
    19.3168  19.3397  19.3535  19.3574  19.4152  19.4463  19.8272  19.8727
    20.0047  20.0903  20.1140  20.1412  20.2013  20.4531  20.4766  20.5604
    20.6778  20.6947  20.6976  20.7426  20.7652  20.7688  20.7741  20.7936
    20.8575  20.8601

          k =-0.4982-0.4973-0.4982 (  9568 PWs)   bands (ev):

   -68.1769 -68.1702 -68.0555 -52.6623 -52.6618 -52.6618 -52.6611 -52.6611
   -52.6568 -52.6568 -52.6562 -51.7687 -51.7645 -51.7645 -51.7598 -51.7598
   -34.2447 -34.2339 -34.2306 -34.2306 -34.2248 -34.2248 -34.1224 -34.1094
   -34.1094 -24.0936 -24.0929 -24.0929 -24.0852 -24.0821 -24.0816 -24.0797
   -24.0731 -24.0731 -24.0721 -24.0673 -24.0661 -24.0661 -24.0660 -24.0536
   -24.0080 -24.0074 -24.0074 -24.0031 -24.0003 -23.9969 -23.9969 -23.9951
   -23.9951 -23.0869 -23.0814 -23.0718 -23.0718 -23.0712 -23.0707 -23.0602
   -23.0556 -23.0521 -23.0521 -23.0513 -23.0488 -23.0488 -23.0487 -23.0485
    14.4896  14.4949  14.5357  14.8341  14.8341  14.8633  14.8633  14.8702
    16.2019  16.2505  16.2722  16.2753  16.2756  16.3559  16.6553  16.6592
    16.6592  16.6703  16.6703  16.7563  16.7563  16.7732  16.7732  16.7959
    16.8584  16.8906  16.9191  16.9280  16.9280  16.9443  16.9443  16.9902
    16.9902  17.3449  17.3519  17.3537  17.3617  17.3693  17.3693  17.3748
    17.3756  17.3765  17.3765  17.3828  17.3846  17.3961  17.4148  17.4148
    19.3568  19.3866  19.3886  19.4030  19.4467  19.4733  20.0707  20.0707
    20.1472  20.1700  20.1700  20.2046  20.2378  20.3108  20.3108  20.6931
    20.6931  20.6957  20.7944  20.7944  20.8164  20.8164  20.8214  20.8259
    20.8259  20.9861

          k = 0.0000 0.1658 0.0000 (  9595 PWs)   bands (ev):

   -68.1770 -68.1702 -68.0555 -52.7011 -52.6684 -52.6644 -52.6644 -52.6495
   -52.6495 -52.6469 -52.6327 -51.7751 -51.7734 -51.7589 -51.7580 -51.7528
   -34.2512 -34.2338 -34.2314 -34.2314 -34.2245 -34.2245 -34.1160 -34.1096
   -34.1096 -24.2724 -24.2325 -24.2325 -24.1766 -24.1766 -24.1521 -24.1140
   -24.1082 -24.0939 -24.0836 -24.0836 -24.0592 -23.9997 -23.9820 -23.9820
   -23.9437 -23.9437 -23.9256 -23.9256 -23.9244 -23.9202 -23.9166 -23.9064
   -23.9022 -23.2013 -23.1641 -23.1641 -23.1233 -23.1233 -23.0786 -23.0414
   -23.0398 -23.0398 -23.0284 -23.0284 -23.0039 -22.9959 -22.9863 -22.9863
    11.5021  14.4453  14.7349  14.8085  14.8472  15.0064  15.0064  15.0362
    15.0724  15.0742  15.2245  15.3107  15.3107  15.4267  15.6944  16.6213
    16.6343  16.6499  16.6537  16.6537  16.7245  16.7245  16.8693  16.8864
    16.8864  16.8987  17.0600  17.1971  17.1971  17.3532  17.3532  17.5401
    17.9218  17.9985  18.1927  18.1927  18.3782  18.3782  18.4017  18.5486
    18.5486  18.6321  18.7570  18.8901  18.8901  18.9030  18.9098  19.0442
    19.2971  19.2971  19.3372  19.4257  19.5569  19.5569  19.8191  19.8622
    19.8622  20.0012  20.0386  20.0815  20.1676  20.2214  20.2214  20.3293
    20.3825  20.4660  20.4660  20.6134  20.6524  20.6586  20.7090  20.7102
    20.7868  20.9411

          k = 0.0000 0.3315 0.0000 (  9606 PWs)   bands (ev):

   -68.1770 -68.1702 -68.0555 -52.6945 -52.6751 -52.6613 -52.6613 -52.6526
   -52.6526 -52.6439 -52.6357 -51.7720 -51.7718 -51.7620 -51.7592 -51.7530
   -34.2471 -34.2339 -34.2310 -34.2310 -34.2248 -34.2248 -34.1202 -34.1096
   -34.1096 -24.2396 -24.2028 -24.2028 -24.1609 -24.1481 -24.1400 -24.1400
   -24.1074 -24.1074 -24.0996 -24.0741 -24.0296 -24.0201 -24.0032 -24.0032
   -23.9684 -23.9684 -23.9477 -23.9389 -23.9389 -23.9213 -23.9135 -23.9124
   -23.9052 -23.1585 -23.1314 -23.1314 -23.0959 -23.0959 -23.0802 -23.0526
   -23.0526 -23.0413 -23.0413 -23.0379 -23.0331 -23.0112 -23.0043 -23.0043
    11.9448  13.5208  14.8866  15.0056  15.0974  15.1408  15.1408  15.2450
    15.2476  15.3587  15.3713  15.3713  15.3962  15.4133  15.7178  16.0991
    16.2190  16.4117  16.5922  16.5922  16.6969  16.6969  16.8642  16.9000
    17.0924  17.0924  17.3158  17.3475  17.3475  17.6329  17.6329  17.6685
    17.6983  17.9099  17.9099  17.9441  18.2466  18.2466  18.2673  18.4167
    18.4247  18.4247  18.4710  18.6013  18.6013  18.8736  18.9171  19.0465
    19.0776  19.0776  19.0823  19.2609  19.2609  19.2891  19.3709  19.7200
    19.7200  19.8904  19.9334  20.0978  20.0978  20.2574  20.3445  20.5360
    20.5360  20.6624  20.6693  20.6986  20.7957  20.7957  20.8305  20.8882
    20.8966  20.9973

          k = 0.0000-0.4973 0.0000 (  9626 PWs)   bands (ev):

   -68.1770 -68.1703 -68.0556 -52.6878 -52.6820 -52.6572 -52.6572 -52.6567
   -52.6567 -52.6401 -52.6395 -51.7708 -51.7693 -51.7647 -51.7600 -51.7530
   -34.2448 -34.2341 -34.2308 -34.2308 -34.2251 -34.2251 -34.1224 -34.1096
   -34.1096 -24.1950 -24.1933 -24.1786 -24.1786 -24.1643 -24.1365 -24.1365
   -24.0963 -24.0866 -24.0866 -24.0563 -24.0563 -24.0474 -24.0470 -23.9909
   -23.9862 -23.9630 -23.9630 -23.9481 -23.9481 -23.9174 -23.9168 -23.9096
   -23.9091 -23.1021 -23.1020 -23.1020 -23.1020 -23.0804 -23.0804 -23.0731
   -23.0662 -23.0662 -23.0540 -23.0540 -23.0245 -23.0193 -23.0150 -23.0150
    12.5994  12.6855  15.0255  15.1882  15.2061  15.2375  15.2986  15.2986
    15.3009  15.3009  15.4303  15.4989  15.5638  15.6883  15.7214  15.7636
    15.8727  15.9332  16.5795  16.5795  16.6775  16.6775  17.0478  17.1105
    17.3754  17.3754  17.3799  17.4502  17.4717  17.4717  17.7106  17.7423
    17.8065  17.8065  17.8168  17.8168  17.9956  17.9956  18.1997  18.2042
    18.2401  18.2401  18.4828  18.4828  18.5346  18.5346  18.6182  18.7407
    18.8026  18.8059  18.9507  19.3868  19.5037  19.5037  19.5975  19.7538
    19.8049  19.8049  19.9135  20.2421  20.2421  20.3162  20.3915  20.4637
    20.5303  20.5303  20.6384  20.6607  20.6831  20.6848  20.9190  20.9846
    21.0417  21.0449

          k = 0.1661 0.0000 0.1661 (  9557 PWs)   bands (ev):

   -68.1770 -68.1702 -68.0554 -52.6987 -52.6678 -52.6659 -52.6636 -52.6504
   -52.6484 -52.6484 -52.6339 -51.7738 -51.7731 -51.7596 -51.7578 -51.7537
   -34.2531 -34.2340 -34.2316 -34.2310 -34.2247 -34.2243 -34.1141 -34.1095
   -34.1094 -24.2525 -24.2269 -24.2255 -24.1730 -24.1707 -24.1331 -24.1230
   -24.1110 -24.1019 -24.0828 -24.0786 -24.0635 -23.9954 -23.9845 -23.9827
   -23.9523 -23.9504 -23.9400 -23.9350 -23.9255 -23.9246 -23.9204 -23.9141
   -23.9048 -23.1811 -23.1663 -23.1529 -23.1128 -23.1110 -23.0762 -23.0475
   -23.0429 -23.0367 -23.0365 -23.0225 -23.0219 -23.0124 -22.9879 -22.9806
    11.6520  14.4098  14.6516  14.7921  14.8520  14.9614  15.0495  15.1272
    15.1291  15.1312  15.1542  15.3610  15.3686  15.7071  15.7773  16.4770
    16.5716  16.6079  16.6593  16.7058  16.7708  16.7882  16.8096  16.8259
    16.9741  17.0065  17.0141  17.1022  17.1818  17.2104  17.3162  17.6469
    17.9181  17.9581  18.1223  18.1711  18.3445  18.3649  18.4024  18.5242
    18.5377  18.5449  18.6179  18.7906  18.7954  18.9521  18.9609  18.9707
    19.1747  19.1799  19.2272  19.2667  19.4388  19.5524  19.5986  19.6856
    19.7335  19.7540  20.0249  20.0728  20.1108  20.1790  20.2835  20.3071
    20.3939  20.4479  20.5226  20.6158  20.6772  20.7097  20.7147  20.8480
    20.8900  20.9547

          k = 0.1661 0.3315 0.0000 (  9577 PWs)   bands (ev):

   -68.1769 -68.1702 -68.0555 -52.6924 -52.6737 -52.6635 -52.6601 -52.6542
   -52.6515 -52.6451 -52.6368 -51.7715 -51.7711 -51.7616 -51.7600 -51.7537
   -34.2470 -34.2342 -34.2310 -34.2307 -34.2249 -34.2248 -34.1202 -34.1096
   -34.1095 -24.2327 -24.1972 -24.1900 -24.1547 -24.1488 -24.1363 -24.1319
   -24.1214 -24.0981 -24.0954 -24.0701 -24.0345 -24.0193 -24.0035 -23.9996
   -23.9734 -23.9669 -23.9524 -23.9500 -23.9365 -23.9323 -23.9218 -23.9202
   -23.9099 -23.1619 -23.1286 -23.1244 -23.0906 -23.0886 -23.0796 -23.0665
   -23.0609 -23.0555 -23.0421 -23.0388 -23.0221 -23.0075 -23.0050 -22.9959
    12.0864  13.6231  14.6600  14.8304  15.0788  15.1648  15.2628  15.2649
    15.3306  15.3892  15.4509  15.4628  15.4670  15.7177  15.7811  16.1377
    16.2160  16.3674  16.6312  16.6892  16.6928  16.7379  16.7680  16.8876
    17.0278  17.1311  17.2139  17.2366  17.3838  17.4213  17.4861  17.6709
    17.7064  17.8119  17.9963  18.0555  18.0996  18.1377  18.1602  18.1774
    18.3272  18.3712  18.4515  18.6323  18.6788  18.7794  18.8570  18.9013
    19.0007  19.1236  19.1578  19.1999  19.2934  19.3402  19.3898  19.4989
    19.6094  19.7612  19.8887  19.9946  20.0788  20.1595  20.4171  20.5301
    20.5346  20.5769  20.6325  20.6656  20.7515  20.7644  20.8266  20.8388
    20.8571  20.9220

          k = 0.3321 0.0000 0.1661 (  9577 PWs)   bands (ev):

   -68.1770 -68.1702 -68.0554 -52.6923 -52.6737 -52.6632 -52.6604 -52.6538
   -52.6516 -52.6453 -52.6369 -51.7720 -51.7706 -51.7625 -51.7577 -51.7549
   -34.2530 -34.2341 -34.2313 -34.2308 -34.2250 -34.2244 -34.1141 -34.1095
   -34.1094 -24.2112 -24.2106 -24.2009 -24.1581 -24.1447 -24.1369 -24.1292
   -24.1231 -24.1017 -24.0943 -24.0762 -24.0372 -24.0138 -23.9997 -23.9959
   -23.9746 -23.9707 -23.9510 -23.9490 -23.9395 -23.9335 -23.9230 -23.9179
   -23.9085 -23.1469 -23.1405 -23.1360 -23.0883 -23.0861 -23.0742 -23.0725
   -23.0596 -23.0505 -23.0387 -23.0322 -23.0259 -23.0250 -22.9977 -22.9899
    12.0875  13.6212  14.6958  14.8299  15.0393  15.2109  15.2365  15.2608
    15.3629  15.3681  15.4346  15.4567  15.4689  15.6785  15.8237  16.1766
    16.2046  16.3870  16.6187  16.7086  16.7155  16.7846  16.8459  16.9747
    17.0762  17.0832  17.1188  17.2182  17.2497  17.4138  17.5076  17.6871
    17.7002  17.9784  18.0095  18.0431  18.0501  18.0709  18.1604  18.1810
    18.2473  18.3372  18.4096  18.6040  18.6604  18.6997  18.7823  18.8144
    19.0184  19.1124  19.1663  19.2087  19.2784  19.3487  19.5154  19.5406
    19.6417  19.9353  19.9627  19.9873  20.0805  20.2794  20.3325  20.4402
    20.4734  20.4876  20.5374  20.5970  20.6635  20.7599  20.7765  20.8044
    20.8608  20.9425

          k = 0.1661-0.4973 0.0000 (  9608 PWs)   bands (ev):

   -68.1770 -68.1702 -68.0555 -52.6858 -52.6803 -52.6593 -52.6584 -52.6561
   -52.6555 -52.6412 -52.6407 -51.7706 -51.7686 -51.7640 -51.7606 -51.7538
   -34.2449 -34.2344 -34.2308 -34.2304 -34.2251 -34.2249 -34.1224 -34.1096
   -34.1096 -24.1941 -24.1928 -24.1744 -24.1674 -24.1561 -24.1450 -24.1237
   -24.0984 -24.0828 -24.0814 -24.0539 -24.0524 -24.0423 -24.0405 -23.9954
   -23.9907 -23.9694 -23.9605 -23.9590 -23.9445 -23.9280 -23.9269 -23.9159
   -23.9148 -23.1186 -23.1157 -23.1005 -23.1005 -23.0941 -23.0779 -23.0760
   -23.0697 -23.0641 -23.0548 -23.0350 -23.0161 -23.0157 -23.0098 -23.0093
    12.7256  12.8128  14.7422  14.8492  15.2362  15.3285  15.4167  15.4180
    15.4866  15.5100  15.5116  15.5898  15.6214  15.7523  15.7763  15.8248
    15.9115  15.9676  16.6214  16.6366  16.7068  16.7378  16.8884  17.0440
    17.1516  17.2647  17.3569  17.3918  17.4114  17.4432  17.6661  17.6842
    17.7815  17.7897  17.8255  17.8319  17.8593  17.9107  18.0724  18.0895
    18.1697  18.2421  18.2441  18.2613  18.3682  18.4144  18.8975  18.9042
    18.9310  18.9990  19.0311  19.3664  19.3764  19.5348  19.5521  19.5822
    19.6887  19.7667  19.8705  19.9866  20.0325  20.1107  20.4222  20.4707
    20.4799  20.5063  20.6481  20.6879  20.7016  20.7149  20.8373  20.9241
    20.9510  20.9970

          k =-0.4982 0.0000 0.1661 (  9608 PWs)   bands (ev):

   -68.1770 -68.1702 -68.0555 -52.6853 -52.6808 -52.6589 -52.6581 -52.6561
   -52.6558 -52.6413 -52.6410 -51.7714 -51.7668 -51.7662 -51.7576 -51.7556
   -34.2529 -34.2342 -34.2310 -34.2309 -34.2248 -34.2247 -34.1142 -34.1095
   -34.1094 -24.1967 -24.1813 -24.1607 -24.1603 -24.1585 -24.1536 -24.1361
   -24.1239 -24.0894 -24.0742 -24.0742 -24.0377 -24.0354 -24.0282 -23.9957
   -23.9902 -23.9697 -23.9579 -23.9545 -23.9533 -23.9300 -23.9279 -23.9138
   -23.9129 -23.1215 -23.1117 -23.1025 -23.0988 -23.0926 -23.0923 -23.0731
   -23.0672 -23.0657 -23.0408 -23.0385 -23.0187 -23.0133 -23.0105 -23.0053
    12.7189  12.8231  14.7734  14.8491  15.1878  15.3334  15.4104  15.4111
    15.4125  15.5066  15.5960  15.6298  15.6997  15.7113  15.7638  15.7972
    15.9088  15.9872  16.6073  16.6893  16.7034  16.7506  17.1624  17.1696
    17.2058  17.2381  17.3040  17.3114  17.3705  17.4310  17.6029  17.6462
    17.6848  17.7246  17.8122  17.8242  17.9518  17.9645  18.0679  18.0699
    18.1005  18.1376  18.1852  18.2422  18.2500  18.3330  18.8812  18.9116
    18.9459  18.9957  19.0056  19.3790  19.5105  19.5253  19.6646  19.6803
    19.6835  19.7758  19.8214  20.0038  20.0490  20.3533  20.3553  20.3665
    20.4319  20.4462  20.4926  20.6524  20.6890  20.6982  20.7422  20.8524
    20.9891  20.9963

          k = 0.3321 0.0000 0.3321 (  9582 PWs)   bands (ev):

   -68.1770 -68.1702 -68.0554 -52.6865 -52.6721 -52.6668 -52.6577 -52.6572
   -52.6485 -52.6485 -52.6400 -51.7706 -51.7690 -51.7641 -51.7577 -51.7561
   -34.2529 -34.2341 -34.2315 -34.2309 -34.2247 -34.2241 -34.1141 -34.1094
   -34.1094 -24.2009 -24.1877 -24.1741 -24.1656 -24.1401 -24.1392 -24.1264
   -24.1103 -24.0875 -24.0850 -24.0650 -24.0360 -24.0193 -23.9993 -23.9950
   -23.9880 -23.9774 -23.9624 -23.9606 -23.9581 -23.9542 -23.9413 -23.9216
   -23.9133 -23.1495 -23.1370 -23.1171 -23.1022 -23.0983 -23.0719 -23.0712
   -23.0692 -23.0659 -23.0350 -23.0215 -23.0205 -23.0133 -23.0041 -22.9833
    12.4959  13.7862  14.0393  14.5972  15.2812  15.3614  15.4443  15.5486
    15.5734  15.6094  15.6156  15.6181  15.6553  15.7008  15.9310  16.1567
    16.2854  16.3311  16.5247  16.6510  16.7419  16.7559  16.9154  16.9200
    16.9554  16.9912  17.1214  17.1944  17.2737  17.3303  17.3919  17.5066
    17.6656  17.7207  17.8325  17.8658  17.8916  17.9006  18.0117  18.0533
    18.0682  18.1349  18.2469  18.2668  18.4186  18.4311  18.9361  18.9764
    19.0173  19.0871  19.1281  19.1380  19.3307  19.3497  19.4106  19.5099
    19.6761  19.7382  19.8067  19.9200  19.9928  20.1533  20.3522  20.3529
    20.3891  20.4874  20.5322  20.5526  20.5682  20.6212  20.7223  20.8035
    20.8071  20.8696

          k = 0.3321-0.4973 0.0000 (  9578 PWs)   bands (ev):

   -68.1769 -68.1702 -68.0555 -52.6805 -52.6757 -52.6646 -52.6631 -52.6530
   -52.6524 -52.6444 -52.6438 -51.7703 -51.7669 -51.7623 -51.7621 -51.7560
   -34.2449 -34.2348 -34.2308 -34.2298 -34.2250 -34.2247 -34.1224 -34.1095
   -34.1095 -24.1884 -24.1876 -24.1737 -24.1623 -24.1417 -24.1340 -24.1114
   -24.0907 -24.0677 -24.0588 -24.0492 -24.0420 -24.0332 -24.0300 -24.0040
   -23.9994 -23.9883 -23.9864 -23.9644 -23.9615 -23.9530 -23.9367 -23.9227
   -23.9203 -23.1321 -23.1317 -23.1177 -23.1173 -23.0976 -23.0755 -23.0723
   -23.0697 -23.0597 -23.0572 -23.0183 -23.0118 -23.0034 -22.9994 -22.9978
    13.0841  13.1725  14.2075  14.3189  15.5037  15.5416  15.5894  15.6678
    15.6717  15.7151  15.7232  15.7822  15.7868  15.8683  15.9428  16.0042
    16.0242  16.0429  16.5659  16.6743  16.7536  16.7589  16.8530  16.8817
    16.9296  17.0673  17.0844  17.0959  17.3266  17.4006  17.4145  17.4335
    17.6221  17.6401  17.6552  17.7137  17.7419  17.7794  17.8192  17.9009
    18.1772  18.1844  18.1852  18.1929  18.1943  18.2240  19.0848  19.0917
    19.1562  19.2385  19.2428  19.2653  19.3058  19.3166  19.3373  19.3611
    19.4858  19.6608  19.7020  19.7981  19.8452  20.1792  20.1940  20.4537
    20.4610  20.5109  20.5577  20.6028  20.6831  20.6846  20.6860  20.7602
    20.7603  20.8615

          k =-0.4982 0.0000 0.3321 (  9578 PWs)   bands (ev):

   -68.1770 -68.1702 -68.0554 -52.6800 -52.6771 -52.6644 -52.6618 -52.6530
   -52.6527 -52.6444 -52.6441 -51.7699 -51.7668 -51.7664 -51.7576 -51.7569
   -34.2529 -34.2341 -34.2313 -34.2312 -34.2244 -34.2243 -34.1140 -34.1094
   -34.1094 -24.1882 -24.1856 -24.1626 -24.1616 -24.1322 -24.1293 -24.1292
   -24.1278 -24.0784 -24.0583 -24.0515 -24.0317 -24.0209 -24.0198 -24.0038
   -23.9926 -23.9875 -23.9849 -23.9653 -23.9613 -23.9520 -23.9498 -23.9206
   -23.9165 -23.1343 -23.1300 -23.1274 -23.1214 -23.0896 -23.0895 -23.0696
   -23.0669 -23.0661 -23.0279 -23.0250 -23.0129 -23.0119 -22.9958 -22.9895
    13.0680  13.1836  14.2487  14.3199  15.4244  15.4909  15.5520  15.6529
    15.7036  15.7145  15.8109  15.8159  15.8397  15.8672  15.9111  16.0101
    16.0272  16.0802  16.6616  16.6969  16.7788  16.8211  16.8506  16.8665
    16.9202  17.0881  17.0999  17.1052  17.2391  17.2718  17.4150  17.4331
    17.5586  17.6228  17.7512  17.7825  17.8068  17.8091  17.8124  17.9798
    18.0175  18.0830  18.1070  18.1191  18.1784  18.1869  19.0318  19.0779
    19.0979  19.2312  19.2393  19.2568  19.2650  19.3054  19.3082  19.3238
    19.5724  19.7535  19.7935  19.8563  20.0715  20.1263  20.2767  20.3932
    20.4057  20.4411  20.5170  20.6009  20.6076  20.6179  20.6649  20.6700
    20.6822  20.8541

          k =-0.4982 0.0000-0.4982 (  9580 PWs)   bands (ev):

   -68.1770 -68.1702 -68.0554 -52.6743 -52.6743 -52.6701 -52.6647 -52.6489
   -52.6486 -52.6486 -52.6483 -51.7687 -51.7667 -51.7667 -51.7576 -51.7576
   -34.2529 -34.2341 -34.2314 -34.2314 -34.2241 -34.2241 -34.1140 -34.1093
   -34.1093 -24.1882 -24.1882 -24.1595 -24.1570 -24.1316 -24.1316 -24.1143
   -24.1143 -24.0699 -24.0299 -24.0299 -24.0257 -24.0245 -24.0089 -24.0089
   -24.0022 -24.0022 -23.9954 -23.9948 -23.9929 -23.9484 -23.9484 -23.9247
   -23.9183 -23.1435 -23.1392 -23.1334 -23.1289 -23.0882 -23.0882 -23.0679
   -23.0664 -23.0664 -23.0241 -23.0197 -23.0128 -23.0128 -22.9870 -22.9828
    13.4516  13.6434  13.7997  13.7997  15.4893  15.6078  15.6106  15.8104
    15.8933  15.8933  15.9107  15.9107  15.9703  15.9703  16.1202  16.1373
    16.1552  16.2171  16.4810  16.5816  16.5816  16.6995  16.6995  16.8298
    16.8770  16.8770  17.1320  17.1502  17.1763  17.2651  17.2696  17.2696
    17.4339  17.5151  17.5846  17.5846  17.6598  17.6770  17.6911  17.9285
    18.0117  18.0117  18.1541  18.1541  18.3826  18.3826  18.9047  18.9207
    19.0835  19.0961  19.1015  19.1914  19.2075  19.2538  19.4786  19.4786
    19.5657  19.7585  19.8742  19.8742  19.9824  19.9824  20.3772  20.3772
    20.4115  20.4136  20.4212  20.4439  20.5735  20.5735  20.6130  20.6130
    20.6984  20.7510

          k = 0.1661 0.3315 0.1661 (  9577 PWs)   bands (ev):

   -68.1769 -68.1702 -68.0555 -52.6903 -52.6722 -52.6629 -52.6616 -52.6532
   -52.6528 -52.6463 -52.6380 -51.7712 -51.7702 -51.7613 -51.7606 -51.7544
   -34.2470 -34.2343 -34.2310 -34.2305 -34.2249 -34.2248 -34.1202 -34.1095
   -34.1095 -24.2236 -24.1862 -24.1836 -24.1500 -24.1459 -24.1350 -24.1257
   -24.1222 -24.0949 -24.0937 -24.0663 -24.0405 -24.0164 -24.0009 -24.0006
   -23.9763 -23.9677 -23.9548 -23.9501 -23.9496 -23.9367 -23.9347 -23.9245
   -23.9223 -23.1570 -23.1226 -23.1221 -23.0940 -23.0845 -23.0795 -23.0751
   -23.0711 -23.0487 -23.0485 -23.0334 -23.0170 -23.0074 -23.0054 -22.9978
    12.2270  13.7291  14.6721  14.8888  14.9151  15.0113  15.2159  15.3477
    15.3955  15.4313  15.4527  15.5490  15.7833  15.8412  15.8808  16.1641
    16.2148  16.4190  16.5429  16.6388  16.7545  16.7954  16.8223  16.9097
    16.9761  17.0603  17.1336  17.2631  17.3389  17.3627  17.3660  17.5833
    17.6464  17.7443  17.9860  17.9882  17.9961  18.0399  18.0434  18.1541
    18.1820  18.2327  18.2973  18.4614  18.5349  18.7183  18.8460  18.9355
    18.9643  19.0513  19.0864  19.2109  19.3222  19.3788  19.4745  19.5534
    19.6177  19.7786  19.8577  19.9463  20.0013  20.1581  20.4509  20.4690
    20.4935  20.5366  20.6245  20.6431  20.6905  20.7814  20.7940  20.8447
    20.8551  20.8934

          k = 0.1661-0.4973 0.1661 (  9588 PWs)   bands (ev):

   -68.1769 -68.1702 -68.0555 -52.6839 -52.6787 -52.6584 -52.6578 -52.6577
   -52.6566 -52.6425 -52.6418 -51.7704 -51.7681 -51.7635 -51.7611 -51.7546
   -34.2449 -34.2345 -34.2308 -34.2303 -34.2250 -34.2249 -34.1224 -34.1096
   -34.1095 -24.1906 -24.1874 -24.1652 -24.1610 -24.1490 -24.1371 -24.1260
   -24.1003 -24.0841 -24.0716 -24.0608 -24.0397 -24.0392 -24.0361 -23.9999
   -23.9947 -23.9731 -23.9629 -23.9585 -23.9545 -23.9313 -23.9306 -23.9298
   -23.9289 -23.1222 -23.1202 -23.1061 -23.0968 -23.0910 -23.0827 -23.0762
   -23.0728 -23.0595 -23.0547 -23.0282 -23.0229 -23.0095 -23.0069 -23.0066
    12.8526  12.9409  14.7792  14.9258  14.9885  15.0204  15.5624  15.5899
    15.5913  15.6139  15.6514  15.6755  15.7048  15.8211  15.8305  15.8771
    15.9580  16.0093  16.6353  16.7029  16.7282  16.7903  16.7968  17.0189
    17.0828  17.2136  17.2360  17.3042  17.4289  17.4341  17.5412  17.5571
    17.6944  17.7122  17.7252  17.7988  17.8141  17.8728  17.9433  17.9704
    18.0071  18.1109  18.1536  18.1715  18.1956  18.2404  18.9954  18.9982
    19.0928  19.1391  19.1918  19.3274  19.3420  19.3879  19.4362  19.5259
    19.5919  19.6368  19.8441  19.8657  20.0385  20.2032  20.4516  20.4574
    20.4973  20.4980  20.6859  20.6918  20.7202  20.7793  20.7992  20.8331
    20.9007  20.9570

          k = 0.3321 0.1658 0.3321 (  9595 PWs)   bands (ev):

   -68.1770 -68.1702 -68.0555 -52.6846 -52.6706 -52.6656 -52.6591 -52.6566
   -52.6501 -52.6497 -52.6412 -51.7703 -51.7684 -51.7640 -51.7583 -51.7565
   -34.2510 -34.2342 -34.2313 -34.2307 -34.2248 -34.2244 -34.1161 -34.1094
   -34.1094 -24.1856 -24.1822 -24.1695 -24.1581 -24.1389 -24.1239 -24.1200
   -24.1088 -24.0897 -24.0799 -24.0604 -24.0452 -24.0157 -24.0005 -23.9980
   -23.9929 -23.9773 -23.9677 -23.9642 -23.9604 -23.9599 -23.9494 -23.9401
   -23.9275 -23.1388 -23.1262 -23.1174 -23.1045 -23.0996 -23.0726 -23.0720
   -23.0692 -23.0538 -23.0363 -23.0337 -23.0276 -23.0069 -23.0046 -22.9912
    12.6325  13.9016  14.1567  14.7299  15.0112  15.2605  15.3676  15.4492
    15.6222  15.7132  15.7165  15.7245  15.7855  16.0136  16.0231  16.2000
    16.2996  16.4113  16.4956  16.5725  16.7668  16.8202  16.8232  16.9545
    16.9844  17.0210  17.0611  17.1059  17.2355  17.3161  17.3369  17.4781
    17.5094  17.6095  17.7027  17.7396  17.7514  17.7967  17.8636  17.9343
    18.0068  18.0410  18.0454  18.1502  18.1735  18.3120  18.5631  19.0273
    19.0956  19.1651  19.1925  19.2760  19.3112  19.3671  19.4358  19.5530
    19.5812  19.7815  19.8927  20.0332  20.1397  20.2640  20.3336  20.4549
    20.4791  20.5179  20.5204  20.5782  20.6251  20.6340  20.7349  20.7521
    20.8099  20.8353

          k = 0.3321-0.4973 0.1661 (  9574 PWs)   bands (ev):

   -68.1769 -68.1702 -68.0555 -52.6787 -52.6742 -52.6633 -52.6619 -52.6547
   -52.6538 -52.6457 -52.6451 -51.7701 -51.7666 -51.7626 -51.7618 -51.7565
   -34.2449 -34.2347 -34.2307 -34.2300 -34.2250 -34.2248 -34.1224 -34.1095
   -34.1095 -24.1795 -24.1764 -24.1602 -24.1489 -24.1358 -24.1283 -24.1076
   -24.0954 -24.0722 -24.0596 -24.0543 -24.0326 -24.0310 -24.0238 -24.0100
   -24.0033 -23.9898 -23.9858 -23.9687 -23.9670 -23.9625 -23.9506 -23.9382
   -23.9352 -23.1258 -23.1254 -23.1116 -23.1099 -23.0921 -23.0795 -23.0702
   -23.0699 -23.0598 -23.0561 -23.0247 -23.0154 -23.0071 -23.0033 -23.0024
    13.2132  13.3024  14.3321  14.4477  15.2322  15.3002  15.6686  15.6900
    15.7601  15.8100  15.8280  15.9206  15.9230  15.9465  15.9566  16.0735
    16.1022  16.1379  16.5460  16.6891  16.7640  16.7831  16.8743  16.8839
    16.9408  17.0716  17.0755  17.0894  17.2624  17.2888  17.3295  17.3349
    17.4555  17.5072  17.5164  17.6172  17.6768  17.7041  17.7557  17.7934
    17.9645  17.9651  18.0081  18.0192  18.0266  18.0436  18.8728  18.8774
    19.1627  19.1686  19.2474  19.2609  19.3015  19.3775  19.4741  19.4782
    19.6568  19.8148  19.8214  19.9042  20.0036  20.2551  20.3773  20.4673
    20.5044  20.5385  20.6323  20.6544  20.6659  20.7181  20.7429  20.8137
    20.8218  20.8661

          k =-0.4982 0.1658 0.3321 (  9574 PWs)   bands (ev):

   -68.1769 -68.1702 -68.0554 -52.6782 -52.6754 -52.6631 -52.6607 -52.6547
   -52.6543 -52.6458 -52.6454 -51.7696 -51.7663 -51.7661 -51.7581 -51.7574
   -34.2509 -34.2342 -34.2311 -34.2310 -34.2245 -34.2244 -34.1161 -34.1094
   -34.1094 -24.1761 -24.1724 -24.1565 -24.1537 -24.1359 -24.1276 -24.1147
   -24.1118 -24.0794 -24.0557 -24.0516 -24.0311 -24.0281 -24.0190 -24.0090
   -23.9989 -23.9908 -23.9850 -23.9713 -23.9661 -23.9578 -23.9566 -23.9368
   -23.9339 -23.1272 -23.1235 -23.1208 -23.1163 -23.0852 -23.0835 -23.0702
   -23.0668 -23.0661 -23.0310 -23.0276 -23.0226 -23.0193 -22.9979 -22.9929
    13.1968  13.3132  14.3794  14.4489  15.1817  15.3027  15.5738  15.6900
    15.7711  15.8435  15.8946  15.9107  15.9444  15.9596  15.9702  16.0784
    16.0875  16.1501  16.6805  16.7149  16.7911  16.8280  16.8439  16.8644
    16.9017  17.0701  17.1146  17.1146  17.1908  17.2199  17.3211  17.3214
    17.3878  17.4590  17.6206  17.6922  17.6951  17.7076  17.7552  17.8233
    17.8669  17.8990  17.9218  17.9365  18.0655  18.0723  18.8081  18.8529
    19.1121  19.1594  19.1616  19.2828  19.3297  19.4006  19.4722  19.5788
    19.6438  19.8044  19.8472  19.9935  20.2356  20.2965  20.3140  20.4147
    20.4288  20.4396  20.5402  20.6204  20.6272  20.6774  20.6898  20.7681
    20.8295  20.8453

          k =-0.4982 0.1658-0.4982 (  9588 PWs)   bands (ev):

   -68.1770 -68.1702 -68.0555 -52.6726 -52.6726 -52.6688 -52.6636 -52.6503
   -52.6503 -52.6502 -52.6494 -51.7687 -51.7663 -51.7663 -51.7581 -51.7581
   -34.2510 -34.2341 -34.2312 -34.2312 -34.2243 -34.2243 -34.1161 -34.1094
   -34.1094 -24.1729 -24.1721 -24.1501 -24.1475 -24.1273 -24.1273 -24.1037
   -24.1037 -24.0730 -24.0277 -24.0277 -24.0233 -24.0231 -24.0184 -24.0184
   -24.0080 -24.0056 -24.0026 -24.0026 -23.9966 -23.9548 -23.9548 -23.9431
   -23.9380 -23.1333 -23.1297 -23.1219 -23.1173 -23.0847 -23.0847 -23.0683
   -23.0655 -23.0655 -23.0303 -23.0255 -23.0186 -23.0186 -22.9956 -22.9914
    13.5810  13.7728  13.9338  13.9338  15.4574  15.6041  15.6334  15.7144
    15.7144  15.7542  16.0130  16.0130  16.1597  16.1916  16.1916  16.2299
    16.2332  16.2935  16.4631  16.5978  16.5978  16.7047  16.7047  16.8242
    16.8904  16.8904  17.0663  17.1570  17.1635  17.1729  17.2305  17.2305
    17.2673  17.3606  17.4265  17.4265  17.5519  17.6317  17.6439  17.7899
    17.8541  17.8541  17.8969  17.8969  18.2296  18.2296  18.4587  18.4737
    19.1541  19.1894  19.2290  19.2871  19.3620  19.5043  19.5597  19.5801
    19.5801  19.8909  19.9280  19.9280  20.2851  20.2851  20.4376  20.4376
    20.4761  20.4976  20.5945  20.5945  20.6130  20.6130  20.6205  20.6219
    20.7092  20.7487

          k = 0.3321-0.4973 0.3321 (  9598 PWs)   bands (ev):

   -68.1769 -68.1702 -68.0555 -52.6739 -52.6701 -52.6607 -52.6600 -52.6587
   -52.6565 -52.6494 -52.6485 -51.7694 -51.7657 -51.7634 -51.7610 -51.7579
   -34.2448 -34.2345 -34.2307 -34.2302 -34.2249 -34.2248 -34.1224 -34.1095
   -34.1095 -24.1561 -24.1500 -24.1258 -24.1243 -24.1194 -24.1117 -24.1017
   -24.1000 -24.0704 -24.0660 -24.0576 -24.0258 -24.0250 -24.0247 -24.0124
   -24.0099 -23.9972 -23.9917 -23.9880 -23.9851 -23.9830 -23.9808 -23.9674
   -23.9622 -23.1116 -23.1102 -23.0986 -23.0936 -23.0850 -23.0810 -23.0692
   -23.0663 -23.0615 -23.0553 -23.0355 -23.0241 -23.0181 -23.0142 -23.0139
    13.5789  13.6683  14.5752  14.7430  14.8621  14.8918  15.6474  15.7268
    15.9480  15.9561  15.9893  16.0136  16.0392  16.1486  16.2359  16.2546
    16.3284  16.3592  16.5064  16.6724  16.7934  16.8638  16.8828  16.9007
    16.9530  16.9831  16.9873  17.0543  17.0710  17.0753  17.0777  17.1522
    17.2617  17.2786  17.3868  17.4395  17.5022  17.5096  17.6057  17.6281
    17.6550  17.6766  17.6879  17.6974  17.7004  17.7397  18.2820  18.2961
    19.2824  19.2915  19.2973  19.3245  19.3998  19.4002  19.6855  19.7346
    19.9590  20.0230  20.0460  20.0793  20.0877  20.4406  20.4803  20.5193
    20.5685  20.6242  20.6714  20.6748  20.7047  20.7223  20.7888  20.7933
    20.8353  20.8689

          k =-0.4982 0.3315-0.4982 (  9632 PWs)   bands (ev):

   -68.1770 -68.1703 -68.0556 -52.6679 -52.6679 -52.6653 -52.6606 -52.6550
   -52.6550 -52.6537 -52.6524 -51.7687 -51.7652 -51.7652 -51.7591 -51.7591
   -34.2470 -34.2341 -34.2309 -34.2309 -34.2247 -34.2247 -34.1203 -34.1094
   -34.1094 -24.1318 -24.1281 -24.1229 -24.1203 -24.1110 -24.1110 -24.0839
   -24.0839 -24.0778 -24.0437 -24.0437 -24.0414 -24.0389 -24.0237 -24.0235
   -24.0179 -24.0179 -24.0040 -24.0040 -24.0025 -23.9862 -23.9838 -23.9726
   -23.9726 -23.1076 -23.1063 -23.0924 -23.0877 -23.0764 -23.0764 -23.0692
   -23.0622 -23.0622 -23.0483 -23.0416 -23.0331 -23.0331 -23.0193 -23.0153
    13.9503  14.1356  14.3115  14.3115  15.0630  15.2887  15.3738  15.3738
    15.8751  16.0041  16.2197  16.2573  16.3439  16.3439  16.4054  16.4096
    16.5042  16.5042  16.5709  16.6419  16.6419  16.7083  16.7083  16.8071
    16.8936  16.9284  16.9284  16.9500  17.1104  17.1144  17.1144  17.1371
    17.1870  17.1870  17.2376  17.2484  17.2616  17.4880  17.4880  17.5075
    17.5151  17.5231  17.5297  17.5297  17.7807  17.7807  17.8766  17.8869
    19.2879  19.2916  19.3362  19.3545  19.4616  19.5292  19.8520  19.8520
    19.8740  20.1078  20.1159  20.1159  20.4438  20.4438  20.4949  20.5466
    20.5466  20.6333  20.6753  20.7051  20.7051  20.7572  20.7751  20.7751
    20.8071  20.8583

 ------ SPIN DOWN ----------


          k = 0.0000 0.0000 0.0000 (  9627 PWs)   bands (ev):

   -67.2446 -66.8120 -66.7979 -52.6538 -52.6340 -52.6015 -52.5976 -52.5566
   -51.8002 -51.7999 -51.7999 -51.7902 -51.7821 -51.7821 -51.7817 -51.7649
   -33.3351 -33.3228 -33.3228 -32.9105 -32.9105 -32.9006 -32.8973 -32.8973
   -32.8842 -24.2309 -24.1919 -24.1919 -24.1456 -24.1456 -24.0420 -24.0136
   -24.0064 -24.0064 -23.9826 -23.9826 -23.8978 -23.8804 -23.8804 -23.8503
   -23.2873 -23.2491 -23.2463 -23.2343 -23.2343 -23.2125 -23.1812 -23.1389
   -23.1389 -23.0921 -23.0769 -23.0751 -23.0751 -23.0578 -23.0578 -23.0578
   -23.0565 -23.0565 -23.0401 -23.0386 -23.0021 -22.9889 -22.9763 -22.9763
    11.4011  14.8597  14.9844  15.0498  15.0498  15.0513  15.1324  15.1455
    15.3090  15.3336  15.4490  15.4624  15.4675  15.4675  15.5249  16.9417
    16.9513  16.9513  16.9798  16.9798  16.9858  17.0635  17.0635  17.0651
    17.3043  17.3043  17.3053  17.4465  17.6160  17.6894  17.9650  17.9853
    17.9853  18.4623  18.4623  18.4736  18.6345  18.6377  18.6377  18.6838
    18.6838  18.6984  19.3756  19.4403  19.4403  19.4840  19.4840  19.5175
    19.5997  19.6228  19.6228  20.2819  20.3951  20.3951  20.4115  20.4196
    20.5100  20.5100  20.5664  20.5933  20.6194  20.6348  20.6392  20.6493
    20.6735  20.6779  20.6897  20.6965  20.6965  20.7126  20.7218  20.7380
    20.7525  21.3727

          k = 0.0000 0.0000 0.1661 (  9595 PWs)   bands (ev):

   -67.2446 -66.8119 -66.7979 -52.6523 -52.6350 -52.6013 -52.5980 -52.5572
   -51.7994 -51.7990 -51.7986 -51.7906 -51.7833 -51.7829 -51.7809 -51.7660
   -33.3351 -33.3228 -33.3227 -32.9104 -32.9103 -32.9006 -32.8974 -32.8972
   -32.8842 -24.2185 -24.1835 -24.1770 -24.1378 -24.1377 -24.0451 -24.0246
   -24.0181 -24.0160 -23.9922 -23.9866 -23.8994 -23.8956 -23.8805 -23.8542
   -23.2759 -23.2332 -23.2290 -23.2278 -23.2223 -23.2024 -23.1781 -23.1464
   -23.1375 -23.0974 -23.0839 -23.0736 -23.0729 -23.0673 -23.0616 -23.0551
   -23.0521 -23.0519 -23.0461 -23.0400 -23.0099 -22.9933 -22.9925 -22.9814
    11.5537  14.5292  14.9528  15.0616  15.1042  15.1059  15.1657  15.2223
    15.3068  15.4116  15.4203  15.5031  15.5081  15.5123  15.9386  16.8131
    16.8874  16.8938  16.9904  16.9909  17.0549  17.0668  17.1062  17.1102
    17.1186  17.1387  17.4872  17.4926  17.4967  17.6090  17.7970  17.8097
    18.4015  18.4548  18.4719  18.5016  18.5241  18.5656  18.5920  18.6053
    18.8652  18.8708  18.9654  18.9676  19.4723  19.5592  19.5668  19.6083
    19.6140  19.6450  19.6606  19.7724  19.8352  19.9949  20.0642  20.2119
    20.2308  20.3857  20.4965  20.5583  20.5836  20.6220  20.6396  20.6527
    20.6839  20.7035  20.7355  20.7478  20.7536  20.8371  20.8773  21.2488
    21.2847  21.3688

          k = 0.0000 0.0000 0.3321 (  9606 PWs)   bands (ev):

   -67.2446 -66.8119 -66.7979 -52.6481 -52.6379 -52.6008 -52.5989 -52.5582
   -51.7982 -51.7957 -51.7953 -51.7916 -51.7866 -51.7862 -51.7778 -51.7692
   -33.3350 -33.3228 -33.3226 -32.9101 -32.9100 -32.9004 -32.8976 -32.8974
   -32.8843 -24.1829 -24.1634 -24.1375 -24.1158 -24.1143 -24.0790 -24.0480
   -24.0420 -24.0292 -24.0144 -24.0085 -23.9356 -23.8890 -23.8809 -23.8648
   -23.2499 -23.2218 -23.2028 -23.1915 -23.1768 -23.1744 -23.1665 -23.1629
   -23.1337 -23.1152 -23.1090 -23.0915 -23.0698 -23.0687 -23.0671 -23.0564
   -23.0519 -23.0432 -23.0402 -23.0397 -23.0363 -23.0295 -23.0028 -22.9955
    11.9993  13.5890  15.1317  15.2277  15.2507  15.2526  15.3700  15.4902
    15.4920  15.5290  15.5376  15.5423  15.6462  15.6835  16.0217  16.4411
    16.4962  16.6335  16.8529  16.8563  16.9418  16.9446  17.2746  17.3394
    17.3500  17.3578  17.5026  17.6545  17.7483  17.7655  17.9111  17.9304
    18.0328  18.1094  18.2345  18.2590  18.4482  18.4525  18.5323  18.5326
    18.6509  18.6805  18.7131  18.8960  18.9254  19.1861  19.1918  19.2202
    19.2512  19.4783  19.4784  19.8365  19.9164  20.0523  20.0917  20.2428
    20.3379  20.3703  20.3732  20.4278  20.5406  20.6266  20.7013  20.7318
    20.8186  20.8309  20.8652  20.8799  21.0332  21.1618  21.1941  21.2200
    21.2406  21.2602

          k = 0.0000 0.0000-0.4982 (  9626 PWs)   bands (ev):

   -67.2446 -66.8120 -66.7979 -52.6439 -52.6415 -52.5999 -52.5999 -52.5588
   -51.7975 -51.7923 -51.7913 -51.7910 -51.7909 -51.7906 -51.7736 -51.7733
   -33.3351 -33.3228 -33.3226 -32.9100 -32.9098 -32.9003 -32.8977 -32.8975
   -32.8845 -24.1507 -24.1324 -24.1322 -24.1014 -24.0939 -24.0889 -24.0670
   -24.0664 -24.0493 -24.0280 -24.0279 -23.9489 -23.8810 -23.8804 -23.8756
   -23.2305 -23.2199 -23.1945 -23.1632 -23.1584 -23.1511 -23.1505 -23.1484
   -23.1379 -23.1312 -23.1138 -23.1055 -23.1034 -23.0726 -23.0643 -23.0639
   -23.0535 -23.0515 -23.0477 -23.0474 -23.0293 -23.0156 -23.0152 -23.0124
    12.6660  12.7376  15.2693  15.3525  15.3728  15.4057  15.4061  15.4619
    15.4690  15.4944  15.7778  15.8727  15.9381  15.9691  15.9765  16.0594
    16.0752  16.0885  16.8796  16.8813  16.8826  16.8869  17.5773  17.6576
    17.6915  17.7019  17.7033  17.7212  17.7428  17.7447  17.8518  17.9321
    18.0110  18.0140  18.1237  18.1456  18.1675  18.1808  18.4117  18.4140
    18.4872  18.5047  18.5098  18.5147  18.5509  18.5530  18.8578  18.9479
    19.7558  19.8199  19.9174  19.9198  20.0212  20.0302  20.0771  20.1635
    20.2087  20.2096  20.5590  20.5673  20.6184  20.6440  20.6739  20.6795
    20.7007  20.7297  20.9588  20.9607  21.0071  21.0261  21.2669  21.3594
    21.4119  21.4131

          k = 0.0000 0.1658 0.1661 (  9557 PWs)   bands (ev):

   -67.2445 -66.8118 -66.7978 -52.6506 -52.6344 -52.6030 -52.5986 -52.5572
   -51.7987 -51.7983 -51.7974 -51.7910 -51.7843 -51.7821 -51.7818 -51.7672
   -33.3343 -33.3228 -33.3227 -32.9103 -32.9102 -32.9012 -32.8974 -32.8972
   -32.8841 -24.2013 -24.1762 -24.1683 -24.1305 -24.1295 -24.0484 -24.0278
   -24.0226 -24.0187 -24.0011 -23.9903 -23.9080 -23.8965 -23.8810 -23.8807
   -23.2721 -23.2313 -23.2181 -23.2114 -23.2084 -23.1891 -23.1801 -23.1483
   -23.1396 -23.0968 -23.0871 -23.0761 -23.0747 -23.0631 -23.0628 -23.0583
   -23.0511 -23.0506 -23.0450 -23.0412 -23.0200 -23.0169 -22.9877 -22.9873
    11.7032  14.5785  14.6328  14.9672  15.1472  15.1899  15.2156  15.2253
    15.3026  15.4554  15.4872  15.5292  15.5604  15.9700  15.9885  16.6914
    16.7964  16.9360  17.0115  17.0357  17.0424  17.0611  17.0907  17.1137
    17.1365  17.2562  17.2577  17.3875  17.5136  17.5523  17.6445  18.1364
    18.1855  18.3414  18.3634  18.4095  18.4506  18.4620  18.6443  18.6925
    18.9832  19.0289  19.0405  19.0688  19.1218  19.1578  19.3666  19.4122
    19.5329  19.6006  19.6271  19.6485  19.7079  19.7273  20.0578  20.0834
    20.3652  20.4492  20.4896  20.5116  20.5683  20.6236  20.6403  20.6552
    20.6611  20.7111  20.7432  20.9047  20.9442  20.9743  21.0181  21.0193
    21.0825  21.3345

          k = 0.0000 0.1658 0.3321 (  9577 PWs)   bands (ev):

   -67.2445 -66.8119 -66.7979 -52.6467 -52.6371 -52.6022 -52.5997 -52.5583
   -51.7975 -51.7957 -51.7941 -51.7916 -51.7873 -51.7851 -51.7790 -51.7703
   -33.3343 -33.3228 -33.3226 -32.9101 -32.9100 -32.9013 -32.8976 -32.8971
   -32.8842 -24.1733 -24.1595 -24.1326 -24.1111 -24.1038 -24.0837 -24.0484
   -24.0447 -24.0290 -24.0181 -24.0015 -23.9399 -23.8958 -23.8821 -23.8816
   -23.2474 -23.2238 -23.1950 -23.1934 -23.1737 -23.1671 -23.1633 -23.1596
   -23.1340 -23.1201 -23.1079 -23.0998 -23.0784 -23.0629 -23.0626 -23.0596
   -23.0568 -23.0551 -23.0458 -23.0367 -23.0294 -23.0277 -22.9989 -22.9979
    12.1410  13.6926  14.7788  14.9821  15.3166  15.3657  15.4157  15.5422
    15.5548  15.5687  15.6271  15.7194  15.7313  15.9650  16.0864  16.4340
    16.5267  16.5938  16.8955  16.9804  16.9948  17.0102  17.1909  17.2325
    17.2910  17.2956  17.4845  17.5174  17.5465  17.7405  17.8393  17.9670
    18.0076  18.1855  18.1986  18.2716  18.3067  18.3381  18.3734  18.4420
    18.4930  18.5712  18.7833  18.7921  18.8812  18.9611  18.9756  19.2046
    19.4163  19.5199  19.5691  19.8649  19.9252  20.0062  20.0081  20.1462
    20.3111  20.3886  20.3975  20.4843  20.5210  20.6147  20.6735  20.6912
    20.7518  20.7874  20.8110  20.8761  20.9207  21.0319  21.1108  21.1487
    21.1641  21.1962

          k = 0.0000 0.1658-0.4982 (  9608 PWs)   bands (ev):

   -67.2446 -66.8119 -66.7979 -52.6428 -52.6404 -52.6010 -52.6010 -52.5588
   -51.7971 -51.7931 -51.7914 -51.7905 -51.7898 -51.7895 -51.7748 -51.7745
   -33.3344 -33.3228 -33.3226 -32.9100 -32.9099 -32.9014 -32.8977 -32.8971
   -32.8843 -24.1494 -24.1330 -24.1304 -24.0986 -24.0922 -24.0912 -24.0651
   -24.0515 -24.0368 -24.0282 -24.0275 -23.9550 -23.8899 -23.8867 -23.8819
   -23.2286 -23.2219 -23.1900 -23.1692 -23.1607 -23.1585 -23.1546 -23.1371
   -23.1297 -23.1283 -23.1251 -23.1146 -23.1121 -23.0813 -23.0635 -23.0591
   -23.0562 -23.0478 -23.0453 -23.0440 -23.0233 -23.0134 -23.0130 -23.0111
    12.7920  12.8659  14.8987  14.9573  15.4779  15.4957  15.5142  15.5738
    15.7313  15.7315  15.8555  15.9410  15.9818  16.0086  16.0508  16.1162
    16.1249  16.1354  16.9173  16.9215  16.9385  16.9511  17.4541  17.4949
    17.5073  17.5701  17.5755  17.5810  17.6823  17.6891  17.9490  17.9638
    17.9640  18.0031  18.1651  18.1780  18.1997  18.2021  18.2376  18.2722
    18.3186  18.3243  18.3387  18.3804  18.3965  18.4262  19.0787  19.1187
    19.8353  19.8365  19.9198  19.9429  19.9688  20.0574  20.1340  20.1962
    20.2200  20.2285  20.3846  20.3879  20.4526  20.5320  20.5449  20.6652
    20.6757  20.7744  20.9008  20.9165  20.9474  20.9836  21.1127  21.1464
    21.1693  21.1704

          k = 0.0000 0.3315 0.3321 (  9582 PWs)   bands (ev):

   -67.2445 -66.8119 -66.7979 -52.6436 -52.6354 -52.6054 -52.6014 -52.5584
   -51.7958 -51.7957 -51.7917 -51.7909 -51.7888 -51.7822 -51.7820 -51.7734
   -33.3330 -33.3228 -33.3226 -32.9100 -32.9100 -32.9030 -32.8976 -32.8969
   -32.8841 -24.1513 -24.1486 -24.1218 -24.0987 -24.0979 -24.0848 -24.0537
   -24.0407 -24.0288 -24.0253 -23.9815 -23.9521 -23.9262 -23.9112 -23.8829
   -23.2418 -23.2229 -23.1878 -23.1778 -23.1717 -23.1611 -23.1545 -23.1543
   -23.1290 -23.1238 -23.1160 -23.1132 -23.1009 -23.0877 -23.0824 -23.0569
   -23.0481 -23.0405 -23.0373 -23.0325 -23.0248 -23.0239 -23.0086 -23.0020
    12.5518  13.9551  13.9915  14.7069  15.5873  15.6431  15.6551  15.6967
    15.7356  15.7483  15.7960  15.9164  15.9559  16.0809  16.1812  16.3661
    16.5119  16.7059  16.7430  16.9343  17.1070  17.1296  17.1389  17.1586
    17.2027  17.2576  17.3564  17.3711  17.4816  17.8082  17.8232  17.8651
    17.9083  17.9412  17.9948  18.0980  18.1361  18.1395  18.1923  18.2285
    18.2573  18.3538  18.4356  18.4711  18.5170  18.8522  18.8901  19.1334
    19.7088  19.7221  19.8119  19.9396  19.9733  20.0232  20.0581  20.2627
    20.2872  20.3168  20.3800  20.3946  20.4605  20.4972  20.5266  20.5805
    20.6280  20.6428  20.7174  20.7439  20.8787  20.8854  20.9326  20.9541
    20.9993  21.0753

          k = 0.0000 0.3315-0.4982 (  9578 PWs)   bands (ev):

   -67.2445 -66.8119 -66.7979 -52.6404 -52.6380 -52.6034 -52.6034 -52.5589
   -51.7959 -51.7939 -51.7926 -51.7896 -51.7866 -51.7863 -51.7779 -51.7777
   -33.3330 -33.3227 -33.3226 -32.9100 -32.9099 -32.9032 -32.8976 -32.8967
   -32.8841 -24.1470 -24.1292 -24.1236 -24.0980 -24.0974 -24.0887 -24.0624
   -24.0288 -24.0266 -24.0126 -24.0047 -23.9675 -23.9175 -23.9163 -23.8833
   -23.2258 -23.2240 -23.1812 -23.1695 -23.1612 -23.1611 -23.1540 -23.1449
   -23.1381 -23.1349 -23.1318 -23.1260 -23.1172 -23.0932 -23.0845 -23.0490
   -23.0450 -23.0428 -23.0319 -23.0288 -23.0157 -23.0153 -23.0152 -23.0113
    13.1515  13.2308  14.3086  14.3947  15.7583  15.7766  15.7898  15.8337
    15.8556  15.9257  16.0491  16.0738  16.0845  16.0947  16.2318  16.2409
    16.2715  16.3410  16.9823  16.9867  17.0542  17.0815  17.1535  17.1940
    17.2077  17.2504  17.3471  17.3555  17.5836  17.5866  17.7852  17.8018
    17.8413  17.8745  17.9540  17.9650  18.0232  18.0649  18.0783  18.1388
    18.1748  18.2206  18.2592  18.2843  18.3620  18.3709  19.1781  19.1904
    19.7752  19.8125  20.0439  20.1056  20.1061  20.1138  20.1789  20.1844
    20.2276  20.2364  20.2667  20.2865  20.3099  20.3115  20.4996  20.5948
    20.6743  20.6799  20.7233  20.8023  20.8111  20.8140  20.8389  20.8772
    20.9137  20.9439

          k = 0.0000-0.4973-0.4982 (  9580 PWs)   bands (ev):

   -67.2445 -66.8119 -66.7979 -52.6391 -52.6367 -52.6047 -52.6047 -52.5589
   -51.7945 -51.7942 -51.7939 -51.7893 -51.7826 -51.7823 -51.7820 -51.7817
   -33.3323 -33.3227 -33.3225 -32.9100 -32.9100 -32.9040 -32.8977 -32.8965
   -32.8839 -24.1460 -24.1253 -24.1176 -24.1039 -24.0980 -24.0869 -24.0612
   -24.0293 -24.0261 -23.9846 -23.9730 -23.9598 -23.9546 -23.9469 -23.8841
   -23.2248 -23.2246 -23.1750 -23.1594 -23.1576 -23.1564 -23.1560 -23.1559
   -23.1506 -23.1429 -23.1418 -23.1321 -23.1096 -23.0987 -23.0965 -23.0469
   -23.0308 -23.0305 -23.0254 -23.0234 -23.0225 -23.0218 -23.0146 -23.0127
    13.6674  13.7101  13.7223  13.8299  15.8943  15.9515  15.9536  15.9665
    16.0091  16.0175  16.1144  16.1407  16.1778  16.1821  16.2659  16.2980
    16.6035  16.7075  16.7451  16.7491  16.9804  16.9839  17.0364  17.0635
    17.0662  17.1672  17.2813  17.3267  17.5578  17.6215  17.6774  17.6906
    17.6978  17.7010  17.7450  17.7558  17.9395  17.9434  17.9569  18.0267
    18.1131  18.1884  18.2098  18.2131  18.8010  18.8090  18.8371  18.8494
    19.8500  19.8686  19.8760  19.9623  20.2486  20.2853  20.3050  20.3081
    20.3354  20.3381  20.3383  20.3639  20.3687  20.4410  20.4594  20.4608
    20.4734  20.4941  20.4974  20.5027  20.7421  20.7525  20.8077  20.8233
    20.8236  20.8458

          k = 0.1661 0.1658 0.1661 (  9591 PWs)   bands (ev):

   -67.2445 -66.8119 -66.7979 -52.6493 -52.6351 -52.6028 -52.5989 -52.5578
   -51.7983 -51.7975 -51.7962 -51.7912 -51.7832 -51.7831 -51.7828 -51.7683
   -33.3344 -33.3227 -33.3227 -32.9103 -32.9101 -32.9013 -32.8974 -32.8973
   -32.8842 -24.1919 -24.1692 -24.1581 -24.1243 -24.1202 -24.0594 -24.0432
   -24.0297 -24.0165 -23.9989 -23.9950 -23.9091 -23.8990 -23.8937 -23.8817
   -23.2624 -23.2224 -23.2159 -23.2097 -23.1981 -23.1820 -23.1681 -23.1469
   -23.1467 -23.0997 -23.0914 -23.0913 -23.0748 -23.0675 -23.0605 -23.0567
   -23.0542 -23.0496 -23.0477 -23.0342 -23.0320 -23.0192 -22.9943 -22.9867
    11.8512  14.5919  14.7030  14.7932  15.0478  15.1631  15.2094  15.3002
    15.3343  15.4121  15.5709  15.6060  15.9414  16.0374  16.0913  16.5963
    16.8936  16.8983  16.9402  17.0463  17.0623  17.0922  17.0946  17.1190
    17.1871  17.2020  17.2357  17.3104  17.4135  17.4211  17.9266  17.9626
    17.9739  18.2596  18.3365  18.3397  18.3647  18.3690  18.7799  18.7825
    18.8143  18.8236  18.9741  18.9970  19.0257  19.2050  19.2133  19.2208
    19.2590  19.3367  19.4093  19.7568  19.7971  19.8304  20.2896  20.2949
    20.3283  20.3872  20.4199  20.4724  20.5663  20.5734  20.6199  20.6426
    20.6488  20.7109  20.7200  20.9065  20.9113  20.9579  20.9880  21.0508
    21.1580  21.2206

          k = 0.1661 0.1658 0.3321 (  9577 PWs)   bands (ev):

   -67.2445 -66.8119 -66.7979 -52.6458 -52.6374 -52.6020 -52.5998 -52.5589
   -51.7977 -51.7947 -51.7933 -51.7917 -51.7861 -51.7856 -51.7801 -51.7715
   -33.3343 -33.3227 -33.3226 -32.9101 -32.9099 -32.9013 -32.8975 -32.8971
   -32.8843 -24.1650 -24.1558 -24.1308 -24.1064 -24.1006 -24.0881 -24.0612
   -24.0392 -24.0275 -24.0121 -23.9974 -23.9412 -23.9009 -23.8931 -23.8855
   -23.2390 -23.2161 -23.2005 -23.1922 -23.1709 -23.1666 -23.1601 -23.1487
   -23.1422 -23.1176 -23.1086 -23.1023 -23.0825 -23.0771 -23.0740 -23.0649
   -23.0566 -23.0476 -23.0455 -23.0417 -23.0251 -23.0195 -23.0064 -22.9931
    12.2822  13.7994  14.8628  14.9081  15.0876  15.1653  15.4955  15.5464
    15.5715  15.6720  15.8053  15.8137  16.0132  16.0793  16.1554  16.4368
    16.5592  16.6442  16.8928  17.0170  17.0354  17.0792  17.1008  17.2034
    17.2129  17.2560  17.4302  17.4698  17.5591  17.7028  17.7545  17.7677
    18.0284  18.0845  18.1449  18.1971  18.2355  18.2884  18.3121  18.3404
    18.3743  18.3854  18.5735  18.6546  18.6746  18.7647  19.0277  19.0342
    19.5621  19.6149  19.6437  19.9377  19.9827  20.0597  20.1627  20.2010
    20.2536  20.3634  20.4322  20.4651  20.5012  20.5499  20.6581  20.6814
    20.7242  20.7439  20.7732  20.7799  20.8499  21.0006  21.0299  21.1281
    21.1426  21.2511

          k = 0.1661 0.1658-0.4982 (  9588 PWs)   bands (ev):

   -67.2445 -66.8119 -66.7979 -52.6422 -52.6404 -52.6010 -52.6010 -52.5595
   -51.7972 -51.7930 -51.7903 -51.7898 -51.7894 -51.7893 -51.7759 -51.7756
   -33.3343 -33.3227 -33.3226 -32.9100 -32.9099 -32.9013 -32.8975 -32.8971
   -32.8843 -24.1446 -24.1301 -24.1264 -24.1182 -24.0975 -24.0863 -24.0574
   -24.0408 -24.0292 -24.0252 -24.0188 -23.9586 -23.8994 -23.8917 -23.8881
   -23.2202 -23.2149 -23.1951 -23.1818 -23.1635 -23.1539 -23.1461 -23.1380
   -23.1354 -23.1238 -23.1234 -23.1182 -23.1055 -23.0838 -23.0794 -23.0762
   -23.0580 -23.0484 -23.0340 -23.0340 -23.0313 -23.0189 -23.0047 -23.0047
    12.9193  12.9955  15.0192  15.0308  15.0376  15.1502  15.8040  15.8110
    15.8430  15.8628  15.9323  16.0157  16.0259  16.0353  16.1275  16.1813
    16.1829  16.1880  16.9392  16.9459  16.9987  17.0144  17.4129  17.4189
    17.4773  17.4901  17.5003  17.5109  17.5638  17.5749  17.9007  17.9481
    17.9553  17.9851  18.0093  18.0556  18.1382  18.1529  18.1627  18.1659
    18.1853  18.1917  18.1985  18.2046  18.2696  18.2779  19.1638  19.1735
    19.9228  19.9330  19.9450  20.0022  20.0288  20.0325  20.0646  20.0710
    20.1963  20.2182  20.2241  20.2524  20.5346  20.6469  20.6604  20.6651
    20.7458  20.8031  20.8718  20.8896  20.9230  20.9464  21.0337  21.0502
    21.0645  21.0821

          k = 0.1661 0.3315 0.3321 (  9595 PWs)   bands (ev):

   -67.2445 -66.8119 -66.7979 -52.6427 -52.6356 -52.6051 -52.6016 -52.5590
   -51.7955 -51.7950 -51.7914 -51.7907 -51.7878 -51.7830 -51.7827 -51.7745
   -33.3330 -33.3227 -33.3226 -32.9100 -32.9100 -32.9029 -32.8975 -32.8970
   -32.8841 -24.1435 -24.1375 -24.1180 -24.0984 -24.0983 -24.0888 -24.0514
   -24.0339 -24.0267 -24.0221 -23.9921 -23.9525 -23.9316 -23.9166 -23.8978
   -23.2334 -23.2156 -23.1875 -23.1783 -23.1709 -23.1601 -23.1541 -23.1495
   -23.1297 -23.1209 -23.1126 -23.1120 -23.1032 -23.0829 -23.0787 -23.0636
   -23.0594 -23.0457 -23.0430 -23.0322 -23.0302 -23.0166 -23.0116 -23.0067
    12.6893  14.0702  14.1101  14.8391  15.1477  15.4680  15.5294  15.7803
    15.8168  15.8855  16.0236  16.0432  16.1339  16.2056  16.3509  16.4150
    16.5681  16.7002  16.7063  16.9385  17.0331  17.1183  17.1498  17.2284
    17.2452  17.2647  17.2765  17.3353  17.5040  17.6831  17.7379  17.7924
    17.8229  17.8678  17.8824  18.0010  18.0430  18.0595  18.0733  18.1049
    18.1487  18.1949  18.2214  18.2433  18.3317  18.5865  18.6259  19.1669
    19.8441  19.8530  19.9149  20.0653  20.0817  20.1038  20.1648  20.1870
    20.3593  20.3890  20.4287  20.4547  20.4740  20.4966  20.5419  20.5896
    20.6462  20.7093  20.7307  20.8819  20.8863  20.9094  20.9386  21.0108
    21.0449  21.0640

          k = 0.1661 0.3315-0.4982 (  9574 PWs)   bands (ev):

   -67.2445 -66.8119 -66.7979 -52.6398 -52.6380 -52.6034 -52.6034 -52.5595
   -51.7956 -51.7934 -51.7916 -51.7891 -51.7868 -51.7866 -51.7788 -51.7786
   -33.3330 -33.3227 -33.3225 -32.9099 -32.9099 -32.9030 -32.8975 -32.8968
   -32.8841 -24.1372 -24.1236 -24.1156 -24.1045 -24.0950 -24.0789 -24.0584
   -24.0274 -24.0244 -24.0123 -24.0115 -23.9724 -23.9238 -23.9231 -23.8999
   -23.2172 -23.2166 -23.1853 -23.1771 -23.1591 -23.1514 -23.1489 -23.1431
   -23.1419 -23.1309 -23.1243 -23.1228 -23.1073 -23.0918 -23.0821 -23.0608
   -23.0553 -23.0499 -23.0310 -23.0304 -23.0289 -23.0223 -23.0111 -23.0100
    13.2807  13.3621  14.4376  14.5251  15.3671  15.4214  15.9718  15.9896
    16.0138  16.0521  16.0665  16.0823  16.2026  16.2161  16.3336  16.3366
    16.3412  16.3956  17.0140  17.0204  17.0719  17.0974  17.1125  17.1691
    17.2390  17.2503  17.3503  17.3576  17.5368  17.5412  17.6281  17.6568
    17.7332  17.7865  17.8841  17.9002  17.9226  17.9351  17.9611  17.9826
    18.0184  18.0516  18.0889  18.1210  18.1675  18.1813  18.9401  18.9409
    19.9758  20.0064  20.0810  20.0899  20.1813  20.2057  20.2358  20.2565
    20.2671  20.3015  20.3207  20.3566  20.5185  20.5402  20.5757  20.6080
    20.7354  20.7539  20.7623  20.7993  20.8436  20.8531  20.9050  20.9145
    20.9278  20.9949

          k = 0.1661-0.4973-0.4982 (  9588 PWs)   bands (ev):

   -67.2445 -66.8119 -66.7979 -52.6385 -52.6367 -52.6047 -52.6047 -52.5595
   -51.7938 -51.7936 -51.7933 -51.7888 -51.7830 -51.7830 -51.7827 -51.7824
   -33.3323 -33.3227 -33.3225 -32.9100 -32.9099 -32.9038 -32.8976 -32.8967
   -32.8840 -24.1325 -24.1188 -24.1094 -24.0954 -24.0895 -24.0869 -24.0626
   -24.0299 -24.0240 -23.9840 -23.9828 -23.9695 -23.9626 -23.9564 -23.9020
   -23.2170 -23.2159 -23.1780 -23.1690 -23.1538 -23.1525 -23.1507 -23.1484
   -23.1424 -23.1354 -23.1345 -23.1232 -23.1064 -23.0975 -23.0954 -23.0531
   -23.0372 -23.0369 -23.0324 -23.0304 -23.0277 -23.0274 -23.0198 -23.0185
    13.7992  13.8400  13.8528  13.9651  15.7543  15.7583  15.7850  15.8785
    16.0141  16.1250  16.1519  16.1621  16.4441  16.4466  16.4496  16.4666
    16.6278  16.7266  16.7561  16.7614  16.9637  16.9969  17.0026  17.0379
    17.1543  17.2135  17.2888  17.3341  17.4408  17.4813  17.5236  17.5402
    17.6534  17.6639  17.7031  17.7149  17.8173  17.8365  17.8454  17.8662
    17.9600  18.0282  18.0575  18.0579  18.4770  18.4860  18.5227  18.5228
    20.1162  20.1428  20.1505  20.2136  20.2788  20.3402  20.3912  20.4167
    20.4228  20.4631  20.4647  20.4733  20.5006  20.5117  20.5202  20.5250
    20.5606  20.5817  20.5899  20.5957  20.7399  20.7777  20.7988  20.8114
    20.8141  20.8750

          k = 0.3321 0.3315 0.3321 (  9594 PWs)   bands (ev):

   -67.2445 -66.8119 -66.7979 -52.6406 -52.6366 -52.6044 -52.6024 -52.5602
   -51.7952 -51.7933 -51.7903 -51.7895 -51.7856 -51.7846 -51.7846 -51.7774
   -33.3330 -33.3226 -33.3226 -32.9100 -32.9099 -32.9027 -32.8974 -32.8972
   -32.8842 -24.1249 -24.1201 -24.1045 -24.1036 -24.0985 -24.0761 -24.0443
   -24.0326 -24.0226 -24.0163 -24.0121 -23.9554 -23.9451 -23.9386 -23.9198
   -23.2127 -23.2006 -23.1843 -23.1801 -23.1676 -23.1620 -23.1471 -23.1459
   -23.1212 -23.1170 -23.1119 -23.1117 -23.1090 -23.0798 -23.0785 -23.0679
   -23.0664 -23.0590 -23.0522 -23.0401 -23.0301 -23.0211 -23.0170 -23.0122
    13.0855  14.3299  14.4236  14.5021  15.1436  15.2665  15.3253  16.0510
    16.0619  16.0900  16.2687  16.2742  16.3735  16.4238  16.4929  16.5036
    16.6098  16.6273  16.7465  16.7851  17.0185  17.0194  17.2000  17.2416
    17.2461  17.3788  17.3817  17.3997  17.4208  17.4411  17.6310  17.6541
    17.6803  17.7007  17.7050  17.7185  17.7544  17.7804  17.7805  17.8010
    17.8674  17.9111  17.9729  17.9757  18.1086  18.1809  18.1809  18.8756
    20.0814  20.0883  20.1148  20.1439  20.2942  20.3311  20.3690  20.3976
    20.4088  20.4297  20.5298  20.5419  20.5757  20.5905  20.6043  20.7034
    20.7162  20.7964  20.8431  20.8580  20.8750  20.8904  20.9005  21.0334
    21.0464  21.0905

          k = 0.3321 0.3315-0.4982 (  9598 PWs)   bands (ev):

   -67.2446 -66.8119 -66.7979 -52.6386 -52.6380 -52.6034 -52.6034 -52.5608
   -51.7950 -51.7923 -51.7890 -51.7876 -51.7872 -51.7870 -51.7813 -51.7812
   -33.3330 -33.3226 -33.3226 -32.9099 -32.9099 -32.9026 -32.8974 -32.8971
   -32.8842 -24.1188 -24.1179 -24.1011 -24.0984 -24.0797 -24.0717 -24.0472
   -24.0269 -24.0206 -24.0196 -24.0142 -23.9817 -23.9505 -23.9364 -23.9326
   -23.1968 -23.1957 -23.1844 -23.1769 -23.1642 -23.1611 -23.1525 -23.1382
   -23.1299 -23.1158 -23.1114 -23.1110 -23.0948 -23.0881 -23.0832 -23.0766
   -23.0714 -23.0566 -23.0458 -23.0410 -23.0357 -23.0319 -23.0171 -23.0145
    13.6465  13.7347  14.7965  14.8304  14.8442  14.9438  15.8114  15.8465
    16.2794  16.2842  16.3129  16.3589  16.3682  16.4190  16.5320  16.5654
    16.5745  16.5802  17.0180  17.0580  17.0935  17.1089  17.1183  17.1254
    17.1729  17.1791  17.3624  17.3824  17.4161  17.4220  17.4742  17.4808
    17.5527  17.5556  17.6065  17.6742  17.6891  17.6949  17.7176  17.7579
    17.7835  17.7856  17.8027  17.8066  17.8733  17.8845  18.4118  18.4130
    20.2855  20.2912  20.3235  20.3284  20.3536  20.3839  20.3947  20.4372
    20.4537  20.4747  20.5250  20.5362  20.5719  20.6640  20.7303  20.7390
    20.7706  20.7774  20.7811  20.8013  20.8453  20.8602  20.8773  20.9093
    20.9174  20.9232

          k = 0.3321-0.4973-0.4982 (  9632 PWs)   bands (ev):

   -67.2446 -66.8120 -66.7980 -52.6373 -52.6367 -52.6047 -52.6047 -52.5608
   -51.7921 -51.7919 -51.7915 -51.7876 -51.7847 -51.7843 -51.7842 -51.7842
   -33.3323 -33.3226 -33.3226 -32.9099 -32.9099 -32.9034 -32.8975 -32.8972
   -32.8841 -24.1048 -24.0982 -24.0879 -24.0850 -24.0730 -24.0661 -24.0645
   -24.0311 -24.0200 -24.0083 -23.9954 -23.9892 -23.9803 -23.9752 -23.9452
   -23.1975 -23.1933 -23.1785 -23.1739 -23.1548 -23.1491 -23.1450 -23.1420
   -23.1419 -23.1155 -23.1124 -23.1003 -23.0921 -23.0902 -23.0863 -23.0647
   -23.0512 -23.0511 -23.0485 -23.0483 -23.0423 -23.0413 -23.0360 -23.0350
    14.1716  14.2053  14.2216  14.3477  15.3417  15.3435  15.3477  15.4676
    16.3460  16.4259  16.4583  16.4684  16.6915  16.7649  16.7798  16.7873
    16.8033  16.8038  16.8160  16.8217  16.8768  16.9930  17.0291  17.0416
    17.2789  17.2855  17.3143  17.3189  17.3215  17.3524  17.3691  17.3763
    17.4888  17.4889  17.4974  17.5150  17.5665  17.5713  17.5929  17.6070
    17.6509  17.7084  17.7326  17.7365  17.9177  17.9277  17.9570  17.9571
    20.3814  20.4274  20.4365  20.4692  20.4817  20.5724  20.5729  20.5952
    20.6023  20.6067  20.6257  20.6322  20.7062  20.7082  20.7156  20.7265
    20.7504  20.7690  20.7718  20.7872  20.8037  20.8424  20.8670  20.8849
    20.9776  20.9801

          k =-0.4982-0.4973-0.4982 (  9568 PWs)   bands (ev):

   -67.2445 -66.8119 -66.7979 -52.6367 -52.6367 -52.6047 -52.6047 -52.5614
   -51.7908 -51.7908 -51.7902 -51.7860 -51.7860 -51.7857 -51.7855 -51.7855
   -33.3323 -33.3225 -33.3225 -32.9097 -32.9097 -32.9031 -32.8974 -32.8974
   -32.8841 -24.0988 -24.0799 -24.0731 -24.0725 -24.0597 -24.0528 -24.0410
   -24.0302 -24.0302 -24.0227 -24.0181 -23.9998 -23.9998 -23.9760 -23.9760
   -23.1769 -23.1747 -23.1747 -23.1738 -23.1719 -23.1505 -23.1505 -23.1374
   -23.1374 -23.1103 -23.0854 -23.0854 -23.0794 -23.0785 -23.0752 -23.0616
   -23.0616 -23.0608 -23.0589 -23.0567 -23.0557 -23.0553 -23.0553 -23.0541
    14.6166  14.6266  14.6799  14.8598  14.8598  14.8991  14.9005  14.9005
    16.7504  16.7504  16.7589  16.7589  16.7764  16.8028  16.8028  16.8100
    16.8100  16.8182  16.9587  16.9636  17.0383  17.0581  17.0595  17.0618
    17.2988  17.3334  17.3334  17.3337  17.3544  17.3850  17.3850  17.3957
    17.3976  17.3976  17.4222  17.4306  17.4306  17.4515  17.4738  17.4819
    17.4856  17.4878  17.4878  17.4937  17.4937  17.4976  17.5037  17.5083
    20.4614  20.4905  20.6343  20.6343  20.6791  20.6791  20.6867  20.6937
    20.6937  20.7004  20.7045  20.7061  20.7235  20.7244  20.7284  20.7284
    20.8226  20.8226  20.8575  20.8732  20.8982  20.8982  20.8982  20.9752
    20.9752  21.0782

          k = 0.0000 0.1658 0.0000 (  9595 PWs)   bands (ev):

   -67.2446 -66.8119 -66.7979 -52.6521 -52.6335 -52.6033 -52.5982 -52.5567
   -51.7997 -51.7987 -51.7987 -51.7907 -51.7833 -51.7833 -51.7806 -51.7660
   -33.3343 -33.3228 -33.3228 -32.9104 -32.9104 -32.9012 -32.8974 -32.8974
   -32.8841 -24.2108 -24.1836 -24.1836 -24.1377 -24.1377 -24.0426 -24.0144
   -24.0144 -24.0064 -23.9938 -23.9938 -23.9056 -23.8841 -23.8806 -23.8806
   -23.2826 -23.2301 -23.2253 -23.2253 -23.2235 -23.2005 -23.1839 -23.1420
   -23.1420 -23.0907 -23.0788 -23.0735 -23.0735 -23.0605 -23.0605 -23.0565
   -23.0510 -23.0510 -23.0496 -23.0415 -23.0142 -23.0057 -22.9834 -22.9834
    11.5531  14.5363  14.9142  15.0950  15.1044  15.1044  15.1664  15.1943
    15.2346  15.4054  15.4585  15.5073  15.5073  15.5892  15.9307  16.8035
    16.8923  16.8923  16.9780  16.9780  17.0496  17.0638  17.1157  17.1230
    17.1230  17.1378  17.4526  17.4976  17.4976  17.6512  17.8115  17.8115
    18.4162  18.4639  18.4639  18.4989  18.4998  18.5715  18.6054  18.6054
    18.8356  18.8356  18.9878  18.9878  19.4591  19.4659  19.5804  19.6441
    19.6502  19.6502  19.6969  19.8310  19.8310  20.0043  20.0043  20.2224
    20.2224  20.3930  20.4619  20.5707  20.5816  20.6156  20.6156  20.6403
    20.6791  20.7194  20.7241  20.7569  20.7704  20.8255  20.8812  21.1605
    21.3764  21.3868

          k = 0.0000 0.3315 0.0000 (  9606 PWs)   bands (ev):

   -67.2446 -66.8120 -66.7979 -52.6482 -52.6324 -52.6073 -52.5993 -52.5568
   -51.7983 -51.7954 -51.7954 -51.7918 -51.7865 -51.7865 -51.7775 -51.7691
   -33.3330 -33.3228 -33.3228 -32.9102 -32.9102 -32.9025 -32.8976 -32.8976
   -32.8842 -24.1634 -24.1634 -24.1533 -24.1159 -24.1159 -24.0446 -24.0404
   -24.0404 -24.0158 -24.0158 -23.9876 -23.9662 -23.9266 -23.8812 -23.8812
   -23.2735 -23.2054 -23.2054 -23.2006 -23.1745 -23.1699 -23.1651 -23.1497
   -23.1497 -23.0895 -23.0874 -23.0739 -23.0739 -23.0736 -23.0545 -23.0545
   -23.0533 -23.0511 -23.0483 -23.0446 -23.0437 -23.0437 -23.0022 -23.0022
    11.9971  13.5840  15.0416  15.2511  15.2511  15.2537  15.3566  15.4449
    15.4883  15.5403  15.5403  15.6156  15.6835  15.6886  16.0363  16.4338
    16.4684  16.6477  16.8519  16.8519  16.9314  16.9314  17.2909  17.3490
    17.3532  17.3532  17.4809  17.6837  17.7692  17.7692  17.9233  17.9233
    18.0688  18.0804  18.2502  18.2502  18.4523  18.4523  18.5286  18.5286
    18.6787  18.6878  18.7129  18.9254  18.9254  19.1647  19.1826  19.2297
    19.2297  19.4714  19.4714  19.8119  19.9092  20.0880  20.0880  20.2197
    20.3367  20.3608  20.3608  20.3835  20.5932  20.6198  20.7034  20.7080
    20.8365  20.8588  20.8715  20.8715  21.0540  21.1199  21.2085  21.2572
    21.2598  21.2598

          k = 0.0000-0.4973 0.0000 (  9626 PWs)   bands (ev):

   -67.2446 -66.8120 -66.7979 -52.6459 -52.6318 -52.6097 -52.5998 -52.5568
   -51.7975 -51.7926 -51.7913 -51.7913 -51.7907 -51.7907 -51.7736 -51.7730
   -33.3324 -33.3228 -33.3228 -32.9101 -32.9101 -32.9032 -32.8977 -32.8977
   -32.8842 -24.1506 -24.1506 -24.0920 -24.0920 -24.0837 -24.0692 -24.0692
   -24.0470 -24.0456 -24.0269 -24.0269 -23.9686 -23.9465 -23.8815 -23.8815
   -23.2685 -23.2007 -23.1934 -23.1934 -23.1559 -23.1559 -23.1301 -23.1260
   -23.1256 -23.1036 -23.1022 -23.1002 -23.0829 -23.0822 -23.0749 -23.0749
   -23.0500 -23.0500 -23.0492 -23.0487 -23.0302 -23.0302 -23.0222 -23.0222
    12.6678  12.7267  15.1374  15.2502  15.4033  15.4033  15.4676  15.4676
    15.4941  15.6540  15.7866  15.8380  15.9217  15.9443  15.9762  16.0176
    16.0685  16.1512  16.8743  16.8743  16.8756  16.8756  17.6242  17.6481
    17.6663  17.7042  17.7294  17.7294  17.7382  17.7382  17.8909  17.9274
    17.9634  18.0717  18.1604  18.1604  18.1711  18.1711  18.4345  18.4345
    18.4620  18.4620  18.5358  18.5358  18.5419  18.5419  18.8688  18.9433
    19.7215  19.7953  19.9055  19.9055  20.0195  20.0195  20.1081  20.1107
    20.1447  20.2285  20.6111  20.6124  20.6234  20.6234  20.6945  20.6945
    20.7037  20.7037  20.9642  20.9937  21.0223  21.0361  21.3797  21.3797
    21.3888  21.4003

          k = 0.1661 0.0000 0.1661 (  9557 PWs)   bands (ev):

   -67.2445 -66.8118 -66.7978 -52.6508 -52.6358 -52.6012 -52.5983 -52.5577
   -51.7993 -51.7978 -51.7972 -51.7911 -51.7839 -51.7821 -51.7821 -51.7672
   -33.3350 -33.3227 -33.3227 -32.9104 -32.9100 -32.9005 -32.8974 -32.8971
   -32.8842 -24.2069 -24.1787 -24.1641 -24.1300 -24.1273 -24.0529 -24.0393
   -24.0281 -24.0236 -23.9954 -23.9827 -23.9013 -23.8963 -23.8937 -23.8578
   -23.2656 -23.2279 -23.2238 -23.2154 -23.2137 -23.1876 -23.1716 -23.1461
   -23.1449 -23.1003 -23.0889 -23.0843 -23.0782 -23.0617 -23.0607 -23.0569
   -23.0544 -23.0481 -23.0456 -23.0412 -23.0151 -23.0122 -22.9959 -22.9794
    11.7038  14.5263  14.7111  14.9922  15.0979  15.2066  15.2182  15.2335
    15.3099  15.4041  15.4907  15.5560  15.5687  15.9176  16.0091  16.6965
    16.7968  16.9404  17.0186  17.0466  17.0470  17.0657  17.1109  17.1293
    17.1309  17.2244  17.2462  17.3761  17.5037  17.5539  17.6335  18.1621
    18.1738  18.3100  18.3560  18.4222  18.4573  18.4729  18.6553  18.6887
    18.9847  19.0195  19.0727  19.0798  19.1038  19.1265  19.3694  19.4172
    19.4513  19.6219  19.6532  19.6848  19.7055  19.7329  20.0422  20.0987
    20.3701  20.4646  20.4809  20.4993  20.5801  20.6180  20.6492  20.6555
    20.6695  20.7159  20.7193  20.9103  20.9411  20.9420  20.9788  21.0487
    21.1195  21.3245

          k = 0.1661 0.3315 0.0000 (  9577 PWs)   bands (ev):

   -67.2445 -66.8119 -66.7979 -52.6469 -52.6331 -52.6068 -52.5998 -52.5573
   -51.7976 -51.7955 -51.7942 -51.7917 -51.7872 -51.7854 -51.7787 -51.7702
   -33.3330 -33.3228 -33.3227 -32.9101 -32.9101 -32.9027 -32.8976 -32.8973
   -32.8841 -24.1610 -24.1595 -24.1426 -24.1111 -24.1064 -24.0635 -24.0439
   -24.0369 -24.0273 -24.0188 -23.9824 -23.9530 -23.9277 -23.8935 -23.8818
   -23.2640 -23.2186 -23.2020 -23.1820 -23.1763 -23.1659 -23.1654 -23.1521
   -23.1428 -23.0965 -23.0942 -23.0873 -23.0818 -23.0764 -23.0680 -23.0619
   -23.0515 -23.0496 -23.0462 -23.0414 -23.0333 -23.0314 -23.0037 -23.0000
    12.1394  13.6886  14.7606  14.9708  15.3084  15.3649  15.4704  15.5137
    15.5403  15.5614  15.6259  15.7010  15.7563  16.0007  16.0943  16.4290
    16.5022  16.6033  16.8944  16.9850  16.9861  17.0010  17.1744  17.2471
    17.2920  17.3013  17.4987  17.5202  17.5452  17.7474  17.8513  17.9634
    18.0144  18.1842  18.1980  18.2712  18.3081  18.3423  18.3871  18.4404
    18.4896  18.5694  18.7910  18.8579  18.8830  18.8947  18.9835  19.2231
    19.3974  19.5179  19.5380  19.8456  19.9273  20.0099  20.0286  20.1443
    20.2755  20.3794  20.3891  20.4689  20.5701  20.6193  20.6714  20.6887
    20.7496  20.7802  20.8117  20.8728  20.9408  21.0879  21.0953  21.1495
    21.1867  21.2114

          k = 0.3321 0.0000 0.1661 (  9577 PWs)   bands (ev):

   -67.2445 -66.8119 -66.7979 -52.6471 -52.6383 -52.6006 -52.5990 -52.5589
   -51.7985 -51.7945 -51.7942 -51.7921 -51.7866 -51.7855 -51.7790 -51.7703
   -33.3350 -33.3227 -33.3226 -32.9102 -32.9099 -32.9004 -32.8976 -32.8972
   -32.8843 -24.1755 -24.1627 -24.1365 -24.1112 -24.1016 -24.0851 -24.0646
   -24.0490 -24.0277 -24.0080 -23.9911 -23.9375 -23.8972 -23.8879 -23.8672
   -23.2415 -23.2152 -23.2097 -23.1951 -23.1745 -23.1657 -23.1576 -23.1561
   -23.1446 -23.1129 -23.1098 -23.0940 -23.0908 -23.0755 -23.0705 -23.0605
   -23.0524 -23.0487 -23.0436 -23.0372 -23.0285 -23.0218 -23.0047 -22.9883
    12.1416  13.6925  14.7932  14.9939  15.2987  15.3615  15.4389  15.5156
    15.5465  15.5775  15.6212  15.7178  15.7610  15.9458  16.0741  16.4378
    16.5397  16.5964  16.8985  16.9753  16.9976  17.0077  17.1983  17.2363
    17.2928  17.2984  17.4636  17.5114  17.5342  17.7456  17.8463  17.9514
    18.0146  18.1965  18.2081  18.2585  18.3048  18.3442  18.3731  18.4459
    18.4811  18.5611  18.7548  18.8514  18.8813  18.8941  19.0147  19.2230
    19.4067  19.5339  19.5368  19.8711  19.9274  19.9926  20.0347  20.1614
    20.2935  20.3913  20.4027  20.4790  20.5327  20.6223  20.6691  20.6811
    20.7580  20.7827  20.7987  20.8736  20.8852  21.0856  21.0908  21.1382
    21.1716  21.2396

          k = 0.1661-0.4973 0.0000 (  9608 PWs)   bands (ev):

   -67.2446 -66.8119 -66.7979 -52.6448 -52.6325 -52.6090 -52.6005 -52.5574
   -51.7970 -51.7934 -51.7911 -51.7905 -51.7901 -51.7895 -51.7748 -51.7742
   -33.3324 -33.3228 -33.3227 -32.9100 -32.9100 -32.9034 -32.8977 -32.8974
   -32.8842 -24.1494 -24.1415 -24.1034 -24.0977 -24.0908 -24.0768 -24.0673
   -24.0369 -24.0296 -24.0274 -24.0137 -23.9642 -23.9490 -23.8937 -23.8822
   -23.2594 -23.2139 -23.1883 -23.1776 -23.1632 -23.1629 -23.1306 -23.1241
   -23.1231 -23.1180 -23.1162 -23.1093 -23.0933 -23.0927 -23.0815 -23.0621
   -23.0544 -23.0410 -23.0409 -23.0341 -23.0292 -23.0237 -23.0221 -23.0200
    12.7947  12.8555  14.8670  14.9535  15.4538  15.4822  15.5126  15.5727
    15.7378  15.8552  15.8658  15.9041  15.9666  16.0157  16.0204  16.0751
    16.1146  16.1932  16.9137  16.9146  16.9341  16.9434  17.4816  17.4880
    17.5287  17.5372  17.5736  17.5768  17.6778  17.7418  17.9472  17.9553
    17.9635  18.0167  18.1836  18.1877  18.2261  18.2498  18.2540  18.2579
    18.2594  18.3021  18.3574  18.3768  18.3937  18.4313  19.0842  19.1204
    19.8145  19.8244  19.9016  19.9314  19.9567  20.0496  20.1404  20.1532
    20.1938  20.2455  20.3590  20.3874  20.4839  20.5475  20.5951  20.6570
    20.6773  20.7556  20.9372  20.9515  20.9738  20.9927  21.1217  21.1429
    21.1438  21.1557

          k =-0.4982 0.0000 0.1661 (  9608 PWs)   bands (ev):

   -67.2446 -66.8119 -66.7979 -52.6433 -52.6414 -52.5999 -52.5999 -52.5594
   -51.7979 -51.7929 -51.7903 -51.7902 -51.7901 -51.7898 -51.7748 -51.7745
   -33.3350 -33.3227 -33.3226 -32.9101 -32.9099 -32.9003 -32.8975 -32.8974
   -32.8844 -24.1475 -24.1311 -24.1310 -24.1238 -24.1010 -24.0961 -24.0598
   -24.0463 -24.0301 -24.0263 -24.0164 -23.9521 -23.8967 -23.8804 -23.8767
   -23.2219 -23.2128 -23.2001 -23.1766 -23.1710 -23.1495 -23.1479 -23.1391
   -23.1323 -23.1264 -23.1199 -23.1162 -23.1005 -23.0885 -23.0871 -23.0779
   -23.0504 -23.0464 -23.0363 -23.0351 -23.0274 -23.0133 -23.0071 -23.0066
    12.7926  12.8665  14.9159  14.9616  15.4736  15.4920  15.5127  15.5659
    15.7043  15.7410  15.8595  15.9545  15.9849  16.0120  16.0498  16.1218
    16.1239  16.1298  16.9187  16.9262  16.9373  16.9462  17.4585  17.5041
    17.5169  17.5568  17.5605  17.5744  17.6884  17.6990  17.9407  17.9447
    17.9620  17.9902  18.1358  18.1891  18.2422  18.2453  18.2456  18.2603
    18.2694  18.2724  18.3718  18.3967  18.4008  18.4302  19.0821  19.1205
    19.8113  19.8683  19.9069  19.9557  19.9654  20.0468  20.1497  20.1918
    20.2244  20.2253  20.3305  20.3688  20.5164  20.5238  20.5449  20.6645
    20.6757  20.7684  20.9118  20.9177  20.9569  20.9821  21.1355  21.1376
    21.1645  21.1711

          k = 0.3321 0.0000 0.3321 (  9582 PWs)   bands (ev):

   -67.2445 -66.8119 -66.7979 -52.6446 -52.6395 -52.6003 -52.5994 -52.5601
   -51.7987 -51.7930 -51.7919 -51.7912 -51.7877 -51.7823 -51.7823 -51.7735
   -33.3350 -33.3226 -33.3226 -32.9103 -32.9099 -32.9003 -32.8974 -32.8970
   -32.8844 -24.1592 -24.1553 -24.1252 -24.1239 -24.1029 -24.0904 -24.0533
   -24.0501 -24.0244 -23.9991 -23.9794 -23.9462 -23.9318 -23.8849 -23.8729
   -23.2231 -23.2051 -23.1966 -23.1947 -23.1754 -23.1673 -23.1658 -23.1443
   -23.1265 -23.1115 -23.1113 -23.1107 -23.1074 -23.1028 -23.1015 -23.0775
   -23.0525 -23.0430 -23.0327 -23.0313 -23.0186 -23.0108 -23.0107 -22.9853
    12.5539  13.9138  14.0511  14.7201  15.5814  15.6236  15.6486  15.7140
    15.7350  15.7837  15.7844  15.9391  15.9540  16.0129  16.1912  16.3812
    16.5094  16.6776  16.8169  16.9367  17.0711  17.1156  17.1329  17.1684
    17.1825  17.2520  17.3606  17.3959  17.4679  17.8000  17.8165  17.8582
    17.9086  17.9220  17.9886  18.0908  18.1510  18.1629  18.1665  18.2157
    18.2779  18.3623  18.3759  18.5138  18.5292  18.8048  18.9258  19.1336
    19.6504  19.7946  19.8049  19.9477  20.0092  20.0197  20.0508  20.2736
    20.2775  20.3358  20.3800  20.4194  20.4383  20.4717  20.4941  20.5929
    20.6282  20.6362  20.7155  20.7265  20.8544  20.8677  20.9375  20.9884
    21.0013  21.0700

          k = 0.3321-0.4973 0.0000 (  9578 PWs)   bands (ev):

   -67.2445 -66.8119 -66.7979 -52.6418 -52.6344 -52.6072 -52.6023 -52.5584
   -51.7958 -51.7942 -51.7924 -51.7896 -51.7868 -51.7863 -51.7780 -51.7774
   -33.3323 -33.3227 -33.3226 -32.9100 -32.9100 -32.9038 -32.8976 -32.8968
   -32.8840 -24.1470 -24.1238 -24.1134 -24.1124 -24.0916 -24.0881 -24.0632
   -24.0287 -24.0285 -24.0003 -23.9881 -23.9587 -23.9563 -23.9222 -23.8834
   -23.2380 -23.2226 -23.1742 -23.1738 -23.1643 -23.1628 -23.1478 -23.1453
   -23.1392 -23.1248 -23.1225 -23.1216 -23.1143 -23.1016 -23.0899 -23.0562
   -23.0329 -23.0318 -23.0278 -23.0274 -23.0267 -23.0237 -23.0160 -23.0153
    13.1561  13.2219  14.3095  14.3912  15.7164  15.7702  15.7911  15.8320
    15.8599  15.9765  16.0568  16.0743  16.0849  16.1008  16.2208  16.2437
    16.2555  16.3483  16.9816  16.9826  17.0600  17.1099  17.1607  17.1672
    17.2007  17.2058  17.3296  17.4198  17.5831  17.5885  17.7857  17.8007
    17.8526  17.8746  17.9481  17.9569  18.0477  18.0611  18.0794  18.1369
    18.1668  18.2216  18.2656  18.2819  18.3644  18.3672  19.1845  19.1944
    19.7660  19.8162  20.0458  20.0745  20.1091  20.1098  20.1539  20.1899
    20.2115  20.2323  20.2610  20.2763  20.3097  20.3217  20.5313  20.5923
    20.7175  20.7320  20.7357  20.7713  20.7719  20.8193  20.8393  20.8821
    20.9309  20.9439

          k =-0.4982 0.0000 0.3321 (  9578 PWs)   bands (ev):

   -67.2445 -66.8119 -66.7979 -52.6421 -52.6414 -52.5999 -52.5999 -52.5608
   -51.7986 -51.7936 -51.7896 -51.7896 -51.7869 -51.7866 -51.7781 -51.7778
   -33.3350 -33.3226 -33.3226 -32.9102 -32.9101 -32.9002 -32.8972 -32.8971
   -32.8844 -24.1474 -24.1444 -24.1287 -24.1286 -24.1072 -24.1065 -24.0355
   -24.0227 -24.0149 -24.0052 -23.9972 -23.9626 -23.9373 -23.8801 -23.8789
   -23.2036 -23.2024 -23.1936 -23.1911 -23.1750 -23.1695 -23.1531 -23.1439
   -23.1408 -23.1230 -23.1182 -23.1182 -23.1116 -23.1094 -23.0954 -23.0913
   -23.0531 -23.0403 -23.0247 -23.0235 -23.0234 -23.0172 -22.9943 -22.9930
    13.1523  13.2335  14.3325  14.3965  15.7739  15.7754  15.7868  15.8183
    15.8565  15.8615  16.0661  16.1022  16.1171  16.1499  16.2027  16.2309
    16.2647  16.3263  16.9829  16.9918  17.0522  17.0662  17.1494  17.1953
    17.2091  17.2365  17.3420  17.3653  17.5742  17.5777  17.7872  17.8077
    17.8281  17.8651  17.9375  17.9587  17.9780  18.0574  18.1406  18.1438
    18.2085  18.2151  18.2463  18.2985  18.3459  18.3590  19.1857  19.1913
    19.7552  19.8264  20.0846  20.0961  20.0968  20.1071  20.1495  20.1967
    20.2333  20.2562  20.2613  20.2759  20.2934  20.3366  20.4812  20.5964
    20.6924  20.7310  20.7326  20.7609  20.7625  20.8061  20.8132  20.8693
    20.9223  20.9684

          k =-0.4982 0.0000-0.4982 (  9580 PWs)   bands (ev):

   -67.2445 -66.8119 -66.7979 -52.6414 -52.6414 -52.5999 -52.5999 -52.5615
   -51.7989 -51.7938 -51.7893 -51.7893 -51.7826 -51.7823 -51.7823 -51.7821
   -33.3350 -33.3226 -33.3226 -32.9102 -32.9102 -32.9003 -32.8970 -32.8970
   -32.8844 -24.1519 -24.1501 -24.1276 -24.1276 -24.1110 -24.1061 -24.0209
   -24.0053 -23.9959 -23.9867 -23.9867 -23.9830 -23.9755 -23.8800 -23.8800
   -23.2009 -23.2009 -23.1833 -23.1820 -23.1710 -23.1710 -23.1637 -23.1540
   -23.1540 -23.1380 -23.1358 -23.1074 -23.1066 -23.1066 -23.0977 -23.0975
   -23.0544 -23.0334 -23.0231 -23.0231 -23.0196 -23.0196 -22.9889 -22.9873
    13.6039  13.7564  13.8001  13.8001  15.8988  15.8988  15.9512  15.9801
    15.9914  16.0351  16.1772  16.1772  16.1882  16.1882  16.2586  16.2912
    16.5816  16.5816  16.7683  16.9071  16.9821  16.9824  16.9999  16.9999
    17.0622  17.0622  17.3444  17.3710  17.5921  17.5921  17.6297  17.6993
    17.7015  17.7015  17.7199  17.7321  17.8693  17.9540  18.0240  18.0240
    18.1725  18.1725  18.1748  18.2408  18.7584  18.7584  18.8701  18.8807
    19.7760  19.8720  19.9766  19.9766  20.2842  20.2996  20.3200  20.3200
    20.3468  20.3523  20.3737  20.3737  20.3816  20.3816  20.3870  20.4052
    20.4052  20.4984  20.5285  20.5587  20.6987  20.7099  20.7990  20.7990
    20.8083  20.8219

          k = 0.1661 0.3315 0.1661 (  9577 PWs)   bands (ev):

   -67.2445 -66.8119 -66.7979 -52.6457 -52.6338 -52.6064 -52.6003 -52.5579
   -51.7969 -51.7954 -51.7934 -51.7915 -51.7862 -51.7859 -51.7798 -51.7714
   -33.3330 -33.3227 -33.3227 -32.9101 -32.9100 -32.9028 -32.8975 -32.8973
   -32.8841 -24.1590 -24.1441 -24.1402 -24.1090 -24.1011 -24.0725 -24.0538
   -24.0317 -24.0220 -24.0214 -23.9866 -23.9476 -23.9300 -23.8971 -23.8930
   -23.2549 -23.2170 -23.1991 -23.1816 -23.1756 -23.1650 -23.1595 -23.1493
   -23.1414 -23.1042 -23.0981 -23.0970 -23.0861 -23.0742 -23.0690 -23.0665
   -23.0592 -23.0485 -23.0466 -23.0357 -23.0338 -23.0245 -23.0063 -23.0013
    12.2806  13.7965  14.7806  14.9836  15.0486  15.1990  15.4961  15.5236
    15.6305  15.6309  15.7907  15.8324  15.9535  16.1633  16.1700  16.4315
    16.5199  16.6519  16.8926  17.0060  17.0255  17.0710  17.0921  17.2246
    17.2258  17.2602  17.4415  17.4667  17.5722  17.7147  17.7452  17.7689
    18.0408  18.0687  18.1391  18.2034  18.2387  18.3001  18.3257  18.3310
    18.3579  18.4022  18.5887  18.6585  18.7078  18.7148  19.0297  19.0465
    19.5493  19.5976  19.6447  19.9181  19.9895  20.0580  20.1752  20.1988
    20.2282  20.3496  20.4264  20.4829  20.4988  20.5457  20.6668  20.6896
    20.7285  20.7502  20.7721  20.8083  20.8326  21.0087  21.0293  21.1360
    21.1552  21.2467

          k = 0.1661-0.4973 0.1661 (  9588 PWs)   bands (ev):

   -67.2445 -66.8119 -66.7979 -52.6437 -52.6330 -52.6084 -52.6011 -52.5579
   -51.7965 -51.7934 -51.7906 -51.7900 -51.7895 -51.7894 -51.7759 -51.7753
   -33.3323 -33.3227 -33.3227 -32.9100 -32.9100 -32.9035 -32.8976 -32.8972
   -32.8841 -24.1431 -24.1357 -24.1022 -24.0999 -24.0950 -24.0841 -24.0620
   -24.0342 -24.0295 -24.0186 -24.0058 -23.9639 -23.9534 -23.8984 -23.8927
   -23.2505 -23.2147 -23.1893 -23.1732 -23.1673 -23.1586 -23.1361 -23.1331
   -23.1250 -23.1208 -23.1121 -23.1120 -23.0961 -23.0931 -23.0714 -23.0669
   -23.0631 -23.0464 -23.0377 -23.0336 -23.0315 -23.0193 -23.0181 -23.0167
    12.9222  12.9850  14.9029  15.0218  15.1383  15.1508  15.7523  15.7943
    15.8665  15.9440  15.9761  15.9993  16.0037  16.0494  16.0992  16.1268
    16.1698  16.2436  16.9349  16.9363  16.9980  17.0121  17.4174  17.4341
    17.4663  17.4777  17.4995  17.5042  17.5608  17.6329  17.9363  17.9371
    17.9682  17.9716  18.0467  18.0626  18.1170  18.1365  18.1532  18.1611
    18.1841  18.1958  18.2021  18.2185  18.2514  18.2942  19.1679  19.1810
    19.8984  19.9080  19.9606  19.9745  19.9955  20.0605  20.0624  20.0685
    20.1722  20.1933  20.2221  20.2613  20.5821  20.6520  20.6614  20.6909
    20.7303  20.8005  20.8979  20.9203  20.9416  20.9549  21.0133  21.0482
    21.0509  21.0901

          k = 0.3321 0.1658 0.3321 (  9595 PWs)   bands (ev):

   -67.2446 -66.8119 -66.7979 -52.6434 -52.6386 -52.6016 -52.6003 -52.5601
   -51.7977 -51.7931 -51.7913 -51.7909 -51.7870 -51.7832 -51.7829 -51.7746
   -33.3343 -33.3226 -33.3226 -32.9102 -32.9099 -32.9012 -32.8973 -32.8971
   -32.8843 -24.1498 -24.1433 -24.1197 -24.1184 -24.1054 -24.0789 -24.0503
   -24.0480 -24.0239 -24.0045 -23.9915 -23.9480 -23.9356 -23.8953 -23.8920
   -23.2194 -23.1979 -23.1962 -23.1923 -23.1742 -23.1658 -23.1591 -23.1458
   -23.1240 -23.1144 -23.1126 -23.1104 -23.1054 -23.1020 -23.0872 -23.0767
   -23.0547 -23.0462 -23.0449 -23.0321 -23.0246 -23.0156 -23.0078 -22.9934
    12.6908  14.0273  14.1718  14.8541  15.1340  15.4240  15.5753  15.7562
    15.8129  15.9224  16.0179  16.0372  16.1388  16.2098  16.3070  16.4330
    16.5687  16.6858  16.7768  16.9148  16.9980  17.1300  17.1484  17.2308
    17.2493  17.2586  17.2627  17.3289  17.5183  17.6782  17.7353  17.7863
    17.8213  17.8501  17.8841  18.0158  18.0194  18.0571  18.0645  18.1263
    18.1534  18.1707  18.2208  18.2976  18.3109  18.5861  18.6141  19.1655
    19.8352  19.8804  19.9070  20.0633  20.0952  20.1318  20.1427  20.1789
    20.3505  20.4049  20.4265  20.4733  20.4846  20.5127  20.5294  20.5710
    20.6473  20.6908  20.7051  20.8667  20.8760  20.9268  20.9779  21.0015
    21.0217  21.0577

          k = 0.3321-0.4973 0.1661 (  9574 PWs)   bands (ev):

   -67.2445 -66.8119 -66.7979 -52.6410 -52.6347 -52.6069 -52.6026 -52.5590
   -51.7952 -51.7937 -51.7916 -51.7891 -51.7870 -51.7867 -51.7789 -51.7784
   -33.3323 -33.3227 -33.3226 -32.9100 -32.9099 -32.9037 -32.8976 -32.8969
   -32.8840 -24.1362 -24.1165 -24.1083 -24.1062 -24.0893 -24.0881 -24.0621
   -24.0309 -24.0263 -23.9973 -23.9922 -23.9658 -23.9633 -23.9285 -23.8991
   -23.2296 -23.2166 -23.1793 -23.1769 -23.1607 -23.1540 -23.1499 -23.1414
   -23.1395 -23.1195 -23.1194 -23.1157 -23.1070 -23.1006 -23.0867 -23.0603
   -23.0458 -23.0398 -23.0381 -23.0348 -23.0286 -23.0216 -23.0167 -23.0148
    13.2856  13.3529  14.4363  14.5210  15.3657  15.4199  15.9723  15.9996
    16.0136  16.0190  16.0530  16.1193  16.2074  16.2595  16.3088  16.3232
    16.3288  16.4049  17.0134  17.0146  17.0835  17.1106  17.1128  17.1367
    17.2294  17.2446  17.3374  17.4091  17.5392  17.5489  17.6342  17.6573
    17.7344  17.7844  17.8751  17.8936  17.9286  17.9297  17.9561  17.9810
    18.0145  18.0572  18.0927  18.1224  18.1743  18.1796  18.9425  18.9471
    19.9607  20.0081  20.0925  20.0955  20.1562  20.1957  20.2040  20.2493
    20.2616  20.3184  20.3191  20.3508  20.5335  20.5467  20.5862  20.6100
    20.7342  20.7746  20.7808  20.8261  20.8460  20.8589  20.8876  20.8938
    20.9516  20.9762

          k =-0.4982 0.1658 0.3321 (  9574 PWs)   bands (ev):

   -67.2445 -66.8119 -66.7979 -52.6410 -52.6403 -52.6010 -52.6010 -52.5608
   -51.7976 -51.7931 -51.7890 -51.7890 -51.7872 -51.7870 -51.7789 -51.7787
   -33.3343 -33.3226 -33.3226 -32.9101 -32.9100 -32.9011 -32.8972 -32.8971
   -32.8843 -24.1396 -24.1368 -24.1206 -24.1197 -24.0980 -24.0958 -24.0397
   -24.0222 -24.0159 -24.0115 -24.0027 -23.9696 -23.9409 -23.8959 -23.8948
   -23.2004 -23.1993 -23.1929 -23.1873 -23.1717 -23.1678 -23.1523 -23.1408
   -23.1360 -23.1195 -23.1163 -23.1100 -23.1085 -23.1068 -23.0925 -23.0902
   -23.0565 -23.0451 -23.0336 -23.0290 -23.0272 -23.0230 -22.9994 -22.9978
    13.2807  13.3642  14.4629  14.5259  15.3443  15.4209  15.9728  15.9773
    16.0267  16.0345  16.0639  16.1180  16.2121  16.2494  16.3163  16.3348
    16.3472  16.3673  17.0140  17.0245  17.0718  17.0816  17.1107  17.1706
    17.2344  17.2445  17.3386  17.3625  17.5305  17.5370  17.6350  17.6471
    17.7364  17.7736  17.8795  17.8997  17.9144  17.9251  17.9876  17.9881
    18.0388  18.0457  18.1041  18.1326  18.1496  18.1652  18.9360  18.9404
    19.9709  20.0213  20.1016  20.1021  20.1746  20.1850  20.2320  20.2437
    20.2760  20.3088  20.3327  20.3449  20.5040  20.5426  20.5525  20.6129
    20.7337  20.7586  20.7737  20.7949  20.8463  20.8482  20.8777  20.9087
    20.9813  20.9864

          k =-0.4982 0.1658-0.4982 (  9588 PWs)   bands (ev):

   -67.2446 -66.8119 -66.7979 -52.6403 -52.6403 -52.6010 -52.6010 -52.5615
   -51.7978 -51.7932 -51.7888 -51.7888 -51.7832 -51.7832 -51.7828 -51.7828
   -33.3343 -33.3226 -33.3226 -32.9101 -32.9101 -32.9010 -32.8971 -32.8971
   -32.8843 -24.1430 -24.1405 -24.1130 -24.1130 -24.1047 -24.0991 -24.0230
   -24.0098 -24.0011 -23.9959 -23.9877 -23.9859 -23.9859 -23.8985 -23.8985
   -23.1926 -23.1926 -23.1812 -23.1810 -23.1717 -23.1717 -23.1653 -23.1461
   -23.1461 -23.1261 -23.1239 -23.1082 -23.1053 -23.1053 -23.0948 -23.0947
   -23.0577 -23.0385 -23.0315 -23.0315 -23.0256 -23.0256 -22.9976 -22.9960
    13.7304  13.8850  13.9359  13.9359  15.6590  15.7517  15.8935  15.8935
    16.0181  16.0181  16.1776  16.3002  16.3837  16.4517  16.4733  16.4733
    16.6058  16.6058  16.7799  16.9195  16.9390  16.9390  17.0009  17.0013
    17.1369  17.1369  17.3499  17.3758  17.4672  17.4672  17.4943  17.5239
    17.6621  17.6621  17.6814  17.6933  17.8222  17.8274  17.8687  17.8687
    18.0064  18.0064  18.0435  18.0804  18.4837  18.4837  18.5055  18.5101
    20.0791  20.1870  20.1976  20.1976  20.3142  20.3396  20.4013  20.4013
    20.4224  20.4224  20.4525  20.4642  20.4642  20.5451  20.5494  20.5593
    20.5593  20.5665  20.5772  20.6056  20.7096  20.7447  20.7864  20.7864
    20.8000  20.8574

          k = 0.3321-0.4973 0.3321 (  9598 PWs)   bands (ev):

   -67.2446 -66.8119 -66.7979 -52.6391 -52.6355 -52.6060 -52.6035 -52.5602
   -51.7937 -51.7926 -51.7905 -51.7874 -51.7873 -51.7868 -51.7813 -51.7809
   -33.3323 -33.3226 -33.3226 -32.9099 -32.9098 -32.9035 -32.8975 -32.8971
   -32.8841 -24.1147 -24.0985 -24.0959 -24.0923 -24.0880 -24.0816 -24.0565
   -24.0356 -24.0220 -24.0013 -23.9903 -23.9833 -23.9796 -23.9470 -23.9328
   -23.2089 -23.2032 -23.1804 -23.1760 -23.1588 -23.1496 -23.1492 -23.1364
   -23.1354 -23.1179 -23.1146 -23.1045 -23.1014 -23.0935 -23.0698 -23.0650
   -23.0640 -23.0547 -23.0498 -23.0467 -23.0359 -23.0289 -23.0259 -23.0222
    13.6541  13.7243  14.7091  14.8277  14.9241  14.9557  15.8059  15.8452
    16.2749  16.2955  16.3015  16.3632  16.3815  16.4074  16.5207  16.5521
    16.5606  16.6126  17.0210  17.0316  17.0996  17.1065  17.1154  17.1501
    17.1698  17.1949  17.3933  17.4002  17.4157  17.4338  17.4732  17.4741
    17.5481  17.5494  17.6172  17.6593  17.6638  17.6663  17.7135  17.7407
    17.7481  17.8006  17.8096  17.8309  17.8892  17.8960  18.4137  18.4186
    20.2626  20.2758  20.3187  20.3405  20.3409  20.3880  20.4214  20.4423
    20.4730  20.4831  20.4832  20.4934  20.6130  20.6615  20.7433  20.7483
    20.7562  20.7967  20.8016  20.8079  20.8279  20.8411  20.8860  20.9108
    20.9108  20.9178

          k =-0.4982 0.3315-0.4982 (  9632 PWs)   bands (ev):

   -67.2446 -66.8120 -66.7980 -52.6380 -52.6380 -52.6034 -52.6034 -52.5614
   -51.7947 -51.7918 -51.7875 -51.7875 -51.7863 -51.7847 -51.7840 -51.7840
   -33.3330 -33.3226 -33.3226 -32.9099 -32.9099 -32.9025 -32.8973 -32.8973
   -32.8843 -24.1190 -24.1129 -24.0898 -24.0808 -24.0735 -24.0735 -24.0340
   -24.0300 -24.0182 -24.0165 -24.0139 -23.9852 -23.9852 -23.9449 -23.9449
   -23.1790 -23.1763 -23.1753 -23.1753 -23.1691 -23.1690 -23.1690 -23.1339
   -23.1339 -23.1097 -23.0980 -23.0980 -23.0957 -23.0937 -23.0875 -23.0871
   -23.0661 -23.0510 -23.0502 -23.0502 -23.0416 -23.0416 -23.0219 -23.0202
    14.0909  14.2470  14.3208  14.3208  15.1965  15.3534  15.4637  15.4637
    16.3504  16.3504  16.4853  16.6264  16.6686  16.6686  16.7446  16.8009
    16.8047  16.8239  16.8239  16.8531  16.8531  16.9474  17.0396  17.0398
    17.2559  17.2559  17.3080  17.3080  17.3364  17.3676  17.3766  17.4011
    17.4833  17.4833  17.5106  17.5505  17.5697  17.5697  17.5852  17.5963
    17.6842  17.6842  17.7362  17.7543  17.9005  17.9175  17.9542  17.9542
    20.4141  20.4221  20.4321  20.5175  20.5175  20.5335  20.5335  20.5839
    20.5839  20.6094  20.6332  20.6536  20.6641  20.6641  20.7018  20.7483
    20.7483  20.7680  20.7713  20.7802  20.7904  20.8706  20.8843  20.8843
    21.0142  21.0142

     the Fermi energy is    19.4507 ev

!    total energy              =   -4214.53584031 Ry
     total all-electron energy =    -34959.350261 Ry
     estimated scf accuracy    <          6.2E-09 Ry
     smearing contrib. (-TS)   =       0.00007510 Ry
     internal energy E=F+TS    =   -4214.53591540 Ry

     The total energy is F=E-TS. E is the sum of the following terms:
     one-electron contribution =   -1053.54888180 Ry
     hartree contribution      =     669.77224198 Ry
     xc contribution           =    -372.93513923 Ry
     ewald contribution        =   -2244.23900733 Ry
     one-center paw contrib.   =   -1213.58512902 Ry

     total magnetization       =     5.42 Bohr mag/cell
     absolute magnetization    =    14.00 Bohr mag/cell

     convergence has been achieved in  35 iterations

     Forces acting on atoms (cartesian axes, Ry/au):

     atom    1 type  2   force =     0.00057993   -0.00145170    0.00057993
     atom    2 type  1   force =     0.00000000    0.00000000    0.00000000
     atom    3 type  2   force =     0.00057993   -0.00145170   -0.00057993
     atom    4 type  2   force =     0.00000000    0.00000000    0.00000000
     atom    5 type  2   force =     0.00057993    0.00145170    0.00057993
     atom    6 type  2   force =     0.00000000    0.00000000    0.00000000
     atom    7 type  2   force =     0.00057993    0.00145170   -0.00057993
     atom    8 type  2   force =     0.00000000    0.00000000    0.00000000
     atom    9 type  2   force =    -0.00057993   -0.00145170    0.00057993
     atom   10 type  2   force =     0.00000000    0.00000000    0.00000000
     atom   11 type  2   force =    -0.00057993   -0.00145170   -0.00057993
     atom   12 type  1   force =     0.00000000    0.00000000    0.00000000
     atom   13 type  2   force =    -0.00057993    0.00145170    0.00057993
     atom   14 type  2   force =     0.00000000    0.00000000    0.00000000
     atom   15 type  2   force =    -0.00057993    0.00145170   -0.00057993
     atom   16 type  1   force =     0.00000000    0.00000000    0.00000000

     Total force =     0.004716     Total SCF correction =     0.000182


     Computing stress (Cartesian axis) and pressure

          total   stress  (Ry/bohr**3)                   (kbar)     P=       -0.75
  -0.00001044   0.00000000   0.00000000           -1.54        0.00        0.00
   0.00000000   0.00000563   0.00000000            0.00        0.83        0.00
   0.00000000   0.00000000  -0.00001044            0.00        0.00       -1.54

     Energy error            =      8.0E-05 Ry
     Gradient error          =      1.5E-03 Ry/Bohr
     Cell gradient error     =      1.5E+00 kbar

     number of scf cycles    =   3
     number of bfgs steps    =   2

     enthalpy           old  =   -4214.5357607224 Ry
     enthalpy           new  =   -4214.5358403060 Ry

     CASE: enthalpy          _new < enthalpy          _old

     new trust radius        =       0.0038703707 bohr
     new conv_thr            =       0.0000000010 Ry

     new unit-cell volume =   1236.86514 a.u.^3 (   183.28450 Ang^3 )
     density =      7.64187 g/cm^3

CELL_PARAMETERS (angstrom)
   5.675250783   0.000000000   0.000000000
   0.000000000   5.690568237   0.000000000
   0.000000000   0.000000000   5.675250783

ATOMIC_POSITIONS (crystal)
Cr               0.0004120962       -0.0009236272        0.0004120962
Fe               0.2500000000        0.2500000000        0.2500000000
Cr               0.0004120962       -0.0009236272        0.4995879038
Cr               0.2500000000        0.2500000000        0.7500000000
Cr               0.0004120962        0.5009236272        0.0004120962
Cr               0.2500000000        0.7500000000        0.2500000000
Cr               0.0004120962        0.5009236272        0.4995879038
Cr               0.2500000000        0.7500000000        0.7500000000
Cr               0.4995879038       -0.0009236272        0.0004120962
Cr               0.7500000000        0.2500000000        0.2500000000
Cr               0.4995879038       -0.0009236272        0.4995879038
Fe               0.7500000000        0.2500000000        0.7500000000
Cr               0.4995879038        0.5009236272        0.0004120962
Cr               0.7500000000        0.7500000000        0.2500000000
Cr               0.4995879038        0.5009236272        0.4995879038
Fe               0.7500000000        0.7500000000        0.7500000000



     Writing config-only to output data dir ./tmp/fecr_fe03cr13_vcr.save/ :
     XML data file
     NEW-OLD atomic charge density approx. for the potential

     Check: negative core charge=   -0.000003
     Generating pointlists ...

     total cpu time spent up to now is     5604.0 secs

     Self-consistent Calculation

     iteration #  1     ecut=    60.00 Ry     beta= 0.30
     Davidson diagonalization with overlap
     ethr =  1.00E-06,  avg # of iterations =  6.0

     total cpu time spent up to now is     5641.1 secs

     total energy              =   -4214.53567201 Ry
     estimated scf accuracy    <       0.00033124 Ry

     total magnetization       =     5.42 Bohr mag/cell
     absolute magnetization    =    13.98 Bohr mag/cell

     iteration #  2     ecut=    60.00 Ry     beta= 0.30
     Davidson diagonalization with overlap
     ethr =  1.44E-07,  avg # of iterations =  6.4

     total cpu time spent up to now is     5675.5 secs

     total energy              =   -4214.53528907 Ry
     estimated scf accuracy    <       0.01489161 Ry

     total magnetization       =     5.45 Bohr mag/cell
     absolute magnetization    =    14.00 Bohr mag/cell

     iteration #  3     ecut=    60.00 Ry     beta= 0.30
     Davidson diagonalization with overlap
     ethr =  1.44E-07,  avg # of iterations =  6.0

     total cpu time spent up to now is     5709.6 secs

     total energy              =   -4214.53580873 Ry
     estimated scf accuracy    <       0.00049088 Ry

     total magnetization       =     5.42 Bohr mag/cell
     absolute magnetization    =    13.98 Bohr mag/cell

     iteration #  4     ecut=    60.00 Ry     beta= 0.30
     Davidson diagonalization with overlap
     ethr =  1.44E-07,  avg # of iterations =  1.1

     total cpu time spent up to now is     5735.9 secs

     total energy              =   -4214.53583797 Ry
     estimated scf accuracy    <       0.00001559 Ry

     total magnetization       =     5.42 Bohr mag/cell
     absolute magnetization    =    13.98 Bohr mag/cell

     iteration #  5     ecut=    60.00 Ry     beta= 0.30
     Davidson diagonalization with overlap
     ethr =  6.78E-09,  avg # of iterations =  6.3

     total cpu time spent up to now is     5770.1 secs

     total energy              =   -4214.53585951 Ry
     estimated scf accuracy    <       0.00009064 Ry

     total magnetization       =     5.42 Bohr mag/cell
     absolute magnetization    =    13.98 Bohr mag/cell

     iteration #  6     ecut=    60.00 Ry     beta= 0.30
     Davidson diagonalization with overlap
     ethr =  6.78E-09,  avg # of iterations =  4.0

     total cpu time spent up to now is     5798.8 secs

     total energy              =   -4214.53586496 Ry
     estimated scf accuracy    <       0.00002522 Ry

     total magnetization       =     5.42 Bohr mag/cell
     absolute magnetization    =    13.98 Bohr mag/cell

     iteration #  7     ecut=    60.00 Ry     beta= 0.30
     Davidson diagonalization with overlap
     ethr =  6.78E-09,  avg # of iterations =  1.2

     total cpu time spent up to now is     5825.8 secs

     total energy              =   -4214.53587175 Ry
     estimated scf accuracy    <       0.00001137 Ry

     total magnetization       =     5.42 Bohr mag/cell
     absolute magnetization    =    13.97 Bohr mag/cell

     iteration #  8     ecut=    60.00 Ry     beta= 0.30
     Davidson diagonalization with overlap
     ethr =  4.94E-09,  avg # of iterations =  3.3

     total cpu time spent up to now is     5853.7 secs

     total energy              =   -4214.53587509 Ry
     estimated scf accuracy    <       0.00000422 Ry

     total magnetization       =     5.42 Bohr mag/cell
     absolute magnetization    =    13.97 Bohr mag/cell

     iteration #  9     ecut=    60.00 Ry     beta= 0.30
     Davidson diagonalization with overlap
     ethr =  1.83E-09,  avg # of iterations =  5.3

     total cpu time spent up to now is     5884.7 secs

     total energy              =   -4214.53587741 Ry
     estimated scf accuracy    <       0.00000424 Ry

     total magnetization       =     5.42 Bohr mag/cell
     absolute magnetization    =    13.97 Bohr mag/cell

     iteration # 10     ecut=    60.00 Ry     beta= 0.30
     Davidson diagonalization with overlap
     ethr =  1.83E-09,  avg # of iterations =  1.3

     total cpu time spent up to now is     5910.5 secs

     total energy              =   -4214.53587800 Ry
     estimated scf accuracy    <       0.00000136 Ry

     total magnetization       =     5.42 Bohr mag/cell
     absolute magnetization    =    13.97 Bohr mag/cell

     iteration # 11     ecut=    60.00 Ry     beta= 0.30
     Davidson diagonalization with overlap
     ethr =  5.93E-10,  avg # of iterations =  4.8

     total cpu time spent up to now is     5941.5 secs

     total energy              =   -4214.53587843 Ry
     estimated scf accuracy    <       0.00000075 Ry

     total magnetization       =     5.42 Bohr mag/cell
     absolute magnetization    =    13.96 Bohr mag/cell

     iteration # 12     ecut=    60.00 Ry     beta= 0.30
     Davidson diagonalization with overlap
     ethr =  3.27E-10,  avg # of iterations =  3.2

     total cpu time spent up to now is     5969.6 secs

     total energy              =   -4214.53587843 Ry
     estimated scf accuracy    <       0.00000073 Ry

     total magnetization       =     5.42 Bohr mag/cell
     absolute magnetization    =    13.96 Bohr mag/cell

     iteration # 13     ecut=    60.00 Ry     beta= 0.30
     Davidson diagonalization with overlap
     ethr =  3.18E-10,  avg # of iterations =  4.2

     total cpu time spent up to now is     5999.2 secs

     total energy              =   -4214.53587860 Ry
     estimated scf accuracy    <       0.00000029 Ry

     total magnetization       =     5.42 Bohr mag/cell
     absolute magnetization    =    13.96 Bohr mag/cell

     iteration # 14     ecut=    60.00 Ry     beta= 0.30
     Davidson diagonalization with overlap
     ethr =  1.25E-10,  avg # of iterations =  2.3

     total cpu time spent up to now is     6026.9 secs

     total energy              =   -4214.53587860 Ry
     estimated scf accuracy    <       0.00000031 Ry

     total magnetization       =     5.42 Bohr mag/cell
     absolute magnetization    =    13.96 Bohr mag/cell

     iteration # 15     ecut=    60.00 Ry     beta= 0.30
     Davidson diagonalization with overlap
     ethr =  1.25E-10,  avg # of iterations =  1.1

     total cpu time spent up to now is     6052.9 secs

     total energy              =   -4214.53587865 Ry
     estimated scf accuracy    <       0.00000031 Ry

     total magnetization       =     5.42 Bohr mag/cell
     absolute magnetization    =    13.96 Bohr mag/cell

     iteration # 16     ecut=    60.00 Ry     beta= 0.30
     Davidson diagonalization with overlap
     ethr =  1.25E-10,  avg # of iterations =  3.4

     total cpu time spent up to now is     6080.8 secs

     total energy              =   -4214.53587872 Ry
     estimated scf accuracy    <       0.00000024 Ry

     total magnetization       =     5.42 Bohr mag/cell
     absolute magnetization    =    13.95 Bohr mag/cell

     iteration # 17     ecut=    60.00 Ry     beta= 0.30
     Davidson diagonalization with overlap
     ethr =  1.03E-10,  avg # of iterations =  4.9

     total cpu time spent up to now is     6111.1 secs

     total energy              =   -4214.53587884 Ry
     estimated scf accuracy    <       0.00000022 Ry

     total magnetization       =     5.42 Bohr mag/cell
     absolute magnetization    =    13.95 Bohr mag/cell

     iteration # 18     ecut=    60.00 Ry     beta= 0.30
     Davidson diagonalization with overlap
     ethr =  9.40E-11,  avg # of iterations =  3.0

     total cpu time spent up to now is     6138.6 secs

     total energy              =   -4214.53587888 Ry
     estimated scf accuracy    <       0.00000014 Ry

     total magnetization       =     5.42 Bohr mag/cell
     absolute magnetization    =    13.95 Bohr mag/cell

     iteration # 19     ecut=    60.00 Ry     beta= 0.30
     Davidson diagonalization with overlap
     ethr =  6.12E-11,  avg # of iterations =  5.5

     total cpu time spent up to now is     6170.7 secs

     total energy              =   -4214.53587811 Ry
     estimated scf accuracy    <       0.00000006 Ry

     total magnetization       =     5.42 Bohr mag/cell
     absolute magnetization    =    13.94 Bohr mag/cell

     iteration # 20     ecut=    60.00 Ry     beta= 0.30
     Davidson diagonalization with overlap
     ethr =  2.61E-11,  avg # of iterations =  8.0

     total cpu time spent up to now is     6208.5 secs

     total energy              =   -4214.53587838 Ry
     estimated scf accuracy    <       0.00000010 Ry

     total magnetization       =     5.42 Bohr mag/cell
     absolute magnetization    =    13.96 Bohr mag/cell

     iteration # 21     ecut=    60.00 Ry     beta= 0.30
     Davidson diagonalization with overlap
     ethr =  2.61E-11,  avg # of iterations =  8.6

     total cpu time spent up to now is     6248.0 secs

     total energy              =   -4214.53587895 Ry
     estimated scf accuracy    <       0.00000022 Ry

     total magnetization       =     5.42 Bohr mag/cell
     absolute magnetization    =    13.94 Bohr mag/cell

     iteration # 22     ecut=    60.00 Ry     beta= 0.30
     Davidson diagonalization with overlap
     ethr =  2.61E-11,  avg # of iterations =  6.5

     total cpu time spent up to now is     6282.8 secs

     total energy              =   -4214.53587905 Ry
     estimated scf accuracy    <       0.00000012 Ry

     total magnetization       =     5.42 Bohr mag/cell
     absolute magnetization    =    13.93 Bohr mag/cell

     iteration # 23     ecut=    60.00 Ry     beta= 0.30
     Davidson diagonalization with overlap
     ethr =  2.61E-11,  avg # of iterations =  3.3

     total cpu time spent up to now is     6311.3 secs

     total energy              =   -4214.53587907 Ry
     estimated scf accuracy    <       0.00000018 Ry

     total magnetization       =     5.42 Bohr mag/cell
     absolute magnetization    =    13.93 Bohr mag/cell

     iteration # 24     ecut=    60.00 Ry     beta= 0.30
     Davidson diagonalization with overlap
     ethr =  2.61E-11,  avg # of iterations =  5.5

     total cpu time spent up to now is     6345.0 secs

     total energy              =   -4214.53587913 Ry
     estimated scf accuracy    <       0.00000020 Ry

     total magnetization       =     5.42 Bohr mag/cell
     absolute magnetization    =    13.93 Bohr mag/cell

     iteration # 25     ecut=    60.00 Ry     beta= 0.30
     Davidson diagonalization with overlap
     ethr =  2.61E-11,  avg # of iterations =  5.6

     total cpu time spent up to now is     6377.8 secs

     total energy              =   -4214.53587916 Ry
     estimated scf accuracy    <       0.00000005 Ry

     total magnetization       =     5.42 Bohr mag/cell
     absolute magnetization    =    13.93 Bohr mag/cell

     iteration # 26     ecut=    60.00 Ry     beta= 0.30
     Davidson diagonalization with overlap
     ethr =  2.29E-11,  avg # of iterations =  6.7

     total cpu time spent up to now is     6413.3 secs

     total energy              =   -4214.53587929 Ry
     estimated scf accuracy    <       0.00000002 Ry

     total magnetization       =     5.42 Bohr mag/cell
     absolute magnetization    =    13.92 Bohr mag/cell

     iteration # 27     ecut=    60.00 Ry     beta= 0.30
     Davidson diagonalization with overlap
     ethr =  9.96E-12,  avg # of iterations =  6.9

     total cpu time spent up to now is     6449.5 secs

     total energy              =   -4214.53587930 Ry
     estimated scf accuracy    <       0.00000002 Ry

     total magnetization       =     5.42 Bohr mag/cell
     absolute magnetization    =    13.91 Bohr mag/cell

     iteration # 28     ecut=    60.00 Ry     beta= 0.30
     Davidson diagonalization with overlap
     ethr =  8.11E-12,  avg # of iterations =  8.0

     total cpu time spent up to now is     6487.0 secs

     total energy              =   -4214.53587935 Ry
     estimated scf accuracy    <       0.00000002 Ry

     total magnetization       =     5.42 Bohr mag/cell
     absolute magnetization    =    13.91 Bohr mag/cell

     iteration # 29     ecut=    60.00 Ry     beta= 0.30
     Davidson diagonalization with overlap
     ethr =  6.81E-12,  avg # of iterations =  8.5

     total cpu time spent up to now is     6525.6 secs

     total energy              =   -4214.53587948 Ry
     estimated scf accuracy    <       0.00000003 Ry

     total magnetization       =     5.42 Bohr mag/cell
     absolute magnetization    =    13.90 Bohr mag/cell

     iteration # 30     ecut=    60.00 Ry     beta= 0.30
     Davidson diagonalization with overlap
     ethr =  6.81E-12,  avg # of iterations =  5.1

     total cpu time spent up to now is     6556.8 secs

     total energy              =   -4214.53587949 Ry
     estimated scf accuracy    <       0.00000001 Ry

     total magnetization       =     5.42 Bohr mag/cell
     absolute magnetization    =    13.90 Bohr mag/cell

     iteration # 31     ecut=    60.00 Ry     beta= 0.30
     Davidson diagonalization with overlap
     ethr =  4.53E-12,  avg # of iterations =  5.3

     total cpu time spent up to now is     6589.0 secs

     total energy              =   -4214.53587948 Ry
     estimated scf accuracy    <       0.00000001 Ry

     total magnetization       =     5.42 Bohr mag/cell
     absolute magnetization    =    13.90 Bohr mag/cell

     iteration # 32     ecut=    60.00 Ry     beta= 0.30
     Davidson diagonalization with overlap
     ethr =  4.53E-12,  avg # of iterations =  6.3

     total cpu time spent up to now is     6623.5 secs

     total energy              =   -4214.53587952 Ry
     estimated scf accuracy    <          6.8E-09 Ry

     total magnetization       =     5.42 Bohr mag/cell
     absolute magnetization    =    13.90 Bohr mag/cell

     iteration # 33     ecut=    60.00 Ry     beta= 0.30
     Davidson diagonalization with overlap
     ethr =  2.97E-12,  avg # of iterations =  5.4

     total cpu time spent up to now is     6656.3 secs

     total energy              =   -4214.53587952 Ry
     estimated scf accuracy    <       0.00000004 Ry

     total magnetization       =     5.42 Bohr mag/cell
     absolute magnetization    =    13.90 Bohr mag/cell

     iteration # 34     ecut=    60.00 Ry     beta= 0.30
     Davidson diagonalization with overlap
     ethr =  2.97E-12,  avg # of iterations =  3.9

     total cpu time spent up to now is     6687.9 secs

     total energy              =   -4214.53587952 Ry
     estimated scf accuracy    <       0.00000005 Ry

     total magnetization       =     5.42 Bohr mag/cell
     absolute magnetization    =    13.90 Bohr mag/cell

     iteration # 35     ecut=    60.00 Ry     beta= 0.30
     Davidson diagonalization with overlap
     ethr =  2.97E-12,  avg # of iterations =  4.3

     total cpu time spent up to now is     6717.2 secs

     total energy              =   -4214.53587952 Ry
     estimated scf accuracy    <          6.0E-09 Ry

     total magnetization       =     5.42 Bohr mag/cell
     absolute magnetization    =    13.90 Bohr mag/cell

     iteration # 36     ecut=    60.00 Ry     beta= 0.30
     Davidson diagonalization with overlap
     ethr =  2.60E-12,  avg # of iterations =  2.4

     total cpu time spent up to now is     6744.5 secs

     total energy              =   -4214.53587952 Ry
     estimated scf accuracy    <          3.9E-09 Ry

     total magnetization       =     5.42 Bohr mag/cell
     absolute magnetization    =    13.90 Bohr mag/cell

     iteration # 37     ecut=    60.00 Ry     beta= 0.30
     Davidson diagonalization with overlap
     ethr =  1.70E-12,  avg # of iterations =  6.0

     total cpu time spent up to now is     6779.1 secs

     total energy              =   -4214.53587953 Ry
     estimated scf accuracy    <          3.1E-09 Ry

     total magnetization       =     5.42 Bohr mag/cell
     absolute magnetization    =    13.90 Bohr mag/cell

     iteration # 38     ecut=    60.00 Ry     beta= 0.30
     Davidson diagonalization with overlap
     ethr =  1.37E-12,  avg # of iterations =  3.5

     total cpu time spent up to now is     6807.8 secs

     total energy              =   -4214.53587945 Ry
     estimated scf accuracy    <          5.1E-09 Ry

     total magnetization       =     5.42 Bohr mag/cell
     absolute magnetization    =    13.90 Bohr mag/cell

     iteration # 39     ecut=    60.00 Ry     beta= 0.30
     Davidson diagonalization with overlap
     ethr =  1.37E-12,  avg # of iterations =  9.6

     total cpu time spent up to now is     6850.1 secs

     total energy              =   -4214.53587954 Ry
     estimated scf accuracy    <          8.3E-09 Ry

     total magnetization       =     5.43 Bohr mag/cell
     absolute magnetization    =    13.89 Bohr mag/cell

     iteration # 40     ecut=    60.00 Ry     beta= 0.30
     Davidson diagonalization with overlap
     ethr =  1.37E-12,  avg # of iterations =  5.2

     total cpu time spent up to now is     6882.0 secs

     total energy              =   -4214.53587954 Ry
     estimated scf accuracy    <          2.6E-09 Ry

     total magnetization       =     5.43 Bohr mag/cell
     absolute magnetization    =    13.89 Bohr mag/cell

     iteration # 41     ecut=    60.00 Ry     beta= 0.30
     Davidson diagonalization with overlap
     ethr =  1.11E-12,  avg # of iterations =  2.0

     total cpu time spent up to now is     6909.3 secs

     total energy              =   -4214.53587954 Ry
     estimated scf accuracy    <          1.5E-09 Ry

     total magnetization       =     5.43 Bohr mag/cell
     absolute magnetization    =    13.89 Bohr mag/cell

     iteration # 42     ecut=    60.00 Ry     beta= 0.30
     Davidson diagonalization with overlap
     ethr =  6.66E-13,  avg # of iterations =  5.3

     total cpu time spent up to now is     6941.1 secs

     total energy              =   -4214.53587954 Ry
     estimated scf accuracy    <          1.0E-09 Ry

     total magnetization       =     5.43 Bohr mag/cell
     absolute magnetization    =    13.89 Bohr mag/cell

     iteration # 43     ecut=    60.00 Ry     beta= 0.30
     Davidson diagonalization with overlap
     ethr =  4.37E-13,  avg # of iterations =  3.8

     total cpu time spent up to now is     6970.7 secs

     total energy              =   -4214.53587954 Ry
     estimated scf accuracy    <          1.1E-09 Ry

     total magnetization       =     5.43 Bohr mag/cell
     absolute magnetization    =    13.89 Bohr mag/cell

     iteration # 44     ecut=    60.00 Ry     beta= 0.30
     Davidson diagonalization with overlap
     ethr =  4.37E-13,  avg # of iterations =  5.4
 
     Magnetic moment per site  (integrated on atomic sphere of radius R)
     atom   1 (R=0.179)  charge= 12.1603  magn=  0.7790
     atom   2 (R=0.179)  charge= 14.4809  magn=  1.1742
     atom   3 (R=0.179)  charge= 12.1603  magn=  0.7790
     atom   4 (R=0.179)  charge= 12.1811  magn= -0.7685
     atom   5 (R=0.179)  charge= 12.1603  magn=  0.7790
     atom   6 (R=0.179)  charge= 12.1993  magn= -0.7133
     atom   7 (R=0.179)  charge= 12.1603  magn=  0.7790
     atom   8 (R=0.179)  charge= 12.1913  magn= -0.7942
     atom   9 (R=0.179)  charge= 12.1603  magn=  0.7790
     atom  10 (R=0.179)  charge= 12.1811  magn= -0.7685
     atom  11 (R=0.179)  charge= 12.1603  magn=  0.7790
     atom  12 (R=0.179)  charge= 14.4644  magn=  0.6867
     atom  13 (R=0.179)  charge= 12.1603  magn=  0.7790
     atom  14 (R=0.179)  charge= 12.1913  magn= -0.7942
     atom  15 (R=0.179)  charge= 12.1603  magn=  0.7790
     atom  16 (R=0.179)  charge= 14.4783  magn=  1.1673

     total cpu time spent up to now is     7003.2 secs

     End of self-consistent calculation

 ------ SPIN UP ------------


          k = 0.0000 0.0000 0.0000 (  9627 PWs)   bands (ev):

   -68.1685 -68.1611 -68.0434 -52.6873 -52.6495 -52.6489 -52.6489 -52.6317
   -52.6317 -52.6312 -52.6149 -51.7684 -51.7676 -51.7498 -51.7483 -51.7460
   -34.2437 -34.2263 -34.2235 -34.2235 -34.2146 -34.2146 -34.1030 -34.0967
   -34.0967 -24.2701 -24.2302 -24.2302 -24.1742 -24.1742 -24.1312 -24.0989
   -24.0856 -24.0848 -24.0577 -24.0577 -24.0542 -23.9775 -23.9683 -23.9683
   -23.9099 -23.9099 -23.9085 -23.9011 -23.9011 -23.9008 -23.8971 -23.8841
   -23.8840 -23.2094 -23.1694 -23.1694 -23.1262 -23.1262 -23.0725 -23.0374
   -23.0319 -23.0319 -23.0108 -23.0108 -22.9909 -22.9719 -22.9696 -22.9696
    11.3618  14.6715  14.7126  14.8002  14.9603  14.9660  14.9660  14.9744
    14.9919  15.1412  15.2544  15.2750  15.2750  15.3225  15.4277  16.5988
    16.7109  16.7109  16.7950  16.7993  16.7993  16.8027  16.8027  16.9876
    16.9919  17.0019  17.0369  17.0369  17.1333  17.4040  17.4086  17.4086
    17.6208  18.1003  18.2240  18.2240  18.4765  18.5502  18.5502  18.6907
    18.7066  18.7066  18.7258  18.7443  18.7443  18.9904  19.0745  19.0745
    19.0856  19.3369  19.5067  19.7407  19.7819  19.8378  19.9019  19.9118
    20.1694  20.1694  20.2014  20.3151  20.3151  20.3285  20.3549  20.3549
    20.5066  20.5066  20.5825  20.6567  20.6599  20.6599  20.6747  20.6782
    20.7160  20.7331

          k = 0.0000 0.0000 0.1661 (  9595 PWs)   bands (ev):

   -68.1685 -68.1610 -68.0434 -52.6849 -52.6515 -52.6483 -52.6477 -52.6329
   -52.6324 -52.6306 -52.6160 -51.7680 -51.7663 -51.7499 -51.7495 -51.7464
   -34.2437 -34.2264 -34.2234 -34.2233 -34.2146 -34.2145 -34.1030 -34.0967
   -34.0966 -24.2541 -24.2230 -24.2171 -24.1694 -24.1629 -24.1252 -24.1022
   -24.0919 -24.0811 -24.0665 -24.0643 -24.0459 -23.9758 -23.9732 -23.9652
   -23.9289 -23.9257 -23.9096 -23.9091 -23.9085 -23.9035 -23.8998 -23.8903
   -23.8854 -23.1894 -23.1576 -23.1550 -23.1168 -23.1157 -23.0716 -23.0342
   -23.0327 -23.0326 -23.0186 -23.0163 -23.0027 -22.9816 -22.9773 -22.9761
    11.5140  14.4523  14.7662  14.7836  14.8913  15.0111  15.0159  15.0560
    15.0708  15.0881  15.2981  15.3064  15.3254  15.3683  15.7274  16.6017
    16.6317  16.6537  16.6851  16.7286  16.7464  16.7534  16.8155  16.8632
    16.9903  17.0208  17.0736  17.1843  17.1993  17.3032  17.3589  17.4011
    18.0078  18.1281  18.1527  18.1989  18.3634  18.3872  18.4109  18.5054
    18.5583  18.7113  18.7873  18.8153  18.8557  18.9128  18.9907  19.0072
    19.2334  19.3058  19.4447  19.5212  19.5866  19.6372  19.6694  19.8573
    19.8854  20.0294  20.0677  20.0913  20.1158  20.2219  20.3188  20.3309
    20.4138  20.4538  20.5603  20.5683  20.6639  20.6707  20.7096  20.7127
    20.7219  21.0046

          k = 0.0000 0.0000 0.3323 (  9606 PWs)   bands (ev):

   -68.1685 -68.1610 -68.0434 -52.6782 -52.6584 -52.6450 -52.6445 -52.6362
   -52.6356 -52.6275 -52.6191 -51.7670 -51.7626 -51.7530 -51.7500 -51.7473
   -34.2435 -34.2265 -34.2231 -34.2230 -34.2149 -34.2147 -34.1030 -34.0967
   -34.0966 -24.2101 -24.2037 -24.1857 -24.1555 -24.1264 -24.1226 -24.1160
   -24.1094 -24.0892 -24.0855 -24.0592 -24.0156 -23.9969 -23.9889 -23.9818
   -23.9586 -23.9530 -23.9318 -23.9236 -23.9189 -23.9054 -23.8967 -23.8962
   -23.8884 -23.1410 -23.1292 -23.1214 -23.0919 -23.0887 -23.0699 -23.0469
   -23.0416 -23.0354 -23.0337 -23.0241 -23.0204 -23.0128 -22.9966 -22.9876
    11.9581  13.5363  14.9341  14.9458  15.1473  15.1490  15.1767  15.2656
    15.2895  15.3370  15.3678  15.3710  15.3841  15.4301  15.7599  16.1279
    16.2121  16.4311  16.5823  16.6391  16.7024  16.7343  17.0219  17.0417
    17.1121  17.1713  17.1725  17.3373  17.3597  17.3634  17.6168  17.6784
    17.8355  17.8745  18.0505  18.0899  18.1317  18.1658  18.2610  18.3959
    18.3993  18.4648  18.5139  18.5884  18.6255  18.6299  18.8820  18.9973
    19.0501  19.0581  19.0651  19.2338  19.3648  19.4064  19.6084  19.6593
    19.8564  20.0103  20.0583  20.1225  20.1372  20.2382  20.3534  20.5028
    20.5155  20.5158  20.6743  20.6972  20.7059  20.7327  20.7444  20.8546
    20.9506  21.0418

          k = 0.0000 0.0000-0.4984 (  9626 PWs)   bands (ev):

   -68.1685 -68.1611 -68.0434 -52.6710 -52.6657 -52.6408 -52.6404 -52.6403
   -52.6399 -52.6236 -52.6231 -51.7665 -51.7578 -51.7577 -51.7501 -51.7477
   -34.2434 -34.2266 -34.2229 -34.2228 -34.2150 -34.2149 -34.1030 -34.0967
   -34.0966 -24.1879 -24.1632 -24.1576 -24.1492 -24.1434 -24.1351 -24.1276
   -24.1122 -24.0797 -24.0670 -24.0551 -24.0351 -24.0200 -24.0140 -23.9754
   -23.9720 -23.9475 -23.9451 -23.9391 -23.9257 -23.9012 -23.9007 -23.8927
   -23.8924 -23.1073 -23.0947 -23.0849 -23.0843 -23.0689 -23.0668 -23.0635
   -23.0575 -23.0566 -23.0516 -23.0464 -23.0252 -23.0087 -23.0056 -23.0019
    12.6085  12.7072  15.0779  15.1204  15.2117  15.2522  15.3029  15.3064
    15.3080  15.3101  15.5126  15.5599  15.6206  15.6649  15.7000  15.7474
    15.8830  15.9587  16.5747  16.6423  16.6942  16.7067  17.3035  17.3219
    17.3911  17.4352  17.4365  17.4855  17.4931  17.4961  17.5022  17.6122
    17.7259  17.7831  17.7847  17.8044  17.8383  18.1304  18.1570  18.2071
    18.2356  18.2472  18.2859  18.3477  18.5261  18.5264  18.6699  18.7760
    18.8068  18.8121  18.9097  19.4971  19.6715  19.7445  19.7670  19.8011
    19.8140  19.8197  19.9326  19.9818  20.3182  20.3974  20.4431  20.4782
    20.5024  20.5225  20.5330  20.5786  20.6883  20.6886  20.6913  20.9190
    21.0118  21.0491

          k = 0.0000 0.1657 0.1661 (  9557 PWs)   bands (ev):

   -68.1685 -68.1610 -68.0433 -52.6825 -52.6508 -52.6501 -52.6466 -52.6342
   -52.6318 -52.6313 -52.6171 -51.7674 -51.7652 -51.7510 -51.7496 -51.7468
   -34.2417 -34.2264 -34.2232 -34.2231 -34.2147 -34.2146 -34.1049 -34.0967
   -34.0966 -24.2452 -24.2105 -24.2051 -24.1565 -24.1508 -24.1309 -24.1045
   -24.0953 -24.0829 -24.0666 -24.0625 -24.0455 -23.9846 -23.9694 -23.9635
   -23.9355 -23.9340 -23.9232 -23.9164 -23.9096 -23.9076 -23.9049 -23.8967
   -23.8886 -23.1815 -23.1461 -23.1435 -23.1059 -23.1055 -23.0720 -23.0375
   -23.0336 -23.0306 -23.0252 -23.0245 -23.0056 -22.9966 -22.9839 -22.9734
    11.6632  14.4953  14.5509  14.8099  14.8908  14.9409  15.0846  15.1325
    15.1351  15.1388  15.1672  15.3883  15.3923  15.7375  15.7628  16.4875
    16.5558  16.6218  16.6526  16.6958  16.7638  16.7814  16.7950  16.8747
    16.9242  17.0035  17.1204  17.1842  17.1992  17.2261  17.2773  17.7646
    17.8535  17.9636  18.1471  18.1944  18.2692  18.3399  18.4760  18.4863
    18.5663  18.5784  18.6701  18.7710  18.8594  18.9133  18.9531  19.1268
    19.1991  19.2278  19.2997  19.3724  19.3981  19.4033  19.6235  19.6344
    19.7497  19.7893  20.0007  20.0010  20.1258  20.1964  20.2369  20.3107
    20.5212  20.5721  20.6213  20.6903  20.7004  20.7384  20.7498  20.8063
    20.8723  20.9064

          k = 0.0000 0.1657 0.3323 (  9577 PWs)   bands (ev):

   -68.1685 -68.1610 -68.0434 -52.6761 -52.6570 -52.6472 -52.6434 -52.6377
   -52.6345 -52.6287 -52.6202 -51.7666 -51.7618 -51.7528 -51.7508 -51.7478
   -34.2415 -34.2267 -34.2230 -34.2227 -34.2149 -34.2147 -34.1049 -34.0967
   -34.0965 -24.2125 -24.1887 -24.1739 -24.1434 -24.1270 -24.1247 -24.1175
   -24.1103 -24.0802 -24.0772 -24.0583 -24.0199 -23.9987 -23.9889 -23.9817
   -23.9617 -23.9506 -23.9356 -23.9344 -23.9215 -23.9141 -23.9054 -23.9023
   -23.8924 -23.1509 -23.1208 -23.1151 -23.0831 -23.0827 -23.0712 -23.0642
   -23.0446 -23.0385 -23.0355 -23.0344 -23.0118 -23.0078 -22.9999 -22.9783
    12.0993  13.6380  14.6769  14.8430  15.0467  15.2376  15.2685  15.2728
    15.3507  15.3933  15.4330  15.4789  15.4799  15.7207  15.8142  16.1607
    16.2100  16.3813  16.6668  16.6709  16.7642  16.7896  16.8532  16.9877
    16.9926  17.1071  17.1365  17.2417  17.3561  17.4053  17.4991  17.7818
    17.7975  17.8295  17.8987  17.9796  18.0641  18.1338  18.2143  18.2300
    18.3485  18.4014  18.4651  18.5352  18.7029  18.7397  18.7879  18.8299
    18.9948  19.0133  19.1375  19.2694  19.2946  19.4448  19.5427  19.5962
    19.7082  19.9277  19.9507  19.9735  20.1402  20.1698  20.2490  20.5033
    20.5078  20.5537  20.6093  20.6490  20.7130  20.7221  20.7451  20.8128
    20.8889  21.0193

          k = 0.0000 0.1657-0.4984 (  9608 PWs)   bands (ev):

   -68.1685 -68.1611 -68.0434 -52.6691 -52.6640 -52.6428 -52.6421 -52.6392
   -52.6387 -52.6247 -52.6242 -51.7662 -51.7572 -51.7572 -51.7506 -51.7485
   -34.2415 -34.2269 -34.2229 -34.2225 -34.2150 -34.2148 -34.1049 -34.0967
   -34.0966 -24.1836 -24.1667 -24.1563 -24.1524 -24.1458 -24.1202 -24.1133
   -24.1003 -24.0725 -24.0620 -24.0510 -24.0362 -24.0199 -24.0144 -23.9793
   -23.9753 -23.9511 -23.9471 -23.9450 -23.9267 -23.9133 -23.9090 -23.8975
   -23.8973 -23.1165 -23.1066 -23.0932 -23.0899 -23.0738 -23.0668 -23.0648
   -23.0589 -23.0555 -23.0467 -23.0375 -23.0225 -23.0098 -22.9939 -22.9906
    12.7341  12.8339  14.7593  14.8600  15.2033  15.3351  15.4231  15.4289
    15.5084  15.5308  15.5644  15.6395  15.6930  15.7105  15.7585  15.8108
    15.9215  15.9914  16.6314  16.6785  16.7178  16.7540  17.1496  17.1707
    17.1875  17.2715  17.3015  17.3660  17.3758  17.4291  17.6054  17.6973
    17.7049  17.7436  17.8172  17.8685  17.9365  17.9672  18.0556  18.0676
    18.1799  18.1847  18.1940  18.2277  18.2802  18.3512  18.8881  18.9217
    18.9341  18.9412  19.0175  19.4735  19.5130  19.5727  19.6611  19.6645
    19.6766  19.8144  19.9134  20.0402  20.2467  20.2667  20.2768  20.3732
    20.4143  20.4491  20.4940  20.6395  20.6704  20.7021  20.8213  20.8384
    20.9238  21.0049

          k = 0.0000 0.3314 0.3323 (  9582 PWs)   bands (ev):

   -68.1684 -68.1610 -68.0434 -52.6703 -52.6538 -52.6523 -52.6417 -52.6403
   -52.6318 -52.6315 -52.6232 -51.7658 -51.7595 -51.7530 -51.7522 -51.7492
   -34.2376 -34.2270 -34.2229 -34.2222 -34.2149 -34.2147 -34.1089 -34.0967
   -34.0966 -24.1994 -24.1709 -24.1464 -24.1454 -24.1379 -24.1169 -24.1103
   -24.0914 -24.0667 -24.0633 -24.0466 -24.0184 -24.0067 -24.0002 -23.9848
   -23.9670 -23.9647 -23.9485 -23.9436 -23.9424 -23.9324 -23.9151 -23.9085
   -23.8983 -23.1480 -23.1176 -23.1004 -23.0920 -23.0841 -23.0690 -23.0677
   -23.0657 -23.0529 -23.0381 -23.0230 -23.0078 -22.9965 -22.9945 -22.9796
    12.5077  13.8707  13.9530  14.5990  15.3279  15.3887  15.4704  15.5342
    15.5772  15.5925  15.6167  15.6584  15.6776  15.7726  15.8778  16.1565
    16.2578  16.3019  16.4173  16.7721  16.7968  16.8415  16.8760  16.8769
    16.8994  16.9852  17.0807  17.2416  17.2982  17.3745  17.4481  17.5570
    17.6763  17.7068  17.7945  17.8132  17.9031  17.9531  18.0432  18.0954
    18.1005  18.1553  18.2060  18.3446  18.5264  18.6071  18.8499  18.9921
    19.0192  19.1201  19.1451  19.2385  19.3659  19.3691  19.3967  19.4911
    19.6321  19.7080  19.8293  19.8583  20.0613  20.1314  20.2225  20.4266
    20.4391  20.5292  20.6073  20.6165  20.6454  20.6870  20.7118  20.7916
    20.8673  20.8978

          k = 0.0000 0.3314-0.4984 (  9578 PWs)   bands (ev):

   -68.1684 -68.1610 -68.0434 -52.6640 -52.6594 -52.6480 -52.6467 -52.6361
   -52.6357 -52.6277 -52.6273 -51.7656 -51.7558 -51.7558 -51.7520 -51.7505
   -34.2376 -34.2272 -34.2228 -34.2219 -34.2150 -34.2147 -34.1089 -34.0967
   -34.0965 -24.1722 -24.1703 -24.1607 -24.1537 -24.1280 -24.1063 -24.1050
   -24.0700 -24.0483 -24.0424 -24.0418 -24.0293 -24.0195 -24.0147 -23.9869
   -23.9833 -23.9693 -23.9691 -23.9492 -23.9478 -23.9371 -23.9159 -23.9048
   -23.9041 -23.1270 -23.1240 -23.1087 -23.1031 -23.0903 -23.0688 -23.0628
   -23.0600 -23.0509 -23.0482 -23.0121 -23.0074 -23.0044 -22.9848 -22.9815
    13.0915  13.1922  14.2171  14.3309  15.4674  15.5634  15.6410  15.6777
    15.6844  15.7202  15.7338  15.8117  15.8153  15.8642  15.9307  16.0141
    16.0327  16.0617  16.5917  16.7101  16.7575  16.8658  16.8925  16.9022
    16.9856  16.9962  17.0547  17.0679  17.3860  17.3979  17.4118  17.4577
    17.5960  17.6173  17.6521  17.6972  17.7386  17.8463  17.8630  17.9240
    18.1458  18.1512  18.1889  18.2054  18.2070  18.2361  19.0544  19.0936
    19.1175  19.1401  19.1985  19.3164  19.3253  19.3372  19.3753  19.4539
    19.5556  19.6705  19.7544  20.0257  20.0696  20.1922  20.1997  20.2318
    20.2490  20.5244  20.5499  20.6117  20.6506  20.7350  20.7374  20.7444
    20.7680  20.8653

          k = 0.0000-0.4971-0.4984 (  9580 PWs)   bands (ev):

   -68.1684 -68.1610 -68.0434 -52.6591 -52.6536 -52.6529 -52.6525 -52.6323
   -52.6319 -52.6315 -52.6311 -51.7653 -51.7539 -51.7539 -51.7539 -51.7526
   -34.2356 -34.2274 -34.2228 -34.2217 -34.2150 -34.2146 -34.1110 -34.0967
   -34.0965 -24.1659 -24.1634 -24.1629 -24.1622 -24.1136 -24.1059 -24.1048
   -24.0419 -24.0412 -24.0369 -24.0218 -24.0189 -24.0060 -24.0011 -23.9974
   -23.9953 -23.9861 -23.9846 -23.9784 -23.9731 -23.9343 -23.9125 -23.9098
   -23.9091 -23.1259 -23.1243 -23.1237 -23.1218 -23.0890 -23.0691 -23.0632
   -23.0566 -23.0501 -23.0485 -23.0136 -22.9914 -22.9889 -22.9863 -22.9854
    13.6155  13.6252  13.6382  13.8235  15.6105  15.6343  15.6975  15.8317
    15.8415  15.8558  15.8663  15.9674  15.9683  15.9696  16.0615  16.0654
    16.1788  16.2190  16.2651  16.5888  16.7915  16.8095  16.8145  16.8339
    16.8427  16.8927  16.9768  16.9817  17.2669  17.2878  17.4102  17.4237
    17.5046  17.5119  17.5124  17.5920  17.6122  17.6253  17.6300  17.8603
    18.1164  18.1308  18.1442  18.1635  18.5935  18.5944  18.8028  18.8123
    19.1650  19.1806  19.2524  19.2690  19.2867  19.3352  19.5022  19.5275
    19.5447  19.5607  19.5677  19.8123  19.8413  20.1035  20.3072  20.4217
    20.4284  20.4435  20.4584  20.5840  20.6644  20.6693  20.7069  20.7135
    20.7204  20.8109

          k = 0.1661 0.1657 0.1661 (  9591 PWs)   bands (ev):

   -68.1685 -68.1610 -68.0434 -52.6802 -52.6499 -52.6495 -52.6480 -52.6331
   -52.6330 -52.6326 -52.6183 -51.7670 -51.7641 -51.7509 -51.7506 -51.7473
   -34.2416 -34.2265 -34.2233 -34.2229 -34.2148 -34.2146 -34.1049 -34.0967
   -34.0966 -24.2318 -24.2003 -24.1985 -24.1472 -24.1436 -24.1242 -24.1059
   -24.1053 -24.0831 -24.0619 -24.0569 -24.0542 -23.9811 -23.9766 -23.9607
   -23.9394 -23.9392 -23.9248 -23.9242 -23.9194 -23.9165 -23.9113 -23.8995
   -23.8979 -23.1683 -23.1447 -23.1351 -23.1002 -23.0918 -23.0708 -23.0503
   -23.0372 -23.0360 -23.0221 -23.0191 -23.0171 -23.0045 -22.9797 -22.9788
    11.8107  14.4925  14.6134  14.7398  14.8918  14.9329  14.9869  15.1661
    15.1833  15.2151  15.2365  15.2698  15.7911  15.8130  15.8211  16.3850
    16.5517  16.5813  16.6647  16.7350  16.7556  16.7945  16.8260  16.8817
    16.9246  16.9503  17.1087  17.1098  17.1291  17.1411  17.5182  17.6542
    17.7627  17.8734  18.1187  18.1355  18.2010  18.3056  18.3507  18.5126
    18.5397  18.5627  18.6337  18.6889  18.7256  18.7710  18.8639  19.0605
    19.1365  19.1486  19.2104  19.3182  19.3352  19.4065  19.4497  19.5346
    19.5518  19.9513  19.9663  20.0869  20.0912  20.1340  20.2955  20.3207
    20.5420  20.5697  20.6302  20.6418  20.6930  20.6969  20.7410  20.8087
    20.8123  20.8910

          k = 0.1661 0.1657 0.3323 (  9577 PWs)   bands (ev):

   -68.1685 -68.1610 -68.0434 -52.6740 -52.6557 -52.6461 -52.6452 -52.6365
   -52.6360 -52.6299 -52.6214 -51.7661 -51.7612 -51.7534 -51.7508 -51.7483
   -34.2415 -34.2267 -34.2231 -34.2226 -34.2149 -34.2146 -34.1049 -34.0966
   -34.0965 -24.1994 -24.1794 -24.1748 -24.1333 -24.1264 -24.1219 -24.1128
   -24.1081 -24.0802 -24.0734 -24.0553 -24.0267 -23.9971 -23.9847 -23.9806
   -23.9643 -23.9516 -23.9376 -23.9349 -23.9303 -23.9249 -23.9144 -23.9113
   -23.9023 -23.1398 -23.1287 -23.1141 -23.0795 -23.0780 -23.0719 -23.0676
   -23.0598 -23.0361 -23.0344 -23.0295 -23.0149 -23.0054 -22.9956 -22.9801
    12.2398  13.7401  14.7725  14.8108  14.9440  14.9950  15.2789  15.3213
    15.3861  15.4472  15.5020  15.5453  15.7742  15.8442  15.8972  16.2138
    16.2190  16.4259  16.6508  16.7156  16.7494  16.8219  16.8403  16.8786
    16.9749  17.0696  17.1562  17.2549  17.2814  17.3182  17.4484  17.6260
    17.6916  17.8187  17.8934  17.9102  17.9930  18.0498  18.1022  18.1631
    18.2090  18.2571  18.2901  18.4082  18.5305  18.6538  18.8516  18.8611
    18.9463  19.0509  19.1663  19.2208  19.3516  19.4539  19.4883  19.5343
    19.6820  19.8189  19.9591  20.0701  20.0854  20.2350  20.2983  20.3867
    20.5084  20.5454  20.5583  20.6625  20.6712  20.7341  20.7938  20.8273
    20.8561  20.9109

          k = 0.1661 0.1657-0.4984 (  9588 PWs)   bands (ev):

   -68.1685 -68.1610 -68.0434 -52.6672 -52.6626 -52.6418 -52.6409 -52.6409
   -52.6402 -52.6259 -52.6254 -51.7657 -51.7572 -51.7572 -51.7506 -51.7489
   -34.2415 -34.2268 -34.2230 -34.2226 -34.2148 -34.2147 -34.1049 -34.0966
   -34.0965 -24.1756 -24.1595 -24.1534 -24.1481 -24.1384 -24.1224 -24.1071
   -24.0989 -24.0724 -24.0536 -24.0531 -24.0249 -24.0195 -24.0114 -23.9835
   -23.9773 -23.9566 -23.9455 -23.9447 -23.9372 -23.9212 -23.9165 -23.9083
   -23.9080 -23.1154 -23.1077 -23.0995 -23.0985 -23.0745 -23.0739 -23.0679
   -23.0597 -23.0571 -23.0310 -23.0284 -23.0209 -23.0110 -22.9925 -22.9879
    12.8596  12.9623  14.8778  14.9085  14.9407  15.0272  15.5215  15.5950
    15.6225  15.6574  15.6577  15.7253  15.7544  15.8087  15.8481  15.8594
    15.9646  16.0346  16.6504  16.7456  16.7495  16.7875  17.1021  17.1022
    17.1589  17.1743  17.1881  17.2733  17.2870  17.4259  17.5455  17.5942
    17.6202  17.6956  17.7183  17.7901  17.8138  17.9606  17.9875  18.0396
    18.0526  18.0647  18.0933  18.1048  18.1194  18.1707  18.9676  19.0087
    19.0794  19.0854  19.1399  19.3128  19.3714  19.4314  19.5382  19.6079
    19.7014  19.7920  19.8114  20.0496  20.1052  20.3042  20.3392  20.3848
    20.4391  20.5138  20.5147  20.6425  20.6591  20.7234  20.7695  20.8104
    20.9298  20.9734

          k = 0.1661 0.3314 0.3323 (  9595 PWs)   bands (ev):

   -68.1685 -68.1610 -68.0434 -52.6684 -52.6524 -52.6510 -52.6421 -52.6405
   -52.6332 -52.6329 -52.6245 -51.7655 -51.7590 -51.7529 -51.7527 -51.7496
   -34.2376 -34.2270 -34.2229 -34.2223 -34.2149 -34.2147 -34.1089 -34.0967
   -34.0966 -24.1868 -24.1588 -24.1449 -24.1361 -24.1308 -24.1120 -24.1057
   -24.0906 -24.0694 -24.0611 -24.0424 -24.0274 -24.0020 -23.9964 -23.9863
   -23.9690 -23.9637 -23.9514 -23.9499 -23.9467 -23.9378 -23.9287 -23.9245
   -23.9123 -23.1361 -23.1112 -23.0987 -23.0929 -23.0880 -23.0730 -23.0690
   -23.0614 -23.0482 -23.0377 -23.0213 -23.0089 -23.0029 -22.9948 -22.9861
    12.6447  13.9844  14.0690  14.7301  15.0585  15.2978  15.3378  15.5314
    15.6086  15.6397  15.7292  15.7801  15.8481  15.9791  16.0636  16.2040
    16.2501  16.3711  16.4070  16.7444  16.7622  16.8248  16.8681  16.9178
    16.9379  16.9988  17.0904  17.1511  17.2616  17.2799  17.4051  17.4770
    17.5424  17.6110  17.6832  17.7158  17.8677  17.8733  17.8998  17.9101
    17.9489  18.0297  18.0803  18.1415  18.3063  18.3982  18.5249  19.0549
    19.1162  19.1906  19.2148  19.2731  19.3850  19.3982  19.4164  19.4780
    19.6756  19.7692  19.9068  20.0099  20.0926  20.2017  20.3203  20.3751
    20.5576  20.6104  20.6262  20.6307  20.6711  20.6764  20.7300  20.7869
    20.8257  20.8641

          k = 0.1661 0.3314-0.4984 (  9574 PWs)   bands (ev):

   -68.1684 -68.1610 -68.0434 -52.6622 -52.6580 -52.6467 -52.6455 -52.6379
   -52.6371 -52.6291 -52.6286 -51.7652 -51.7558 -51.7557 -51.7520 -51.7508
   -34.2376 -34.2270 -34.2228 -34.2221 -34.2149 -34.2147 -34.1089 -34.0966
   -34.0965 -24.1607 -24.1579 -24.1484 -24.1458 -24.1221 -24.1019 -24.0982
   -24.0754 -24.0548 -24.0437 -24.0369 -24.0222 -24.0190 -24.0121 -23.9925
   -23.9879 -23.9713 -23.9671 -23.9538 -23.9517 -23.9459 -23.9304 -23.9203
   -23.9191 -23.1183 -23.1160 -23.1056 -23.1022 -23.0827 -23.0691 -23.0649
   -23.0584 -23.0502 -23.0450 -23.0187 -23.0107 -23.0101 -22.9886 -22.9853
    13.2195  13.3225  14.3461  14.4607  15.2331  15.3092  15.6985  15.7193
    15.7813  15.8022  15.8468  15.8616  15.9207  15.9338  16.0621  16.0907
    16.1022  16.1454  16.6077  16.7215  16.7710  16.8571  16.8720  16.9033
    16.9890  17.0325  17.0415  17.0786  17.2749  17.3241  17.3554  17.3667
    17.4221  17.4702  17.5348  17.6098  17.6128  17.7866  17.8072  17.8132
    17.9459  17.9704  17.9981  18.0062  18.0387  18.0655  18.8362  18.8865
    19.1242  19.1730  19.2012  19.2977  19.3614  19.4232  19.4500  19.4985
    19.7079  19.8060  19.9204  20.0729  20.1771  20.2616  20.2894  20.3584
    20.4726  20.5461  20.5495  20.6096  20.6455  20.7153  20.7206  20.8073
    20.8595  20.8616

          k = 0.1661-0.4971-0.4984 (  9588 PWs)   bands (ev):

   -68.1684 -68.1610 -68.0434 -52.6573 -52.6523 -52.6516 -52.6512 -52.6341
   -52.6333 -52.6329 -52.6324 -51.7650 -51.7539 -51.7539 -51.7539 -51.7529
   -34.2355 -34.2272 -34.2228 -34.2219 -34.2149 -34.2147 -34.1111 -34.0967
   -34.0965 -24.1537 -24.1492 -24.1490 -24.1481 -24.1059 -24.1005 -24.0995
   -24.0453 -24.0451 -24.0405 -24.0187 -24.0149 -24.0129 -23.9981 -23.9967
   -23.9963 -23.9910 -23.9871 -23.9858 -23.9790 -23.9448 -23.9269 -23.9261
   -23.9255 -23.1153 -23.1138 -23.1132 -23.1114 -23.0851 -23.0696 -23.0623
   -23.0570 -23.0505 -23.0472 -23.0194 -22.9987 -22.9963 -22.9937 -22.9929
    13.7462  13.7552  13.7689  13.9578  15.6128  15.6143  15.6280  15.7470
    15.7846  15.7868  15.8300  15.9886  16.1710  16.1910  16.2166  16.2209
    16.2468  16.2568  16.2807  16.6101  16.7824  16.7824  16.8080  16.8292
    16.8771  16.9132  16.9921  16.9994  17.1636  17.1784  17.2595  17.2849
    17.3724  17.3771  17.4326  17.5153  17.5639  17.5767  17.5776  17.7259
    17.9318  17.9466  17.9525  17.9839  18.3071  18.3098  18.4308  18.4317
    19.2347  19.2499  19.2901  19.3017  19.3627  19.3856  19.5703  19.6293
    19.7871  19.8260  19.8522  19.9626  19.9662  20.3476  20.3721  20.5403
    20.5491  20.5601  20.5772  20.6191  20.6270  20.6280  20.7150  20.7241
    20.7419  20.8092

          k = 0.3323 0.3314 0.3323 (  9594 PWs)   bands (ev):

   -68.1685 -68.1610 -68.0434 -52.6631 -52.6497 -52.6482 -52.6454 -52.6378
   -52.6369 -52.6362 -52.6278 -51.7648 -51.7576 -51.7539 -51.7525 -51.7506
   -34.2375 -34.2268 -34.2229 -34.2224 -34.2148 -34.2147 -34.1089 -34.0966
   -34.0966 -24.1552 -24.1343 -24.1306 -24.1250 -24.1246 -24.0973 -24.0906
   -24.0790 -24.0718 -24.0496 -24.0483 -24.0319 -23.9944 -23.9931 -23.9889
   -23.9849 -23.9680 -23.9663 -23.9596 -23.9583 -23.9551 -23.9532 -23.9512
   -23.9393 -23.1078 -23.1028 -23.0955 -23.0955 -23.0915 -23.0681 -23.0677
   -23.0594 -23.0440 -23.0370 -23.0240 -23.0194 -23.0056 -23.0047 -22.9937
    13.0376  14.2135  14.3660  14.4870  15.0355  15.1457  15.2070  15.7111
    15.7714  15.9203  15.9505  16.0169  16.0656  16.1058  16.2404  16.2458
    16.3740  16.4028  16.4358  16.5330  16.7772  16.7800  16.8816  16.9115
    17.0011  17.0039  17.0800  17.0919  17.1312  17.1745  17.2396  17.3597
    17.4089  17.4297  17.4854  17.5019  17.5536  17.5627  17.6036  17.7416
    17.7896  17.8067  17.8155  17.8554  17.9591  18.0048  18.0959  18.8168
    19.1892  19.1939  19.2947  19.2957  19.4260  19.4651  19.5038  19.7105
    19.8200  19.9270  19.9929  20.1998  20.2424  20.3454  20.3488  20.5817
    20.5880  20.6153  20.6404  20.6407  20.6727  20.6923  20.7772  20.8136
    20.8671  20.9241

          k = 0.3323 0.3314-0.4984 (  9598 PWs)   bands (ev):

   -68.1685 -68.1610 -68.0434 -52.6572 -52.6544 -52.6440 -52.6420 -52.6420
   -52.6408 -52.6328 -52.6320 -51.7644 -51.7558 -51.7557 -51.7520 -51.7516
   -34.2375 -34.2267 -34.2228 -34.2226 -34.2148 -34.2147 -34.1089 -34.0966
   -34.0965 -24.1326 -24.1288 -24.1257 -24.1202 -24.1086 -24.0904 -24.0837
   -24.0821 -24.0566 -24.0411 -24.0402 -24.0131 -24.0118 -24.0083 -24.0066
   -23.9977 -23.9808 -23.9726 -23.9685 -23.9655 -23.9625 -23.9598 -23.9511
   -23.9498 -23.1009 -23.0998 -23.0966 -23.0960 -23.0692 -23.0669 -23.0641
   -23.0574 -23.0550 -23.0352 -23.0264 -23.0252 -23.0220 -22.9995 -22.9966
    13.5770  13.6901  14.7028  14.7591  14.7659  14.8941  15.6701  15.7485
    15.8520  15.9500  16.0115  16.0535  16.0942  16.2459  16.2673  16.2832
    16.2839  16.3574  16.6092  16.7048  16.7922  16.7993  16.8837  16.9041
    16.9379  16.9795  17.0493  17.0554  17.0820  17.1144  17.1257  17.1722
    17.2688  17.2867  17.3544  17.4613  17.4629  17.5511  17.5646  17.6132
    17.6551  17.6700  17.6835  17.6986  17.7570  17.7701  18.2853  18.3119
    19.2441  19.2735  19.2984  19.3356  19.4366  19.5128  19.6596  19.7489
    19.9138  19.9511  20.0840  20.2217  20.3399  20.4470  20.4693  20.5371
    20.5472  20.5943  20.6024  20.6393  20.6548  20.7180  20.7195  20.7351
    20.8365  20.8512

          k = 0.3323-0.4971-0.4984 (  9632 PWs)   bands (ev):

   -68.1685 -68.1611 -68.0435 -52.6525 -52.6487 -52.6479 -52.6476 -52.6391
   -52.6369 -52.6366 -52.6360 -51.7643 -51.7539 -51.7539 -51.7539 -51.7535
   -34.2354 -34.2267 -34.2228 -34.2224 -34.2149 -34.2148 -34.1111 -34.0967
   -34.0966 -24.1202 -24.1109 -24.1108 -24.1099 -24.0869 -24.0869 -24.0853
   -24.0516 -24.0515 -24.0461 -24.0381 -24.0159 -24.0155 -24.0148 -24.0123
   -24.0027 -24.0014 -23.9884 -23.9864 -23.9829 -23.9646 -23.9639 -23.9634
   -23.9574 -23.0893 -23.0877 -23.0875 -23.0872 -23.0747 -23.0678 -23.0609
   -23.0571 -23.0505 -23.0450 -23.0333 -23.0192 -23.0167 -23.0142 -23.0139
    14.1111  14.1180  14.1356  14.3364  15.2509  15.2735  15.2741  15.4068
    16.0236  16.0376  16.1065  16.2193  16.2530  16.3008  16.3131  16.5035
    16.5250  16.5695  16.5769  16.6844  16.7523  16.7591  16.7898  16.7992
    16.9347  16.9473  16.9513  16.9727  16.9874  17.0275  17.0292  17.0355
    17.2066  17.2069  17.2313  17.4122  17.4132  17.4450  17.4618  17.4812
    17.5754  17.5934  17.6066  17.6232  17.7772  17.7894  17.8409  17.8468
    19.3290  19.3532  19.3683  19.3723  19.4293  19.4601  19.8351  19.8928
    20.0176  20.1064  20.1254  20.1579  20.2106  20.4618  20.4935  20.5742
    20.6945  20.7088  20.7100  20.7558  20.7801  20.7820  20.7865  20.8062
    20.8704  20.8738

          k =-0.4984-0.4971-0.4984 (  9568 PWs)   bands (ev):

   -68.1684 -68.1610 -68.0434 -52.6461 -52.6455 -52.6455 -52.6444 -52.6444
   -52.6402 -52.6401 -52.6393 -51.7639 -51.7539 -51.7539 -51.7538 -51.7538
   -34.2353 -34.2264 -34.2226 -34.2226 -34.2148 -34.2148 -34.1110 -34.0965
   -34.0965 -24.0788 -24.0787 -24.0787 -24.0712 -24.0669 -24.0654 -24.0624
   -24.0582 -24.0579 -24.0579 -24.0520 -24.0505 -24.0505 -24.0501 -24.0373
   -23.9910 -23.9903 -23.9903 -23.9873 -23.9831 -23.9810 -23.9810 -23.9783
   -23.9783 -23.0786 -23.0693 -23.0647 -23.0645 -23.0645 -23.0637 -23.0484
   -23.0467 -23.0449 -23.0449 -23.0416 -23.0410 -23.0405 -23.0397 -23.0397
    14.5068  14.5069  14.5481  14.8487  14.8487  14.8736  14.8736  14.8790
    16.2115  16.2598  16.2854  16.2858  16.2919  16.3767  16.6597  16.6684
    16.6684  16.6855  16.6855  16.7644  16.7644  16.7877  16.7877  16.8006
    16.8759  16.9111  16.9222  16.9359  16.9359  16.9583  16.9583  17.0016
    17.0016  17.3478  17.3574  17.3615  17.3739  17.3751  17.3751  17.3814
    17.3814  17.3857  17.3870  17.3897  17.4045  17.4086  17.4362  17.4362
    19.3695  19.4016  19.4021  19.4183  19.4614  19.4875  20.0842  20.0842
    20.1533  20.1883  20.1883  20.2234  20.2522  20.3185  20.3185  20.7073
    20.7073  20.7075  20.8075  20.8075  20.8294  20.8294  20.8347  20.8393
    20.8393  20.9937

          k = 0.0000 0.1657 0.0000 (  9595 PWs)   bands (ev):

   -68.1685 -68.1610 -68.0434 -52.6849 -52.6520 -52.6478 -52.6478 -52.6329
   -52.6329 -52.6301 -52.6160 -51.7678 -51.7664 -51.7510 -51.7484 -51.7464
   -34.2417 -34.2262 -34.2234 -34.2234 -34.2146 -34.2146 -34.1048 -34.0967
   -34.0967 -24.2583 -24.2185 -24.2185 -24.1615 -24.1615 -24.1376 -24.0981
   -24.0921 -24.0778 -24.0675 -24.0675 -24.0427 -23.9847 -23.9658 -23.9658
   -23.9277 -23.9277 -23.9088 -23.9088 -23.9072 -23.9037 -23.8995 -23.8898
   -23.8853 -23.1932 -23.1558 -23.1558 -23.1149 -23.1149 -23.0729 -23.0337
   -23.0326 -23.0326 -23.0187 -23.0187 -22.9942 -22.9876 -22.9773 -22.9773
    11.5134  14.4547  14.7469  14.8191  14.8582  15.0164  15.0164  15.0481
    15.0817  15.0829  15.2357  15.3252  15.3252  15.4385  15.7022  16.6323
    16.6470  16.6587  16.6625  16.6625  16.7347  16.7347  16.8779  16.9003
    16.9003  16.9077  17.0743  17.2099  17.2099  17.3667  17.3667  17.5493
    17.9307  18.0091  18.2042  18.2042  18.3899  18.3899  18.4177  18.5639
    18.5639  18.6396  18.7690  18.9001  18.9001  18.9163  18.9216  19.0571
    19.3082  19.3082  19.3513  19.4404  19.5701  19.5701  19.8341  19.8798
    19.8798  20.0117  20.0541  20.0944  20.1832  20.2356  20.2356  20.3430
    20.3987  20.4741  20.4741  20.6256  20.6632  20.6782  20.7243  20.7295
    20.8036  20.9531

          k = 0.0000 0.3314 0.0000 (  9606 PWs)   bands (ev):

   -68.1685 -68.1610 -68.0434 -52.6784 -52.6587 -52.6446 -52.6446 -52.6360
   -52.6360 -52.6272 -52.6190 -51.7665 -51.7632 -51.7543 -51.7489 -51.7470
   -34.2376 -34.2264 -34.2230 -34.2230 -34.2149 -34.2149 -34.1090 -34.0967
   -34.0967 -24.2252 -24.1889 -24.1889 -24.1463 -24.1327 -24.1250 -24.1250
   -24.0914 -24.0914 -24.0836 -24.0582 -24.0132 -24.0049 -23.9873 -23.9873
   -23.9523 -23.9523 -23.9314 -23.9220 -23.9220 -23.9042 -23.8965 -23.8954
   -23.8882 -23.1504 -23.1230 -23.1230 -23.0874 -23.0874 -23.0743 -23.0422
   -23.0422 -23.0335 -23.0335 -23.0298 -23.0248 -23.0020 -22.9963 -22.9963
    11.9558  13.5305  14.8999  15.0169  15.1075  15.1512  15.1512  15.2575
    15.2579  15.3674  15.3842  15.3842  15.4063  15.4222  15.7254  16.1078
    16.2293  16.4190  16.5999  16.5999  16.7067  16.7067  16.8745  16.9149
    17.1067  17.1067  17.3298  17.3606  17.3606  17.6473  17.6473  17.6775
    17.7081  17.9237  17.9237  17.9517  18.2576  18.2576  18.2813  18.4260
    18.4379  18.4379  18.4893  18.6149  18.6149  18.8899  18.9262  19.0603
    19.0914  19.0947  19.0947  19.2689  19.2689  19.2998  19.3862  19.7330
    19.7330  19.9051  19.9461  20.1126  20.1126  20.2749  20.3608  20.5481
    20.5496  20.6746  20.6887  20.7179  20.8068  20.8068  20.8453  20.9040
    20.9075  21.0108

          k = 0.0000-0.4971 0.0000 (  9626 PWs)   bands (ev):

   -68.1685 -68.1611 -68.0435 -52.6718 -52.6654 -52.6408 -52.6408 -52.6399
   -52.6399 -52.6235 -52.6226 -51.7658 -51.7589 -51.7586 -51.7493 -51.7472
   -34.2354 -34.2265 -34.2229 -34.2229 -34.2150 -34.2150 -34.1111 -34.0968
   -34.0968 -24.1809 -24.1777 -24.1652 -24.1652 -24.1498 -24.1201 -24.1201
   -24.0802 -24.0728 -24.0728 -24.0393 -24.0393 -24.0326 -24.0307 -23.9756
   -23.9689 -23.9471 -23.9471 -23.9310 -23.9310 -23.9004 -23.8995 -23.8927
   -23.8920 -23.0960 -23.0949 -23.0949 -23.0922 -23.0686 -23.0686 -23.0670
   -23.0594 -23.0594 -23.0428 -23.0428 -23.0146 -23.0116 -23.0087 -23.0087
    12.6125  12.6931  15.0422  15.2041  15.2123  15.2445  15.3094  15.3094
    15.3128  15.3128  15.4412  15.5054  15.5814  15.6906  15.7331  15.7706
    15.8853  15.9364  16.5859  16.5859  16.6882  16.6882  17.0614  17.1298
    17.3849  17.3930  17.3930  17.4551  17.4819  17.4819  17.7162  17.7648
    17.8214  17.8214  17.8291  17.8291  18.0077  18.0077  18.2048  18.2200
    18.2545  18.2545  18.4982  18.4982  18.5485  18.5485  18.6411  18.7500
    18.8122  18.8172  18.9636  19.4025  19.5092  19.5092  19.6063  19.7678
    19.8200  19.8200  19.9274  20.2573  20.2573  20.3368  20.4044  20.4766
    20.5454  20.5454  20.6513  20.6749  20.7022  20.7044  20.9284  20.9995
    21.0565  21.0579

          k = 0.1661 0.0000 0.1661 (  9557 PWs)   bands (ev):

   -68.1685 -68.1610 -68.0433 -52.6825 -52.6511 -52.6493 -52.6471 -52.6337
   -52.6318 -52.6318 -52.6172 -51.7675 -51.7651 -51.7506 -51.7499 -51.7469
   -34.2435 -34.2264 -34.2234 -34.2230 -34.2147 -34.2144 -34.1029 -34.0966
   -34.0966 -24.2383 -24.2127 -24.2113 -24.1579 -24.1554 -24.1188 -24.1069
   -24.0952 -24.0857 -24.0664 -24.0626 -24.0473 -23.9792 -23.9696 -23.9664
   -23.9356 -23.9336 -23.9230 -23.9184 -23.9094 -23.9076 -23.9046 -23.8972
   -23.8888 -23.1726 -23.1579 -23.1447 -23.1041 -23.1027 -23.0704 -23.0396
   -23.0350 -23.0290 -23.0277 -23.0132 -23.0123 -23.0036 -22.9798 -22.9712
    11.6638  14.4243  14.6657  14.8027  14.8633  14.9723  15.0594  15.1372
    15.1392  15.1433  15.1638  15.3708  15.3763  15.7202  15.7904  16.4907
    16.5829  16.6190  16.6729  16.7187  16.7779  16.8011  16.8227  16.8381
    16.9819  17.0162  17.0284  17.1109  17.1929  17.2195  17.3275  17.6581
    17.9310  17.9646  18.1317  18.1872  18.3596  18.3741  18.4157  18.5301
    18.5511  18.5536  18.6319  18.8061  18.8062  18.9664  18.9761  18.9801
    19.1880  19.1897  19.2404  19.2839  19.4539  19.5634  19.6133  19.7014
    19.7457  19.7661  20.0403  20.0857  20.1272  20.1915  20.2975  20.3190
    20.4050  20.4593  20.5363  20.6329  20.6952  20.7238  20.7258  20.8615
    20.9024  20.9655

          k = 0.1661 0.3314 0.0000 (  9577 PWs)   bands (ev):

   -68.1684 -68.1610 -68.0434 -52.6762 -52.6572 -52.6469 -52.6435 -52.6376
   -52.6349 -52.6283 -52.6201 -51.7663 -51.7622 -51.7540 -51.7498 -51.7476
   -34.2376 -34.2266 -34.2230 -34.2227 -34.2149 -34.2148 -34.1089 -34.0967
   -34.0967 -24.2184 -24.1831 -24.1762 -24.1399 -24.1338 -24.1211 -24.1167
   -24.1060 -24.0821 -24.0794 -24.0542 -24.0181 -24.0038 -23.9876 -23.9838
   -23.9572 -23.9507 -23.9357 -23.9337 -23.9195 -23.9153 -23.9048 -23.9033
   -23.8929 -23.1539 -23.1202 -23.1160 -23.0820 -23.0811 -23.0731 -23.0571
   -23.0521 -23.0450 -23.0342 -23.0315 -23.0138 -22.9997 -22.9956 -22.9872
    12.0976  13.6330  14.6741  14.8404  15.0909  15.1750  15.2732  15.2756
    15.3433  15.3990  15.4603  15.4720  15.4799  15.7288  15.7894  16.1466
    16.2264  16.3753  16.6397  16.6966  16.7029  16.7483  16.7780  16.9020
    17.0416  17.1449  17.2255  17.2480  17.3983  17.4341  17.5000  17.6819
    17.7177  17.8200  18.0109  18.0686  18.1122  18.1522  18.1715  18.1876
    18.3399  18.3832  18.4648  18.6471  18.6925  18.7931  18.8739  18.9135
    19.0122  19.1350  19.1691  19.2107  19.3117  19.3535  19.4009  19.5069
    19.6226  19.7727  19.9036  20.0090  20.0930  20.1756  20.4308  20.5444
    20.5469  20.5912  20.6445  20.6834  20.7645  20.7818  20.8421  20.8556
    20.8707  20.9351

          k = 0.3323 0.0000 0.1661 (  9577 PWs)   bands (ev):

   -68.1685 -68.1610 -68.0434 -52.6760 -52.6572 -52.6465 -52.6439 -52.6371
   -52.6350 -52.6287 -52.6203 -51.7665 -51.7620 -51.7536 -51.7500 -51.7478
   -34.2434 -34.2265 -34.2232 -34.2228 -34.2149 -34.2145 -34.1029 -34.0966
   -34.0965 -24.1966 -24.1962 -24.1866 -24.1430 -24.1290 -24.1217 -24.1136
   -24.1084 -24.0854 -24.0791 -24.0599 -24.0209 -23.9977 -23.9833 -23.9796
   -23.9582 -23.9553 -23.9341 -23.9320 -23.9239 -23.9167 -23.9061 -23.9020
   -23.8925 -23.1384 -23.1315 -23.1277 -23.0802 -23.0776 -23.0683 -23.0639
   -23.0497 -23.0406 -23.0317 -23.0239 -23.0185 -23.0158 -22.9897 -22.9806
    12.0998  13.6348  14.7098  14.8409  15.0511  15.2214  15.2483  15.2711
    15.3754  15.3794  15.4424  15.4669  15.4793  15.6900  15.8362  16.1872
    16.2184  16.3979  16.6316  16.7231  16.7269  16.7973  16.8576  16.9830
    17.0883  17.0948  17.1304  17.2280  17.2598  17.4250  17.5175  17.6986
    17.7070  17.9917  18.0185  18.0550  18.0648  18.0850  18.1698  18.1935
    18.2529  18.3492  18.4224  18.6153  18.6754  18.7101  18.7973  18.8262
    19.0328  19.1249  19.1810  19.2179  19.2915  19.3631  19.5294  19.5497
    19.6552  19.9517  19.9765  20.0007  20.0957  20.2909  20.3445  20.4549
    20.4900  20.5019  20.5482  20.6084  20.6801  20.7742  20.7887  20.8167
    20.8735  20.9556

          k = 0.1661-0.4971 0.0000 (  9608 PWs)   bands (ev):

   -68.1685 -68.1611 -68.0434 -52.6698 -52.6637 -52.6428 -52.6416 -52.6396
   -52.6388 -52.6246 -52.6238 -51.7657 -51.7582 -51.7580 -51.7499 -51.7480
   -34.2355 -34.2268 -34.2229 -34.2225 -34.2150 -34.2149 -34.1111 -34.0968
   -34.0967 -24.1793 -24.1785 -24.1604 -24.1541 -24.1416 -24.1288 -24.1073
   -24.0834 -24.0681 -24.0675 -24.0369 -24.0355 -24.0276 -24.0239 -23.9801
   -23.9735 -23.9533 -23.9445 -23.9420 -23.9274 -23.9111 -23.9098 -23.8990
   -23.8976 -23.1101 -23.1084 -23.0933 -23.0929 -23.0836 -23.0697 -23.0662
   -23.0626 -23.0573 -23.0436 -23.0248 -23.0098 -23.0071 -23.0012 -23.0011
    12.7388  12.8207  14.7564  14.8587  15.2522  15.3356  15.4284  15.4289
    15.4976  15.5180  15.5252  15.5972  15.6388  15.7555  15.7879  15.8316
    15.9244  15.9710  16.6275  16.6436  16.7189  16.7480  16.9018  17.0622
    17.1620  17.2720  17.3694  17.4032  17.4224  17.4568  17.6803  17.6936
    17.7980  17.7984  17.8387  17.8496  17.8712  17.9218  18.0859  18.1052
    18.1877  18.2495  18.2593  18.2740  18.3822  18.4276  18.9086  18.9160
    18.9500  19.0112  19.0418  19.3817  19.3841  19.5411  19.5603  19.5959
    19.7054  19.7818  19.8847  20.0001  20.0465  20.1244  20.4366  20.4832
    20.4930  20.5269  20.6641  20.7008  20.7191  20.7333  20.8475  20.9376
    20.9665  21.0131

          k =-0.4984 0.0000 0.1661 (  9608 PWs)   bands (ev):

   -68.1685 -68.1611 -68.0434 -52.6690 -52.6642 -52.6423 -52.6413 -52.6397
   -52.6393 -52.6247 -52.6243 -51.7659 -51.7577 -51.7577 -51.7501 -51.7482
   -34.2434 -34.2266 -34.2230 -34.2229 -34.2148 -34.2147 -34.1030 -34.0966
   -34.0965 -24.1815 -24.1669 -24.1459 -24.1456 -24.1431 -24.1386 -24.1203
   -24.1084 -24.0753 -24.0584 -24.0578 -24.0211 -24.0194 -24.0115 -23.9796
   -23.9731 -23.9534 -23.9426 -23.9379 -23.9375 -23.9133 -23.9110 -23.8979
   -23.8969 -23.1127 -23.1038 -23.0929 -23.0905 -23.0832 -23.0827 -23.0672
   -23.0602 -23.0569 -23.0324 -23.0293 -23.0090 -23.0055 -23.0027 -22.9970
    12.7331  12.8348  14.7871  14.8605  15.2002  15.3436  15.4218  15.4225
    15.4239  15.5149  15.6087  15.6412  15.7126  15.7245  15.7728  15.8081
    15.9215  15.9959  16.6197  16.7008  16.7181  16.7640  17.1759  17.1813
    17.2135  17.2462  17.3184  17.3253  17.3816  17.4430  17.6107  17.6596
    17.6959  17.7303  17.8218  17.8361  17.9639  17.9773  18.0747  18.0818
    18.1120  18.1478  18.2002  18.2519  18.2610  18.3469  18.8966  18.9247
    18.9576  19.0046  19.0177  19.3924  19.5243  19.5387  19.6815  19.6928
    19.6954  19.7838  19.8362  20.0209  20.0601  20.3691  20.3700  20.3798
    20.4435  20.4615  20.5062  20.6657  20.7034  20.7143  20.7531  20.8647
    21.0010  21.0103

          k = 0.3323 0.0000 0.3323 (  9582 PWs)   bands (ev):

   -68.1685 -68.1610 -68.0434 -52.6702 -52.6556 -52.6502 -52.6410 -52.6407
   -52.6319 -52.6319 -52.6234 -51.7653 -51.7601 -51.7553 -51.7500 -51.7489
   -34.2433 -34.2266 -34.2233 -34.2229 -34.2148 -34.2143 -34.1029 -34.0965
   -34.0965 -24.1861 -24.1731 -24.1595 -24.1501 -24.1246 -24.1240 -24.1114
   -24.0955 -24.0713 -24.0701 -24.0486 -24.0196 -24.0033 -23.9829 -23.9784
   -23.9715 -23.9605 -23.9470 -23.9439 -23.9412 -23.9375 -23.9257 -23.9058
   -23.8973 -23.1410 -23.1286 -23.1078 -23.0935 -23.0893 -23.0652 -23.0645
   -23.0623 -23.0561 -23.0269 -23.0129 -23.0120 -23.0041 -22.9962 -22.9737
    12.5087  13.7998  14.0527  14.6094  15.2932  15.3739  15.4560  15.5598
    15.5843  15.6228  15.6250  15.6288  15.6660  15.7103  15.9431  16.1712
    16.2963  16.3424  16.5371  16.6654  16.7527  16.7695  16.9285  16.9323
    16.9662  17.0029  17.1301  17.2055  17.2836  17.3421  17.4015  17.5202
    17.6717  17.7321  17.8439  17.8720  17.9030  17.9112  18.0236  18.0649
    18.0835  18.1462  18.2554  18.2785  18.4353  18.4365  18.9464  18.9928
    19.0275  19.1027  19.1425  19.1506  19.3409  19.3629  19.4240  19.5254
    19.6869  19.7507  19.8216  19.9336  20.0042  20.1696  20.3617  20.3656
    20.4048  20.5017  20.5468  20.5676  20.5816  20.6332  20.7340  20.8184
    20.8192  20.8808

          k = 0.3323-0.4971 0.0000 (  9578 PWs)   bands (ev):

   -68.1684 -68.1610 -68.0434 -52.6644 -52.6591 -52.6482 -52.6463 -52.6365
   -52.6356 -52.6278 -52.6270 -51.7654 -51.7562 -51.7562 -51.7516 -51.7502
   -34.2355 -34.2272 -34.2228 -34.2220 -34.2150 -34.2147 -34.1111 -34.0967
   -34.0966 -24.1739 -24.1727 -24.1593 -24.1465 -24.1287 -24.1194 -24.0972
   -24.0741 -24.0534 -24.0432 -24.0322 -24.0254 -24.0183 -24.0131 -23.9886
   -23.9822 -23.9722 -23.9695 -23.9481 -23.9445 -23.9369 -23.9196 -23.9058
   -23.9032 -23.1238 -23.1237 -23.1103 -23.1078 -23.0904 -23.0695 -23.0632
   -23.0605 -23.0526 -23.0461 -23.0121 -23.0020 -22.9948 -22.9901 -22.9885
    13.0976  13.1811  14.2213  14.3285  15.5189  15.5501  15.6028  15.6748
    15.6872  15.7257  15.7349  15.7892  15.8006  15.8750  15.9557  16.0176
    16.0305  16.0473  16.5797  16.6807  16.7677  16.7694  16.8626  16.8866
    16.9442  17.0742  17.0982  17.1054  17.3383  17.4159  17.4270  17.4427
    17.6338  17.6528  17.6741  17.7309  17.7510  17.7972  17.8322  17.9108
    18.1890  18.1927  18.1967  18.2076  18.2085  18.2365  19.0973  19.1048
    19.1685  19.2486  19.2562  19.2785  19.3205  19.3377  19.3490  19.3737
    19.4940  19.6754  19.7093  19.8087  19.8602  20.1928  20.2077  20.4640
    20.4811  20.5240  20.5735  20.6118  20.7003  20.7006  20.7006  20.7713
    20.7729  20.8736

          k =-0.4984 0.0000 0.3323 (  9578 PWs)   bands (ev):

   -68.1685 -68.1610 -68.0433 -52.6636 -52.6606 -52.6478 -52.6451 -52.6365
   -52.6361 -52.6279 -52.6275 -51.7647 -51.7577 -51.7577 -51.7501 -51.7494
   -34.2433 -34.2265 -34.2232 -34.2232 -34.2145 -34.2144 -34.1029 -34.0965
   -34.0965 -24.1728 -24.1707 -24.1481 -24.1460 -24.1173 -24.1142 -24.1141
   -24.1126 -24.0642 -24.0419 -24.0354 -24.0158 -24.0042 -24.0031 -23.9877
   -23.9755 -23.9709 -23.9682 -23.9488 -23.9445 -23.9366 -23.9344 -23.9048
   -23.9006 -23.1251 -23.1219 -23.1184 -23.1133 -23.0801 -23.0800 -23.0636
   -23.0605 -23.0593 -23.0184 -23.0160 -23.0052 -23.0042 -22.9859 -22.9801
    13.0825  13.1955  14.2625  14.3322  15.4363  15.5065  15.5622  15.6612
    15.7150  15.7253  15.8230  15.8269  15.8515  15.8799  15.9260  16.0234
    16.0377  16.0891  16.6774  16.7100  16.7899  16.8333  16.8609  16.8831
    16.9311  17.0984  17.1097  17.1178  17.2476  17.2807  17.4241  17.4452
    17.5734  17.6321  17.7645  17.7886  17.8192  17.8200  17.8244  17.9901
    18.0258  18.0919  18.1132  18.1235  18.1944  18.2034  19.0490  19.0906
    19.1126  19.2434  19.2473  19.2650  19.2774  19.3186  19.3228  19.3367
    19.5874  19.7674  19.8049  19.8692  20.0858  20.1393  20.2929  20.4107
    20.4223  20.4514  20.5312  20.6141  20.6188  20.6265  20.6780  20.6804
    20.6979  20.8666

          k =-0.4984 0.0000-0.4984 (  9580 PWs)   bands (ev):

   -68.1685 -68.1610 -68.0434 -52.6578 -52.6578 -52.6537 -52.6479 -52.6324
   -52.6320 -52.6320 -52.6316 -51.7640 -51.7577 -51.7577 -51.7501 -51.7501
   -34.2434 -34.2266 -34.2233 -34.2233 -34.2143 -34.2143 -34.1029 -34.0965
   -34.0965 -24.1731 -24.1726 -24.1450 -24.1411 -24.1168 -24.1168 -24.0994
   -24.0994 -24.0558 -24.0138 -24.0138 -24.0095 -24.0075 -23.9922 -23.9922
   -23.9855 -23.9855 -23.9794 -23.9777 -23.9760 -23.9329 -23.9329 -23.9090
   -23.9024 -23.1343 -23.1311 -23.1244 -23.1209 -23.0787 -23.0787 -23.0618
   -23.0601 -23.0601 -23.0144 -23.0104 -23.0050 -23.0050 -22.9770 -22.9732
    13.4670  13.6548  13.8130  13.8130  15.5018  15.6163  15.6268  15.8214
    15.9041  15.9041  15.9225  15.9225  15.9834  15.9834  16.1339  16.1515
    16.1643  16.2302  16.4983  16.5954  16.5954  16.7100  16.7100  16.8343
    16.8894  16.8894  17.1429  17.1613  17.1842  17.2771  17.2777  17.2777
    17.4514  17.5240  17.5975  17.5975  17.6733  17.6821  17.7009  17.9376
    18.0195  18.0195  18.1714  18.1714  18.3873  18.3873  18.9152  18.9299
    19.1017  19.1120  19.1134  19.2027  19.2198  19.2665  19.4919  19.4919
    19.5801  19.7719  19.8870  19.8870  19.9957  19.9957  20.3948  20.3948
    20.4206  20.4224  20.4302  20.4633  20.5865  20.5865  20.6256  20.6256
    20.7125  20.7619

          k = 0.1661 0.3314 0.1661 (  9577 PWs)   bands (ev):

   -68.1684 -68.1610 -68.0434 -52.6741 -52.6557 -52.6463 -52.6449 -52.6366
   -52.6361 -52.6296 -52.6213 -51.7660 -51.7613 -51.7537 -51.7505 -51.7482
   -34.2376 -34.2267 -34.2230 -34.2225 -34.2149 -34.2148 -34.1089 -34.0967
   -34.0967 -24.2093 -24.1720 -24.1696 -24.1347 -24.1313 -24.1198 -24.1103
   -24.1069 -24.0790 -24.0778 -24.0504 -24.0242 -24.0008 -23.9852 -23.9846
   -23.9601 -23.9514 -23.9384 -23.9334 -23.9328 -23.9200 -23.9176 -23.9075
   -23.9054 -23.1489 -23.1144 -23.1135 -23.0855 -23.0779 -23.0701 -23.0667
   -23.0630 -23.0405 -23.0389 -23.0261 -23.0083 -22.9987 -22.9964 -22.9892
    12.2383  13.7391  14.6863  14.9020  14.9254  15.0220  15.2262  15.3584
    15.4059  15.4437  15.4623  15.5582  15.7949  15.8497  15.8924  16.1732
    16.2252  16.4274  16.5534  16.6472  16.7642  16.8026  16.8352  16.9226
    16.9875  17.0742  17.1475  17.2762  17.3510  17.3767  17.3775  17.5948
    17.6561  17.7534  17.9975  18.0016  18.0099  18.0540  18.0557  18.1656
    18.1940  18.2448  18.3101  18.4759  18.5497  18.7299  18.8587  18.9499
    18.9789  19.0626  19.0981  19.2236  19.3355  19.3917  19.4850  19.5658
    19.6286  19.7912  19.8730  19.9618  20.0147  20.1725  20.4657  20.4809
    20.5093  20.5491  20.6396  20.6570  20.7083  20.7970  20.8088  20.8591
    20.8695  20.9062

          k = 0.1661-0.4971 0.1661 (  9588 PWs)   bands (ev):

   -68.1684 -68.1610 -68.0434 -52.6679 -52.6621 -52.6419 -52.6412 -52.6410
   -52.6399 -52.6259 -52.6250 -51.7655 -51.7576 -51.7574 -51.7505 -51.7487
   -34.2355 -34.2269 -34.2228 -34.2224 -34.2150 -34.2149 -34.1111 -34.0967
   -34.0967 -24.1760 -24.1729 -24.1516 -24.1469 -24.1344 -24.1210 -24.1096
   -24.0858 -24.0691 -24.0575 -24.0439 -24.0249 -24.0222 -24.0195 -23.9847
   -23.9774 -23.9572 -23.9467 -23.9414 -23.9375 -23.9144 -23.9140 -23.9127
   -23.9117 -23.1138 -23.1124 -23.0988 -23.0865 -23.0836 -23.0740 -23.0692
   -23.0638 -23.0528 -23.0435 -23.0182 -23.0159 -23.0020 -22.9980 -22.9978
    12.8659  12.9491  14.7938  14.9353  15.0023  15.0300  15.5735  15.6001
    15.6028  15.6216  15.6653  15.6937  15.7133  15.8329  15.8339  15.8840
    15.9709  16.0130  16.6419  16.7097  16.7392  16.8031  16.8096  17.0367
    17.0900  17.2218  17.2505  17.3163  17.4372  17.4490  17.5535  17.5673
    17.7044  17.7256  17.7437  17.8134  17.8237  17.8852  17.9583  17.9858
    18.0238  18.1220  18.1613  18.1862  18.2092  18.2533  19.0072  19.0107
    19.1046  19.1575  19.2025  19.3374  19.3559  19.4054  19.4488  19.5390
    19.5988  19.6434  19.8577  19.8818  20.0524  20.2180  20.4628  20.4786
    20.5111  20.5122  20.7020  20.7060  20.7320  20.7965  20.8155  20.8498
    20.9147  20.9731

          k = 0.3323 0.1657 0.3323 (  9595 PWs)   bands (ev):

   -68.1685 -68.1610 -68.0434 -52.6683 -52.6540 -52.6491 -52.6426 -52.6398
   -52.6335 -52.6331 -52.6246 -51.7651 -51.7595 -51.7549 -51.7507 -51.7493
   -34.2415 -34.2266 -34.2232 -34.2228 -34.2148 -34.2145 -34.1049 -34.0966
   -34.0966 -24.1708 -24.1677 -24.1547 -24.1427 -24.1235 -24.1087 -24.1050
   -24.0941 -24.0737 -24.0647 -24.0441 -24.0289 -23.9996 -23.9842 -23.9815
   -23.9766 -23.9605 -23.9511 -23.9483 -23.9438 -23.9430 -23.9337 -23.9242
   -23.9115 -23.1302 -23.1177 -23.1084 -23.0957 -23.0907 -23.0663 -23.0646
   -23.0623 -23.0445 -23.0284 -23.0251 -23.0183 -22.9988 -22.9957 -22.9818
    12.6451  13.9151  14.1700  14.7420  15.0229  15.2719  15.3792  15.4603
    15.6340  15.7233  15.7293  15.7358  15.7954  16.0243  16.0352  16.2135
    16.3101  16.4231  16.5078  16.5844  16.7800  16.8300  16.8373  16.9650
    16.9978  17.0338  17.0718  17.1157  17.2461  17.3270  17.3481  17.4915
    17.5170  17.6198  17.7129  17.7489  17.7616  17.8098  17.8748  17.9441
    18.0199  18.0509  18.0555  18.1602  18.1885  18.3211  18.5747  19.0422
    19.1107  19.1781  19.2061  19.2884  19.3245  19.3775  19.4494  19.5632
    19.5963  19.7927  19.9071  20.0473  20.1558  20.2779  20.3464  20.4668
    20.4959  20.5286  20.5346  20.5936  20.6375  20.6481  20.7467  20.7651
    20.8213  20.8485

          k = 0.3323-0.4971 0.1661 (  9574 PWs)   bands (ev):

   -68.1684 -68.1610 -68.0434 -52.6626 -52.6576 -52.6469 -52.6452 -52.6382
   -52.6371 -52.6292 -52.6282 -51.7651 -51.7559 -51.7559 -51.7519 -51.7507
   -34.2355 -34.2271 -34.2228 -34.2221 -34.2149 -34.2147 -34.1110 -34.0967
   -34.0966 -24.1650 -24.1615 -24.1458 -24.1331 -24.1223 -24.1138 -24.0934
   -24.0788 -24.0576 -24.0427 -24.0392 -24.0176 -24.0143 -24.0069 -23.9947
   -23.9862 -23.9738 -23.9689 -23.9524 -23.9501 -23.9463 -23.9335 -23.9214
   -23.9181 -23.1175 -23.1173 -23.1041 -23.1004 -23.0850 -23.0718 -23.0636
   -23.0599 -23.0529 -23.0451 -23.0182 -23.0057 -22.9987 -22.9940 -22.9932
    13.2268  13.3112  14.3461  14.4575  15.2465  15.3100  15.6811  15.6981
    15.7748  15.8256  15.8368  15.9281  15.9360  15.9517  15.9715  16.0802
    16.1149  16.1434  16.5594  16.6960  16.7723  16.7981  16.8852  16.8891
    16.9567  17.0829  17.0852  17.0990  17.2739  17.3016  17.3389  17.3503
    17.4672  17.5243  17.5272  17.6335  17.6851  17.7196  17.7684  17.8057
    17.9743  17.9778  18.0220  18.0294  18.0391  18.0550  18.8859  18.8910
    19.1754  19.1819  19.2578  19.2745  19.3161  19.3909  19.4831  19.4971
    19.6654  19.8227  19.8359  19.9208  20.0166  20.2690  20.3934  20.4778
    20.5230  20.5518  20.6491  20.6655  20.6824  20.7324  20.7562  20.8262
    20.8346  20.8817

          k =-0.4984 0.1657 0.3323 (  9574 PWs)   bands (ev):

   -68.1685 -68.1610 -68.0434 -52.6619 -52.6589 -52.6466 -52.6439 -52.6382
   -52.6377 -52.6292 -52.6287 -51.7646 -51.7572 -51.7572 -51.7506 -51.7500
   -34.2414 -34.2266 -34.2231 -34.2230 -34.2146 -34.2145 -34.1049 -34.0965
   -34.0965 -24.1607 -24.1575 -24.1421 -24.1381 -24.1209 -24.1124 -24.0997
   -24.0967 -24.0650 -24.0394 -24.0357 -24.0151 -24.0115 -24.0023 -23.9930
   -23.9819 -23.9745 -23.9683 -23.9547 -23.9493 -23.9421 -23.9408 -23.9211
   -23.9180 -23.1178 -23.1153 -23.1118 -23.1080 -23.0759 -23.0742 -23.0641
   -23.0600 -23.0596 -23.0215 -23.0185 -23.0144 -23.0114 -22.9883 -22.9837
    13.2111  13.3250  14.3932  14.4611  15.1943  15.3136  15.5870  15.6979
    15.7848  15.8554  15.9059  15.9228  15.9567  15.9709  15.9837  16.0916
    16.0962  16.1597  16.6956  16.7276  16.8020  16.8415  16.8550  16.8788
    16.9135  17.0797  17.1241  17.1274  17.2003  17.2294  17.3313  17.3335
    17.4019  17.4688  17.6317  17.7042  17.7061  17.7158  17.7660  17.8322
    17.8758  17.9074  17.9327  17.9448  18.0783  18.0858  18.8182  18.8654
    19.1272  19.1748  19.1750  19.2957  19.3422  19.4130  19.4834  19.5937
    19.6561  19.8189  19.8578  20.0077  20.2495  20.3085  20.3284  20.4307
    20.4472  20.4507  20.5541  20.6334  20.6397  20.6885  20.7055  20.7801
    20.8410  20.8584

          k =-0.4984 0.1657-0.4984 (  9588 PWs)   bands (ev):

   -68.1685 -68.1610 -68.0434 -52.6561 -52.6561 -52.6524 -52.6468 -52.6337
   -52.6337 -52.6337 -52.6327 -51.7640 -51.7572 -51.7572 -51.7506 -51.7506
   -34.2414 -34.2265 -34.2231 -34.2231 -34.2144 -34.2144 -34.1049 -34.0965
   -34.0965 -24.1578 -24.1565 -24.1355 -24.1316 -24.1125 -24.1125 -24.0887
   -24.0887 -24.0588 -24.0117 -24.0117 -24.0070 -24.0064 -24.0018 -24.0018
   -23.9922 -23.9887 -23.9859 -23.9859 -23.9795 -23.9391 -23.9391 -23.9275
   -23.9220 -23.1239 -23.1215 -23.1127 -23.1091 -23.0753 -23.0753 -23.0622
   -23.0592 -23.0592 -23.0207 -23.0162 -23.0107 -23.0107 -22.9856 -22.9818
    13.5963  13.7842  13.9469  13.9469  15.4713  15.6184  15.6450  15.7270
    15.7270  15.7611  16.0233  16.0233  16.1737  16.2042  16.2042  16.2430
    16.2470  16.3035  16.4804  16.6114  16.6114  16.7158  16.7158  16.8288
    16.9019  16.9019  17.0748  17.1673  17.1764  17.1842  17.2393  17.2393
    17.2841  17.3697  17.4395  17.4395  17.5637  17.6371  17.6540  17.7985
    17.8620  17.8620  17.9103  17.9103  18.2388  18.2388  18.4685  18.4869
    19.1698  19.2054  19.2423  19.3000  19.3723  19.5151  19.5740  19.5937
    19.5937  19.9069  19.9406  19.9406  20.2982  20.2982  20.4544  20.4544
    20.4855  20.5169  20.6076  20.6076  20.6258  20.6258  20.6296  20.6316
    20.7232  20.7597

          k = 0.3323-0.4971 0.3323 (  9598 PWs)   bands (ev):

   -68.1684 -68.1610 -68.0434 -52.6577 -52.6534 -52.6443 -52.6433 -52.6422
   -52.6398 -52.6329 -52.6317 -51.7646 -51.7551 -51.7550 -51.7527 -51.7520
   -34.2354 -34.2269 -34.2227 -34.2223 -34.2149 -34.2148 -34.1111 -34.0966
   -34.0966 -24.1418 -24.1348 -24.1116 -24.1098 -24.1036 -24.0971 -24.0877
   -24.0834 -24.0557 -24.0491 -24.0432 -24.0104 -24.0095 -24.0082 -23.9954
   -23.9930 -23.9812 -23.9749 -23.9721 -23.9683 -23.9662 -23.9643 -23.9509
   -23.9451 -23.1025 -23.1023 -23.0909 -23.0840 -23.0762 -23.0741 -23.0621
   -23.0575 -23.0550 -23.0441 -23.0287 -23.0147 -23.0096 -23.0050 -23.0049
    13.5929  13.6777  14.5897  14.7531  14.8762  14.9020  15.6615  15.7361
    15.9626  15.9644  16.0011  16.0215  16.0573  16.1643  16.2415  16.2619
    16.3411  16.3658  16.5193  16.6794  16.8007  16.8763  16.8996  16.9086
    16.9709  16.9948  16.9967  17.0673  17.0825  17.0842  17.0919  17.1616
    17.2700  17.2884  17.4001  17.4496  17.5155  17.5182  17.6219  17.6426
    17.6684  17.6842  17.7013  17.7069  17.7115  17.7503  18.2935  18.3085
    19.2951  19.3030  19.3117  19.3401  19.4133  19.4140  19.6936  19.7541
    19.9699  20.0380  20.0534  20.0974  20.1019  20.4549  20.4900  20.5362
    20.5828  20.6376  20.6893  20.6902  20.7141  20.7351  20.8030  20.8086
    20.8476  20.8829

          k =-0.4984 0.3314-0.4984 (  9632 PWs)   bands (ev):

   -68.1685 -68.1611 -68.0435 -52.6514 -52.6514 -52.6490 -52.6438 -52.6384
   -52.6384 -52.6372 -52.6357 -51.7639 -51.7557 -51.7557 -51.7520 -51.7520
   -34.2375 -34.2265 -34.2229 -34.2229 -34.2147 -34.2147 -34.1090 -34.0966
   -34.0966 -24.1167 -24.1125 -24.1082 -24.1043 -24.0964 -24.0964 -24.0691
   -24.0691 -24.0636 -24.0279 -24.0279 -24.0259 -24.0224 -24.0076 -24.0071
   -24.0013 -24.0013 -23.9873 -23.9873 -23.9856 -23.9706 -23.9675 -23.9564
   -23.9564 -23.0980 -23.0979 -23.0829 -23.0791 -23.0681 -23.0681 -23.0631
   -23.0551 -23.0551 -23.0390 -23.0324 -23.0249 -23.0249 -23.0096 -23.0060
    13.9653  14.1469  14.3243  14.3243  15.0774  15.2990  15.3861  15.3861
    15.8881  16.0116  16.2326  16.2708  16.3538  16.3538  16.4195  16.4275
    16.5165  16.5165  16.5815  16.6544  16.6544  16.7218  16.7218  16.8117
    16.9016  16.9373  16.9373  16.9639  17.1253  17.1253  17.1272  17.1472
    17.2007  17.2007  17.2465  17.2598  17.2713  17.4965  17.4965  17.5145
    17.5212  17.5337  17.5398  17.5398  17.7926  17.7926  17.8862  17.9010
    19.3026  19.3069  19.3511  19.3675  19.4736  19.5435  19.8666  19.8666
    19.8838  20.1261  20.1278  20.1278  20.4565  20.4565  20.5059  20.5631
    20.5631  20.6435  20.6943  20.7172  20.7172  20.7711  20.7881  20.7881
    20.8196  20.8710

 ------ SPIN DOWN ----------


          k = 0.0000 0.0000 0.0000 (  9627 PWs)   bands (ev):

   -67.2224 -66.7974 -66.7845 -52.6363 -52.6159 -52.5847 -52.5810 -52.5380
   -51.7922 -51.7916 -51.7916 -51.7816 -51.7739 -51.7739 -51.7734 -51.7566
   -33.3121 -33.3011 -33.3011 -32.8973 -32.8973 -32.8840 -32.8836 -32.8836
   -32.8714 -24.2161 -24.1773 -24.1773 -24.1301 -24.1301 -24.0262 -23.9968
   -23.9892 -23.9892 -23.9652 -23.9652 -23.8821 -23.8631 -23.8631 -23.8337
   -23.2793 -23.2414 -23.2383 -23.2264 -23.2264 -23.2043 -23.1713 -23.1294
   -23.1294 -23.0831 -23.0681 -23.0666 -23.0666 -23.0492 -23.0490 -23.0490
   -23.0471 -23.0471 -23.0315 -23.0310 -22.9920 -22.9800 -22.9666 -22.9666
    11.4123  14.8696  14.9947  15.0612  15.0612  15.0614  15.1417  15.1573
    15.3180  15.3436  15.4581  15.4698  15.4804  15.4804  15.5404  16.9538
    16.9674  16.9674  16.9900  16.9900  17.0000  17.0741  17.0741  17.0794
    17.3114  17.3145  17.3145  17.4620  17.6282  17.7052  17.9712  17.9940
    17.9940  18.4752  18.4752  18.4923  18.6507  18.6516  18.6516  18.6995
    18.6995  18.7166  19.3781  19.4508  19.4508  19.4947  19.4947  19.5208
    19.6178  19.6388  19.6388  20.2952  20.4096  20.4096  20.4281  20.4388
    20.5274  20.5274  20.5836  20.6015  20.6376  20.6473  20.6510  20.6595
    20.6853  20.6877  20.7014  20.7070  20.7070  20.7270  20.7399  20.7557
    20.7678  21.3858

          k = 0.0000 0.0000 0.1661 (  9595 PWs)   bands (ev):

   -67.2224 -66.7974 -66.7845 -52.6347 -52.6169 -52.5845 -52.5813 -52.5386
   -51.7911 -51.7910 -51.7904 -51.7821 -51.7752 -51.7746 -51.7728 -51.7578
   -33.3121 -33.3010 -33.3009 -32.8972 -32.8971 -32.8839 -32.8836 -32.8835
   -32.8715 -24.2036 -24.1689 -24.1623 -24.1222 -24.1220 -24.0287 -24.0086
   -24.0010 -23.9989 -23.9749 -23.9693 -23.8824 -23.8799 -23.8632 -23.8377
   -23.2678 -23.2250 -23.2210 -23.2199 -23.2143 -23.1941 -23.1683 -23.1369
   -23.1281 -23.0885 -23.0751 -23.0651 -23.0642 -23.0566 -23.0509 -23.0476
   -23.0445 -23.0432 -23.0376 -23.0324 -22.9999 -22.9837 -22.9837 -22.9717
    11.5650  14.5433  14.9620  15.0718  15.1155  15.1162  15.1774  15.2318
    15.3165  15.4220  15.4326  15.5110  15.5211  15.5219  15.9523  16.8289
    16.8994  16.9082  17.0045  17.0051  17.0653  17.0793  17.1167  17.1168
    17.1330  17.1494  17.5011  17.5030  17.5048  17.6219  17.8057  17.8200
    18.4168  18.4668  18.4905  18.5161  18.5361  18.5764  18.6024  18.6220
    18.8785  18.8792  18.9812  18.9837  19.4869  19.5719  19.5779  19.6170
    19.6238  19.6555  19.6766  19.7857  19.8522  20.0072  20.0763  20.2267
    20.2420  20.4025  20.5117  20.5739  20.5978  20.6326  20.6577  20.6673
    20.6971  20.7122  20.7510  20.7616  20.7638  20.8487  20.8863  21.2662
    21.3027  21.3803

          k = 0.0000 0.0000 0.3323 (  9606 PWs)   bands (ev):

   -67.2224 -66.7974 -66.7845 -52.6305 -52.6199 -52.5840 -52.5822 -52.5396
   -51.7899 -51.7877 -51.7871 -51.7831 -51.7785 -51.7779 -51.7696 -51.7610
   -33.3121 -33.3010 -33.3009 -32.8970 -32.8968 -32.8838 -32.8837 -32.8837
   -32.8717 -24.1677 -24.1487 -24.1221 -24.0998 -24.0987 -24.0625 -24.0314
   -24.0253 -24.0138 -23.9973 -23.9918 -23.9189 -23.8732 -23.8636 -23.8486
   -23.2417 -23.2136 -23.1941 -23.1834 -23.1682 -23.1660 -23.1569 -23.1535
   -23.1244 -23.1063 -23.1004 -23.0810 -23.0613 -23.0582 -23.0580 -23.0479
   -23.0443 -23.0356 -23.0324 -23.0303 -23.0273 -23.0197 -22.9941 -22.9860
    12.0111  13.6023  15.1410  15.2390  15.2618  15.2634  15.3802  15.5025
    15.5026  15.5404  15.5468  15.5549  15.6564  15.6930  16.0345  16.4560
    16.5076  16.6441  16.8653  16.8701  16.9555  16.9591  17.2859  17.3458
    17.3645  17.3688  17.5167  17.6667  17.7578  17.7770  17.9219  17.9399
    18.0460  18.1225  18.2424  18.2746  18.4580  18.4687  18.5431  18.5490
    18.6667  18.6922  18.7274  18.9064  18.9404  19.1988  19.2050  19.2312
    19.2620  19.4922  19.4946  19.8489  19.9288  20.0586  20.1032  20.2591
    20.3529  20.3824  20.3909  20.4414  20.5570  20.6425  20.7153  20.7465
    20.8286  20.8432  20.8788  20.8911  21.0438  21.1728  21.2094  21.2319
    21.2523  21.2737

          k = 0.0000 0.0000-0.4984 (  9626 PWs)   bands (ev):

   -67.2225 -66.7974 -66.7845 -52.6262 -52.6236 -52.5831 -52.5831 -52.5402
   -51.7891 -51.7839 -51.7833 -51.7829 -51.7827 -51.7823 -51.7655 -51.7651
   -33.3121 -33.3010 -33.3008 -32.8969 -32.8967 -32.8840 -32.8838 -32.8836
   -32.8718 -24.1360 -24.1166 -24.1163 -24.0850 -24.0773 -24.0730 -24.0513
   -24.0502 -24.0334 -24.0126 -24.0110 -23.9320 -23.8644 -23.8638 -23.8595
   -23.2223 -23.2116 -23.1852 -23.1543 -23.1487 -23.1426 -23.1422 -23.1396
   -23.1292 -23.1219 -23.1029 -23.0967 -23.0944 -23.0619 -23.0558 -23.0553
   -23.0438 -23.0426 -23.0401 -23.0398 -23.0212 -23.0062 -23.0059 -23.0037
    12.6795  12.7491  15.2783  15.3636  15.3867  15.4163  15.4170  15.4727
    15.4810  15.5026  15.7888  15.8854  15.9502  15.9840  15.9843  16.0729
    16.0846  16.0995  16.8922  16.8951  16.8961  16.9010  17.5936  17.6645
    17.7023  17.7107  17.7171  17.7385  17.7478  17.7568  17.8644  17.9490
    18.0227  18.0283  18.1339  18.1592  18.1761  18.1938  18.4250  18.4282
    18.4992  18.5156  18.5249  18.5262  18.5602  18.5633  18.8724  18.9574
    19.7671  19.8356  19.9298  19.9314  20.0359  20.0498  20.0940  20.1758
    20.2224  20.2234  20.5742  20.5761  20.6345  20.6552  20.6846  20.6915
    20.7138  20.7444  20.9721  20.9732  21.0151  21.0394  21.2769  21.3720
    21.4207  21.4219

          k = 0.0000 0.1657 0.1661 (  9557 PWs)   bands (ev):

   -67.2223 -66.7973 -66.7844 -52.6330 -52.6163 -52.5863 -52.5819 -52.5386
   -51.7906 -51.7900 -51.7892 -51.7824 -51.7762 -51.7740 -51.7735 -51.7589
   -33.3113 -33.3010 -33.3009 -32.8971 -32.8971 -32.8848 -32.8837 -32.8833
   -32.8714 -24.1865 -24.1616 -24.1535 -24.1147 -24.1138 -24.0321 -24.0117
   -24.0056 -24.0019 -23.9839 -23.9729 -23.8919 -23.8800 -23.8643 -23.8637
   -23.2640 -23.2233 -23.2100 -23.2032 -23.2002 -23.1809 -23.1704 -23.1388
   -23.1301 -23.0879 -23.0782 -23.0664 -23.0658 -23.0546 -23.0536 -23.0492
   -23.0433 -23.0425 -23.0365 -23.0323 -23.0109 -23.0069 -22.9782 -22.9777
    11.7145  14.5898  14.6447  14.9769  15.1573  15.2002  15.2265  15.2362
    15.3123  15.4693  15.4973  15.5370  15.5732  15.9787  16.0017  16.7040
    16.8080  16.9499  17.0238  17.0460  17.0516  17.0740  17.1016  17.1240
    17.1499  17.2652  17.2720  17.4004  17.5272  17.5637  17.6551  18.1490
    18.1966  18.3582  18.3781  18.4255  18.4642  18.4740  18.6546  18.7069
    18.9970  19.0421  19.0563  19.0802  19.1340  19.1714  19.3792  19.4298
    19.5462  19.6156  19.6360  19.6585  19.7165  19.7398  20.0703  20.0957
    20.3784  20.4641  20.5036  20.5259  20.5814  20.6354  20.6503  20.6709
    20.6781  20.7278  20.7587  20.9150  20.9581  20.9925  21.0311  21.0313
    21.0926  21.3446

          k = 0.0000 0.1657 0.3323 (  9577 PWs)   bands (ev):

   -67.2224 -66.7974 -66.7844 -52.6290 -52.6191 -52.5855 -52.5830 -52.5397
   -51.7893 -51.7876 -51.7859 -51.7832 -51.7791 -51.7768 -51.7708 -51.7621
   -33.3113 -33.3010 -33.3008 -32.8969 -32.8968 -32.8851 -32.8838 -32.8829
   -32.8716 -24.1582 -24.1448 -24.1172 -24.0949 -24.0881 -24.0675 -24.0320
   -24.0280 -24.0136 -24.0011 -23.9845 -23.9234 -23.8798 -23.8658 -23.8643
   -23.2392 -23.2156 -23.1869 -23.1848 -23.1649 -23.1579 -23.1549 -23.1502
   -23.1246 -23.1114 -23.0991 -23.0896 -23.0692 -23.0544 -23.0540 -23.0515
   -23.0474 -23.0467 -23.0369 -23.0283 -23.0206 -23.0179 -22.9897 -22.9884
    12.1527  13.7057  14.7887  14.9921  15.3266  15.3765  15.4271  15.5546
    15.5669  15.5790  15.6396  15.7295  15.7396  15.9751  16.0992  16.4479
    16.5378  16.6041  16.9087  16.9935  17.0085  17.0246  17.2020  17.2426
    17.2980  17.3079  17.4971  17.5285  17.5614  17.7511  17.8501  17.9825
    18.0189  18.1959  18.2086  18.2870  18.3228  18.3482  18.3861  18.4529
    18.5079  18.5879  18.7952  18.8068  18.8954  18.9727  18.9865  19.2200
    19.4284  19.5329  19.5841  19.8762  19.9368  20.0151  20.0159  20.1586
    20.3257  20.4056  20.4140  20.4965  20.5365  20.6280  20.6881  20.7075
    20.7617  20.8001  20.8262  20.8895  20.9325  21.0458  21.1228  21.1592
    21.1789  21.2077

          k = 0.0000 0.1657-0.4984 (  9608 PWs)   bands (ev):

   -67.2224 -66.7974 -66.7845 -52.6250 -52.6225 -52.5843 -52.5843 -52.5402
   -51.7887 -51.7848 -51.7833 -51.7823 -51.7816 -51.7812 -51.7667 -51.7662
   -33.3114 -33.3010 -33.3008 -32.8969 -32.8967 -32.8853 -32.8840 -32.8828
   -32.8717 -24.1348 -24.1174 -24.1148 -24.0822 -24.0756 -24.0756 -24.0488
   -24.0355 -24.0206 -24.0120 -24.0112 -23.9384 -23.8737 -23.8704 -23.8646
   -23.2205 -23.2135 -23.1808 -23.1603 -23.1521 -23.1505 -23.1451 -23.1282
   -23.1213 -23.1190 -23.1149 -23.1060 -23.1032 -23.0718 -23.0556 -23.0504
   -23.0476 -23.0389 -23.0362 -23.0341 -23.0147 -23.0043 -23.0038 -23.0021
    12.8053  12.8773  14.9097  14.9665  15.4907  15.5062  15.5254  15.5858
    15.7384  15.7429  15.8671  15.9537  15.9936  16.0236  16.0586  16.1295
    16.1344  16.1459  16.9302  16.9350  16.9518  16.9654  17.4673  17.5020
    17.5165  17.5791  17.5899  17.5958  17.6920  17.7005  17.9623  17.9786
    17.9801  18.0185  18.1783  18.1903  18.2099  18.2131  18.2528  18.2879
    18.3300  18.3351  18.3503  18.3905  18.4053  18.4371  19.0950  19.1315
    19.8444  19.8449  19.9356  19.9595  19.9817  20.0758  20.1497  20.2090
    20.2330  20.2418  20.3955  20.3994  20.4600  20.5434  20.5609  20.6825
    20.6882  20.7903  20.9130  20.9298  20.9550  20.9968  21.1243  21.1642
    21.1848  21.1849

          k = 0.0000 0.3314 0.3323 (  9582 PWs)   bands (ev):

   -67.2224 -66.7974 -66.7844 -52.6258 -52.6173 -52.5888 -52.5848 -52.5398
   -51.7876 -51.7875 -51.7834 -51.7827 -51.7806 -51.7740 -51.7737 -51.7652
   -33.3100 -33.3010 -33.3008 -32.8969 -32.8969 -32.8868 -32.8839 -32.8827
   -32.8715 -24.1367 -24.1336 -24.1064 -24.0823 -24.0820 -24.0689 -24.0372
   -24.0246 -24.0132 -24.0083 -23.9643 -23.9359 -23.9097 -23.8947 -23.8657
   -23.2337 -23.2145 -23.1797 -23.1693 -23.1628 -23.1517 -23.1459 -23.1457
   -23.1203 -23.1149 -23.1067 -23.1046 -23.0925 -23.0789 -23.0744 -23.0477
   -23.0393 -23.0313 -23.0281 -23.0229 -23.0152 -23.0148 -22.9993 -22.9924
    12.5632  13.9659  14.0035  14.7176  15.5980  15.6537  15.6667  15.7082
    15.7464  15.7571  15.8083  15.9263  15.9643  16.0934  16.1921  16.3782
    16.5211  16.7166  16.7538  16.9476  17.1176  17.1415  17.1444  17.1714
    17.2161  17.2692  17.3670  17.3854  17.4977  17.8195  17.8343  17.8854
    17.9182  17.9556  18.0078  18.1130  18.1489  18.1512  18.2046  18.2425
    18.2729  18.3655  18.4473  18.4835  18.5295  18.8688  18.9061  19.1498
    19.7200  19.7312  19.8240  19.9517  19.9842  20.0333  20.0681  20.2744
    20.2979  20.3298  20.3919  20.4090  20.4720  20.5117  20.5371  20.5954
    20.6428  20.6545  20.7356  20.7589  20.8970  20.8988  20.9484  20.9708
    21.0101  21.0897

          k = 0.0000 0.3314-0.4984 (  9578 PWs)   bands (ev):

   -67.2224 -66.7974 -66.7844 -52.6225 -52.6201 -52.5868 -52.5868 -52.5403
   -51.7876 -51.7857 -51.7844 -51.7814 -51.7784 -51.7780 -51.7698 -51.7694
   -33.3100 -33.3009 -33.3008 -32.8968 -32.8968 -32.8870 -32.8839 -32.8824
   -32.8715 -24.1324 -24.1137 -24.1082 -24.0828 -24.0812 -24.0721 -24.0461
   -24.0118 -24.0110 -23.9964 -23.9880 -23.9510 -23.9009 -23.8998 -23.8661
   -23.2177 -23.2156 -23.1721 -23.1611 -23.1530 -23.1529 -23.1447 -23.1357
   -23.1291 -23.1267 -23.1239 -23.1173 -23.1081 -23.0842 -23.0766 -23.0397
   -23.0359 -23.0335 -23.0226 -23.0188 -23.0066 -23.0062 -23.0060 -23.0017
    13.1644  13.2420  14.3199  14.4045  15.7700  15.7873  15.8010  15.8460
    15.8610  15.9381  16.0605  16.0865  16.0951  16.1093  16.2421  16.2506
    16.2790  16.3527  16.9958  16.9999  17.0652  17.0943  17.1612  17.2061
    17.2176  17.2652  17.3562  17.3659  17.5991  17.6008  17.7991  17.8147
    17.8547  17.8898  17.9676  17.9809  18.0350  18.0775  18.0910  18.1454
    18.1865  18.2334  18.2710  18.2956  18.3777  18.3862  19.1958  19.2068
    19.7830  19.8233  20.0560  20.1167  20.1201  20.1224  20.1901  20.1957
    20.2441  20.2491  20.2795  20.2954  20.3222  20.3251  20.5147  20.6069
    20.6873  20.6899  20.7431  20.8117  20.8251  20.8278  20.8561  20.8905
    20.9306  20.9577

          k = 0.0000-0.4971-0.4984 (  9580 PWs)   bands (ev):

   -67.2224 -66.7974 -66.7844 -52.6211 -52.6187 -52.5882 -52.5882 -52.5404
   -51.7863 -51.7860 -51.7856 -51.7810 -51.7745 -51.7741 -51.7737 -51.7733
   -33.3093 -33.3010 -33.3007 -32.8969 -32.8969 -32.8879 -32.8839 -32.8822
   -32.8713 -24.1313 -24.1097 -24.1020 -24.0891 -24.0820 -24.0703 -24.0448
   -24.0123 -24.0105 -23.9691 -23.9559 -23.9424 -23.9381 -23.9304 -23.8669
   -23.2168 -23.2161 -23.1658 -23.1524 -23.1478 -23.1477 -23.1475 -23.1475
   -23.1421 -23.1344 -23.1339 -23.1234 -23.1006 -23.0906 -23.0875 -23.0371
   -23.0218 -23.0215 -23.0165 -23.0140 -23.0134 -23.0118 -23.0045 -23.0031
    13.6815  13.7201  13.7339  13.8393  15.8991  15.9662  15.9662  15.9742
    16.0202  16.0311  16.1288  16.1491  16.1861  16.1968  16.2747  16.3082
    16.6092  16.7218  16.7562  16.7582  16.9941  16.9968  17.0394  17.0744
    17.0783  17.1863  17.2889  17.3373  17.5762  17.6363  17.6914  17.7050
    17.7130  17.7181  17.7551  17.7725  17.9512  17.9571  17.9703  18.0314
    18.1254  18.2022  18.2218  18.2242  18.8182  18.8255  18.8526  18.8655
    19.8540  19.8759  19.8892  19.9794  20.2594  20.2982  20.3148  20.3216
    20.3446  20.3497  20.3537  20.3752  20.3769  20.4560  20.4627  20.4746
    20.4838  20.5030  20.5178  20.5185  20.7584  20.7737  20.8210  20.8362
    20.8373  20.8626

          k = 0.1661 0.1657 0.1661 (  9591 PWs)   bands (ev):

   -67.2224 -66.7974 -66.7844 -52.6316 -52.6171 -52.5860 -52.5823 -52.5392
   -51.7901 -51.7894 -51.7879 -51.7827 -51.7751 -51.7750 -51.7745 -51.7601
   -33.3114 -33.3010 -33.3009 -32.8972 -32.8969 -32.8849 -32.8835 -32.8833
   -32.8715 -24.1770 -24.1542 -24.1435 -24.1083 -24.1045 -24.0429 -24.0265
   -24.0141 -23.9996 -23.9817 -23.9777 -23.8929 -23.8821 -23.8771 -23.8653
   -23.2542 -23.2142 -23.2078 -23.2015 -23.1898 -23.1732 -23.1588 -23.1376
   -23.1373 -23.0908 -23.0824 -23.0816 -23.0659 -23.0581 -23.0523 -23.0486
   -23.0458 -23.0407 -23.0388 -23.0255 -23.0231 -23.0093 -22.9851 -22.9770
    11.8626  14.6049  14.7134  14.8067  15.0574  15.1733  15.2204  15.3111
    15.3442  15.4224  15.5811  15.6140  15.9540  16.0466  16.1048  16.6087
    16.9069  16.9113  16.9529  17.0574  17.0731  17.1029  17.1089  17.1307
    17.1970  17.2156  17.2474  17.3217  17.4220  17.4335  17.9398  17.9750
    17.9858  18.2741  18.3482  18.3527  18.3770  18.3858  18.7915  18.7954
    18.8263  18.8390  18.9866  19.0140  19.0374  19.2170  19.2267  19.2338
    19.2721  19.3546  19.4207  19.7658  19.8089  19.8407  20.3032  20.3062
    20.3406  20.4010  20.4329  20.4879  20.5771  20.5879  20.6327  20.6534
    20.6664  20.7268  20.7355  20.9201  20.9278  20.9705  20.9984  21.0616
    21.1723  21.2325

          k = 0.1661 0.1657 0.3323 (  9577 PWs)   bands (ev):

   -67.2224 -66.7974 -66.7844 -52.6280 -52.6195 -52.5853 -52.5832 -52.5403
   -51.7894 -51.7866 -51.7850 -51.7833 -51.7780 -51.7773 -51.7719 -51.7632
   -33.3113 -33.3009 -33.3008 -32.8970 -32.8968 -32.8850 -32.8837 -32.8830
   -32.8716 -24.1498 -24.1407 -24.1156 -24.0904 -24.0846 -24.0719 -24.0450
   -24.0225 -24.0120 -23.9951 -23.9802 -23.9248 -23.8843 -23.8767 -23.8692
   -23.2308 -23.2078 -23.1921 -23.1838 -23.1623 -23.1579 -23.1510 -23.1395
   -23.1328 -23.1085 -23.0997 -23.0926 -23.0737 -23.0686 -23.0644 -23.0559
   -23.0484 -23.0393 -23.0372 -23.0327 -23.0154 -23.0106 -22.9973 -22.9835
    12.2941  13.8125  14.8736  14.9209  15.0980  15.1762  15.5063  15.5568
    15.5826  15.6828  15.8158  15.8221  16.0252  16.0900  16.1680  16.4504
    16.5706  16.6558  16.9058  17.0311  17.0485  17.0917  17.1153  17.2146
    17.2231  17.2676  17.4404  17.4815  17.5694  17.7147  17.7654  17.7790
    18.0417  18.0970  18.1575  18.2089  18.2486  18.3029  18.3275  18.3530
    18.3843  18.3983  18.5853  18.6668  18.6898  18.7758  19.0417  19.0483
    19.5751  19.6281  19.6578  19.9496  19.9946  20.0692  20.1720  20.2153
    20.2680  20.3784  20.4455  20.4783  20.5137  20.5651  20.6715  20.6972
    20.7355  20.7568  20.7864  20.7921  20.8639  21.0162  21.0416  21.1395
    21.1575  21.2626

          k = 0.1661 0.1657-0.4984 (  9588 PWs)   bands (ev):

   -67.2224 -66.7974 -66.7844 -52.6244 -52.6225 -52.5843 -52.5843 -52.5409
   -51.7889 -51.7847 -51.7822 -51.7817 -51.7812 -51.7810 -51.7678 -51.7674
   -33.3114 -33.3009 -33.3008 -32.8969 -32.8968 -32.8851 -32.8838 -32.8829
   -32.8717 -24.1297 -24.1144 -24.1109 -24.1019 -24.0820 -24.0698 -24.0412
   -24.0245 -24.0130 -24.0095 -24.0019 -23.9419 -23.8825 -23.8756 -23.8718
   -23.2121 -23.2065 -23.1863 -23.1733 -23.1548 -23.1449 -23.1371 -23.1294
   -23.1262 -23.1147 -23.1147 -23.1092 -23.0960 -23.0745 -23.0704 -23.0671
   -23.0502 -23.0400 -23.0250 -23.0244 -23.0229 -23.0098 -22.9955 -22.9953
    12.9327  13.0070  15.0304  15.0413  15.0506  15.1611  15.8135  15.8216
    15.8555  15.8712  15.9434  16.0274  16.0387  16.0501  16.1359  16.1912
    16.1948  16.2006  16.9524  16.9596  17.0120  17.0284  17.4283  17.4303
    17.4847  17.5031  17.5119  17.5244  17.5744  17.5863  17.9140  17.9616
    17.9671  17.9972  18.0212  18.0662  18.1539  18.1637  18.1723  18.1785
    18.1974  18.2037  18.2108  18.2149  18.2806  18.2916  19.1802  19.1875
    19.9328  19.9433  19.9563  20.0182  20.0431  20.0478  20.0767  20.0805
    20.2110  20.2323  20.2363  20.2669  20.5510  20.6560  20.6736  20.6791
    20.7593  20.8171  20.8850  20.9027  20.9315  20.9591  21.0497  21.0616
    21.0774  21.0966

          k = 0.1661 0.3314 0.3323 (  9595 PWs)   bands (ev):

   -67.2224 -66.7974 -66.7845 -52.6249 -52.6176 -52.5885 -52.5850 -52.5404
   -51.7872 -51.7869 -51.7830 -51.7824 -51.7797 -51.7748 -51.7744 -51.7663
   -33.3100 -33.3009 -33.3008 -32.8969 -32.8968 -32.8867 -32.8838 -32.8828
   -32.8715 -24.1287 -24.1223 -24.1025 -24.0823 -24.0822 -24.0727 -24.0351
   -24.0174 -24.0111 -24.0051 -23.9751 -23.9363 -23.9153 -23.9001 -23.8808
   -23.2252 -23.2071 -23.1791 -23.1697 -23.1625 -23.1514 -23.1454 -23.1403
   -23.1207 -23.1118 -23.1041 -23.1032 -23.0945 -23.0737 -23.0707 -23.0548
   -23.0504 -23.0369 -23.0338 -23.0226 -23.0206 -23.0075 -23.0022 -22.9971
    12.7009  14.0812  14.1222  14.8499  15.1606  15.4790  15.5405  15.7910
    15.8262  15.8957  16.0340  16.0517  16.1459  16.2172  16.3628  16.4272
    16.5777  16.7108  16.7173  16.9514  17.0441  17.1290  17.1615  17.2387
    17.2556  17.2774  17.2906  17.3493  17.5158  17.6951  17.7542  17.8033
    17.8363  17.8817  17.8945  18.0133  18.0560  18.0740  18.0861  18.1187
    18.1628  18.2067  18.2324  18.2571  18.3433  18.6010  18.6402  19.1837
    19.8547  19.8646  19.9266  20.0755  20.0942  20.1143  20.1761  20.1971
    20.3733  20.4033  20.4419  20.4673  20.4846  20.5088  20.5545  20.6037
    20.6610  20.7240  20.7476  20.8953  20.9034  20.9243  20.9533  21.0218
    21.0588  21.0776

          k = 0.1661 0.3314-0.4984 (  9574 PWs)   bands (ev):

   -67.2224 -66.7974 -66.7844 -52.6219 -52.6200 -52.5868 -52.5868 -52.5410
   -51.7873 -51.7852 -51.7834 -51.7809 -51.7786 -51.7783 -51.7707 -51.7704
   -33.3100 -33.3009 -33.3008 -32.8968 -32.8968 -32.8868 -32.8838 -32.8826
   -32.8715 -24.1224 -24.1080 -24.1003 -24.0882 -24.0796 -24.0624 -24.0422
   -24.0105 -24.0087 -23.9959 -23.9949 -23.9562 -23.9075 -23.9066 -23.8829
   -23.2091 -23.2081 -23.1766 -23.1687 -23.1506 -23.1427 -23.1397 -23.1343
   -23.1337 -23.1221 -23.1158 -23.1139 -23.0981 -23.0827 -23.0741 -23.0520
   -23.0462 -23.0405 -23.0219 -23.0212 -23.0194 -23.0128 -23.0017 -23.0005
    13.2937  13.3733  14.4491  14.5351  15.3796  15.4331  15.9774  16.0023
    16.0246  16.0625  16.0789  16.0970  16.2132  16.2278  16.3427  16.3480
    16.3499  16.4080  17.0273  17.0337  17.0840  17.1098  17.1212  17.1831
    17.2488  17.2633  17.3602  17.3678  17.5515  17.5549  17.6398  17.6680
    17.7472  17.8015  17.8976  17.9126  17.9380  17.9473  17.9737  17.9919
    18.0293  18.0645  18.1014  18.1329  18.1813  18.1936  18.9547  18.9566
    19.9849  20.0180  20.0913  20.1027  20.1939  20.2169  20.2486  20.2709
    20.2807  20.3151  20.3318  20.3706  20.5338  20.5505  20.5880  20.6203
    20.7497  20.7709  20.7710  20.8128  20.8583  20.8661  20.9180  20.9264
    20.9440  21.0112

          k = 0.1661-0.4971-0.4984 (  9588 PWs)   bands (ev):

   -67.2224 -66.7974 -66.7845 -52.6205 -52.6187 -52.5882 -52.5882 -52.5410
   -51.7857 -51.7854 -51.7849 -51.7806 -51.7750 -51.7748 -51.7744 -51.7740
   -33.3093 -33.3009 -33.3008 -32.8968 -32.8968 -32.8876 -32.8839 -32.8825
   -32.8714 -24.1177 -24.1031 -24.0937 -24.0805 -24.0734 -24.0704 -24.0463
   -24.0129 -24.0083 -23.9683 -23.9659 -23.9522 -23.9463 -23.9401 -23.8850
   -23.2084 -23.2079 -23.1691 -23.1601 -23.1453 -23.1450 -23.1425 -23.1399
   -23.1334 -23.1270 -23.1259 -23.1143 -23.0973 -23.0894 -23.0864 -23.0433
   -23.0286 -23.0276 -23.0235 -23.0211 -23.0185 -23.0174 -23.0097 -23.0088
    13.8134  13.8502  13.8645  13.9747  15.7672  15.7689  15.7991  15.8878
    16.0191  16.1416  16.1602  16.1753  16.4561  16.4579  16.4580  16.4777
    16.6336  16.7407  16.7687  16.7693  16.9702  17.0101  17.0154  17.0510
    17.1631  17.2306  17.2969  17.3451  17.4578  17.4951  17.5364  17.5535
    17.6674  17.6806  17.7131  17.7315  17.8357  17.8461  17.8594  17.8714
    17.9716  18.0420  18.0678  18.0700  18.4917  18.5009  18.5361  18.5379
    20.1230  20.1523  20.1648  20.2297  20.2891  20.3542  20.4045  20.4287
    20.4313  20.4744  20.4772  20.4807  20.5137  20.5254  20.5358  20.5389
    20.5672  20.5911  20.6049  20.6138  20.7550  20.7977  20.8122  20.8249
    20.8270  20.8910

          k = 0.3323 0.3314 0.3323 (  9594 PWs)   bands (ev):

   -67.2224 -66.7974 -66.7845 -52.6227 -52.6186 -52.5878 -52.5858 -52.5416
   -51.7869 -51.7851 -51.7821 -51.7812 -51.7775 -51.7765 -51.7764 -51.7691
   -33.3100 -33.3008 -33.3008 -32.8968 -32.8968 -32.8863 -32.8837 -32.8831
   -32.8716 -24.1097 -24.1044 -24.0884 -24.0884 -24.0824 -24.0601 -24.0281
   -24.0161 -24.0068 -23.9992 -23.9954 -23.9394 -23.9288 -23.9225 -23.9034
   -23.2044 -23.1920 -23.1760 -23.1718 -23.1594 -23.1533 -23.1385 -23.1365
   -23.1127 -23.1083 -23.1031 -23.1020 -23.1000 -23.0712 -23.0697 -23.0590
   -23.0575 -23.0501 -23.0434 -23.0305 -23.0210 -23.0115 -23.0078 -23.0027
    13.0975  14.3421  14.4352  14.5149  15.1548  15.2784  15.3370  16.0603
    16.0729  16.1005  16.2776  16.2851  16.3867  16.4364  16.5040  16.5143
    16.6230  16.6379  16.7579  16.7957  17.0307  17.0327  17.2120  17.2559
    17.2569  17.3890  17.3901  17.4137  17.4348  17.4536  17.6435  17.6647
    17.6917  17.7145  17.7168  17.7314  17.7675  17.7917  17.7931  17.8129
    17.8817  17.9225  17.9861  17.9882  18.1212  18.1929  18.1935  18.8904
    20.0933  20.0996  20.1251  20.1561  20.3075  20.3425  20.3826  20.4108
    20.4222  20.4407  20.5450  20.5552  20.5890  20.6017  20.6206  20.7172
    20.7312  20.8099  20.8546  20.8705  20.8898  20.9052  20.9136  21.0439
    21.0593  21.1031

          k = 0.3323 0.3314-0.4984 (  9598 PWs)   bands (ev):

   -67.2224 -66.7974 -66.7845 -52.6207 -52.6200 -52.5868 -52.5868 -52.5423
   -51.7867 -51.7841 -51.7808 -51.7794 -51.7789 -51.7788 -51.7731 -51.7730
   -33.3100 -33.3008 -33.3008 -32.8968 -32.8968 -32.8861 -32.8837 -32.8832
   -32.8716 -24.1035 -24.1016 -24.0851 -24.0829 -24.0640 -24.0553 -24.0312
   -24.0105 -24.0037 -24.0037 -23.9973 -23.9659 -23.9344 -23.9202 -23.9164
   -23.1882 -23.1876 -23.1759 -23.1684 -23.1559 -23.1525 -23.1436 -23.1295
   -23.1217 -23.1065 -23.1025 -23.1017 -23.0857 -23.0786 -23.0746 -23.0674
   -23.0630 -23.0477 -23.0370 -23.0324 -23.0262 -23.0221 -23.0079 -23.0049
    13.6598  13.7463  14.8086  14.8438  14.8554  14.9554  15.8247  15.8581
    16.2862  16.2947  16.3224  16.3706  16.3827  16.4308  16.5410  16.5774
    16.5853  16.5933  17.0296  17.0710  17.1046  17.1226  17.1322  17.1398
    17.1857  17.1916  17.3742  17.3913  17.4261  17.4349  17.4852  17.4917
    17.5637  17.5653  17.6208  17.6882  17.7024  17.7066  17.7291  17.7710
    17.7956  17.7971  17.8152  17.8188  17.8861  17.8947  18.4253  18.4254
    20.2952  20.3022  20.3352  20.3416  20.3689  20.3983  20.4089  20.4518
    20.4674  20.4877  20.5383  20.5477  20.5879  20.6775  20.7430  20.7522
    20.7805  20.7914  20.7922  20.8121  20.8590  20.8735  20.8890  20.9239
    20.9289  20.9387

          k = 0.3323-0.4971-0.4984 (  9632 PWs)   bands (ev):

   -67.2224 -66.7975 -66.7845 -52.6193 -52.6186 -52.5882 -52.5882 -52.5423
   -51.7839 -51.7837 -51.7831 -51.7794 -51.7766 -51.7761 -51.7760 -51.7758
   -33.3093 -33.3009 -33.3008 -32.8967 -32.8967 -32.8869 -32.8838 -32.8833
   -32.8715 -24.0886 -24.0832 -24.0720 -24.0685 -24.0577 -24.0497 -24.0484
   -24.0141 -24.0042 -23.9917 -23.9785 -23.9737 -23.9646 -23.9594 -23.9288
   -23.1888 -23.1853 -23.1698 -23.1652 -23.1459 -23.1409 -23.1373 -23.1333
   -23.1332 -23.1058 -23.1044 -23.0908 -23.0828 -23.0822 -23.0769 -23.0552
   -23.0429 -23.0420 -23.0396 -23.0393 -23.0326 -23.0321 -23.0259 -23.0254
    14.1864  14.2160  14.2337  14.3579  15.3564  15.3567  15.3590  15.4780
    16.3519  16.4429  16.4668  16.4824  16.6976  16.7780  16.7931  16.7950
    16.8123  16.8136  16.8284  16.8364  16.8833  17.0083  17.0408  17.0536
    17.2882  17.3012  17.3265  17.3281  17.3371  17.3634  17.3812  17.3896
    17.4932  17.5070  17.5079  17.5295  17.5797  17.5871  17.6022  17.6229
    17.6614  17.7224  17.7421  17.7489  17.9301  17.9404  17.9678  17.9717
    20.3927  20.4409  20.4471  20.4803  20.4938  20.5814  20.5898  20.6065
    20.6161  20.6206  20.6398  20.6434  20.7187  20.7187  20.7261  20.7412
    20.7679  20.7824  20.7845  20.8003  20.8197  20.8561  20.8814  20.9013
    20.9861  20.9936

          k =-0.4984-0.4971-0.4984 (  9568 PWs)   bands (ev):

   -67.2224 -66.7974 -66.7844 -52.6186 -52.6186 -52.5882 -52.5882 -52.5429
   -51.7826 -51.7826 -51.7818 -51.7779 -51.7779 -51.7776 -51.7772 -51.7772
   -33.3093 -33.3007 -33.3007 -32.8966 -32.8966 -32.8864 -32.8837 -32.8837
   -32.8715 -24.0824 -24.0632 -24.0571 -24.0567 -24.0437 -24.0370 -24.0238
   -24.0140 -24.0140 -24.0058 -24.0022 -23.9846 -23.9846 -23.9602 -23.9602
   -23.1682 -23.1662 -23.1662 -23.1660 -23.1628 -23.1424 -23.1424 -23.1288
   -23.1288 -23.1008 -23.0761 -23.0761 -23.0713 -23.0703 -23.0660 -23.0517
   -23.0517 -23.0509 -23.0509 -23.0466 -23.0465 -23.0465 -23.0463 -23.0453
    14.6326  14.6380  14.6917  14.8735  14.8735  14.9093  14.9116  14.9116
    16.7676  16.7676  16.7679  16.7679  16.7802  16.8107  16.8107  16.8217
    16.8217  16.8254  16.9748  16.9822  17.0489  17.0693  17.0725  17.0726
    17.3122  17.3432  17.3499  17.3499  17.3684  17.3924  17.3924  17.4059
    17.4059  17.4078  17.4285  17.4503  17.4503  17.4669  17.4873  17.4919
    17.4963  17.4969  17.4969  17.5058  17.5058  17.5133  17.5157  17.5172
    20.4742  20.5063  20.6486  20.6486  20.6896  20.6896  20.7039  20.7052
    20.7052  20.7127  20.7133  20.7169  20.7360  20.7376  20.7437  20.7437
    20.8364  20.8364  20.8652  20.8888  20.9067  20.9138  20.9138  20.9840
    20.9840  21.0888

          k = 0.0000 0.1657 0.0000 (  9595 PWs)   bands (ev):

   -67.2224 -66.7974 -66.7845 -52.6345 -52.6154 -52.5865 -52.5815 -52.5381
   -51.7916 -51.7905 -51.7905 -51.7821 -51.7751 -51.7751 -51.7723 -51.7577
   -33.3113 -33.3010 -33.3010 -32.8972 -32.8972 -32.8846 -32.8836 -32.8836
   -32.8714 -24.1960 -24.1690 -24.1690 -24.1220 -24.1220 -24.0270 -23.9973
   -23.9973 -23.9895 -23.9765 -23.9765 -23.8899 -23.8679 -23.8633 -23.8633
   -23.2747 -23.2220 -23.2172 -23.2172 -23.2154 -23.1924 -23.1741 -23.1326
   -23.1326 -23.0817 -23.0700 -23.0646 -23.0646 -23.0518 -23.0518 -23.0478
   -23.0418 -23.0417 -23.0417 -23.0329 -23.0042 -22.9968 -22.9738 -22.9738
    11.5642  14.5452  14.9247  15.1052  15.1158  15.1158  15.1765  15.2035
    15.2465  15.4154  15.4661  15.5200  15.5200  15.6045  15.9386  16.8152
    16.9059  16.9059  16.9856  16.9856  17.0607  17.0780  17.1222  17.1365
    17.1365  17.1522  17.4669  17.5102  17.5102  17.6661  17.8213  17.8213
    18.4333  18.4769  18.4769  18.5070  18.5170  18.5886  18.6220  18.6220
    18.8476  18.8476  18.9993  18.9993  19.4684  19.4766  19.5963  19.6476
    19.6623  19.6623  19.7111  19.8423  19.8423  20.0230  20.0230  20.2356
    20.2356  20.4102  20.4769  20.5889  20.5907  20.6263  20.6263  20.6572
    20.6959  20.7371  20.7372  20.7685  20.7866  20.8382  20.8899  21.1754
    21.3895  21.3958

          k = 0.0000 0.3314 0.0000 (  9606 PWs)   bands (ev):

   -67.2224 -66.7974 -66.7845 -52.6305 -52.6142 -52.5907 -52.5827 -52.5382
   -51.7902 -51.7872 -51.7872 -51.7834 -51.7784 -51.7784 -51.7692 -51.7608
   -33.3100 -33.3010 -33.3010 -32.8970 -32.8970 -32.8858 -32.8838 -32.8838
   -32.8715 -24.1488 -24.1488 -24.1384 -24.0999 -24.0999 -24.0291 -24.0237
   -24.0237 -23.9988 -23.9988 -23.9707 -23.9506 -23.9109 -23.8640 -23.8640
   -23.2656 -23.1971 -23.1971 -23.1914 -23.1657 -23.1620 -23.1562 -23.1403
   -23.1403 -23.0813 -23.0784 -23.0651 -23.0647 -23.0647 -23.0459 -23.0459
   -23.0446 -23.0421 -23.0385 -23.0360 -23.0344 -23.0344 -22.9927 -22.9927
    12.0079  13.5935  15.0536  15.2624  15.2624  15.2646  15.3648  15.4531
    15.4983  15.5526  15.5526  15.6255  15.6958  15.6982  16.0443  16.4449
    16.4795  16.6550  16.8630  16.8630  16.9390  16.9390  17.3051  17.3638
    17.3675  17.3675  17.4950  17.6976  17.7797  17.7797  17.9382  17.9382
    18.0837  18.0964  18.2645  18.2645  18.4648  18.4648  18.5429  18.5429
    18.6922  18.7061  18.7266  18.9357  18.9357  19.1730  19.1995  19.2471
    19.2471  19.4816  19.4816  19.8202  19.9170  20.1016  20.1016  20.2313
    20.3495  20.3726  20.3726  20.3954  20.6122  20.6379  20.7204  20.7259
    20.8525  20.8743  20.8835  20.8835  21.0645  21.1304  21.2208  21.2692
    21.2748  21.2748

          k = 0.0000-0.4971 0.0000 (  9626 PWs)   bands (ev):

   -67.2224 -66.7975 -66.7845 -52.6281 -52.6136 -52.5932 -52.5833 -52.5382
   -51.7892 -51.7843 -51.7832 -51.7832 -51.7824 -51.7824 -51.7654 -51.7646
   -33.3094 -33.3010 -33.3010 -32.8969 -32.8969 -32.8865 -32.8840 -32.8840
   -32.8716 -24.1361 -24.1361 -24.0756 -24.0756 -24.0685 -24.0527 -24.0527
   -24.0319 -24.0302 -24.0100 -24.0100 -23.9515 -23.9310 -23.8643 -23.8643
   -23.2607 -23.1909 -23.1851 -23.1851 -23.1464 -23.1464 -23.1233 -23.1188
   -23.1167 -23.0934 -23.0918 -23.0917 -23.0741 -23.0731 -23.0657 -23.0657
   -23.0409 -23.0409 -23.0407 -23.0399 -23.0215 -23.0215 -23.0124 -23.0124
    12.6801  12.7348  15.1527  15.2573  15.4143  15.4143  15.4800  15.4800
    15.4998  15.6703  15.7916  15.8474  15.9290  15.9493  15.9898  16.0339
    16.0744  16.1614  16.8832  16.8832  16.8848  16.8848  17.6330  17.6694
    17.6873  17.7121  17.7478  17.7478  17.7482  17.7482  17.9019  17.9445
    17.9738  18.0890  18.1716  18.1716  18.1813  18.1813  18.4480  18.4480
    18.4783  18.4783  18.5513  18.5513  18.5560  18.5560  18.8916  18.9556
    19.7255  19.8092  19.9094  19.9094  20.0369  20.0369  20.1184  20.1217
    20.1576  20.2371  20.6300  20.6313  20.6350  20.6350  20.7118  20.7118
    20.7211  20.7216  20.9823  21.0078  21.0310  21.0500  21.3876  21.3876
    21.3994  21.4127

          k = 0.1661 0.0000 0.1661 (  9557 PWs)   bands (ev):

   -67.2223 -66.7973 -66.7844 -52.6333 -52.6178 -52.5844 -52.5816 -52.5391
   -51.7911 -51.7898 -51.7889 -51.7825 -51.7756 -51.7740 -51.7740 -51.7590
   -33.3120 -33.3009 -33.3009 -32.8973 -32.8969 -32.8838 -32.8837 -32.8834
   -32.8715 -24.1919 -24.1638 -24.1495 -24.1141 -24.1117 -24.0361 -24.0225
   -24.0126 -24.0067 -23.9782 -23.9653 -23.8844 -23.8792 -23.8780 -23.8414
   -23.2575 -23.2197 -23.2159 -23.2072 -23.2056 -23.1791 -23.1620 -23.1365
   -23.1357 -23.0913 -23.0801 -23.0758 -23.0675 -23.0520 -23.0511 -23.0483
   -23.0467 -23.0405 -23.0367 -23.0336 -23.0057 -23.0023 -22.9871 -22.9697
    11.7153  14.5403  14.7250  15.0019  15.1080  15.2182  15.2282  15.2451
    15.3197  15.4121  15.5010  15.5644  15.5782  15.9308  16.0227  16.7114
    16.8087  16.9563  17.0311  17.0597  17.0608  17.0806  17.1252  17.1393
    17.1415  17.2352  17.2525  17.3871  17.5152  17.5614  17.6437  18.1759
    18.1877  18.3215  18.3666  18.4328  18.4726  18.4913  18.6687  18.6999
    18.9947  19.0343  19.0818  19.0951  19.1189  19.1439  19.3827  19.4290
    19.4631  19.6387  19.6654  19.6960  19.7196  19.7452  20.0525  20.1071
    20.3864  20.4790  20.4948  20.5143  20.5952  20.6284  20.6661  20.6674
    20.6803  20.7311  20.7339  20.9204  20.9560  20.9581  20.9900  21.0630
    21.1301  21.3370

          k = 0.1661 0.3314 0.0000 (  9577 PWs)   bands (ev):

   -67.2224 -66.7974 -66.7844 -52.6292 -52.6150 -52.5902 -52.5832 -52.5387
   -51.7895 -51.7873 -51.7860 -51.7833 -51.7790 -51.7772 -51.7704 -51.7620
   -33.3100 -33.3010 -33.3009 -32.8970 -32.8969 -32.8862 -32.8838 -32.8833
   -32.8715 -24.1463 -24.1449 -24.1275 -24.0949 -24.0905 -24.0472 -24.0272
   -24.0210 -24.0110 -24.0018 -23.9653 -23.9370 -23.9118 -23.8765 -23.8645
   -23.2560 -23.2103 -23.1938 -23.1725 -23.1681 -23.1573 -23.1572 -23.1426
   -23.1335 -23.0879 -23.0855 -23.0778 -23.0732 -23.0678 -23.0594 -23.0532
   -23.0427 -23.0407 -23.0368 -23.0326 -23.0241 -23.0216 -22.9943 -22.9904
    12.1503  13.6982  14.7740  14.9809  15.3191  15.3766  15.4802  15.5224
    15.5506  15.5735  15.6383  15.7110  15.7637  16.0139  16.1028  16.4403
    16.5131  16.6117  16.9062  16.9930  16.9935  17.0113  17.1864  17.2611
    17.3065  17.3152  17.5115  17.5317  17.5600  17.7627  17.8652  17.9782
    18.0265  18.1980  18.2123  18.2850  18.3241  18.3549  18.3996  18.4523
    18.5035  18.5830  18.8014  18.8712  18.8990  18.9111  19.0001  19.2412
    19.4076  19.5281  19.5487  19.8543  19.9352  20.0218  20.0409  20.1566
    20.2872  20.3912  20.4002  20.4807  20.5878  20.6305  20.6889  20.7060
    20.7648  20.7980  20.8272  20.8869  20.9543  21.1015  21.1100  21.1605
    21.1994  21.2229

          k = 0.3323 0.0000 0.1661 (  9577 PWs)   bands (ev):

   -67.2224 -66.7974 -66.7844 -52.6295 -52.6203 -52.5839 -52.5823 -52.5403
   -51.7902 -51.7865 -51.7859 -51.7836 -51.7783 -51.7773 -51.7708 -51.7621
   -33.3120 -33.3009 -33.3008 -32.8971 -32.8967 -32.8838 -32.8837 -32.8834
   -32.8717 -24.1601 -24.1477 -24.1215 -24.0953 -24.0855 -24.0687 -24.0484
   -24.0325 -24.0123 -23.9909 -23.9740 -23.9209 -23.8801 -23.8721 -23.8510
   -23.2332 -23.2069 -23.2013 -23.1868 -23.1661 -23.1565 -23.1487 -23.1466
   -23.1352 -23.1038 -23.1011 -23.0835 -23.0823 -23.0669 -23.0599 -23.0514
   -23.0448 -23.0400 -23.0359 -23.0294 -23.0193 -23.0122 -22.9959 -22.9787
    12.1536  13.7059  14.8067  15.0049  15.3088  15.3729  15.4494  15.5239
    15.5589  15.5879  15.6309  15.7283  15.7708  15.9581  16.0868  16.4527
    16.5514  16.6077  16.9130  16.9869  17.0122  17.0215  17.2117  17.2481
    17.3031  17.3125  17.4751  17.5229  17.5411  17.7566  17.8554  17.9599
    18.0286  18.2103  18.2234  18.2683  18.3155  18.3589  18.3893  18.4625
    18.4890  18.5735  18.7651  18.8655  18.8933  18.9085  19.0252  19.2365
    19.4208  19.5493  19.5506  19.8841  19.9401  19.9985  20.0466  20.1784
    20.3098  20.4033  20.4149  20.4952  20.5493  20.6323  20.6851  20.6951
    20.7693  20.7948  20.8120  20.8825  20.8968  21.0996  21.1061  21.1497
    21.1867  21.2506

          k = 0.1661-0.4971 0.0000 (  9608 PWs)   bands (ev):

   -67.2224 -66.7974 -66.7845 -52.6269 -52.6143 -52.5925 -52.5839 -52.5387
   -51.7888 -51.7851 -51.7828 -51.7823 -51.7820 -51.7812 -51.7666 -51.7658
   -33.3094 -33.3010 -33.3009 -32.8969 -32.8969 -32.8869 -32.8840 -32.8834
   -32.8715 -24.1349 -24.1270 -24.0874 -24.0823 -24.0743 -24.0606 -24.0509
   -24.0213 -24.0142 -24.0105 -23.9970 -23.9469 -23.9333 -23.8766 -23.8650
   -23.2515 -23.2051 -23.1799 -23.1681 -23.1544 -23.1542 -23.1233 -23.1145
   -23.1142 -23.1104 -23.1066 -23.1007 -23.0843 -23.0841 -23.0724 -23.0533
   -23.0446 -23.0321 -23.0319 -23.0250 -23.0205 -23.0146 -23.0124 -23.0103
    12.8070  12.8639  14.8803  14.9633  15.4681  15.4895  15.5239  15.5851
    15.7445  15.8708  15.8715  15.9139  15.9739  16.0262  16.0295  16.0907
    16.1210  16.2034  16.9233  16.9241  16.9412  16.9546  17.4909  17.5063
    17.5424  17.5489  17.5886  17.5906  17.6882  17.7556  17.9604  17.9699
    17.9785  18.0332  18.1935  18.2011  18.2376  18.2654  18.2660  18.2740
    18.2755  18.3165  18.3746  18.3895  18.4066  18.4446  19.1047  19.1344
    19.8213  19.8284  19.9159  19.9466  19.9606  20.0669  20.1511  20.1636
    20.2056  20.2542  20.3700  20.4015  20.4944  20.5640  20.6129  20.6760
    20.6943  20.7730  20.9562  20.9661  20.9822  21.0063  21.1307  21.1566
    21.1575  21.1749

          k =-0.4984 0.0000 0.1661 (  9608 PWs)   bands (ev):

   -67.2224 -66.7974 -66.7845 -52.6255 -52.6236 -52.5831 -52.5831 -52.5409
   -51.7895 -51.7845 -51.7821 -51.7820 -51.7819 -51.7817 -51.7667 -51.7663
   -33.3121 -33.3010 -33.3008 -32.8969 -32.8968 -32.8838 -32.8836 -32.8836
   -32.8718 -24.1327 -24.1153 -24.1151 -24.1074 -24.0856 -24.0799 -24.0435
   -24.0300 -24.0139 -24.0108 -23.9994 -23.9353 -23.8797 -23.8644 -23.8607
   -23.2138 -23.2044 -23.1912 -23.1678 -23.1624 -23.1407 -23.1383 -23.1299
   -23.1234 -23.1179 -23.1106 -23.1071 -23.0905 -23.0801 -23.0782 -23.0672
   -23.0428 -23.0388 -23.0269 -23.0262 -23.0194 -23.0045 -22.9978 -22.9970
    12.8061  12.8782  14.9290  14.9735  15.4856  15.4995  15.5236  15.5770
    15.7156  15.7512  15.8700  15.9674  15.9971  16.0273  16.0579  16.1315
    16.1350  16.1435  16.9331  16.9403  16.9496  16.9598  17.4758  17.5166
    17.5310  17.5669  17.5694  17.5834  17.7019  17.7144  17.9483  17.9576
    17.9696  18.0035  18.1477  18.1971  18.2520  18.2596  18.2608  18.2727
    18.2799  18.2841  18.3816  18.4100  18.4112  18.4467  19.0969  19.1320
    19.8238  19.8800  19.9257  19.9727  19.9757  20.0616  20.1653  20.2043
    20.2397  20.2402  20.3365  20.3773  20.5276  20.5368  20.5614  20.6803
    20.6897  20.7810  20.9251  20.9309  20.9657  20.9952  21.1462  21.1488
    21.1771  21.1859

          k = 0.3323 0.0000 0.3323 (  9582 PWs)   bands (ev):

   -67.2224 -66.7974 -66.7844 -52.6269 -52.6216 -52.5836 -52.5827 -52.5416
   -51.7904 -51.7847 -51.7836 -51.7832 -51.7794 -51.7742 -51.7741 -51.7654
   -33.3120 -33.3008 -33.3008 -32.8971 -32.8968 -32.8837 -32.8836 -32.8833
   -32.8718 -24.1438 -24.1398 -24.1100 -24.1079 -24.0867 -24.0744 -24.0370
   -24.0342 -24.0089 -23.9818 -23.9619 -23.9299 -23.9151 -23.8690 -23.8568
   -23.2148 -23.1966 -23.1885 -23.1862 -23.1668 -23.1590 -23.1565 -23.1351
   -23.1170 -23.1031 -23.1026 -23.1015 -23.0989 -23.0927 -23.0921 -23.0671
   -23.0450 -23.0351 -23.0237 -23.0234 -23.0091 -23.0021 -23.0013 -22.9755
    12.5664  13.9272  14.0645  14.7322  15.5918  15.6361  15.6590  15.7229
    15.7474  15.7947  15.7949  15.9501  15.9640  16.0241  16.2035  16.3962
    16.5213  16.6899  16.8298  16.9518  17.0822  17.1307  17.1478  17.1819
    17.1962  17.2644  17.3675  17.4066  17.4801  17.8071  17.8313  17.8706
    17.9135  17.9301  18.0038  18.1008  18.1631  18.1785  18.1798  18.2288
    18.2896  18.3785  18.3848  18.5306  18.5387  18.8154  18.9365  19.1472
    19.6634  19.8081  19.8199  19.9635  20.0228  20.0339  20.0635  20.2814
    20.2870  20.3537  20.3872  20.4340  20.4529  20.4835  20.5113  20.6055
    20.6428  20.6482  20.7270  20.7412  20.8652  20.8820  20.9496  21.0009
    21.0132  21.0849

          k = 0.3323-0.4971 0.0000 (  9578 PWs)   bands (ev):

   -67.2224 -66.7974 -66.7844 -52.6239 -52.6164 -52.5907 -52.5857 -52.5398
   -51.7875 -51.7860 -51.7841 -51.7814 -51.7788 -51.7779 -51.7699 -51.7690
   -33.3093 -33.3009 -33.3008 -32.8969 -32.8968 -32.8876 -32.8839 -32.8826
   -32.8714 -24.1324 -24.1088 -24.0981 -24.0968 -24.0755 -24.0716 -24.0468
   -24.0131 -24.0115 -23.9847 -23.9712 -23.9413 -23.9401 -23.9056 -23.8662
   -23.2300 -23.2141 -23.1655 -23.1654 -23.1563 -23.1529 -23.1387 -23.1379
   -23.1303 -23.1160 -23.1147 -23.1127 -23.1054 -23.0934 -23.0809 -23.0468
   -23.0241 -23.0217 -23.0187 -23.0180 -23.0179 -23.0141 -23.0063 -23.0056
    13.1687  13.2309  14.3225  14.4014  15.7307  15.7780  15.8034  15.8442
    15.8646  15.9901  16.0646  16.0818  16.0990  16.1152  16.2287  16.2548
    16.2611  16.3612  16.9921  16.9945  17.0643  17.1240  17.1695  17.1800
    17.2110  17.2206  17.3406  17.4322  17.5955  17.6053  17.8004  17.8176
    17.8681  17.8901  17.9604  17.9741  18.0652  18.0707  18.0932  18.1438
    18.1790  18.2353  18.2772  18.2944  18.3799  18.3817  19.2033  19.2117
    19.7700  19.8310  20.0571  20.0850  20.1175  20.1222  20.1588  20.2015
    20.2289  20.2445  20.2723  20.2879  20.3205  20.3330  20.5455  20.6084
    20.7380  20.7408  20.7514  20.7787  20.7897  20.8362  20.8544  20.8953
    20.9483  20.9593

          k =-0.4984 0.0000 0.3323 (  9578 PWs)   bands (ev):

   -67.2224 -66.7974 -66.7844 -52.6242 -52.6236 -52.5831 -52.5831 -52.5422
   -51.7903 -51.7852 -51.7812 -51.7812 -51.7789 -51.7785 -51.7700 -51.7695
   -33.3120 -33.3008 -33.3008 -32.8970 -32.8970 -32.8835 -32.8834 -32.8834
   -32.8718 -24.1322 -24.1282 -24.1128 -24.1127 -24.0921 -24.0904 -24.0193
   -24.0071 -23.9983 -23.9886 -23.9802 -23.9457 -23.9206 -23.8642 -23.8629
   -23.1951 -23.1942 -23.1851 -23.1826 -23.1666 -23.1602 -23.1443 -23.1353
   -23.1325 -23.1149 -23.1095 -23.1083 -23.1026 -23.0998 -23.0853 -23.0808
   -23.0456 -23.0323 -23.0163 -23.0148 -23.0144 -23.0082 -22.9849 -22.9831
    13.1661  13.2456  14.3461  14.4089  15.7862  15.7882  15.7949  15.8301
    15.8673  15.8716  16.0753  16.1150  16.1321  16.1631  16.2144  16.2407
    16.2751  16.3401  16.9982  17.0057  17.0629  17.0795  17.1614  17.2109
    17.2217  17.2526  17.3538  17.3775  17.5808  17.5864  17.8016  17.8201
    17.8400  17.8782  17.9455  17.9691  17.9903  18.0628  18.1503  18.1534
    18.2226  18.2314  18.2618  18.3147  18.3541  18.3681  19.1999  19.2046
    19.7656  19.8431  20.0981  20.1035  20.1125  20.1125  20.1598  20.2114
    20.2457  20.2712  20.2761  20.2928  20.3076  20.3521  20.4976  20.6112
    20.7079  20.7403  20.7455  20.7721  20.7753  20.8193  20.8227  20.8817
    20.9365  20.9827

          k =-0.4984 0.0000-0.4984 (  9580 PWs)   bands (ev):

   -67.2224 -66.7974 -66.7844 -52.6236 -52.6236 -52.5831 -52.5831 -52.5430
   -51.7906 -51.7855 -51.7809 -51.7809 -51.7746 -51.7742 -51.7742 -51.7738
   -33.3120 -33.3008 -33.3008 -32.8971 -32.8971 -32.8835 -32.8832 -32.8832
   -32.8718 -24.1356 -24.1348 -24.1116 -24.1116 -24.0950 -24.0909 -24.0053
   -23.9884 -23.9785 -23.9711 -23.9711 -23.9661 -23.9579 -23.8641 -23.8641
   -23.1925 -23.1925 -23.1752 -23.1729 -23.1626 -23.1626 -23.1548 -23.1456
   -23.1456 -23.1304 -23.1272 -23.0983 -23.0962 -23.0962 -23.0880 -23.0878
   -23.0468 -23.0249 -23.0149 -23.0149 -23.0103 -23.0103 -22.9794 -22.9773
    13.6185  13.7681  13.8133  13.8133  15.9093  15.9093  15.9667  15.9921
    15.9986  16.0483  16.1887  16.1887  16.2020  16.2020  16.2719  16.3002
    16.5951  16.5951  16.7754  16.9245  16.9959  16.9962  17.0108  17.0108
    17.0763  17.0763  17.3536  17.3843  17.6052  17.6052  17.6462  17.7102
    17.7102  17.7114  17.7257  17.7421  17.8826  17.9585  18.0329  18.0329
    18.1881  18.1887  18.1887  18.2571  18.7690  18.7690  18.8803  18.8915
    19.7850  19.8885  19.9898  19.9898  20.3010  20.3124  20.3287  20.3287
    20.3592  20.3594  20.3914  20.3914  20.3937  20.3937  20.4059  20.4202
    20.4202  20.5133  20.5364  20.5771  20.7146  20.7228  20.8117  20.8117
    20.8203  20.8295

          k = 0.1661 0.3314 0.1661 (  9577 PWs)   bands (ev):

   -67.2224 -66.7974 -66.7844 -52.6280 -52.6157 -52.5897 -52.5837 -52.5393
   -51.7888 -51.7872 -51.7852 -51.7832 -51.7781 -51.7777 -51.7715 -51.7631
   -33.3100 -33.3009 -33.3009 -32.8969 -32.8969 -32.8864 -32.8838 -32.8832
   -32.8715 -24.1444 -24.1294 -24.1249 -24.0930 -24.0851 -24.0563 -24.0375
   -24.0160 -24.0052 -24.0045 -23.9696 -23.9315 -23.9139 -23.8800 -23.8761
   -23.2468 -23.2086 -23.1908 -23.1729 -23.1671 -23.1566 -23.1504 -23.1401
   -23.1322 -23.0947 -23.0894 -23.0884 -23.0779 -23.0656 -23.0605 -23.0575
   -23.0504 -23.0394 -23.0377 -23.0262 -23.0242 -23.0153 -22.9967 -22.9918
    12.2917  13.8063  14.7941  14.9963  15.0588  15.2100  15.5061  15.5346
    15.6397  15.6409  15.8010  15.8401  15.9656  16.1768  16.1787  16.4427
    16.5311  16.6607  16.9038  17.0142  17.0369  17.0804  17.1025  17.2381
    17.2385  17.2733  17.4553  17.4811  17.5862  17.7286  17.7579  17.7831
    18.0535  18.0814  18.1523  18.2170  18.2551  18.3126  18.3378  18.3429
    18.3718  18.4150  18.6006  18.6749  18.7245  18.7265  19.0458  19.0631
    19.5598  19.6084  19.6557  19.9272  19.9979  20.0698  20.1884  20.2109
    20.2411  20.3604  20.4386  20.4948  20.5096  20.5616  20.6828  20.7069
    20.7413  20.7663  20.7872  20.8224  20.8498  21.0237  21.0437  21.1467
    21.1672  21.2614

          k = 0.1661-0.4971 0.1661 (  9588 PWs)   bands (ev):

   -67.2224 -66.7974 -66.7844 -52.6258 -52.6149 -52.5919 -52.5845 -52.5393
   -51.7883 -51.7852 -51.7823 -51.7819 -51.7813 -51.7811 -51.7677 -51.7669
   -33.3093 -33.3009 -33.3009 -32.8969 -32.8968 -32.8871 -32.8839 -32.8832
   -32.8715 -24.1285 -24.1210 -24.0862 -24.0844 -24.0787 -24.0680 -24.0454
   -24.0182 -24.0132 -24.0030 -23.9890 -23.9466 -23.9377 -23.8814 -23.8756
   -23.2426 -23.2060 -23.1809 -23.1648 -23.1577 -23.1499 -23.1269 -23.1258
   -23.1158 -23.1118 -23.1043 -23.1030 -23.0876 -23.0841 -23.0621 -23.0573
   -23.0546 -23.0371 -23.0291 -23.0242 -23.0224 -23.0097 -23.0085 -23.0073
    12.9346  12.9936  14.9165  15.0317  15.1510  15.1611  15.7656  15.8037
    15.8726  15.9495  15.9861  16.0066  16.0200  16.0632  16.1064  16.1417
    16.1767  16.2539  16.9429  16.9468  17.0065  17.0234  17.4268  17.4478
    17.4835  17.4901  17.5096  17.5199  17.5726  17.6449  17.9506  17.9508
    17.9846  17.9872  18.0642  18.0744  18.1307  18.1485  18.1708  18.1719
    18.1959  18.2125  18.2151  18.2311  18.2634  18.3075  19.1876  19.1968
    19.9029  19.9150  19.9651  19.9911  20.0093  20.0703  20.0767  20.0815
    20.1836  20.2042  20.2331  20.2707  20.5992  20.6644  20.6781  20.7092
    20.7468  20.8168  20.9155  20.9364  20.9501  20.9682  21.0265  21.0660
    21.0671  21.1047

          k = 0.3323 0.1657 0.3323 (  9595 PWs)   bands (ev):

   -67.2224 -66.7974 -66.7845 -52.6256 -52.6206 -52.5849 -52.5837 -52.5416
   -51.7894 -51.7849 -51.7830 -51.7827 -51.7787 -51.7751 -51.7748 -51.7664
   -33.3114 -33.3008 -33.3008 -32.8970 -32.8968 -32.8848 -32.8834 -32.8832
   -32.8717 -24.1343 -24.1278 -24.1036 -24.1032 -24.0894 -24.0627 -24.0339
   -24.0320 -24.0083 -23.9873 -23.9742 -23.9318 -23.9190 -23.8792 -23.8759
   -23.2111 -23.1896 -23.1877 -23.1841 -23.1657 -23.1567 -23.1507 -23.1365
   -23.1147 -23.1048 -23.1037 -23.1012 -23.0967 -23.0937 -23.0777 -23.0666
   -23.0469 -23.0381 -23.0367 -23.0231 -23.0150 -23.0066 -22.9986 -22.9837
    12.7032  14.0405  14.1850  14.8661  15.1449  15.4349  15.5868  15.7661
    15.8240  15.9337  16.0268  16.0482  16.1499  16.2221  16.3186  16.4473
    16.5808  16.6977  16.7899  16.9271  17.0116  17.1442  17.1627  17.2444
    17.2596  17.2730  17.2747  17.3369  17.5299  17.6857  17.7468  17.8010
    17.8289  17.8593  17.8989  18.0285  18.0343  18.0672  18.0772  18.1374
    18.1663  18.1816  18.2353  18.3078  18.3263  18.5974  18.6258  19.1807
    19.8481  19.8935  19.9208  20.0722  20.1095  20.1448  20.1542  20.1913
    20.3650  20.4194  20.4427  20.4830  20.4967  20.5287  20.5431  20.5841
    20.6597  20.7040  20.7191  20.8810  20.8874  20.9355  20.9894  21.0140
    21.0348  21.0722

          k = 0.3323-0.4971 0.1661 (  9574 PWs)   bands (ev):

   -67.2224 -66.7974 -66.7844 -52.6231 -52.6166 -52.5903 -52.5861 -52.5404
   -51.7870 -51.7855 -51.7833 -51.7809 -51.7789 -51.7783 -51.7708 -51.7700
   -33.3093 -33.3009 -33.3008 -32.8968 -32.8968 -32.8874 -32.8838 -32.8828
   -32.8714 -24.1215 -24.1013 -24.0929 -24.0906 -24.0729 -24.0720 -24.0457
   -24.0140 -24.0106 -23.9816 -23.9753 -23.9485 -23.9473 -23.9119 -23.8821
   -23.2215 -23.2080 -23.1707 -23.1684 -23.1527 -23.1443 -23.1410 -23.1341
   -23.1307 -23.1105 -23.1104 -23.1075 -23.0979 -23.0925 -23.0776 -23.0512
   -23.0363 -23.0306 -23.0295 -23.0253 -23.0193 -23.0122 -23.0071 -23.0050
    13.2984  13.3621  14.4495  14.5314  15.3791  15.4304  15.9777  16.0135
    16.0268  16.0270  16.0615  16.1340  16.2143  16.2741  16.3168  16.3355
    16.3360  16.4171  17.0244  17.0252  17.0896  17.1195  17.1259  17.1499
    17.2387  17.2593  17.3492  17.4226  17.5513  17.5652  17.6504  17.6711
    17.7474  17.7988  17.8921  17.9056  17.9391  17.9476  17.9706  17.9897
    18.0251  18.0709  18.1046  18.1357  18.1869  18.1932  18.9578  18.9639
    19.9660  20.0225  20.1044  20.1061  20.1670  20.2013  20.2160  20.2611
    20.2787  20.3294  20.3305  20.3625  20.5448  20.5608  20.6017  20.6254
    20.7520  20.7899  20.7927  20.8420  20.8593  20.8720  20.9020  20.9098
    20.9685  20.9921

          k =-0.4984 0.1657 0.3323 (  9574 PWs)   bands (ev):

   -67.2224 -66.7974 -66.7844 -52.6231 -52.6225 -52.5843 -52.5843 -52.5423
   -51.7893 -51.7848 -51.7807 -51.7806 -51.7790 -51.7790 -51.7708 -51.7705
   -33.3113 -33.3008 -33.3008 -32.8969 -32.8969 -32.8846 -32.8835 -32.8831
   -32.8717 -24.1243 -24.1205 -24.1047 -24.1040 -24.0826 -24.0796 -24.0235
   -24.0065 -23.9992 -23.9950 -23.9858 -23.9530 -23.9245 -23.8799 -23.8787
   -23.1922 -23.1908 -23.1845 -23.1789 -23.1633 -23.1587 -23.1435 -23.1321
   -23.1278 -23.1101 -23.1075 -23.1013 -23.0993 -23.0976 -23.0827 -23.0799
   -23.0488 -23.0369 -23.0253 -23.0206 -23.0177 -23.0134 -22.9901 -22.9881
    13.2944  13.3761  14.4763  14.5383  15.3565  15.4313  15.9833  15.9877
    16.0382  16.0484  16.0724  16.1311  16.2216  16.2630  16.3260  16.3472
    16.3587  16.3805  17.0287  17.0380  17.0840  17.0949  17.1219  17.1872
    17.2469  17.2585  17.3513  17.3747  17.5376  17.5460  17.6472  17.6586
    17.7497  17.7865  17.8872  17.9120  17.9254  17.9327  17.9979  17.9988
    18.0522  18.0610  18.1174  18.1463  18.1615  18.1753  18.9489  18.9543
    19.9812  20.0353  20.1110  20.1136  20.1877  20.1962  20.2468  20.2601
    20.2907  20.3245  20.3473  20.3593  20.5204  20.5520  20.5635  20.6274
    20.7488  20.7733  20.7836  20.8085  20.8572  20.8600  20.8917  20.9226
    20.9932  20.9968

          k =-0.4984 0.1657-0.4984 (  9588 PWs)   bands (ev):

   -67.2224 -66.7974 -66.7845 -52.6225 -52.6225 -52.5843 -52.5843 -52.5429
   -51.7895 -51.7850 -51.7805 -51.7805 -51.7752 -51.7749 -51.7746 -51.7746
   -33.3113 -33.3008 -33.3008 -32.8970 -32.8970 -32.8843 -32.8833 -32.8833
   -32.8717 -24.1267 -24.1252 -24.0971 -24.0971 -24.0886 -24.0838 -24.0072
   -23.9931 -23.9837 -23.9792 -23.9703 -23.9703 -23.9702 -23.8826 -23.8826
   -23.1843 -23.1843 -23.1730 -23.1722 -23.1632 -23.1632 -23.1564 -23.1376
   -23.1376 -23.1183 -23.1152 -23.0991 -23.0950 -23.0950 -23.0852 -23.0852
   -23.0500 -23.0299 -23.0232 -23.0232 -23.0162 -23.0162 -22.9882 -22.9861
    13.7448  13.8965  13.9489  13.9489  15.6729  15.7624  15.9061  15.9061
    16.0283  16.0283  16.1848  16.3151  16.3964  16.4615  16.4859  16.4859
    16.6193  16.6193  16.7870  16.9371  16.9512  16.9512  17.0144  17.0147
    17.1494  17.1494  17.3589  17.3891  17.4804  17.4804  17.5098  17.5364
    17.6711  17.6711  17.6875  17.7035  17.8341  17.8355  17.8778  17.8778
    18.0221  18.0221  18.0550  18.0963  18.4946  18.4946  18.5172  18.5208
    20.0886  20.2018  20.2100  20.2100  20.3300  20.3524  20.4151  20.4151
    20.4390  20.4390  20.4696  20.4784  20.4784  20.5582  20.5591  20.5688
    20.5688  20.5807  20.5861  20.6241  20.7225  20.7598  20.7990  20.7990
    20.8119  20.8659

          k = 0.3323-0.4971 0.3323 (  9598 PWs)   bands (ev):

   -67.2224 -66.7974 -66.7845 -52.6211 -52.6174 -52.5894 -52.5870 -52.5416
   -51.7854 -51.7844 -51.7822 -51.7792 -51.7792 -51.7785 -51.7732 -51.7725
   -33.3093 -33.3008 -33.3008 -32.8968 -32.8967 -32.8871 -32.8837 -32.8831
   -32.8715 -24.0996 -24.0826 -24.0804 -24.0764 -24.0719 -24.0657 -24.0397
   -24.0190 -24.0062 -23.9843 -23.9745 -23.9663 -23.9640 -23.9308 -23.9163
   -23.2008 -23.1945 -23.1719 -23.1675 -23.1508 -23.1409 -23.1398 -23.1278
   -23.1275 -23.1085 -23.1064 -23.0949 -23.0923 -23.0854 -23.0604 -23.0555
   -23.0554 -23.0454 -23.0414 -23.0371 -23.0267 -23.0198 -23.0162 -23.0123
    13.6672  13.7341  14.7227  14.8384  14.9375  14.9666  15.8197  15.8548
    16.2806  16.3093  16.3107  16.3702  16.3994  16.4185  16.5297  16.5658
    16.5684  16.6248  17.0295  17.0437  17.1078  17.1166  17.1261  17.1620
    17.1818  17.2099  17.4026  17.4119  17.4332  17.4498  17.4855  17.4863
    17.5585  17.5656  17.6279  17.6722  17.6774  17.6776  17.7297  17.7508
    17.7593  17.8121  17.8265  17.8440  17.8986  17.9086  18.4265  18.4333
    20.2690  20.2847  20.3345  20.3533  20.3544  20.3955  20.4351  20.4550
    20.4876  20.4933  20.4969  20.5061  20.6267  20.6762  20.7576  20.7635
    20.7693  20.8087  20.8096  20.8261  20.8439  20.8551  20.8995  20.9263
    20.9269  20.9339

          k =-0.4984 0.3314-0.4984 (  9632 PWs)   bands (ev):

   -67.2224 -66.7975 -66.7845 -52.6200 -52.6200 -52.5868 -52.5868 -52.5429
   -51.7864 -51.7836 -51.7792 -51.7792 -51.7780 -51.7766 -51.7758 -51.7758
   -33.3100 -33.3008 -33.3008 -32.8968 -32.8968 -32.8858 -32.8836 -32.8836
   -32.8717 -24.1026 -24.0973 -24.0734 -24.0652 -24.0575 -24.0575 -24.0179
   -24.0137 -24.0009 -24.0004 -23.9968 -23.9696 -23.9696 -23.9291 -23.9291
   -23.1701 -23.1684 -23.1668 -23.1668 -23.1608 -23.1608 -23.1602 -23.1252
   -23.1252 -23.1003 -23.0882 -23.0882 -23.0876 -23.0846 -23.0783 -23.0781
   -23.0578 -23.0418 -23.0413 -23.0413 -23.0324 -23.0324 -23.0128 -23.0105
    14.1050  14.2584  14.3335  14.3335  15.2100  15.3641  15.4759  15.4759
    16.3603  16.3603  16.4913  16.6409  16.6821  16.6821  16.7576  16.8108
    16.8118  16.8360  16.8360  16.8657  16.8657  16.9656  17.0515  17.0531
    17.2675  17.2675  17.3211  17.3211  17.3530  17.3797  17.3848  17.4145
    17.4938  17.4938  17.5171  17.5649  17.5790  17.5790  17.5927  17.6068
    17.6992  17.6992  17.7464  17.7704  17.9130  17.9284  17.9655  17.9655
    20.4301  20.4349  20.4448  20.5319  20.5319  20.5469  20.5469  20.5985
    20.5985  20.6221  20.6441  20.6660  20.6765  20.6765  20.7151  20.7603
    20.7603  20.7789  20.7848  20.7982  20.8048  20.8814  20.8965  20.8965
    21.0249  21.0249

     the Fermi energy is    19.4637 ev

!    total energy              =   -4214.53587954 Ry
     total all-electron energy =    -34959.350300 Ry
     estimated scf accuracy    <          4.8E-10 Ry
     smearing contrib. (-TS)   =      -0.00000446 Ry
     internal energy E=F+TS    =   -4214.53587508 Ry

     The total energy is F=E-TS. E is the sum of the following terms:
     one-electron contribution =   -1052.78601337 Ry
     hartree contribution      =     669.49791229 Ry
     xc contribution           =    -372.93992715 Ry
     ewald contribution        =   -2244.72218166 Ry
     one-center paw contrib.   =   -1213.58566519 Ry

     total magnetization       =     5.43 Bohr mag/cell
     absolute magnetization    =    13.89 Bohr mag/cell

     convergence has been achieved in  44 iterations

     Forces acting on atoms (cartesian axes, Ry/au):

     atom    1 type  2   force =     0.00006123   -0.00029557    0.00006123
     atom    2 type  1   force =     0.00000000    0.00000000    0.00000000
     atom    3 type  2   force =     0.00006123   -0.00029557   -0.00006123
     atom    4 type  2   force =     0.00000000    0.00000000    0.00000000
     atom    5 type  2   force =     0.00006123    0.00029557    0.00006123
     atom    6 type  2   force =     0.00000000    0.00000000    0.00000000
     atom    7 type  2   force =     0.00006123    0.00029557   -0.00006123
     atom    8 type  2   force =     0.00000000    0.00000000    0.00000000
     atom    9 type  2   force =    -0.00006123   -0.00029557    0.00006123
     atom   10 type  2   force =     0.00000000    0.00000000    0.00000000
     atom   11 type  2   force =    -0.00006123   -0.00029557   -0.00006123
     atom   12 type  1   force =     0.00000000    0.00000000    0.00000000
     atom   13 type  2   force =    -0.00006123    0.00029557    0.00006123
     atom   14 type  2   force =     0.00000000    0.00000000    0.00000000
     atom   15 type  2   force =    -0.00006123    0.00029557   -0.00006123
     atom   16 type  1   force =     0.00000000    0.00000000    0.00000000

     Total force =     0.000871     Total SCF correction =     0.000030


     Computing stress (Cartesian axis) and pressure

          total   stress  (Ry/bohr**3)                   (kbar)     P=        0.33
   0.00000159   0.00000000   0.00000000            0.23        0.00        0.00
   0.00000000   0.00000347   0.00000000            0.00        0.51        0.00
   0.00000000   0.00000000   0.00000159            0.00        0.00        0.23

     Energy error            =      3.9E-05 Ry
     Gradient error          =      3.0E-04 Ry/Bohr
     Cell gradient error     =      5.1E-01 kbar

     number of scf cycles    =   4
     number of bfgs steps    =   3

     enthalpy           old  =   -4214.5358403060 Ry
     enthalpy           new  =   -4214.5358795449 Ry

     CASE: enthalpy          _new < enthalpy          _old

     new trust radius        =       0.0009329641 bohr
     new conv_thr            =       0.0000000010 Ry

     new unit-cell volume =   1236.98264 a.u.^3 (   183.30192 Ang^3 )
     density =      7.64114 g/cm^3

CELL_PARAMETERS (angstrom)
   5.675143966   0.000000000   0.000000000
   0.000000000   5.691323033   0.000000000
   0.000000000   0.000000000   5.675143966

ATOMIC_POSITIONS (crystal)
Cr               0.0004320559       -0.0009881375        0.0004320559
Fe               0.2500000000        0.2500000000        0.2500000000
Cr               0.0004320559       -0.0009881375        0.4995679441
Cr               0.2500000000        0.2500000000        0.7500000000
Cr               0.0004320559        0.5009881375        0.0004320559
Cr               0.2500000000        0.7500000000        0.2500000000
Cr               0.0004320559        0.5009881375        0.4995679441
Cr               0.2500000000        0.7500000000        0.7500000000
Cr               0.4995679441       -0.0009881375        0.0004320559
Cr               0.7500000000        0.2500000000        0.2500000000
Cr               0.4995679441       -0.0009881375        0.4995679441
Fe               0.7500000000        0.2500000000        0.7500000000
Cr               0.4995679441        0.5009881375        0.0004320559
Cr               0.7500000000        0.7500000000        0.2500000000
Cr               0.4995679441        0.5009881375        0.4995679441
Fe               0.7500000000        0.7500000000        0.7500000000



     Writing config-only to output data dir ./tmp/fecr_fe03cr13_vcr.save/ :
     XML data file
     NEW-OLD atomic charge density approx. for the potential

     Check: negative core charge=   -0.000003
     Generating pointlists ...

     total cpu time spent up to now is     7062.6 secs

     Self-consistent Calculation

     iteration #  1     ecut=    60.00 Ry     beta= 0.30
     Davidson diagonalization with overlap
     ethr =  1.00E-06,  avg # of iterations =  2.7

     Threshold (ethr) on eigenvalues was too large:
     Diagonalizing with lowered threshold

     Davidson diagonalization with overlap
     ethr =  2.66E-09,  avg # of iterations =  7.3

     total cpu time spent up to now is     7112.1 secs

     total energy              =   -4214.53587317 Ry
     estimated scf accuracy    <       0.00001251 Ry

     total magnetization       =     5.43 Bohr mag/cell
     absolute magnetization    =    13.89 Bohr mag/cell

     iteration #  2     ecut=    60.00 Ry     beta= 0.30
     Davidson diagonalization with overlap
     ethr =  5.44E-09,  avg # of iterations =  6.1

     total cpu time spent up to now is     7146.0 secs

     total energy              =   -4214.53585889 Ry
     estimated scf accuracy    <       0.00055368 Ry

     total magnetization       =     5.43 Bohr mag/cell
     absolute magnetization    =    13.90 Bohr mag/cell

     iteration #  3     ecut=    60.00 Ry     beta= 0.30
     Davidson diagonalization with overlap
     ethr =  5.44E-09,  avg # of iterations =  6.0

     total cpu time spent up to now is     7180.0 secs

     total energy              =   -4214.53587799 Ry
     estimated scf accuracy    <       0.00002050 Ry

     total magnetization       =     5.43 Bohr mag/cell
     absolute magnetization    =    13.89 Bohr mag/cell

     iteration #  4     ecut=    60.00 Ry     beta= 0.30
     Davidson diagonalization with overlap
     ethr =  5.44E-09,  avg # of iterations =  1.1

     total cpu time spent up to now is     7206.1 secs

     total energy              =   -4214.53587911 Ry
     estimated scf accuracy    <       0.00000062 Ry

     total magnetization       =     5.43 Bohr mag/cell
     absolute magnetization    =    13.89 Bohr mag/cell

     iteration #  5     ecut=    60.00 Ry     beta= 0.30
     Davidson diagonalization with overlap
     ethr =  2.70E-10,  avg # of iterations =  6.4

     total cpu time spent up to now is     7241.1 secs

     total energy              =   -4214.53588006 Ry
     estimated scf accuracy    <       0.00000351 Ry

     total magnetization       =     5.43 Bohr mag/cell
     absolute magnetization    =    13.89 Bohr mag/cell

     iteration #  6     ecut=    60.00 Ry     beta= 0.30
     Davidson diagonalization with overlap
     ethr =  2.70E-10,  avg # of iterations =  3.9

     total cpu time spent up to now is     7270.6 secs

     total energy              =   -4214.53588030 Ry
     estimated scf accuracy    <       0.00000109 Ry

     total magnetization       =     5.43 Bohr mag/cell
     absolute magnetization    =    13.89 Bohr mag/cell

     iteration #  7     ecut=    60.00 Ry     beta= 0.30
     Davidson diagonalization with overlap
     ethr =  2.70E-10,  avg # of iterations =  1.1

     total cpu time spent up to now is     7297.4 secs

     total energy              =   -4214.53588050 Ry
     estimated scf accuracy    <       0.00000054 Ry

     total magnetization       =     5.43 Bohr mag/cell
     absolute magnetization    =    13.89 Bohr mag/cell

     iteration #  8     ecut=    60.00 Ry     beta= 0.30
     Davidson diagonalization with overlap
     ethr =  2.34E-10,  avg # of iterations =  1.8

     total cpu time spent up to now is     7324.9 secs

     total energy              =   -4214.53588066 Ry
     estimated scf accuracy    <       0.00000020 Ry

     total magnetization       =     5.43 Bohr mag/cell
     absolute magnetization    =    13.89 Bohr mag/cell

     iteration #  9     ecut=    60.00 Ry     beta= 0.30
     Davidson diagonalization with overlap
     ethr =  8.49E-11,  avg # of iterations =  4.8

     total cpu time spent up to now is     7355.4 secs

     total energy              =   -4214.53588073 Ry
     estimated scf accuracy    <       0.00000006 Ry

     total magnetization       =     5.43 Bohr mag/cell
     absolute magnetization    =    13.89 Bohr mag/cell

     iteration # 10     ecut=    60.00 Ry     beta= 0.30
     Davidson diagonalization with overlap
     ethr =  2.58E-11,  avg # of iterations =  5.2

     total cpu time spent up to now is     7386.2 secs

     total energy              =   -4214.53588078 Ry
     estimated scf accuracy    <       0.00000009 Ry

     total magnetization       =     5.43 Bohr mag/cell
     absolute magnetization    =    13.89 Bohr mag/cell

     iteration # 11     ecut=    60.00 Ry     beta= 0.30
     Davidson diagonalization with overlap
     ethr =  2.58E-11,  avg # of iterations =  3.3

     total cpu time spent up to now is     7414.7 secs

     total energy              =   -4214.53588080 Ry
     estimated scf accuracy    <          9.1E-09 Ry

     total magnetization       =     5.43 Bohr mag/cell
     absolute magnetization    =    13.89 Bohr mag/cell

     iteration # 12     ecut=    60.00 Ry     beta= 0.30
     Davidson diagonalization with overlap
     ethr =  3.97E-12,  avg # of iterations =  6.3

     total cpu time spent up to now is     7449.0 secs

     total energy              =   -4214.53588080 Ry
     estimated scf accuracy    <       0.00000002 Ry

     total magnetization       =     5.43 Bohr mag/cell
     absolute magnetization    =    13.89 Bohr mag/cell

     iteration # 13     ecut=    60.00 Ry     beta= 0.30
     Davidson diagonalization with overlap
     ethr =  3.97E-12,  avg # of iterations =  1.4

     total cpu time spent up to now is     7476.4 secs

     total energy              =   -4214.53588080 Ry
     estimated scf accuracy    <          7.9E-09 Ry

     total magnetization       =     5.43 Bohr mag/cell
     absolute magnetization    =    13.89 Bohr mag/cell

     iteration # 14     ecut=    60.00 Ry     beta= 0.30
     Davidson diagonalization with overlap
     ethr =  3.43E-12,  avg # of iterations =  4.1

     total cpu time spent up to now is     7508.2 secs

     total energy              =   -4214.53588080 Ry
     estimated scf accuracy    <          2.4E-09 Ry

     total magnetization       =     5.43 Bohr mag/cell
     absolute magnetization    =    13.89 Bohr mag/cell

     iteration # 15     ecut=    60.00 Ry     beta= 0.30
     Davidson diagonalization with overlap
     ethr =  1.05E-12,  avg # of iterations =  3.4
 
     Magnetic moment per site  (integrated on atomic sphere of radius R)
     atom   1 (R=0.179)  charge= 12.1602  magn=  0.7790
     atom   2 (R=0.179)  charge= 14.4806  magn=  1.1741
     atom   3 (R=0.179)  charge= 12.1602  magn=  0.7790
     atom   4 (R=0.179)  charge= 12.1807  magn= -0.7693
     atom   5 (R=0.179)  charge= 12.1602  magn=  0.7790
     atom   6 (R=0.179)  charge= 12.1997  magn= -0.7126
     atom   7 (R=0.179)  charge= 12.1602  magn=  0.7790
     atom   8 (R=0.179)  charge= 12.1915  magn= -0.7938
     atom   9 (R=0.179)  charge= 12.1602  magn=  0.7790
     atom  10 (R=0.179)  charge= 12.1807  magn= -0.7693
     atom  11 (R=0.179)  charge= 12.1602  magn=  0.7790
     atom  12 (R=0.179)  charge= 14.4639  magn=  0.6868
     atom  13 (R=0.179)  charge= 12.1602  magn=  0.7790
     atom  14 (R=0.179)  charge= 12.1915  magn= -0.7938
     atom  15 (R=0.179)  charge= 12.1602  magn=  0.7790
     atom  16 (R=0.179)  charge= 14.4783  magn=  1.1674

     total cpu time spent up to now is     7537.4 secs

     End of self-consistent calculation

 ------ SPIN UP ------------


          k = 0.0000 0.0000 0.0000 (  9627 PWs)   bands (ev):

   -68.1708 -68.1631 -68.0448 -52.6896 -52.6517 -52.6511 -52.6511 -52.6340
   -52.6340 -52.6334 -52.6172 -51.7711 -51.7698 -51.7520 -51.7506 -51.7482
   -34.2457 -34.2286 -34.2258 -34.2258 -34.2164 -34.2164 -34.1046 -34.0979
   -34.0979 -24.2722 -24.2324 -24.2324 -24.1764 -24.1764 -24.1336 -24.1010
   -24.0878 -24.0870 -24.0599 -24.0599 -24.0563 -23.9799 -23.9705 -23.9705
   -23.9122 -23.9122 -23.9107 -23.9034 -23.9034 -23.9030 -23.8993 -23.8864
   -23.8862 -23.2115 -23.1715 -23.1715 -23.1283 -23.1283 -23.0752 -23.0397
   -23.0345 -23.0345 -23.0129 -23.0129 -22.9932 -22.9742 -22.9718 -22.9718
    11.3601  14.6702  14.7109  14.7986  14.9586  14.9643  14.9643  14.9732
    14.9901  15.1393  15.2519  15.2734  15.2734  15.3200  15.4260  16.5976
    16.7084  16.7084  16.7926  16.7979  16.7979  16.8011  16.8011  16.9863
    16.9900  16.9998  17.0351  17.0351  17.1311  17.4018  17.4068  17.4068
    17.6187  18.0987  18.2217  18.2217  18.4748  18.5476  18.5476  18.6878
    18.7048  18.7048  18.7228  18.7425  18.7425  18.9878  19.0721  19.0721
    19.0835  19.3347  19.5050  19.7383  19.7798  19.8364  19.8995  19.9093
    20.1671  20.1671  20.1989  20.3122  20.3122  20.3270  20.3526  20.3526
    20.5046  20.5046  20.5804  20.6538  20.6574  20.6574  20.6727  20.6758
    20.7133  20.7310

          k = 0.0000 0.0000 0.1661 (  9595 PWs)   bands (ev):

   -68.1707 -68.1630 -68.0447 -52.6871 -52.6537 -52.6505 -52.6500 -52.6352
   -52.6346 -52.6329 -52.6183 -51.7706 -51.7684 -51.7520 -51.7518 -51.7486
   -34.2457 -34.2286 -34.2257 -34.2256 -34.2165 -34.2163 -34.1045 -34.0979
   -34.0978 -24.2563 -24.2253 -24.2194 -24.1716 -24.1650 -24.1276 -24.1044
   -24.0941 -24.0833 -24.0687 -24.0664 -24.0481 -23.9780 -23.9755 -23.9674
   -23.9311 -23.9278 -23.9118 -23.9114 -23.9108 -23.9057 -23.9021 -23.8925
   -23.8876 -23.1915 -23.1598 -23.1571 -23.1189 -23.1178 -23.0743 -23.0368
   -23.0351 -23.0350 -23.0207 -23.0184 -23.0049 -22.9838 -22.9796 -22.9784
    11.5123  14.4508  14.7646  14.7819  14.8897  15.0095  15.0143  15.0548
    15.0692  15.0865  15.2959  15.3039  15.3238  15.3662  15.7259  16.6004
    16.6301  16.6518  16.6832  16.7271  16.7445  16.7514  16.8138  16.8610
    16.9885  17.0194  17.0716  17.1823  17.1972  17.3011  17.3570  17.3989
    18.0059  18.1266  18.1503  18.1965  18.3605  18.3851  18.4098  18.5032
    18.5555  18.7089  18.7853  18.8130  18.8537  18.9109  18.9881  19.0048
    19.2308  19.3038  19.4422  19.5188  19.5850  19.6357  19.6676  19.8548
    19.8831  20.0266  20.0651  20.0890  20.1136  20.2199  20.3161  20.3287
    20.4120  20.4510  20.5583  20.5656  20.6614  20.6688  20.7074  20.7099
    20.7198  21.0024

          k = 0.0000 0.0000 0.3323 (  9606 PWs)   bands (ev):

   -68.1708 -68.1631 -68.0447 -52.6804 -52.6606 -52.6473 -52.6467 -52.6384
   -52.6379 -52.6298 -52.6214 -51.7697 -51.7648 -51.7552 -51.7521 -51.7495
   -34.2455 -34.2288 -34.2254 -34.2253 -34.2167 -34.2166 -34.1045 -34.0979
   -34.0978 -24.2123 -24.2059 -24.1880 -24.1576 -24.1285 -24.1248 -24.1183
   -24.1116 -24.0913 -24.0878 -24.0614 -24.0178 -23.9991 -23.9911 -23.9840
   -23.9610 -23.9552 -23.9340 -23.9260 -23.9211 -23.9076 -23.8990 -23.8985
   -23.8907 -23.1431 -23.1313 -23.1237 -23.0940 -23.0908 -23.0726 -23.0494
   -23.0436 -23.0376 -23.0362 -23.0263 -23.0227 -23.0150 -22.9989 -22.9899
    11.9564  13.5346  14.9325  14.9442  15.1456  15.1473  15.1752  15.2644
    15.2881  15.3348  15.3657  15.3687  15.3825  15.4285  15.7584  16.1261
    16.2105  16.4295  16.5808  16.6374  16.7011  16.7329  17.0196  17.0391
    17.1101  17.1698  17.1711  17.3351  17.3578  17.3613  17.6149  17.6760
    17.8330  17.8718  18.0487  18.0882  18.1303  18.1637  18.2583  18.3931
    18.3976  18.4627  18.5112  18.5863  18.6238  18.6277  18.8797  18.9951
    19.0476  19.0556  19.0625  19.2318  19.3630  19.4041  19.6064  19.6562
    19.8540  20.0086  20.0564  20.1206  20.1347  20.2354  20.3511  20.5010
    20.5132  20.5138  20.6717  20.6949  20.7034  20.7302  20.7418  20.8523
    20.9482  21.0391

          k = 0.0000 0.0000-0.4984 (  9626 PWs)   bands (ev):

   -68.1708 -68.1631 -68.0448 -52.6733 -52.6679 -52.6431 -52.6427 -52.6425
   -52.6421 -52.6258 -52.6254 -51.7691 -51.7599 -51.7599 -51.7522 -51.7499
   -34.2454 -34.2289 -34.2253 -34.2251 -34.2169 -34.2167 -34.1045 -34.0979
   -34.0977 -24.1900 -24.1656 -24.1599 -24.1514 -24.1456 -24.1374 -24.1296
   -24.1143 -24.0821 -24.0691 -24.0572 -24.0372 -24.0223 -24.0162 -23.9777
   -23.9741 -23.9498 -23.9475 -23.9415 -23.9278 -23.9035 -23.9030 -23.8950
   -23.8946 -23.1095 -23.0973 -23.0871 -23.0865 -23.0716 -23.0687 -23.0657
   -23.0594 -23.0590 -23.0537 -23.0486 -23.0274 -23.0112 -23.0079 -23.0043
    12.6070  12.7053  15.0764  15.1192  15.2095  15.2503  15.3009  15.3045
    15.3064  15.3085  15.5113  15.5583  15.6191  15.6636  15.6977  15.7457
    15.8817  15.9567  16.5732  16.6405  16.6928  16.7053  17.3014  17.3199
    17.3885  17.4318  17.4350  17.4845  17.4914  17.4936  17.5009  17.6103
    17.7233  17.7813  17.7821  17.8023  17.8366  18.1281  18.1556  18.2049
    18.2327  18.2451  18.2835  18.3454  18.5239  18.5242  18.6678  18.7740
    18.8038  18.8098  18.9073  19.4950  19.6690  19.7424  19.7643  19.7990
    19.8124  19.8173  19.9313  19.9787  20.3158  20.3944  20.4414  20.4761
    20.5005  20.5202  20.5307  20.5760  20.6860  20.6863  20.6888  20.9164
    21.0093  21.0465

          k = 0.0000 0.1657 0.1661 (  9557 PWs)   bands (ev):

   -68.1707 -68.1630 -68.0447 -52.6848 -52.6531 -52.6524 -52.6488 -52.6364
   -52.6340 -52.6335 -52.6194 -51.7701 -51.7673 -51.7531 -51.7517 -51.7491
   -34.2437 -34.2287 -34.2255 -34.2254 -34.2165 -34.2164 -34.1064 -34.0979
   -34.0978 -24.2474 -24.2128 -24.2073 -24.1586 -24.1530 -24.1332 -24.1067
   -24.0975 -24.0851 -24.0688 -24.0647 -24.0477 -23.9869 -23.9716 -23.9657
   -23.9377 -23.9363 -23.9255 -23.9186 -23.9118 -23.9098 -23.9071 -23.8990
   -23.8908 -23.1836 -23.1483 -23.1457 -23.1080 -23.1076 -23.0746 -23.0399
   -23.0360 -23.0329 -23.0275 -23.0266 -23.0079 -22.9989 -22.9862 -22.9757
    11.6614  14.4933  14.5491  14.8081  14.8891  14.9393  15.0830  15.1307
    15.1338  15.1371  15.1654  15.3867  15.3905  15.7352  15.7611  16.4856
    16.5540  16.6199  16.6505  16.6946  16.7614  16.7791  16.7931  16.8732
    16.9227  17.0017  17.1189  17.1823  17.1975  17.2243  17.2754  17.7625
    17.8512  17.9615  18.1454  18.1924  18.2678  18.3371  18.4741  18.4837
    18.5639  18.5765  18.6679  18.7688  18.8571  18.9111  18.9511  19.1242
    19.1968  19.2256  19.2976  19.3698  19.3962  19.4011  19.6216  19.6319
    19.7475  19.7870  19.9984  19.9990  20.1232  20.1943  20.2347  20.3085
    20.5189  20.5697  20.6189  20.6880  20.6980  20.7365  20.7475  20.8040
    20.8700  20.9043

          k = 0.0000 0.1657 0.3323 (  9577 PWs)   bands (ev):

   -68.1707 -68.1630 -68.0447 -52.6783 -52.6592 -52.6495 -52.6456 -52.6399
   -52.6368 -52.6309 -52.6225 -51.7693 -51.7640 -51.7550 -51.7529 -51.7501
   -34.2435 -34.2290 -34.2253 -34.2250 -34.2167 -34.2166 -34.1064 -34.0979
   -34.0977 -24.2147 -24.1909 -24.1763 -24.1455 -24.1292 -24.1269 -24.1196
   -24.1126 -24.0823 -24.0794 -24.0604 -24.0222 -24.0009 -23.9910 -23.9839
   -23.9640 -23.9528 -23.9379 -23.9366 -23.9238 -23.9163 -23.9077 -23.9045
   -23.8946 -23.1530 -23.1230 -23.1174 -23.0853 -23.0848 -23.0738 -23.0665
   -23.0465 -23.0408 -23.0380 -23.0368 -23.0141 -23.0101 -23.0023 -22.9806
    12.0975  13.6363  14.6748  14.8411  15.0451  15.2360  15.2668  15.2711
    15.3495  15.3915  15.4311  15.4773  15.4782  15.7186  15.8126  16.1588
    16.2083  16.3796  16.6650  16.6695  16.7626  16.7882  16.8512  16.9854
    16.9900  17.1055  17.1345  17.2398  17.3547  17.4033  17.4971  17.7797
    17.7951  17.8270  17.8968  17.9774  18.0624  18.1312  18.2126  18.2277
    18.3467  18.3990  18.4633  18.5331  18.7008  18.7375  18.7853  18.8273
    18.9926  19.0110  19.1353  19.2672  19.2923  19.4426  19.5398  19.5939
    19.7058  19.9256  19.9488  19.9717  20.1382  20.1673  20.2463  20.5013
    20.5057  20.5521  20.6070  20.6467  20.7104  20.7193  20.7431  20.8107
    20.8865  21.0171

          k = 0.0000 0.1657-0.4984 (  9608 PWs)   bands (ev):

   -68.1708 -68.1631 -68.0448 -52.6714 -52.6662 -52.6450 -52.6444 -52.6414
   -52.6410 -52.6269 -52.6265 -51.7689 -51.7594 -51.7594 -51.7527 -51.7507
   -34.2435 -34.2291 -34.2253 -34.2248 -34.2169 -34.2167 -34.1065 -34.0979
   -34.0977 -24.1858 -24.1689 -24.1585 -24.1548 -24.1480 -24.1225 -24.1155
   -24.1024 -24.0748 -24.0641 -24.0531 -24.0383 -24.0222 -24.0166 -23.9816
   -23.9775 -23.9534 -23.9494 -23.9473 -23.9289 -23.9156 -23.9113 -23.8997
   -23.8995 -23.1185 -23.1088 -23.0957 -23.0922 -23.0761 -23.0693 -23.0667
   -23.0615 -23.0573 -23.0489 -23.0397 -23.0247 -23.0124 -22.9962 -22.9929
    12.7325  12.8320  14.7575  14.8579  15.2020  15.3329  15.4214  15.4273
    15.5064  15.5294  15.5633  15.6376  15.6914  15.7092  15.7561  15.8090
    15.9202  15.9895  16.6300  16.6767  16.7164  16.7526  17.1474  17.1684
    17.1856  17.2691  17.2992  17.3636  17.3746  17.4270  17.6033  17.6961
    17.7026  17.7420  17.8150  17.8668  17.9342  17.9649  18.0537  18.0652
    18.1770  18.1828  18.1918  18.2258  18.2778  18.3487  18.8859  18.9194
    18.9322  18.9384  19.0151  19.4713  19.5105  19.5706  19.6586  19.6626
    19.6741  19.8122  19.9110  20.0381  20.2443  20.2649  20.2748  20.3701
    20.4121  20.4475  20.4920  20.6372  20.6680  20.7002  20.8191  20.8359
    20.9212  21.0024

          k = 0.0000 0.3314 0.3323 (  9582 PWs)   bands (ev):

   -68.1707 -68.1630 -68.0448 -52.6726 -52.6560 -52.6545 -52.6439 -52.6425
   -52.6340 -52.6338 -52.6255 -51.7685 -51.7616 -51.7552 -51.7543 -51.7515
   -34.2396 -34.2293 -34.2252 -34.2245 -34.2168 -34.2165 -34.1105 -34.0979
   -34.0978 -24.2016 -24.1731 -24.1489 -24.1476 -24.1400 -24.1192 -24.1127
   -24.0935 -24.0688 -24.0655 -24.0488 -24.0206 -24.0089 -24.0023 -23.9870
   -23.9692 -23.9669 -23.9508 -23.9459 -23.9446 -23.9346 -23.9172 -23.9107
   -23.9005 -23.1502 -23.1197 -23.1028 -23.0942 -23.0863 -23.0715 -23.0698
   -23.0683 -23.0547 -23.0403 -23.0253 -23.0104 -22.9988 -22.9967 -22.9819
    12.5059  13.8687  13.9511  14.5971  15.3262  15.3872  15.4688  15.5330
    15.5751  15.5907  15.6150  15.6566  15.6758  15.7707  15.8757  16.1546
    16.2558  16.3000  16.4155  16.7701  16.7953  16.8392  16.8744  16.8756
    16.8972  16.9831  17.0784  17.2401  17.2963  17.3727  17.4458  17.5555
    17.6747  17.7048  17.7924  17.8108  17.9015  17.9514  18.0410  18.0932
    18.0985  18.1532  18.2040  18.3426  18.5240  18.6053  18.8479  18.9898
    19.0172  19.1176  19.1427  19.2363  19.3636  19.3667  19.3944  19.4884
    19.6295  19.7058  19.8270  19.8565  20.0588  20.1294  20.2201  20.4244
    20.4371  20.5271  20.6050  20.6143  20.6433  20.6852  20.7097  20.7891
    20.8650  20.8957

          k = 0.0000 0.3314-0.4984 (  9578 PWs)   bands (ev):

   -68.1707 -68.1630 -68.0447 -52.6663 -52.6616 -52.6502 -52.6490 -52.6384
   -52.6379 -52.6300 -52.6295 -51.7683 -51.7580 -51.7579 -51.7541 -51.7527
   -34.2396 -34.2295 -34.2252 -34.2243 -34.2168 -34.2165 -34.1105 -34.0979
   -34.0977 -24.1743 -24.1725 -24.1629 -24.1559 -24.1306 -24.1087 -24.1074
   -24.0722 -24.0504 -24.0447 -24.0439 -24.0314 -24.0217 -24.0168 -23.9891
   -23.9854 -23.9716 -23.9713 -23.9515 -23.9500 -23.9394 -23.9181 -23.9069
   -23.9063 -23.1291 -23.1262 -23.1108 -23.1053 -23.0929 -23.0714 -23.0654
   -23.0618 -23.0527 -23.0505 -23.0148 -23.0096 -23.0065 -22.9870 -22.9837
    13.0899  13.1902  14.2153  14.3286  15.4659  15.5616  15.6388  15.6762
    15.6838  15.7183  15.7321  15.8099  15.8126  15.8624  15.9292  16.0126
    16.0307  16.0598  16.5903  16.7082  16.7560  16.8640  16.8908  16.8995
    16.9840  16.9938  17.0525  17.0654  17.3848  17.3959  17.4099  17.4555
    17.5939  17.6156  17.6503  17.6951  17.7372  17.8446  17.8608  17.9216
    18.1430  18.1493  18.1865  18.2033  18.2053  18.2343  19.0520  19.0913
    19.1148  19.1377  19.1966  19.3141  19.3234  19.3348  19.3729  19.4514
    19.5533  19.6679  19.7517  20.0233  20.0671  20.1903  20.1979  20.2295
    20.2470  20.5223  20.5481  20.6091  20.6488  20.7327  20.7350  20.7424
    20.7656  20.8628

          k = 0.0000-0.4970-0.4984 (  9580 PWs)   bands (ev):

   -68.1707 -68.1630 -68.0448 -52.6614 -52.6559 -52.6551 -52.6547 -52.6346
   -52.6342 -52.6337 -52.6333 -51.7680 -51.7565 -51.7556 -51.7556 -51.7552
   -34.2376 -34.2297 -34.2252 -34.2240 -34.2168 -34.2164 -34.1126 -34.0979
   -34.0977 -24.1682 -24.1657 -24.1650 -24.1644 -24.1162 -24.1084 -24.1071
   -24.0443 -24.0431 -24.0389 -24.0241 -24.0210 -24.0084 -24.0032 -23.9996
   -23.9974 -23.9884 -23.9868 -23.9808 -23.9752 -23.9366 -23.9146 -23.9120
   -23.9113 -23.1279 -23.1266 -23.1260 -23.1239 -23.0916 -23.0717 -23.0659
   -23.0583 -23.0526 -23.0503 -23.0163 -22.9935 -22.9912 -22.9886 -22.9876
    13.6142  13.6229  13.6365  13.8209  15.6083  15.6330  15.6971  15.8305
    15.8401  15.8534  15.8633  15.9656  15.9662  15.9672  16.0595  16.0641
    16.1765  16.2174  16.2647  16.5856  16.7896  16.8077  16.8135  16.8331
    16.8396  16.8892  16.9750  16.9797  17.2649  17.2859  17.4095  17.4213
    17.5022  17.5105  17.5109  17.5914  17.6103  17.6243  17.6269  17.8578
    18.1142  18.1280  18.1424  18.1614  18.5915  18.5928  18.8007  18.8102
    19.1624  19.1784  19.2500  19.2669  19.2842  19.3330  19.4990  19.5264
    19.5419  19.5575  19.5658  19.8094  19.8394  20.1018  20.3051  20.4181
    20.4254  20.4420  20.4574  20.5818  20.6621  20.6674  20.7046  20.7112
    20.7184  20.8083

          k = 0.1661 0.1657 0.1661 (  9591 PWs)   bands (ev):

   -68.1707 -68.1631 -68.0448 -52.6825 -52.6521 -52.6518 -52.6503 -52.6354
   -52.6352 -52.6348 -52.6205 -51.7697 -51.7663 -51.7531 -51.7528 -51.7495
   -34.2437 -34.2288 -34.2256 -34.2252 -34.2167 -34.2164 -34.1064 -34.0978
   -34.0978 -24.2340 -24.2025 -24.2008 -24.1493 -24.1458 -24.1266 -24.1081
   -24.1075 -24.0853 -24.0641 -24.0591 -24.0563 -23.9834 -23.9788 -23.9629
   -23.9416 -23.9414 -23.9270 -23.9265 -23.9216 -23.9187 -23.9135 -23.9017
   -23.9002 -23.1704 -23.1469 -23.1373 -23.1023 -23.0941 -23.0734 -23.0525
   -23.0394 -23.0384 -23.0246 -23.0214 -23.0192 -23.0067 -22.9820 -22.9811
    11.8090  14.4909  14.6113  14.7381  14.8901  14.9311  14.9852  15.1644
    15.1818  15.2134  15.2351  15.2680  15.7890  15.8112  15.8194  16.3832
    16.5498  16.5794  16.6631  16.7328  16.7542  16.7925  16.8241  16.8794
    16.9232  16.9487  17.1070  17.1078  17.1271  17.1395  17.5162  17.6522
    17.7606  17.8710  18.1165  18.1341  18.1993  18.3031  18.3481  18.5101
    18.5376  18.5607  18.6317  18.6867  18.7234  18.7688  18.8618  19.0579
    19.1340  19.1464  19.2081  19.3162  19.3328  19.4046  19.4472  19.5320
    19.5497  19.9490  19.9647  20.0845  20.0890  20.1320  20.2931  20.3184
    20.5395  20.5676  20.6278  20.6394  20.6908  20.6947  20.7387  20.8065
    20.8101  20.8884

          k = 0.1661 0.1657 0.3323 (  9577 PWs)   bands (ev):

   -68.1707 -68.1630 -68.0447 -52.6762 -52.6579 -52.6483 -52.6475 -52.6388
   -52.6382 -52.6322 -52.6237 -51.7688 -51.7633 -51.7555 -51.7529 -51.7505
   -34.2435 -34.2290 -34.2254 -34.2250 -34.2167 -34.2164 -34.1064 -34.0978
   -34.0977 -24.2016 -24.1816 -24.1771 -24.1355 -24.1286 -24.1241 -24.1150
   -24.1104 -24.0823 -24.0756 -24.0575 -24.0290 -23.9993 -23.9869 -23.9828
   -23.9665 -23.9538 -23.9398 -23.9372 -23.9325 -23.9272 -23.9167 -23.9135
   -23.9045 -23.1420 -23.1308 -23.1163 -23.0817 -23.0802 -23.0744 -23.0701
   -23.0619 -23.0382 -23.0368 -23.0320 -23.0170 -23.0077 -22.9979 -22.9824
    12.2381  13.7384  14.7704  14.8092  14.9422  14.9932  15.2773  15.3196
    15.3845  15.4459  15.5002  15.5437  15.7723  15.8423  15.8955  16.2122
    16.2171  16.4243  16.6492  16.7137  16.7480  16.8203  16.8386  16.8767
    16.9725  17.0677  17.1540  17.2532  17.2796  17.3162  17.4462  17.6239
    17.6892  17.8165  17.8916  17.9082  17.9908  18.0481  18.0998  18.1611
    18.2068  18.2549  18.2878  18.4059  18.5285  18.6513  18.8494  18.8587
    18.9441  19.0488  19.1641  19.2183  19.3490  19.4514  19.4861  19.5322
    19.6793  19.8168  19.9570  20.0681  20.0835  20.2326  20.2959  20.3842
    20.5064  20.5434  20.5564  20.6600  20.6687  20.7318  20.7912  20.8249
    20.8537  20.9086

          k = 0.1661 0.1657-0.4984 (  9588 PWs)   bands (ev):

   -68.1707 -68.1630 -68.0447 -52.6694 -52.6648 -52.6440 -52.6432 -52.6432
   -52.6424 -52.6281 -52.6277 -51.7684 -51.7594 -51.7594 -51.7527 -51.7511
   -34.2435 -34.2290 -34.2253 -34.2250 -34.2167 -34.2165 -34.1064 -34.0978
   -34.0977 -24.1777 -24.1617 -24.1557 -24.1503 -24.1407 -24.1246 -24.1094
   -24.1012 -24.0747 -24.0558 -24.0551 -24.0270 -24.0218 -24.0135 -23.9858
   -23.9794 -23.9589 -23.9479 -23.9470 -23.9393 -23.9235 -23.9187 -23.9106
   -23.9103 -23.1174 -23.1099 -23.1018 -23.1006 -23.0768 -23.0760 -23.0706
   -23.0622 -23.0593 -23.0333 -23.0306 -23.0231 -23.0135 -22.9947 -22.9902
    12.8581  12.9604  14.8760  14.9070  14.9387  15.0252  15.5201  15.5932
    15.6206  15.6558  15.6565  15.7234  15.7532  15.8070  15.8459  15.8576
    15.9633  16.0327  16.6489  16.7439  16.7481  16.7862  17.1000  17.1005
    17.1571  17.1719  17.1858  17.2715  17.2856  17.4238  17.5435  17.5920
    17.6186  17.6934  17.7159  17.7880  17.8117  17.9587  17.9850  18.0377
    18.0500  18.0626  18.0912  18.1027  18.1169  18.1686  18.9655  19.0063
    19.0771  19.0828  19.1379  19.3103  19.3693  19.4289  19.5355  19.6057
    19.6992  19.7892  19.8092  20.0479  20.1036  20.3017  20.3370  20.3817
    20.4374  20.5119  20.5127  20.6400  20.6570  20.7208  20.7671  20.8083
    20.9273  20.9709

          k = 0.1661 0.3314 0.3323 (  9595 PWs)   bands (ev):

   -68.1707 -68.1630 -68.0448 -52.6706 -52.6546 -52.6533 -52.6444 -52.6427
   -52.6354 -52.6351 -52.6267 -51.7682 -51.7611 -51.7551 -51.7547 -51.7519
   -34.2396 -34.2293 -34.2252 -34.2246 -34.2167 -34.2166 -34.1105 -34.0979
   -34.0978 -24.1890 -24.1610 -24.1473 -24.1384 -24.1329 -24.1143 -24.1079
   -24.0928 -24.0716 -24.0633 -24.0446 -24.0296 -24.0043 -23.9986 -23.9885
   -23.9712 -23.9659 -23.9537 -23.9521 -23.9490 -23.9400 -23.9309 -23.9266
   -23.9145 -23.1383 -23.1134 -23.1011 -23.0950 -23.0902 -23.0752 -23.0716
   -23.0639 -23.0502 -23.0401 -23.0235 -23.0113 -23.0051 -22.9971 -22.9884
    12.6429  13.9823  14.0671  14.7282  15.0568  15.2961  15.3359  15.5297
    15.6069  15.6385  15.7277  15.7782  15.8463  15.9770  16.0618  16.2021
    16.2482  16.3691  16.4051  16.7425  16.7604  16.8233  16.8661  16.9157
    16.9363  16.9968  17.0885  17.1493  17.2597  17.2779  17.4031  17.4753
    17.5401  17.6091  17.6814  17.7137  17.8658  17.8717  17.8976  17.9080
    17.9468  18.0276  18.0782  18.1394  18.3039  18.3963  18.5227  19.0527
    19.1139  19.1883  19.2125  19.2709  19.3826  19.3959  19.4139  19.4755
    19.6733  19.7666  19.9045  20.0079  20.0906  20.1996  20.3184  20.3729
    20.5555  20.6080  20.6241  20.6285  20.6688  20.6746  20.7278  20.7844
    20.8233  20.8619

          k = 0.1661 0.3314-0.4984 (  9574 PWs)   bands (ev):

   -68.1707 -68.1630 -68.0447 -52.6644 -52.6602 -52.6489 -52.6477 -52.6402
   -52.6394 -52.6313 -52.6308 -51.7679 -51.7580 -51.7579 -51.7541 -51.7530
   -34.2396 -34.2293 -34.2251 -34.2245 -34.2167 -34.2165 -34.1104 -34.0978
   -34.0977 -24.1628 -24.1601 -24.1506 -24.1480 -24.1246 -24.1043 -24.1005
   -24.0776 -24.0569 -24.0457 -24.0391 -24.0243 -24.0213 -24.0142 -23.9947
   -23.9900 -23.9736 -23.9694 -23.9561 -23.9539 -23.9481 -23.9326 -23.9225
   -23.9213 -23.1204 -23.1181 -23.1077 -23.1045 -23.0853 -23.0717 -23.0672
   -23.0606 -23.0522 -23.0473 -23.0212 -23.0130 -23.0123 -22.9908 -22.9876
    13.2178  13.3205  14.3443  14.4585  15.2315  15.3073  15.6965  15.7180
    15.7804  15.8007  15.8455  15.8598  15.9186  15.9310  16.0606  16.0890
    16.1003  16.1435  16.6063  16.7197  16.7693  16.8557  16.8702  16.9008
    16.9872  17.0303  17.0393  17.0762  17.2731  17.3221  17.3540  17.3645
    17.4200  17.4685  17.5328  17.6076  17.6112  17.7846  17.8052  17.8112
    17.9432  17.9687  17.9960  18.0044  18.0364  18.0633  18.8339  18.8843
    19.1219  19.1707  19.1990  19.2954  19.3591  19.4203  19.4478  19.4966
    19.7055  19.8035  19.9178  20.0707  20.1747  20.2597  20.2871  20.3559
    20.4708  20.5439  20.5477  20.6072  20.6432  20.7129  20.7187  20.8048
    20.8571  20.8596

          k = 0.1661-0.4970-0.4984 (  9588 PWs)   bands (ev):

   -68.1707 -68.1630 -68.0448 -52.6596 -52.6545 -52.6538 -52.6534 -52.6364
   -52.6356 -52.6351 -52.6346 -51.7677 -51.7564 -51.7556 -51.7556 -51.7555
   -34.2376 -34.2295 -34.2251 -34.2242 -34.2168 -34.2165 -34.1126 -34.0979
   -34.0977 -24.1560 -24.1514 -24.1510 -24.1502 -24.1085 -24.1030 -24.1019
   -24.0477 -24.0470 -24.0425 -24.0209 -24.0170 -24.0154 -24.0002 -23.9989
   -23.9985 -23.9933 -23.9892 -23.9882 -23.9811 -23.9471 -23.9290 -23.9283
   -23.9277 -23.1173 -23.1161 -23.1154 -23.1135 -23.0877 -23.0722 -23.0650
   -23.0586 -23.0530 -23.0491 -23.0220 -23.0009 -22.9986 -22.9960 -22.9951
    13.7449  13.7529  13.7673  13.9552  15.6107  15.6131  15.6264  15.7444
    15.7835  15.7843  15.8296  15.9857  16.1697  16.1887  16.2141  16.2192
    16.2447  16.2555  16.2803  16.6069  16.7802  16.7808  16.8070  16.8263
    16.8760  16.9099  16.9905  16.9972  17.1617  17.1765  17.2575  17.2842
    17.3698  17.3755  17.4305  17.5146  17.5621  17.5746  17.5759  17.7235
    17.9290  17.9444  17.9510  17.9818  18.3050  18.3081  18.4287  18.4295
    19.2321  19.2476  19.2879  19.2996  19.3604  19.3833  19.5668  19.6283
    19.7844  19.8241  19.8492  19.9597  19.9644  20.3459  20.3702  20.5368
    20.5461  20.5583  20.5761  20.6163  20.6248  20.6260  20.7127  20.7219
    20.7400  20.8072

          k = 0.3323 0.3314 0.3323 (  9594 PWs)   bands (ev):

   -68.1707 -68.1630 -68.0448 -52.6654 -52.6519 -52.6504 -52.6477 -52.6401
   -52.6391 -52.6384 -52.6301 -51.7675 -51.7598 -51.7561 -51.7547 -51.7528
   -34.2396 -34.2291 -34.2252 -34.2248 -34.2166 -34.2166 -34.1105 -34.0978
   -34.0978 -24.1574 -24.1365 -24.1329 -24.1271 -24.1267 -24.0996 -24.0929
   -24.0813 -24.0741 -24.0518 -24.0505 -24.0341 -23.9966 -23.9954 -23.9911
   -23.9871 -23.9702 -23.9685 -23.9618 -23.9605 -23.9573 -23.9555 -23.9535
   -23.9415 -23.1100 -23.1050 -23.0977 -23.0977 -23.0938 -23.0703 -23.0703
   -23.0620 -23.0465 -23.0391 -23.0262 -23.0216 -23.0078 -23.0070 -22.9960
    13.0358  14.2118  14.3641  14.4851  15.0336  15.1439  15.2051  15.7094
    15.7699  15.9191  15.9490  16.0150  16.0637  16.1041  16.2384  16.2439
    16.3720  16.4009  16.4340  16.5311  16.7756  16.7779  16.8805  16.9097
    16.9994  17.0017  17.0783  17.0902  17.1292  17.1727  17.2376  17.3572
    17.4070  17.4274  17.4835  17.5000  17.5514  17.5610  17.6013  17.7394
    17.7875  17.8052  17.8134  17.8528  17.9572  18.0028  18.0937  18.8145
    19.1870  19.1917  19.2923  19.2936  19.4235  19.4627  19.5014  19.7079
    19.8180  19.9246  19.9901  20.1979  20.2407  20.3432  20.3461  20.5798
    20.5862  20.6129  20.6382  20.6383  20.6702  20.6902  20.7750  20.8110
    20.8646  20.9217

          k = 0.3323 0.3314-0.4984 (  9598 PWs)   bands (ev):

   -68.1707 -68.1630 -68.0448 -52.6594 -52.6566 -52.6463 -52.6443 -52.6442
   -52.6431 -52.6350 -52.6343 -51.7672 -51.7580 -51.7579 -51.7541 -51.7537
   -34.2395 -34.2290 -34.2252 -34.2249 -34.2166 -34.2165 -34.1105 -34.0978
   -34.0977 -24.1347 -24.1311 -24.1279 -24.1223 -24.1109 -24.0926 -24.0861
   -24.0845 -24.0589 -24.0433 -24.0425 -24.0152 -24.0141 -24.0105 -24.0087
   -23.9999 -23.9830 -23.9749 -23.9707 -23.9677 -23.9647 -23.9620 -23.9534
   -23.9520 -23.1029 -23.1020 -23.0987 -23.0982 -23.0717 -23.0692 -23.0666
   -23.0598 -23.0572 -23.0375 -23.0288 -23.0274 -23.0243 -23.0017 -22.9988
    13.5754  13.6882  14.7010  14.7574  14.7638  14.8921  15.6684  15.7465
    15.8506  15.9481  16.0097  16.0521  16.0934  16.2434  16.2660  16.2814
    16.2819  16.3557  16.6077  16.7029  16.7907  16.7977  16.8823  16.9023
    16.9362  16.9773  17.0467  17.0535  17.0801  17.1126  17.1240  17.1699
    17.2674  17.2851  17.3520  17.4589  17.4606  17.5489  17.5623  17.6110
    17.6528  17.6678  17.6821  17.6961  17.7552  17.7681  18.2829  18.3098
    19.2419  19.2714  19.2962  19.3331  19.4341  19.5105  19.6567  19.7471
    19.9117  19.9487  20.0811  20.2192  20.3373  20.4452  20.4673  20.5343
    20.5455  20.5919  20.5999  20.6371  20.6527  20.7153  20.7174  20.7326
    20.8341  20.8491

          k = 0.3323-0.4970-0.4984 (  9632 PWs)   bands (ev):

   -68.1707 -68.1631 -68.0448 -52.6548 -52.6510 -52.6501 -52.6498 -52.6413
   -52.6392 -52.6388 -52.6382 -51.7671 -51.7564 -51.7561 -51.7556 -51.7556
   -34.2375 -34.2290 -34.2251 -34.2247 -34.2167 -34.2166 -34.1126 -34.0978
   -34.0978 -24.1226 -24.1130 -24.1129 -24.1120 -24.0894 -24.0892 -24.0878
   -24.0540 -24.0534 -24.0482 -24.0406 -24.0182 -24.0177 -24.0172 -24.0144
   -24.0051 -24.0034 -23.9906 -23.9884 -23.9850 -23.9669 -23.9660 -23.9657
   -23.9595 -23.0912 -23.0898 -23.0898 -23.0895 -23.0773 -23.0703 -23.0635
   -23.0588 -23.0530 -23.0469 -23.0359 -23.0214 -23.0190 -23.0165 -23.0161
    14.1099  14.1158  14.1339  14.3338  15.2496  15.2718  15.2718  15.4042
    16.0213  16.0364  16.1061  16.2170  16.2513  16.3003  16.3102  16.5024
    16.5225  16.5675  16.5759  16.6814  16.7498  16.7576  16.7888  16.7965
    16.9336  16.9449  16.9482  16.9711  16.9866  17.0257  17.0273  17.0349
    17.2039  17.2042  17.2287  17.4093  17.4120  17.4427  17.4601  17.4804
    17.5726  17.5912  17.6052  17.6212  17.7751  17.7877  17.8384  17.8446
    19.3264  19.3508  19.3662  19.3703  19.4272  19.4578  19.8317  19.8916
    20.0150  20.1046  20.1225  20.1561  20.2073  20.4583  20.4916  20.5721
    20.6930  20.7067  20.7077  20.7534  20.7780  20.7797  20.7841  20.8038
    20.8682  20.8716

          k =-0.4984-0.4970-0.4984 (  9568 PWs)   bands (ev):

   -68.1707 -68.1630 -68.0448 -52.6484 -52.6477 -52.6477 -52.6466 -52.6466
   -52.6424 -52.6424 -52.6415 -51.7667 -51.7564 -51.7564 -51.7556 -51.7556
   -34.2374 -34.2287 -34.2250 -34.2250 -34.2166 -34.2166 -34.1125 -34.0977
   -34.0977 -24.0811 -24.0811 -24.0811 -24.0736 -24.0692 -24.0674 -24.0642
   -24.0607 -24.0602 -24.0602 -24.0545 -24.0527 -24.0527 -24.0519 -24.0394
   -23.9932 -23.9925 -23.9925 -23.9896 -23.9852 -23.9833 -23.9833 -23.9805
   -23.9805 -23.0809 -23.0709 -23.0673 -23.0671 -23.0671 -23.0662 -23.0502
   -23.0488 -23.0473 -23.0473 -23.0442 -23.0435 -23.0423 -23.0419 -23.0419
    14.5047  14.5059  14.5463  14.8471  14.8471  14.8711  14.8711  14.8763
    16.2093  16.2579  16.2832  16.2847  16.2912  16.3768  16.6567  16.6662
    16.6662  16.6845  16.6845  16.7619  16.7619  16.7865  16.7865  16.7973
    16.8755  16.9112  16.9187  16.9335  16.9335  16.9570  16.9570  16.9997
    16.9997  17.3442  17.3543  17.3591  17.3720  17.3721  17.3721  17.3780
    17.3780  17.3837  17.3851  17.3871  17.4040  17.4069  17.4362  17.4362
    19.3670  19.3991  19.4001  19.4162  19.4594  19.4852  20.0817  20.0817
    20.1495  20.1868  20.1868  20.2219  20.2500  20.3149  20.3149  20.7050
    20.7053  20.7053  20.8051  20.8051  20.8271  20.8271  20.8325  20.8371
    20.8371  20.9902

          k = 0.0000 0.1657 0.0000 (  9595 PWs)   bands (ev):

   -68.1707 -68.1630 -68.0447 -52.6872 -52.6542 -52.6500 -52.6500 -52.6352
   -52.6352 -52.6323 -52.6183 -51.7705 -51.7686 -51.7532 -51.7506 -51.7486
   -34.2437 -34.2285 -34.2257 -34.2257 -34.2165 -34.2165 -34.1064 -34.0979
   -34.0979 -24.2605 -24.2208 -24.2208 -24.1637 -24.1637 -24.1400 -24.1003
   -24.0943 -24.0800 -24.0697 -24.0697 -24.0448 -23.9871 -23.9680 -23.9680
   -23.9300 -23.9300 -23.9110 -23.9110 -23.9094 -23.9060 -23.9017 -23.8920
   -23.8875 -23.1953 -23.1580 -23.1580 -23.1170 -23.1170 -23.0756 -23.0360
   -23.0351 -23.0351 -23.0208 -23.0208 -22.9964 -22.9899 -22.9795 -22.9795
    11.5116  14.4524  14.7455  14.8174  14.8565  15.0147  15.0147  15.0469
    15.0800  15.0811  15.2338  15.3235  15.3235  15.4366  15.6997  16.6300
    16.6457  16.6566  16.6603  16.6603  16.7327  16.7327  16.8760  16.8989
    16.8989  16.9058  17.0730  17.2082  17.2082  17.3648  17.3648  17.5474
    17.9282  18.0072  18.2022  18.2022  18.3877  18.3877  18.4164  18.5621
    18.5621  18.6367  18.7663  18.8976  18.8976  18.9145  18.9189  19.0549
    19.3061  19.3061  19.3492  19.4384  19.5676  19.5676  19.8325  19.8780
    19.8780  20.0091  20.0517  20.0919  20.1811  20.2335  20.2335  20.3407
    20.3967  20.4714  20.4714  20.6236  20.6607  20.6762  20.7218  20.7274
    20.8019  20.9509

          k = 0.0000 0.3314 0.0000 (  9606 PWs)   bands (ev):

   -68.1707 -68.1631 -68.0448 -52.6807 -52.6609 -52.6469 -52.6469 -52.6383
   -52.6383 -52.6294 -52.6212 -51.7693 -51.7654 -51.7564 -51.7508 -51.7495
   -34.2397 -34.2286 -34.2254 -34.2254 -34.2167 -34.2167 -34.1105 -34.0979
   -34.0979 -24.2274 -24.1912 -24.1912 -24.1487 -24.1349 -24.1272 -24.1272
   -24.0936 -24.0936 -24.0858 -24.0605 -24.0154 -24.0072 -23.9896 -23.9896
   -23.9545 -23.9545 -23.9337 -23.9242 -23.9242 -23.9063 -23.8987 -23.8975
   -23.8904 -23.1526 -23.1253 -23.1253 -23.0896 -23.0896 -23.0770 -23.0442
   -23.0442 -23.0359 -23.0359 -23.0321 -23.0271 -23.0042 -22.9987 -22.9987
    11.9539  13.5282  14.8987  15.0153  15.1058  15.1495  15.1495  15.2555
    15.2568  15.3653  15.3825  15.3825  15.4043  15.4204  15.7230  16.1058
    16.2270  16.4168  16.5975  16.5975  16.7047  16.7047  16.8727  16.9139
    17.1054  17.1054  17.3284  17.3587  17.3587  17.6456  17.6456  17.6753
    17.7061  17.9219  17.9219  17.9490  18.2553  18.2553  18.2797  18.4234
    18.4359  18.4359  18.4883  18.6126  18.6126  18.8883  18.9234  19.0583
    19.0887  19.0931  19.0931  19.2660  19.2660  19.2969  19.3844  19.7308
    19.7308  19.9034  19.9436  20.1107  20.1107  20.2730  20.3586  20.5458
    20.5468  20.6725  20.6867  20.7158  20.8042  20.8042  20.8431  20.9022
    20.9051  21.0084

          k = 0.0000-0.4970 0.0000 (  9626 PWs)   bands (ev):

   -68.1707 -68.1631 -68.0448 -52.6741 -52.6676 -52.6430 -52.6430 -52.6421
   -52.6421 -52.6258 -52.6249 -51.7686 -51.7615 -51.7603 -51.7511 -51.7498
   -34.2375 -34.2288 -34.2252 -34.2252 -34.2169 -34.2169 -34.1126 -34.0980
   -34.0980 -24.1832 -24.1798 -24.1677 -24.1677 -24.1521 -24.1221 -24.1221
   -24.0825 -24.0753 -24.0753 -24.0412 -24.0412 -24.0351 -24.0328 -23.9781
   -23.9709 -23.9494 -23.9494 -23.9332 -23.9332 -23.9026 -23.9017 -23.8950
   -23.8942 -23.0985 -23.0975 -23.0975 -23.0941 -23.0702 -23.0702 -23.0696
   -23.0620 -23.0620 -23.0447 -23.0447 -23.0167 -23.0140 -23.0113 -23.0113
    12.6110  12.6905  15.0416  15.2033  15.2095  15.2418  15.3076  15.3076
    15.3112  15.3112  15.4397  15.5029  15.5813  15.6873  15.7314  15.7679
    15.8843  15.9334  16.5833  16.5833  16.6864  16.6864  17.0602  17.1298
    17.3817  17.3922  17.3922  17.4520  17.4795  17.4795  17.7130  17.7650
    17.8197  17.8197  17.8268  17.8268  18.0056  18.0056  18.2015  18.2189
    18.2528  18.2528  18.4966  18.4966  18.5466  18.5466  18.6410  18.7472
    18.8093  18.8148  18.9614  19.4007  19.5057  19.5057  19.6030  19.7656
    19.8184  19.8184  19.9255  20.2553  20.2553  20.3354  20.4015  20.4744
    20.5437  20.5437  20.6495  20.6723  20.7001  20.7025  20.9257  20.9971
    21.0539  21.0562

          k = 0.1661 0.0000 0.1661 (  9557 PWs)   bands (ev):

   -68.1707 -68.1630 -68.0447 -52.6847 -52.6534 -52.6515 -52.6494 -52.6359
   -52.6341 -52.6341 -52.6194 -51.7701 -51.7673 -51.7528 -51.7520 -51.7491
   -34.2455 -34.2287 -34.2257 -34.2253 -34.2166 -34.2162 -34.1045 -34.0978
   -34.0978 -24.2405 -24.2150 -24.2136 -24.1600 -24.1576 -24.1212 -24.1091
   -24.0974 -24.0879 -24.0686 -24.0649 -24.0495 -23.9814 -23.9719 -23.9686
   -23.9378 -23.9358 -23.9251 -23.9207 -23.9117 -23.9098 -23.9069 -23.8994
   -23.8911 -23.1747 -23.1600 -23.1469 -23.1062 -23.1049 -23.0731 -23.0420
   -23.0374 -23.0313 -23.0300 -23.0153 -23.0146 -23.0059 -22.9821 -22.9734
    11.6621  14.4229  14.6640  14.8010  14.8617  14.9707  15.0578  15.1356
    15.1375  15.1420  15.1622  15.3684  15.3737  15.7186  15.7888  16.4891
    16.5812  16.6173  16.6715  16.7170  16.7756  16.7994  16.8214  16.8365
    16.9795  17.0143  17.0270  17.1087  17.1908  17.2174  17.3254  17.6561
    17.9291  17.9618  18.1294  18.1860  18.3579  18.3715  18.4140  18.5271
    18.5491  18.5509  18.6300  18.8038  18.8042  18.9643  18.9740  18.9772
    19.1857  19.1874  19.2383  19.2824  19.4517  19.5606  19.6111  19.6994
    19.7440  19.7636  20.0385  20.0830  20.1253  20.1893  20.2952  20.3163
    20.4022  20.4571  20.5343  20.6313  20.6931  20.7210  20.7234  20.8592
    20.8994  20.9629

          k = 0.1661 0.3314 0.0000 (  9577 PWs)   bands (ev):

   -68.1707 -68.1630 -68.0448 -52.6785 -52.6594 -52.6491 -52.6457 -52.6398
   -52.6371 -52.6306 -52.6224 -51.7690 -51.7644 -51.7561 -51.7517 -51.7500
   -34.2396 -34.2289 -34.2253 -34.2250 -34.2167 -34.2166 -34.1105 -34.0979
   -34.0979 -24.2205 -24.1854 -24.1785 -24.1422 -24.1360 -24.1233 -24.1189
   -24.1082 -24.0843 -24.0816 -24.0564 -24.0204 -24.0061 -23.9898 -23.9860
   -23.9595 -23.9530 -23.9378 -23.9360 -23.9217 -23.9175 -23.9070 -23.9054
   -23.8951 -23.1560 -23.1224 -23.1183 -23.0841 -23.0835 -23.0756 -23.0592
   -23.0542 -23.0470 -23.0365 -23.0340 -23.0161 -23.0022 -22.9978 -22.9895
    12.0958  13.6307  14.6727  14.8384  15.0894  15.1732  15.2715  15.2740
    15.3421  15.3971  15.4582  15.4702  15.4782  15.7270  15.7872  16.1446
    16.2243  16.3733  16.6374  16.6943  16.7009  16.7465  16.7761  16.9009
    17.0401  17.1434  17.2236  17.2461  17.3969  17.4324  17.4983  17.6798
    17.7157  17.8175  18.0093  18.0667  18.1103  18.1507  18.1694  18.1852
    18.3380  18.3810  18.4625  18.6453  18.6905  18.7910  18.8723  18.9111
    19.0096  19.1324  19.1665  19.2084  19.3099  19.3513  19.3983  19.5042
    19.6204  19.7702  19.9020  20.0069  20.0910  20.1735  20.4285  20.5421
    20.5446  20.5886  20.6423  20.6813  20.7622  20.7797  20.8402  20.8535
    20.8686  20.9328

          k = 0.3323 0.0000 0.1661 (  9577 PWs)   bands (ev):

   -68.1707 -68.1630 -68.0447 -52.6783 -52.6594 -52.6487 -52.6461 -52.6393
   -52.6373 -52.6310 -52.6225 -51.7691 -51.7641 -51.7558 -51.7521 -51.7500
   -34.2454 -34.2288 -34.2255 -34.2252 -34.2167 -34.2163 -34.1045 -34.0978
   -34.0977 -24.1988 -24.1983 -24.1889 -24.1451 -24.1311 -24.1239 -24.1158
   -24.1108 -24.0875 -24.0813 -24.0621 -24.0231 -23.9999 -23.9854 -23.9818
   -23.9604 -23.9577 -23.9363 -23.9341 -23.9262 -23.9189 -23.9083 -23.9044
   -23.8949 -23.1405 -23.1336 -23.1299 -23.0825 -23.0798 -23.0710 -23.0661
   -23.0517 -23.0428 -23.0343 -23.0262 -23.0209 -23.0179 -22.9921 -22.9829
    12.0981  13.6331  14.7082  14.8392  15.0494  15.2199  15.2467  15.2693
    15.3741  15.3779  15.4400  15.4647  15.4777  15.6883  15.8346  16.1854
    16.2169  16.3964  16.6301  16.7218  16.7251  16.7958  16.8558  16.9807
    17.0865  17.0930  17.1286  17.2257  17.2578  17.4230  17.5152  17.6966
    17.7042  17.9899  18.0161  18.0531  18.0632  18.0834  18.1672  18.1914
    18.2498  18.3471  18.4201  18.6130  18.6735  18.7076  18.7955  18.8237
    19.0306  19.1224  19.1791  19.2153  19.2888  19.3609  19.5273  19.5471
    19.6529  19.9500  19.9747  19.9983  20.0940  20.2879  20.3418  20.4524
    20.4883  20.5000  20.5456  20.6061  20.6778  20.7716  20.7864  20.8138
    20.8711  20.9532

          k = 0.1661-0.4970 0.0000 (  9608 PWs)   bands (ev):

   -68.1707 -68.1631 -68.0448 -52.6721 -52.6659 -52.6451 -52.6439 -52.6419
   -52.6410 -52.6269 -52.6260 -51.7684 -51.7608 -51.7597 -51.7517 -51.7506
   -34.2375 -34.2291 -34.2252 -34.2249 -34.2169 -34.2167 -34.1126 -34.0980
   -34.0979 -24.1814 -24.1808 -24.1627 -24.1565 -24.1439 -24.1308 -24.1093
   -24.0858 -24.0705 -24.0700 -24.0388 -24.0375 -24.0300 -24.0259 -23.9825
   -23.9755 -23.9556 -23.9468 -23.9441 -23.9296 -23.9133 -23.9119 -23.9013
   -23.8998 -23.1123 -23.1107 -23.0959 -23.0953 -23.0854 -23.0723 -23.0678
   -23.0651 -23.0598 -23.0454 -23.0268 -23.0124 -23.0095 -23.0035 -23.0034
    12.7373  12.8181  14.7552  14.8564  15.2515  15.3329  15.4268  15.4271
    15.4961  15.5157  15.5241  15.5948  15.6386  15.7524  15.7862  15.8290
    15.9234  15.9680  16.6248  16.6412  16.7173  16.7461  16.9005  17.0619
    17.1598  17.2693  17.3677  17.4011  17.4204  17.4552  17.6787  17.6910
    17.7958  17.7969  17.8367  17.8486  17.8691  17.9194  18.0841  18.1038
    18.1866  18.2465  18.2579  18.2718  18.3805  18.4256  18.9060  18.9136
    18.9491  19.0088  19.0390  19.3799  19.3807  19.5375  19.5571  19.5936
    19.7038  19.7801  19.8826  19.9982  20.0445  20.1222  20.4347  20.4803
    20.4908  20.5258  20.6618  20.6989  20.7169  20.7312  20.8448  20.9350
    20.9644  21.0113

          k =-0.4984 0.0000 0.1661 (  9608 PWs)   bands (ev):

   -68.1708 -68.1631 -68.0448 -52.6713 -52.6665 -52.6446 -52.6436 -52.6419
   -52.6415 -52.6270 -52.6265 -51.7686 -51.7599 -51.7599 -51.7522 -51.7504
   -34.2454 -34.2289 -34.2254 -34.2253 -34.2167 -34.2166 -34.1046 -34.0978
   -34.0977 -24.1837 -24.1692 -24.1481 -24.1478 -24.1452 -24.1408 -24.1225
   -24.1106 -24.0777 -24.0605 -24.0599 -24.0232 -24.0217 -24.0136 -23.9819
   -23.9753 -23.9556 -23.9449 -23.9403 -23.9397 -23.9155 -23.9132 -23.9003
   -23.8992 -23.1148 -23.1062 -23.0949 -23.0927 -23.0853 -23.0849 -23.0699
   -23.0628 -23.0591 -23.0347 -23.0315 -23.0111 -23.0079 -23.0051 -22.9994
    12.7316  12.8329  14.7856  14.8587  15.1986  15.3417  15.4200  15.4205
    15.4227  15.5128  15.6073  15.6397  15.7111  15.7233  15.7708  15.8063
    15.9203  15.9939  16.6182  16.6990  16.7169  16.7626  17.1743  17.1793
    17.2111  17.2439  17.3170  17.3237  17.3797  17.4410  17.6080  17.6579
    17.6938  17.7273  17.8193  17.8339  17.9618  17.9757  18.0718  18.0797
    18.1098  18.1452  18.1985  18.2494  18.2586  18.3451  18.8947  18.9223
    18.9552  19.0018  19.0154  19.3902  19.5218  19.5364  19.6797  19.6903
    19.6928  19.7807  19.8343  20.0194  20.0576  20.3670  20.3681  20.3778
    20.4406  20.4596  20.5042  20.6637  20.7007  20.7118  20.7506  20.8621
    20.9985  21.0077

          k = 0.3323 0.0000 0.3323 (  9582 PWs)   bands (ev):

   -68.1707 -68.1630 -68.0447 -52.6724 -52.6578 -52.6524 -52.6432 -52.6429
   -52.6342 -52.6342 -52.6256 -51.7680 -51.7623 -51.7575 -51.7522 -51.7510
   -34.2454 -34.2288 -34.2256 -34.2252 -34.2166 -34.2161 -34.1045 -34.0977
   -34.0977 -24.1882 -24.1753 -24.1617 -24.1522 -24.1267 -24.1262 -24.1136
   -24.0977 -24.0735 -24.0725 -24.0508 -24.0218 -24.0055 -23.9850 -23.9806
   -23.9737 -23.9627 -23.9494 -23.9461 -23.9434 -23.9397 -23.9281 -23.9081
   -23.8997 -23.1431 -23.1307 -23.1100 -23.0956 -23.0914 -23.0679 -23.0670
   -23.0649 -23.0583 -23.0292 -23.0153 -23.0141 -23.0063 -22.9985 -22.9759
    12.5070  13.7982  14.0510  14.6077  15.2915  15.3727  15.4543  15.5581
    15.5827  15.6216  15.6230  15.6271  15.6640  15.7084  15.9415  16.1697
    16.2946  16.3408  16.5356  16.6640  16.7511  16.7681  16.9271  16.9305
    16.9643  17.0010  17.1279  17.2036  17.2817  17.3398  17.3994  17.5186
    17.6688  17.7302  17.8418  17.8691  17.9007  17.9090  18.0214  18.0630
    18.0819  18.1441  18.2529  18.2759  18.4335  18.4337  18.9436  18.9910
    19.0249  19.1007  19.1403  19.1483  19.3383  19.3604  19.4217  19.5234
    19.6844  19.7480  19.8197  19.9318  20.0016  20.1680  20.3592  20.3632
    20.4029  20.4998  20.5450  20.5653  20.5788  20.6310  20.7316  20.8160
    20.8167  20.8775

          k = 0.3323-0.4970 0.0000 (  9578 PWs)   bands (ev):

   -68.1707 -68.1630 -68.0448 -52.6667 -52.6613 -52.6505 -52.6486 -52.6387
   -52.6378 -52.6301 -52.6292 -51.7682 -51.7588 -51.7580 -51.7533 -51.7528
   -34.2376 -34.2295 -34.2251 -34.2243 -34.2168 -34.2165 -34.1126 -34.0979
   -34.0978 -24.1761 -24.1749 -24.1616 -24.1486 -24.1313 -24.1218 -24.0996
   -24.0760 -24.0558 -24.0455 -24.0341 -24.0275 -24.0208 -24.0152 -23.9910
   -23.9843 -23.9744 -23.9717 -23.9503 -23.9467 -23.9392 -23.9217 -23.9081
   -23.9053 -23.1260 -23.1259 -23.1127 -23.1098 -23.0930 -23.0722 -23.0659
   -23.0622 -23.0551 -23.0479 -23.0148 -23.0041 -22.9972 -22.9924 -22.9908
    13.0961  13.1785  14.2199  14.3261  15.5179  15.5478  15.6018  15.6722
    15.6865  15.7239  15.7332  15.7867  15.7995  15.8724  15.9544  16.0166
    16.0278  16.0444  16.5785  16.6778  16.7657  16.7684  16.8607  16.8835
    16.9431  17.0715  17.0967  17.1030  17.3363  17.4147  17.4253  17.4405
    17.6319  17.6506  17.6732  17.7298  17.7482  17.7962  17.8301  17.9086
    18.1869  18.1899  18.1945  18.2060  18.2069  18.2344  19.0949  19.1025
    19.1661  19.2457  19.2544  19.2763  19.3184  19.3364  19.3461  19.3714
    19.4909  19.6736  19.7060  19.8060  19.8585  20.1908  20.2060  20.4609
    20.4801  20.5219  20.5716  20.6087  20.6980  20.6985  20.6985  20.7687
    20.7707  20.8712

          k =-0.4984 0.0000 0.3323 (  9578 PWs)   bands (ev):

   -68.1707 -68.1630 -68.0447 -52.6659 -52.6628 -52.6501 -52.6473 -52.6388
   -52.6383 -52.6301 -52.6297 -51.7674 -51.7598 -51.7598 -51.7522 -51.7516
   -34.2453 -34.2288 -34.2255 -34.2255 -34.2163 -34.2163 -34.1045 -34.0977
   -34.0977 -24.1749 -24.1729 -24.1504 -24.1480 -24.1195 -24.1164 -24.1163
   -24.1149 -24.0666 -24.0441 -24.0376 -24.0180 -24.0063 -24.0052 -23.9899
   -23.9777 -23.9731 -23.9703 -23.9510 -23.9467 -23.9390 -23.9367 -23.9072
   -23.9029 -23.1271 -23.1241 -23.1204 -23.1155 -23.0823 -23.0821 -23.0663
   -23.0631 -23.0619 -23.0205 -23.0182 -23.0075 -23.0065 -22.9880 -22.9824
    13.0810  13.1936  14.2610  14.3304  15.4346  15.5057  15.5605  15.6589
    15.7133  15.7235  15.8214  15.8251  15.8498  15.8784  15.9250  16.0222
    16.0358  16.0871  16.6762  16.7085  16.7882  16.8317  16.8588  16.8822
    16.9290  17.0961  17.1076  17.1162  17.2452  17.2785  17.4218  17.4436
    17.5717  17.6294  17.7629  17.7858  17.8169  17.8178  17.8221  17.9878
    18.0234  18.0895  18.1103  18.1202  18.1929  18.2020  19.0473  19.0882
    19.1106  19.2410  19.2444  19.2622  19.2751  19.3161  19.3203  19.3340
    19.5853  19.7655  19.8023  19.8669  20.0839  20.1373  20.2913  20.4092
    20.4204  20.4485  20.5293  20.6120  20.6163  20.6236  20.6755  20.6779
    20.6956  20.8643

          k =-0.4984 0.0000-0.4984 (  9580 PWs)   bands (ev):

   -68.1707 -68.1630 -68.0447 -52.6600 -52.6600 -52.6560 -52.6501 -52.6347
   -52.6342 -52.6342 -52.6338 -51.7668 -51.7598 -51.7598 -51.7522 -51.7522
   -34.2454 -34.2288 -34.2256 -34.2256 -34.2161 -34.2161 -34.1045 -34.0977
   -34.0977 -24.1752 -24.1747 -24.1472 -24.1431 -24.1191 -24.1191 -24.1015
   -24.1015 -24.0583 -24.0161 -24.0161 -24.0118 -24.0096 -23.9943 -23.9943
   -23.9877 -23.9877 -23.9817 -23.9798 -23.9781 -23.9353 -23.9353 -23.9114
   -23.9047 -23.1363 -23.1332 -23.1264 -23.1230 -23.0808 -23.0808 -23.0645
   -23.0628 -23.0628 -23.0165 -23.0126 -23.0074 -23.0074 -22.9792 -22.9754
    13.4657  13.6529  13.8112  13.8112  15.5003  15.6143  15.6258  15.8194
    15.9024  15.9024  15.9210  15.9210  15.9816  15.9816  16.1325  16.1502
    16.1622  16.2289  16.4975  16.5940  16.5940  16.7083  16.7083  16.8310
    16.8876  16.8876  17.1411  17.1595  17.1819  17.2754  17.2754  17.2756
    17.4501  17.5212  17.5953  17.5953  17.6718  17.6791  17.6986  17.9351
    18.0171  18.0171  18.1701  18.1701  18.3842  18.3842  18.9125  18.9270
    19.1000  19.1101  19.1107  19.2003  19.2174  19.2640  19.4894  19.4894
    19.5779  19.7698  19.8846  19.8846  19.9938  19.9938  20.3933  20.3933
    20.4177  20.4202  20.4273  20.4620  20.5843  20.5843  20.6228  20.6228
    20.7105  20.7596

          k = 0.1661 0.3314 0.1661 (  9577 PWs)   bands (ev):

   -68.1707 -68.1630 -68.0448 -52.6764 -52.6580 -52.6486 -52.6472 -52.6389
   -52.6384 -52.6318 -52.6235 -51.7688 -51.7635 -51.7558 -51.7525 -51.7506
   -34.2396 -34.2290 -34.2253 -34.2248 -34.2167 -34.2166 -34.1104 -34.0979
   -34.0978 -24.2114 -24.1744 -24.1719 -24.1369 -24.1336 -24.1220 -24.1125
   -24.1091 -24.0812 -24.0801 -24.0526 -24.0265 -24.0031 -23.9874 -23.9868
   -23.9623 -23.9537 -23.9407 -23.9356 -23.9349 -23.9222 -23.9198 -23.9097
   -23.9076 -23.1510 -23.1167 -23.1157 -23.0877 -23.0804 -23.0722 -23.0691
   -23.0652 -23.0428 -23.0409 -23.0285 -23.0106 -23.0010 -22.9987 -22.9915
    12.2365  13.7369  14.6849  14.9003  14.9235  15.0202  15.2244  15.3568
    15.4042  15.4424  15.4605  15.5563  15.7931  15.8475  15.8905  16.1712
    16.2232  16.4252  16.5516  16.6449  16.7622  16.8001  16.8338  16.9212
    16.9855  17.0728  17.1461  17.2745  17.3491  17.3747  17.3762  17.5928
    17.6537  17.7509  17.9953  17.9998  18.0081  18.0517  18.0545  18.1633
    18.1920  18.2427  18.3079  18.4741  18.5479  18.7274  18.8565  18.9480
    18.9771  19.0600  19.0955  19.2213  19.3333  19.3893  19.4823  19.5633
    19.6261  19.7889  19.8711  19.9602  20.0124  20.1704  20.4636  20.4786
    20.5071  20.5468  20.6374  20.6548  20.7062  20.7952  20.8066  20.8568
    20.8672  20.9038

          k = 0.1661-0.4970 0.1661 (  9588 PWs)   bands (ev):

   -68.1707 -68.1630 -68.0448 -52.6702 -52.6643 -52.6442 -52.6435 -52.6432
   -52.6421 -52.6281 -52.6272 -51.7682 -51.7602 -51.7591 -51.7522 -51.7513
   -34.2375 -34.2292 -34.2251 -34.2247 -34.2168 -34.2167 -34.1126 -34.0979
   -34.0979 -24.1782 -24.1751 -24.1541 -24.1493 -24.1367 -24.1230 -24.1116
   -24.0883 -24.0714 -24.0600 -24.0458 -24.0273 -24.0242 -24.0216 -23.9871
   -23.9794 -23.9594 -23.9489 -23.9436 -23.9396 -23.9166 -23.9162 -23.9149
   -23.9138 -23.1160 -23.1146 -23.1013 -23.0883 -23.0861 -23.0764 -23.0717
   -23.0657 -23.0553 -23.0453 -23.0203 -23.0185 -23.0045 -23.0002 -23.0000
    12.8644  12.9465  14.7926  14.9330  15.0009  15.0278  15.5720  15.5979
    15.6015  15.6192  15.6642  15.6936  15.7110  15.8308  15.8312  15.8813
    15.9698  16.0100  16.6394  16.7071  16.7375  16.8015  16.8082  17.0363
    17.0873  17.2192  17.2492  17.3144  17.4345  17.4477  17.5516  17.5652
    17.7019  17.7237  17.7430  17.8117  17.8211  17.8830  17.9568  17.9843
    18.0227  18.1197  18.1584  18.1847  18.2075  18.2513  19.0047  19.0084
    19.1021  19.1564  19.1996  19.3344  19.3539  19.4038  19.4465  19.5367
    19.5956  19.6400  19.8559  19.8802  20.0505  20.2158  20.4598  20.4776
    20.5090  20.5103  20.6998  20.7040  20.7295  20.7948  20.8133  20.8478
    20.9121  20.9713

          k = 0.3323 0.1657 0.3323 (  9595 PWs)   bands (ev):

   -68.1707 -68.1630 -68.0447 -52.6705 -52.6562 -52.6513 -52.6448 -52.6421
   -52.6358 -52.6354 -52.6268 -51.7679 -51.7616 -51.7571 -51.7528 -51.7515
   -34.2435 -34.2289 -34.2255 -34.2251 -34.2166 -34.2163 -34.1064 -34.0978
   -34.0977 -24.1729 -24.1699 -24.1568 -24.1449 -24.1257 -24.1109 -24.1073
   -24.0964 -24.0758 -24.0670 -24.0463 -24.0311 -24.0019 -23.9864 -23.9837
   -23.9788 -23.9627 -23.9533 -23.9506 -23.9460 -23.9452 -23.9360 -23.9266
   -23.9139 -23.1323 -23.1198 -23.1105 -23.0978 -23.0929 -23.0690 -23.0671
   -23.0648 -23.0468 -23.0307 -23.0274 -23.0204 -23.0011 -22.9979 -22.9840
    12.6434  13.9135  14.1683  14.7402  15.0209  15.2701  15.3775  15.4587
    15.6325  15.7215  15.7279  15.7342  15.7935  16.0224  16.0336  16.2119
    16.3084  16.4215  16.5061  16.5827  16.7786  16.8280  16.8359  16.9630
    16.9964  17.0320  17.0697  17.1137  17.2440  17.3250  17.3461  17.4898
    17.5143  17.6177  17.7106  17.7465  17.7592  17.8080  17.8727  17.9418
    18.0182  18.0485  18.0532  18.1576  18.1868  18.3187  18.5724  19.0402
    19.1087  19.1759  19.2039  19.2859  19.3220  19.3748  19.4471  19.5605
    19.5942  19.7901  19.9049  20.0453  20.1541  20.2760  20.3439  20.4640
    20.4943  20.5259  20.5326  20.5914  20.6351  20.6460  20.7443  20.7627
    20.8182  20.8460

          k = 0.3323-0.4970 0.1661 (  9574 PWs)   bands (ev):

   -68.1707 -68.1630 -68.0448 -52.6649 -52.6598 -52.6492 -52.6474 -52.6405
   -52.6393 -52.6314 -52.6304 -51.7679 -51.7585 -51.7576 -51.7536 -51.7533
   -34.2375 -34.2294 -34.2251 -34.2244 -34.2167 -34.2166 -34.1126 -34.0978
   -34.0978 -24.1673 -24.1637 -24.1481 -24.1351 -24.1248 -24.1161 -24.0959
   -24.0808 -24.0600 -24.0447 -24.0416 -24.0201 -24.0164 -24.0089 -23.9971
   -23.9882 -23.9760 -23.9711 -23.9547 -23.9522 -23.9486 -23.9357 -23.9237
   -23.9202 -23.1197 -23.1194 -23.1065 -23.1023 -23.0875 -23.0743 -23.0662
   -23.0617 -23.0554 -23.0469 -23.0209 -23.0078 -23.0010 -22.9963 -22.9954
    13.2253  13.3087  14.3447  14.4552  15.2452  15.3077  15.6798  15.6958
    15.7738  15.8248  15.8345  15.9255  15.9347  15.9489  15.9705  16.0776
    16.1137  16.1407  16.5581  16.6932  16.7700  16.7970  16.8834  16.8861
    16.9559  17.0802  17.0837  17.0968  17.2719  17.3000  17.3367  17.3490
    17.4651  17.5233  17.5249  17.6323  17.6822  17.7183  17.7665  17.8039
    17.9718  17.9761  18.0204  18.0270  18.0373  18.0528  18.8837  18.8890
    19.1730  19.1797  19.2549  19.2723  19.3140  19.3887  19.4799  19.4959
    19.6623  19.8194  19.8341  19.9192  20.0142  20.2670  20.3918  20.4747
    20.5217  20.5497  20.6472  20.6627  20.6806  20.7302  20.7537  20.8236
    20.8322  20.8799

          k =-0.4984 0.1657 0.3323 (  9574 PWs)   bands (ev):

   -68.1707 -68.1630 -68.0447 -52.6641 -52.6611 -52.6488 -52.6462 -52.6405
   -52.6399 -52.6315 -52.6309 -51.7673 -51.7593 -51.7593 -51.7527 -51.7522
   -34.2434 -34.2289 -34.2254 -34.2253 -34.2164 -34.2163 -34.1064 -34.0977
   -34.0977 -24.1628 -24.1597 -24.1444 -24.1402 -24.1230 -24.1146 -24.1020
   -24.0990 -24.0674 -24.0415 -24.0379 -24.0174 -24.0136 -24.0044 -23.9952
   -23.9840 -23.9767 -23.9705 -23.9570 -23.9515 -23.9445 -23.9431 -23.9234
   -23.9203 -23.1198 -23.1175 -23.1138 -23.1102 -23.0781 -23.0764 -23.0668
   -23.0625 -23.0622 -23.0236 -23.0207 -23.0166 -23.0137 -22.9905 -22.9860
    13.2096  13.3231  14.3916  14.4593  15.1926  15.3116  15.5858  15.6958
    15.7833  15.8536  15.9041  15.9214  15.9551  15.9692  15.9826  16.0903
    16.0940  16.1578  16.6943  16.7261  16.8002  16.8401  16.8531  16.8776
    16.9117  17.0774  17.1219  17.1256  17.1981  17.2272  17.3291  17.3318
    17.4003  17.4664  17.6297  17.7020  17.7038  17.7133  17.7639  17.8297
    17.8734  17.9049  17.9306  17.9423  18.0764  18.0840  18.8155  18.8632
    19.1253  19.1726  19.1728  19.2932  19.3398  19.4104  19.4807  19.5916
    19.6537  19.8168  19.8551  20.0057  20.2475  20.3060  20.3266  20.4288
    20.4457  20.4479  20.5522  20.6312  20.6370  20.6859  20.7033  20.7776
    20.8380  20.8561

          k =-0.4984 0.1657-0.4984 (  9588 PWs)   bands (ev):

   -68.1707 -68.1630 -68.0447 -52.6583 -52.6583 -52.6547 -52.6490 -52.6360
   -52.6360 -52.6360 -52.6349 -51.7668 -51.7593 -51.7593 -51.7527 -51.7527
   -34.2434 -34.2288 -34.2255 -34.2255 -34.2162 -34.2162 -34.1064 -34.0977
   -34.0977 -24.1600 -24.1586 -24.1377 -24.1336 -24.1148 -24.1148 -24.0909
   -24.0909 -24.0613 -24.0139 -24.0139 -24.0093 -24.0085 -24.0040 -24.0040
   -23.9945 -23.9909 -23.9881 -23.9881 -23.9816 -23.9414 -23.9414 -23.9298
   -23.9243 -23.1259 -23.1237 -23.1147 -23.1113 -23.0775 -23.0775 -23.0648
   -23.0618 -23.0618 -23.0228 -23.0184 -23.0131 -23.0131 -22.9878 -22.9841
    13.5950  13.7822  13.9451  13.9451  15.4697  15.6174  15.6432  15.7253
    15.7253  15.7587  16.0215  16.0215  16.1723  16.2026  16.2026  16.2418
    16.2456  16.3015  16.4797  16.6100  16.6100  16.7141  16.7141  16.8255
    16.8999  16.8999  17.0726  17.1654  17.1751  17.1824  17.2371  17.2371
    17.2828  17.3672  17.4374  17.4374  17.5619  17.6341  17.6517  17.7959
    17.8594  17.8594  17.9086  17.9086  18.2363  18.2363  18.4659  18.4848
    19.1679  19.2035  19.2399  19.2974  19.3695  19.5123  19.5718  19.5913
    19.5913  19.9051  19.9380  19.9380  20.2960  20.2960  20.4528  20.4528
    20.4826  20.5156  20.6049  20.6049  20.6236  20.6236  20.6266  20.6292
    20.7211  20.7570

          k = 0.3323-0.4970 0.3323 (  9598 PWs)   bands (ev):

   -68.1707 -68.1630 -68.0448 -52.6600 -52.6556 -52.6466 -52.6455 -52.6445
   -52.6420 -52.6351 -52.6339 -51.7674 -51.7577 -51.7568 -51.7546 -51.7545
   -34.2375 -34.2291 -34.2250 -34.2246 -34.2167 -34.2166 -34.1126 -34.0978
   -34.0978 -24.1441 -24.1369 -24.1140 -24.1122 -24.1057 -24.0995 -24.0901
   -24.0854 -24.0581 -24.0510 -24.0456 -24.0128 -24.0119 -24.0102 -23.9975
   -23.9950 -23.9835 -23.9770 -23.9744 -23.9704 -23.9683 -23.9665 -23.9531
   -23.9473 -23.1046 -23.1045 -23.0933 -23.0860 -23.0785 -23.0766 -23.0647
   -23.0596 -23.0576 -23.0459 -23.0313 -23.0169 -23.0120 -23.0072 -23.0071
    13.5914  13.6753  14.5884  14.7508  14.8747  14.8996  15.6600  15.7336
    15.9617  15.9621  15.9997  16.0191  16.0570  16.1635  16.2387  16.2594
    16.3398  16.3632  16.5179  16.6767  16.7982  16.8747  16.8988  16.9062
    16.9705  16.9921  16.9953  17.0658  17.0796  17.0827  17.0904  17.1593
    17.2675  17.2860  17.3985  17.4475  17.5123  17.5172  17.6207  17.6410
    17.6668  17.6814  17.6997  17.7045  17.7094  17.7482  18.2912  18.3065
    19.2926  19.3003  19.3096  19.3381  19.4109  19.4119  19.6903  19.7529
    19.9669  20.0361  20.0499  20.0959  20.0995  20.4529  20.4868  20.5344
    20.5808  20.6355  20.6878  20.6883  20.7109  20.7328  20.8009  20.8068
    20.8452  20.8805

          k =-0.4984 0.3314-0.4984 (  9632 PWs)   bands (ev):

   -68.1707 -68.1631 -68.0448 -52.6536 -52.6536 -52.6513 -52.6461 -52.6407
   -52.6407 -52.6394 -52.6379 -51.7667 -51.7579 -51.7579 -51.7541 -51.7541
   -34.2395 -34.2288 -34.2252 -34.2252 -34.2165 -34.2165 -34.1105 -34.0978
   -34.0978 -24.1189 -24.1146 -24.1104 -24.1064 -24.0987 -24.0987 -24.0714
   -24.0714 -24.0660 -24.0301 -24.0301 -24.0281 -24.0244 -24.0098 -24.0093
   -24.0035 -24.0035 -23.9895 -23.9895 -23.9877 -23.9729 -23.9697 -23.9587
   -23.9587 -23.1002 -23.0999 -23.0849 -23.0813 -23.0704 -23.0704 -23.0657
   -23.0576 -23.0576 -23.0411 -23.0346 -23.0272 -23.0272 -23.0118 -23.0082
    13.9639  14.1449  14.3225  14.3225  15.0758  15.2967  15.3841  15.3841
    15.8867  16.0094  16.2310  16.2696  16.3518  16.3518  16.4182  16.4270
    16.5149  16.5149  16.5796  16.6527  16.6527  16.7205  16.7205  16.8085
    16.8993  16.9349  16.9349  16.9628  17.1234  17.1234  17.1261  17.1451
    17.1991  17.1991  17.2443  17.2579  17.2691  17.4940  17.4940  17.5116
    17.5184  17.5316  17.5377  17.5377  17.7906  17.7906  17.8838  17.8992
    19.3004  19.3049  19.3489  19.3650  19.4711  19.5413  19.8644  19.8644
    19.8808  20.1246  20.1251  20.1251  20.4538  20.4538  20.5029  20.5614
    20.5614  20.6407  20.6929  20.7148  20.7148  20.7691  20.7858  20.7858
    20.8173  20.8685

 ------ SPIN DOWN ----------


          k = 0.0000 0.0000 0.0000 (  9627 PWs)   bands (ev):

   -67.2237 -66.7996 -66.7866 -52.6385 -52.6180 -52.5871 -52.5834 -52.5401
   -51.7945 -51.7938 -51.7938 -51.7838 -51.7762 -51.7762 -51.7755 -51.7588
   -33.3133 -33.3022 -33.3022 -32.8997 -32.8997 -32.8859 -32.8856 -32.8856
   -32.8736 -24.2182 -24.1795 -24.1795 -24.1322 -24.1322 -24.0285 -23.9990
   -23.9914 -23.9914 -23.9674 -23.9674 -23.8846 -23.8653 -23.8653 -23.8362
   -23.2814 -23.2435 -23.2405 -23.2286 -23.2286 -23.2064 -23.1734 -23.1316
   -23.1316 -23.0852 -23.0702 -23.0687 -23.0687 -23.0513 -23.0513 -23.0513
   -23.0492 -23.0492 -23.0336 -23.0333 -22.9942 -22.9823 -22.9689 -22.9689
    11.4105  14.8681  14.9931  15.0595  15.0595  15.0596  15.1399  15.1553
    15.3158  15.3421  15.4560  15.4673  15.4788  15.4788  15.5389  16.9515
    16.9657  16.9657  16.9879  16.9879  16.9985  17.0722  17.0722  17.0781
    17.3091  17.3128  17.3128  17.4604  17.6261  17.7038  17.9690  17.9923
    17.9923  18.4731  18.4731  18.4912  18.6489  18.6491  18.6491  18.6974
    18.6974  18.7147  19.3750  19.4490  19.4490  19.4930  19.4930  19.5178
    19.6158  19.6364  19.6364  20.2929  20.4073  20.4073  20.4260  20.4373
    20.5255  20.5255  20.5816  20.5992  20.6359  20.6444  20.6483  20.6575
    20.6829  20.6851  20.6985  20.7044  20.7044  20.7248  20.7385  20.7536
    20.7654  21.3839

          k = 0.0000 0.0000 0.1661 (  9595 PWs)   bands (ev):

   -67.2236 -66.7996 -66.7865 -52.6369 -52.6190 -52.5869 -52.5837 -52.5407
   -51.7933 -51.7932 -51.7926 -51.7843 -51.7774 -51.7768 -51.7750 -51.7600
   -33.3133 -33.3021 -33.3020 -32.8996 -32.8995 -32.8858 -32.8856 -32.8855
   -32.8737 -24.2057 -24.1712 -24.1645 -24.1244 -24.1242 -24.0309 -24.0109
   -24.0032 -24.0011 -23.9771 -23.9715 -23.8847 -23.8823 -23.8655 -23.8401
   -23.2699 -23.2272 -23.2231 -23.2220 -23.2165 -23.1962 -23.1704 -23.1391
   -23.1302 -23.0906 -23.0773 -23.0672 -23.0664 -23.0587 -23.0530 -23.0499
   -23.0469 -23.0453 -23.0398 -23.0347 -23.0022 -22.9860 -22.9859 -22.9740
    11.5633  14.5417  14.9603  15.0701  15.1139  15.1144  15.1758  15.2299
    15.3142  15.4205  15.4309  15.5086  15.5194  15.5199  15.9508  16.8273
    16.8974  16.9065  17.0030  17.0036  17.0632  17.0777  17.1142  17.1151
    17.1316  17.1475  17.4994  17.5011  17.5026  17.6201  17.8037  17.8183
    18.4148  18.4645  18.4893  18.5141  18.5343  18.5739  18.5997  18.6202
    18.8756  18.8774  18.9793  18.9819  19.4844  19.5697  19.5760  19.6137
    19.6218  19.6535  19.6751  19.7837  19.8506  20.0046  20.0736  20.2247
    20.2393  20.4006  20.5095  20.5718  20.5956  20.6300  20.6563  20.6650
    20.6946  20.7095  20.7486  20.7591  20.7615  20.8466  20.8839  21.2640
    21.3006  21.3780

          k = 0.0000 0.0000 0.3323 (  9606 PWs)   bands (ev):

   -67.2236 -66.7996 -66.7865 -52.6327 -52.6221 -52.5864 -52.5846 -52.5417
   -51.7921 -51.7899 -51.7893 -51.7853 -51.7807 -51.7801 -51.7718 -51.7632
   -33.3133 -33.3021 -33.3020 -32.8994 -32.8992 -32.8858 -32.8856 -32.8856
   -32.8739 -24.1698 -24.1510 -24.1243 -24.1019 -24.1009 -24.0646 -24.0335
   -24.0274 -24.0161 -23.9994 -23.9940 -23.9211 -23.8756 -23.8659 -23.8510
   -23.2439 -23.2157 -23.1962 -23.1856 -23.1704 -23.1682 -23.1589 -23.1556
   -23.1264 -23.1085 -23.1025 -23.0830 -23.0634 -23.0604 -23.0600 -23.0501
   -23.0467 -23.0379 -23.0347 -23.0326 -23.0294 -23.0219 -22.9964 -22.9882
    12.0094  13.6006  15.1391  15.2375  15.2600  15.2616  15.3780  15.5008
    15.5010  15.5385  15.5446  15.5532  15.6548  15.6913  16.0330  16.4544
    16.5061  16.6424  16.8635  16.8685  16.9540  16.9577  17.2838  17.3430
    17.3631  17.3669  17.5150  17.6648  17.7558  17.7753  17.9198  17.9375
    18.0438  18.1205  18.2397  18.2732  18.4553  18.4671  18.5405  18.5474
    18.6647  18.6898  18.7254  18.9041  18.9388  19.1963  19.2031  19.2286
    19.2594  19.4901  19.4930  19.8470  19.9270  20.0557  20.1011  20.2574
    20.3509  20.3801  20.3895  20.4393  20.5550  20.6401  20.7128  20.7439
    20.8259  20.8407  20.8764  20.8884  21.0414  21.1704  21.2072  21.2294
    21.2499  21.2715

          k = 0.0000 0.0000-0.4984 (  9626 PWs)   bands (ev):

   -67.2237 -66.7996 -66.7866 -52.6283 -52.6258 -52.5855 -52.5855 -52.5423
   -51.7913 -51.7860 -51.7855 -51.7851 -51.7849 -51.7845 -51.7677 -51.7673
   -33.3133 -33.3021 -33.3019 -32.8993 -32.8991 -32.8859 -32.8857 -32.8855
   -32.8740 -24.1384 -24.1188 -24.1185 -24.0872 -24.0794 -24.0752 -24.0534
   -24.0523 -24.0357 -24.0149 -24.0130 -23.9343 -23.8668 -23.8660 -23.8619
   -23.2245 -23.2138 -23.1872 -23.1565 -23.1508 -23.1448 -23.1444 -23.1416
   -23.1314 -23.1239 -23.1049 -23.0989 -23.0966 -23.0639 -23.0580 -23.0575
   -23.0460 -23.0449 -23.0425 -23.0421 -23.0236 -23.0084 -23.0081 -23.0060
    12.6780  12.7472  15.2761  15.3618  15.3854  15.4144  15.4152  15.4708
    15.4794  15.5002  15.7872  15.8841  15.9483  15.9821  15.9829  16.0719
    16.0828  16.0979  16.8905  16.8936  16.8946  16.8996  17.5922  17.6616
    17.7003  17.7082  17.7154  17.7375  17.7449  17.7549  17.8621  17.9474
    18.0207  18.0264  18.1317  18.1576  18.1737  18.1921  18.4226  18.4267
    18.4971  18.5132  18.5224  18.5246  18.5576  18.5608  18.8703  18.9547
    19.7647  19.8341  19.9271  19.9294  20.0340  20.0487  20.0925  20.1735
    20.2204  20.2215  20.5711  20.5742  20.6321  20.6528  20.6821  20.6892
    20.7111  20.7418  20.9697  20.9710  21.0122  21.0370  21.2743  21.3695
    21.4180  21.4193

          k = 0.0000 0.1657 0.1661 (  9557 PWs)   bands (ev):

   -67.2235 -66.7995 -66.7865 -52.6352 -52.6184 -52.5886 -52.5844 -52.5407
   -51.7928 -51.7922 -51.7914 -51.7846 -51.7784 -51.7762 -51.7757 -51.7611
   -33.3126 -33.3021 -33.3020 -32.8995 -32.8994 -32.8867 -32.8856 -32.8853
   -32.8736 -24.1886 -24.1639 -24.1558 -24.1168 -24.1159 -24.0343 -24.0140
   -24.0078 -24.0041 -23.9861 -23.9751 -23.8943 -23.8823 -23.8667 -23.8659
   -23.2661 -23.2255 -23.2122 -23.2053 -23.2024 -23.1831 -23.1724 -23.1410
   -23.1323 -23.0900 -23.0803 -23.0686 -23.0679 -23.0567 -23.0558 -23.0513
   -23.0456 -23.0448 -23.0387 -23.0344 -23.0132 -23.0091 -22.9805 -22.9799
    11.7127  14.5878  14.6427  14.9751  15.1555  15.1985  15.2248  15.2345
    15.3104  15.4676  15.4958  15.5351  15.5715  15.9764  16.0001  16.7021
    16.8062  16.9480  17.0221  17.0439  17.0493  17.0724  17.0998  17.1221
    17.1485  17.2632  17.2707  17.3986  17.5255  17.5620  17.6533  18.1471
    18.1945  18.3566  18.3763  18.4240  18.4620  18.4717  18.6522  18.7050
    18.9949  19.0399  19.0545  19.0778  19.1316  19.1692  19.3767  19.4281
    19.5440  19.6137  19.6337  19.6554  19.7142  19.7381  20.0683  20.0936
    20.3762  20.4620  20.5013  20.5237  20.5791  20.6329  20.6477  20.6688
    20.6766  20.7256  20.7565  20.9127  20.9558  20.9905  21.0286  21.0288
    21.0901  21.3421

          k = 0.0000 0.1657 0.3323 (  9577 PWs)   bands (ev):

   -67.2236 -66.7996 -66.7865 -52.6312 -52.6212 -52.5878 -52.5854 -52.5418
   -51.7914 -51.7898 -51.7881 -51.7854 -51.7813 -51.7790 -51.7730 -51.7643
   -33.3126 -33.3021 -33.3019 -32.8993 -32.8992 -32.8870 -32.8858 -32.8849
   -32.8738 -24.1603 -24.1472 -24.1193 -24.0971 -24.0903 -24.0697 -24.0341
   -24.0301 -24.0159 -24.0032 -23.9867 -23.9257 -23.8822 -23.8682 -23.8666
   -23.2414 -23.2177 -23.1891 -23.1869 -23.1671 -23.1600 -23.1571 -23.1523
   -23.1267 -23.1135 -23.1013 -23.0918 -23.0713 -23.0567 -23.0561 -23.0538
   -23.0495 -23.0489 -23.0391 -23.0306 -23.0228 -23.0201 -22.9920 -22.9907
    12.1509  13.7039  14.7864  14.9902  15.3248  15.3746  15.4255  15.5530
    15.5650  15.5773  15.6379  15.7279  15.7377  15.9731  16.0976  16.4462
    16.5362  16.6023  16.9069  16.9919  17.0070  17.0232  17.2001  17.2404
    17.2954  17.3063  17.4953  17.5266  17.5600  17.7489  17.8481  17.9809
    18.0168  18.1936  18.2062  18.2853  18.3213  18.3455  18.3840  18.4505
    18.5061  18.5863  18.7929  18.8051  18.8933  18.9701  18.9841  19.2178
    19.4263  19.5307  19.5822  19.8741  19.9347  20.0123  20.0138  20.1564
    20.3238  20.4038  20.4124  20.4941  20.5345  20.6259  20.6857  20.7054
    20.7591  20.7977  20.8238  20.8869  20.9302  21.0436  21.1201  21.1567
    21.1766  21.2054

          k = 0.0000 0.1657-0.4984 (  9608 PWs)   bands (ev):

   -67.2236 -66.7996 -66.7865 -52.6272 -52.6247 -52.5867 -52.5867 -52.5423
   -51.7909 -51.7870 -51.7855 -51.7845 -51.7838 -51.7833 -51.7689 -51.7684
   -33.3126 -33.3021 -33.3019 -32.8993 -32.8991 -32.8872 -32.8859 -32.8847
   -32.8739 -24.1372 -24.1195 -24.1169 -24.0843 -24.0778 -24.0778 -24.0510
   -24.0377 -24.0228 -24.0143 -24.0133 -23.9406 -23.8761 -23.8728 -23.8669
   -23.2227 -23.2157 -23.1828 -23.1625 -23.1542 -23.1527 -23.1472 -23.1303
   -23.1235 -23.1210 -23.1169 -23.1083 -23.1055 -23.0739 -23.0578 -23.0526
   -23.0497 -23.0411 -23.0385 -23.0363 -23.0171 -23.0065 -23.0060 -23.0044
    12.8037  12.8754  14.9078  14.9643  15.4891  15.5043  15.5235  15.5841
    15.7358  15.7413  15.8655  15.9524  15.9916  16.0223  16.0567  16.1284
    16.1326  16.1442  16.9285  16.9334  16.9502  16.9639  17.4654  17.4993
    17.5142  17.5768  17.5884  17.5943  17.6897  17.6985  17.9603  17.9770
    17.9787  18.0168  18.1766  18.1883  18.2075  18.2110  18.2513  18.2863
    18.3277  18.3326  18.3482  18.3880  18.4027  18.4348  19.0931  19.1290
    19.8415  19.8420  19.9340  19.9581  19.9795  20.0745  20.1480  20.2068
    20.2310  20.2399  20.3933  20.3973  20.4570  20.5410  20.5589  20.6804
    20.6855  20.7879  20.9108  20.9275  20.9521  20.9945  21.1217  21.1622
    21.1825  21.1828

          k = 0.0000 0.3314 0.3323 (  9582 PWs)   bands (ev):

   -67.2236 -66.7996 -66.7865 -52.6279 -52.6195 -52.5912 -52.5872 -52.5419
   -51.7898 -51.7897 -51.7856 -51.7849 -51.7828 -51.7762 -51.7759 -51.7674
   -33.3112 -33.3021 -33.3019 -32.8993 -32.8992 -32.8887 -32.8859 -32.8846
   -32.8737 -24.1391 -24.1358 -24.1086 -24.0845 -24.0841 -24.0711 -24.0393
   -24.0268 -24.0155 -24.0104 -23.9665 -23.9383 -23.9120 -23.8970 -23.8680
   -23.2359 -23.2166 -23.1818 -23.1715 -23.1649 -23.1538 -23.1482 -23.1478
   -23.1224 -23.1170 -23.1088 -23.1068 -23.0947 -23.0810 -23.0766 -23.0499
   -23.0414 -23.0335 -23.0302 -23.0251 -23.0175 -23.0171 -23.0015 -22.9947
    12.5613  13.9638  14.0015  14.7156  15.5964  15.6519  15.6648  15.7063
    15.7444  15.7550  15.8065  15.9245  15.9623  16.0919  16.1904  16.3763
    16.5192  16.7148  16.7519  16.9456  17.1155  17.1396  17.1415  17.1697
    17.2148  17.2673  17.3652  17.3839  17.4959  17.8178  17.8321  17.8848
    17.9156  17.9541  18.0058  18.1115  18.1468  18.1492  18.2025  18.2405
    18.2712  18.3632  18.4453  18.4816  18.5271  18.8669  18.9043  19.1478
    19.7176  19.7283  19.8217  19.9497  19.9820  20.0309  20.0657  20.2723
    20.2957  20.3276  20.3900  20.4068  20.4695  20.5097  20.5346  20.5936
    20.6405  20.6522  20.7337  20.7568  20.8951  20.8965  20.9461  20.9685
    21.0077  21.0874

          k = 0.0000 0.3314-0.4984 (  9578 PWs)   bands (ev):

   -67.2236 -66.7996 -66.7865 -52.6246 -52.6222 -52.5892 -52.5892 -52.5424
   -51.7898 -51.7879 -51.7866 -51.7836 -51.7806 -51.7802 -51.7720 -51.7716
   -33.3112 -33.3020 -33.3019 -32.8992 -32.8992 -32.8889 -32.8859 -32.8843
   -32.8737 -24.1348 -24.1159 -24.1104 -24.0851 -24.0833 -24.0742 -24.0482
   -24.0138 -24.0133 -23.9987 -23.9902 -23.9533 -23.9032 -23.9022 -23.8684
   -23.2199 -23.2177 -23.1742 -23.1633 -23.1552 -23.1550 -23.1468 -23.1377
   -23.1312 -23.1289 -23.1262 -23.1195 -23.1103 -23.0863 -23.0789 -23.0418
   -23.0381 -23.0357 -23.0249 -23.0209 -23.0088 -23.0085 -23.0083 -23.0040
    13.1627  13.2400  14.3180  14.4023  15.7683  15.7855  15.7990  15.8442
    15.8583  15.9367  16.0589  16.0851  16.0929  16.1079  16.2404  16.2488
    16.2768  16.3511  16.9940  16.9981  17.0633  17.0926  17.1586  17.2041
    17.2154  17.2639  17.3540  17.3641  17.5977  17.5993  17.7972  17.8125
    17.8527  17.8880  17.9659  17.9795  18.0332  18.0760  18.0894  18.1425
    18.1840  18.2312  18.2688  18.2934  18.3761  18.3845  19.1938  19.2047
    19.7802  19.8208  20.0537  20.1148  20.1182  20.1202  20.1877  20.1933
    20.2425  20.2470  20.2774  20.2926  20.3200  20.3230  20.5126  20.6044
    20.6853  20.6874  20.7414  20.8090  20.8230  20.8256  20.8541  20.8882
    20.9284  20.9554

          k = 0.0000-0.4970-0.4984 (  9580 PWs)   bands (ev):

   -67.2236 -66.7996 -66.7865 -52.6232 -52.6208 -52.5906 -52.5906 -52.5425
   -51.7885 -51.7882 -51.7878 -51.7833 -51.7768 -51.7764 -51.7759 -51.7754
   -33.3105 -33.3021 -33.3019 -32.8992 -32.8992 -32.8897 -32.8859 -32.8842
   -32.8735 -24.1337 -24.1119 -24.1041 -24.0915 -24.0841 -24.0725 -24.0470
   -24.0143 -24.0128 -23.9714 -23.9582 -23.9445 -23.9404 -23.9328 -23.8692
   -23.2190 -23.2182 -23.1680 -23.1548 -23.1500 -23.1498 -23.1496 -23.1496
   -23.1442 -23.1368 -23.1359 -23.1256 -23.1026 -23.0929 -23.0896 -23.0392
   -23.0240 -23.0236 -23.0187 -23.0161 -23.0157 -23.0140 -23.0067 -23.0053
    13.6801  13.7179  13.7321  13.8368  15.8963  15.9649  15.9652  15.9719
    16.0180  16.0295  16.1274  16.1465  16.1838  16.1958  16.2726  16.3066
    16.6063  16.7206  16.7536  16.7569  16.9924  16.9950  17.0361  17.0723
    17.0765  17.1861  17.2864  17.3359  17.5748  17.6343  17.6893  17.7032
    17.7113  17.7170  17.7529  17.7715  17.9486  17.9566  17.9690  18.0282
    18.1231  18.2002  18.2197  18.2219  18.8164  18.8236  18.8508  18.8638
    19.8504  19.8728  19.8875  19.9782  20.2568  20.2959  20.3123  20.3200
    20.3417  20.3478  20.3525  20.3729  20.3739  20.4540  20.4587  20.4725
    20.4811  20.4998  20.5171  20.5171  20.7564  20.7724  20.8188  20.8340
    20.8350  20.8604

          k = 0.1661 0.1657 0.1661 (  9591 PWs)   bands (ev):

   -67.2236 -66.7996 -66.7865 -52.6338 -52.6192 -52.5884 -52.5847 -52.5413
   -51.7923 -51.7916 -51.7901 -51.7849 -51.7773 -51.7772 -51.7767 -51.7623
   -33.3126 -33.3021 -33.3020 -32.8995 -32.8993 -32.8868 -32.8855 -32.8853
   -32.8737 -24.1792 -24.1564 -24.1458 -24.1105 -24.1067 -24.0451 -24.0287
   -24.0164 -24.0018 -23.9839 -23.9798 -23.8952 -23.8843 -23.8794 -23.8676
   -23.2564 -23.2164 -23.2100 -23.2036 -23.1920 -23.1753 -23.1609 -23.1397
   -23.1394 -23.0930 -23.0846 -23.0837 -23.0680 -23.0602 -23.0545 -23.0509
   -23.0480 -23.0428 -23.0410 -23.0277 -23.0253 -23.0116 -22.9873 -22.9793
    11.8608  14.6032  14.7112  14.8049  15.0556  15.1715  15.2187  15.3094
    15.3424  15.4207  15.5796  15.6121  15.9523  16.0443  16.1032  16.6069
    16.9051  16.9094  16.9513  17.0554  17.0713  17.1009  17.1075  17.1291
    17.1948  17.2140  17.2457  17.3198  17.4199  17.4319  17.9379  17.9732
    17.9838  18.2722  18.3458  18.3507  18.3748  18.3845  18.7891  18.7931
    18.8240  18.8372  18.9844  19.0125  19.0349  19.2146  19.2246  19.2316
    19.2700  19.3531  19.4179  19.7635  19.8071  19.8385  20.3010  20.3038
    20.3382  20.3988  20.4306  20.4861  20.5746  20.5858  20.6305  20.6508
    20.6649  20.7246  20.7332  20.9177  20.9258  20.9679  20.9958  21.0591
    21.1704  21.2301

          k = 0.1661 0.1657 0.3323 (  9577 PWs)   bands (ev):

   -67.2236 -66.7996 -66.7865 -52.6302 -52.6216 -52.5877 -52.5856 -52.5424
   -51.7916 -51.7888 -51.7872 -51.7855 -51.7802 -51.7795 -51.7741 -51.7655
   -33.3126 -33.3020 -33.3019 -32.8994 -32.8991 -32.8869 -32.8856 -32.8849
   -32.8738 -24.1520 -24.1430 -24.1178 -24.0926 -24.0868 -24.0740 -24.0472
   -24.0247 -24.0143 -23.9972 -23.9824 -23.9271 -23.8867 -23.8790 -23.8716
   -23.2330 -23.2100 -23.1942 -23.1860 -23.1645 -23.1600 -23.1531 -23.1417
   -23.1349 -23.1106 -23.1019 -23.0947 -23.0759 -23.0708 -23.0665 -23.0581
   -23.0506 -23.0416 -23.0394 -23.0349 -23.0176 -23.0128 -22.9995 -22.9858
    12.2923  13.8108  14.8715  14.9192  15.0962  15.1743  15.5045  15.5550
    15.5808  15.6812  15.8141  15.8202  16.0235  16.0880  16.1664  16.4487
    16.5690  16.6541  16.9041  17.0296  17.0468  17.0899  17.1138  17.2128
    17.2209  17.2659  17.4382  17.4797  17.5674  17.7127  17.7633  17.7771
    18.0397  18.0951  18.1554  18.2067  18.2466  18.3010  18.3259  18.3510
    18.3818  18.3963  18.5831  18.6646  18.6879  18.7732  19.0395  19.0461
    19.5731  19.6259  19.6558  19.9476  19.9926  20.0668  20.1695  20.2133
    20.2662  20.3765  20.4434  20.4761  20.5114  20.5632  20.6692  20.6951
    20.7329  20.7544  20.7841  20.7895  20.8614  21.0141  21.0389  21.1372
    21.1554  21.2601

          k = 0.1661 0.1657-0.4984 (  9588 PWs)   bands (ev):

   -67.2236 -66.7996 -66.7865 -52.6266 -52.6247 -52.5867 -52.5867 -52.5430
   -51.7911 -51.7869 -51.7844 -51.7839 -51.7834 -51.7832 -51.7700 -51.7696
   -33.3126 -33.3020 -33.3019 -32.8992 -32.8991 -32.8869 -32.8857 -32.8848
   -32.8739 -24.1321 -24.1165 -24.1130 -24.1039 -24.0842 -24.0720 -24.0434
   -24.0267 -24.0153 -24.0118 -24.0040 -23.9442 -23.8848 -23.8780 -23.8742
   -23.2142 -23.2086 -23.1884 -23.1755 -23.1569 -23.1469 -23.1392 -23.1316
   -23.1283 -23.1170 -23.1168 -23.1114 -23.0981 -23.0766 -23.0725 -23.0693
   -23.0525 -23.0422 -23.0273 -23.0266 -23.0252 -23.0120 -22.9978 -22.9975
    12.9311  13.0051  15.0285  15.0393  15.0489  15.1591  15.8115  15.8197
    15.8540  15.8690  15.9417  16.0255  16.0374  16.0487  16.1340  16.1894
    16.1933  16.1993  16.9508  16.9581  17.0104  17.0268  17.4268  17.4282
    17.4821  17.5013  17.5100  17.5228  17.5723  17.5844  17.9119  17.9597
    17.9651  17.9951  18.0191  18.0640  18.1524  18.1613  18.1699  18.1766
    18.1953  18.2017  18.2088  18.2125  18.2783  18.2898  19.1780  19.1850
    19.9301  19.9406  19.9539  20.0166  20.0413  20.0460  20.0749  20.0782
    20.2092  20.2304  20.2341  20.2651  20.5491  20.6533  20.6711  20.6767
    20.7570  20.8145  20.8828  20.9005  20.9286  20.9567  21.0477  21.0589
    21.0748  21.0943

          k = 0.1661 0.3314 0.3323 (  9595 PWs)   bands (ev):

   -67.2236 -66.7996 -66.7865 -52.6270 -52.6197 -52.5909 -52.5875 -52.5425
   -51.7894 -51.7891 -51.7852 -51.7846 -51.7819 -51.7770 -51.7766 -51.7685
   -33.3112 -33.3020 -33.3019 -32.8992 -32.8992 -32.8886 -32.8858 -32.8848
   -32.8737 -24.1310 -24.1245 -24.1048 -24.0845 -24.0843 -24.0749 -24.0373
   -24.0196 -24.0133 -24.0072 -23.9773 -23.9386 -23.9176 -23.9025 -23.8831
   -23.2274 -23.2093 -23.1813 -23.1718 -23.1647 -23.1536 -23.1475 -23.1424
   -23.1229 -23.1139 -23.1063 -23.1054 -23.0967 -23.0759 -23.0729 -23.0570
   -23.0525 -23.0391 -23.0360 -23.0248 -23.0228 -23.0098 -23.0044 -22.9993
    12.6991  14.0792  14.1202  14.8480  15.1588  15.4771  15.5386  15.7891
    15.8243  15.8938  16.0322  16.0497  16.1442  16.2155  16.3611  16.4253
    16.5758  16.7090  16.7155  16.9496  17.0422  17.1269  17.1596  17.2363
    17.2537  17.2754  17.2893  17.3478  17.5139  17.6933  17.7529  17.8011
    17.8345  17.8801  17.8925  18.0111  18.0540  18.0724  18.0840  18.1169
    18.1612  18.2046  18.2301  18.2553  18.3410  18.5991  18.6384  19.1816
    19.8521  19.8623  19.9242  20.0734  20.0922  20.1120  20.1739  20.1947
    20.3712  20.4012  20.4398  20.4651  20.4822  20.5065  20.5522  20.6016
    20.6589  20.7218  20.7456  20.8930  20.9015  20.9221  20.9508  21.0194
    21.0566  21.0752

          k = 0.1661 0.3314-0.4984 (  9574 PWs)   bands (ev):

   -67.2236 -66.7996 -66.7865 -52.6240 -52.6222 -52.5892 -52.5892 -52.5431
   -51.7895 -51.7874 -51.7856 -51.7831 -51.7808 -51.7805 -51.7729 -51.7726
   -33.3112 -33.3020 -33.3019 -32.8992 -32.8992 -32.8886 -32.8858 -32.8845
   -32.8737 -24.1247 -24.1101 -24.1025 -24.0903 -24.0818 -24.0645 -24.0444
   -24.0125 -24.0110 -23.9981 -23.9971 -23.9585 -23.9099 -23.9089 -23.8852
   -23.2113 -23.2102 -23.1787 -23.1709 -23.1527 -23.1448 -23.1418 -23.1364
   -23.1360 -23.1242 -23.1181 -23.1160 -23.1003 -23.0848 -23.0764 -23.0542
   -23.0483 -23.0427 -23.0242 -23.0234 -23.0216 -23.0150 -23.0040 -23.0027
    13.2920  13.3713  14.4472  14.5329  15.3779  15.4312  15.9746  16.0007
    16.0227  16.0606  16.0773  16.0958  16.2113  16.2262  16.3408  16.3463
    16.3478  16.4065  17.0256  17.0320  17.0822  17.1080  17.1187  17.1816
    17.2466  17.2616  17.3581  17.3657  17.5500  17.5533  17.6377  17.6659
    17.7453  17.7998  17.8960  17.9107  17.9366  17.9454  17.9719  17.9896
    18.0269  18.0624  18.0994  18.1308  18.1796  18.1917  18.9525  18.9546
    19.9821  20.0155  20.0891  20.1009  20.1917  20.2146  20.2464  20.2689
    20.2787  20.3131  20.3293  20.3686  20.5318  20.5479  20.5857  20.6177
    20.7477  20.7681  20.7692  20.8106  20.8561  20.8638  20.9156  20.9238
    20.9418  21.0091

          k = 0.1661-0.4970-0.4984 (  9588 PWs)   bands (ev):

   -67.2236 -66.7996 -66.7865 -52.6226 -52.6208 -52.5906 -52.5906 -52.5431
   -51.7879 -51.7876 -51.7871 -51.7828 -51.7772 -51.7770 -51.7765 -51.7762
   -33.3106 -33.3020 -33.3019 -32.8992 -32.8992 -32.8895 -32.8858 -32.8844
   -32.8736 -24.1201 -24.1053 -24.0959 -24.0828 -24.0755 -24.0726 -24.0484
   -24.0149 -24.0105 -23.9707 -23.9681 -23.9544 -23.9487 -23.9425 -23.8873
   -23.2105 -23.2102 -23.1713 -23.1623 -23.1476 -23.1470 -23.1447 -23.1420
   -23.1354 -23.1293 -23.1280 -23.1165 -23.0994 -23.0917 -23.0885 -23.0454
   -23.0309 -23.0298 -23.0257 -23.0234 -23.0209 -23.0196 -23.0119 -23.0111
    13.8120  13.8479  13.8627  13.9723  15.7656  15.7666  15.7976  15.8853
    16.0163  16.1409  16.1579  16.1741  16.4540  16.4555  16.4567  16.4761
    16.6307  16.7395  16.7660  16.7679  16.9674  17.0083  17.0135  17.0494
    17.1607  17.2300  17.2945  17.3436  17.4564  17.4931  17.5344  17.5517
    17.6657  17.6795  17.7108  17.7304  17.8352  17.8437  17.8581  17.8682
    17.9693  18.0401  18.0655  18.0681  18.4898  18.4990  18.5340  18.5362
    20.1197  20.1494  20.1631  20.2281  20.2865  20.3521  20.4023  20.4265
    20.4283  20.4716  20.4756  20.4777  20.5115  20.5233  20.5332  20.5380
    20.5639  20.5881  20.6032  20.6126  20.7529  20.7961  20.8100  20.8225
    20.8249  20.8888

          k = 0.3323 0.3314 0.3323 (  9594 PWs)   bands (ev):

   -67.2236 -66.7996 -66.7865 -52.6249 -52.6207 -52.5902 -52.5882 -52.5437
   -51.7891 -51.7873 -51.7843 -51.7834 -51.7797 -51.7787 -51.7786 -51.7713
   -33.3112 -33.3019 -33.3019 -32.8992 -32.8991 -32.8882 -32.8856 -32.8850
   -32.8738 -24.1120 -24.1066 -24.0907 -24.0905 -24.0846 -24.0623 -24.0303
   -24.0183 -24.0090 -24.0013 -23.9975 -23.9417 -23.9311 -23.9249 -23.9057
   -23.2066 -23.1941 -23.1781 -23.1739 -23.1616 -23.1555 -23.1406 -23.1386
   -23.1149 -23.1104 -23.1053 -23.1041 -23.1021 -23.0734 -23.0719 -23.0611
   -23.0597 -23.0523 -23.0456 -23.0327 -23.0232 -23.0136 -23.0100 -23.0049
    13.0956  14.3403  14.4332  14.5130  15.1529  15.2766  15.3350  16.0583
    16.0711  16.0987  16.2756  16.2834  16.3849  16.4346  16.5021  16.5123
    16.6216  16.6362  16.7562  16.7939  17.0288  17.0310  17.2100  17.2545
    17.2548  17.3864  17.3883  17.4121  17.4332  17.4520  17.6416  17.6625
    17.6894  17.7129  17.7148  17.7296  17.7657  17.7896  17.7913  17.8110
    17.8801  17.9204  17.9838  17.9868  18.1192  18.1909  18.1916  18.8883
    20.0909  20.0972  20.1229  20.1538  20.3054  20.3401  20.3805  20.4086
    20.4202  20.4383  20.5431  20.5531  20.5869  20.5993  20.6188  20.7148
    20.7290  20.8077  20.8518  20.8681  20.8876  20.9031  20.9111  21.0412
    21.0571  21.1007

          k = 0.3323 0.3314-0.4984 (  9598 PWs)   bands (ev):

   -67.2236 -66.7996 -66.7865 -52.6228 -52.6222 -52.5892 -52.5892 -52.5444
   -51.7889 -51.7863 -51.7830 -51.7816 -51.7811 -51.7810 -51.7753 -51.7752
   -33.3112 -33.3019 -33.3019 -32.8991 -32.8991 -32.8880 -32.8856 -32.8851
   -32.8738 -24.1058 -24.1037 -24.0872 -24.0851 -24.0662 -24.0574 -24.0334
   -24.0128 -24.0060 -24.0057 -23.9994 -23.9682 -23.9368 -23.9226 -23.9187
   -23.1903 -23.1898 -23.1780 -23.1706 -23.1581 -23.1546 -23.1457 -23.1316
   -23.1239 -23.1087 -23.1047 -23.1038 -23.0879 -23.0807 -23.0768 -23.0695
   -23.0653 -23.0499 -23.0392 -23.0347 -23.0284 -23.0242 -23.0102 -23.0071
    13.6582  13.7444  14.8067  14.8420  14.8534  14.9533  15.8229  15.8560
    16.2837  16.2927  16.3203  16.3690  16.3815  16.4291  16.5390  16.5758
    16.5835  16.5919  17.0277  17.0693  17.1026  17.1210  17.1307  17.1384
    17.1839  17.1897  17.3723  17.3889  17.4239  17.4333  17.4833  17.4900
    17.5611  17.5635  17.6191  17.6863  17.7007  17.7045  17.7271  17.7692
    17.7933  17.7954  17.8135  17.8168  17.8845  17.8926  18.4232  18.4233
    20.2925  20.2996  20.3328  20.3394  20.3672  20.3964  20.4069  20.4500
    20.4653  20.4855  20.5362  20.5454  20.5861  20.6752  20.7405  20.7500
    20.7778  20.7888  20.7904  20.8095  20.8566  20.8711  20.8865  20.9218
    20.9263  20.9368

          k = 0.3323-0.4970-0.4984 (  9632 PWs)   bands (ev):

   -67.2237 -66.7997 -66.7866 -52.6214 -52.6208 -52.5906 -52.5906 -52.5444
   -51.7861 -51.7859 -51.7853 -51.7816 -51.7788 -51.7784 -51.7782 -51.7780
   -33.3106 -33.3020 -33.3019 -32.8991 -32.8991 -32.8888 -32.8858 -32.8852
   -32.8737 -24.0908 -24.0855 -24.0741 -24.0706 -24.0600 -24.0518 -24.0505
   -24.0161 -24.0064 -23.9939 -23.9806 -23.9760 -23.9670 -23.9617 -23.9311
   -23.1909 -23.1875 -23.1719 -23.1673 -23.1479 -23.1431 -23.1396 -23.1354
   -23.1353 -23.1079 -23.1067 -23.0930 -23.0849 -23.0846 -23.0790 -23.0573
   -23.0453 -23.0442 -23.0418 -23.0415 -23.0348 -23.0344 -23.0280 -23.0276
    14.1850  14.2138  14.2319  14.3554  15.3549  15.3550  15.3568  15.4756
    16.3491  16.4422  16.4645  16.4813  16.6948  16.7766  16.7916  16.7924
    16.8098  16.8114  16.8268  16.8352  16.8805  17.0071  17.0389  17.0518
    17.2857  17.2999  17.3246  17.3257  17.3359  17.3613  17.3797  17.3879
    17.4899  17.5046  17.5076  17.5284  17.5778  17.5859  17.5999  17.6218
    17.6591  17.7209  17.7397  17.7472  17.9281  17.9386  17.9656  17.9701
    20.3902  20.4386  20.4444  20.4778  20.4915  20.5784  20.5886  20.6039
    20.6142  20.6184  20.6377  20.6409  20.7159  20.7164  20.7235  20.7390
    20.7664  20.7802  20.7821  20.7982  20.8179  20.8538  20.8794  20.8993
    20.9830  20.9915

          k =-0.4984-0.4970-0.4984 (  9568 PWs)   bands (ev):

   -67.2236 -66.7996 -66.7865 -52.6208 -52.6208 -52.5906 -52.5906 -52.5450
   -51.7848 -51.7848 -51.7839 -51.7801 -51.7801 -51.7798 -51.7794 -51.7794
   -33.3105 -33.3018 -33.3018 -32.8990 -32.8990 -32.8882 -32.8856 -32.8856
   -32.8737 -24.0846 -24.0654 -24.0595 -24.0588 -24.0459 -24.0393 -24.0258
   -24.0161 -24.0161 -24.0079 -24.0045 -23.9870 -23.9870 -23.9625 -23.9625
   -23.1703 -23.1683 -23.1683 -23.1682 -23.1648 -23.1446 -23.1446 -23.1308
   -23.1308 -23.1029 -23.0783 -23.0783 -23.0737 -23.0726 -23.0681 -23.0537
   -23.0537 -23.0533 -23.0530 -23.0489 -23.0489 -23.0486 -23.0484 -23.0476
    14.6315  14.6359  14.6899  14.8718  14.8718  14.9068  14.9092  14.9092
    16.7651  16.7651  16.7672  16.7672  16.7770  16.8081  16.8081  16.8200
    16.8200  16.8226  16.9739  16.9816  17.0469  17.0673  17.0708  17.0710
    17.3106  17.3407  17.3487  17.3487  17.3667  17.3894  17.3894  17.4034
    17.4034  17.4059  17.4256  17.4498  17.4498  17.4657  17.4861  17.4890
    17.4948  17.4949  17.4949  17.5040  17.5040  17.5114  17.5147  17.5153
    20.4720  20.5044  20.6466  20.6466  20.6867  20.6867  20.7024  20.7024
    20.7027  20.7099  20.7113  20.7140  20.7336  20.7355  20.7418  20.7418
    20.8342  20.8342  20.8622  20.8872  20.9038  20.9120  20.9120  20.9809
    20.9809  21.0859

          k = 0.0000 0.1657 0.0000 (  9595 PWs)   bands (ev):

   -67.2236 -66.7996 -66.7865 -52.6367 -52.6175 -52.5889 -52.5839 -52.5402
   -51.7939 -51.7927 -51.7927 -51.7843 -51.7773 -51.7773 -51.7744 -51.7600
   -33.3126 -33.3021 -33.3021 -32.8996 -32.8996 -32.8865 -32.8856 -32.8856
   -32.8736 -24.1981 -24.1713 -24.1713 -24.1242 -24.1242 -24.0292 -23.9995
   -23.9995 -23.9917 -23.9786 -23.9786 -23.8923 -23.8703 -23.8656 -23.8656
   -23.2768 -23.2242 -23.2194 -23.2194 -23.2176 -23.1946 -23.1762 -23.1347
   -23.1347 -23.0839 -23.0722 -23.0667 -23.0667 -23.0540 -23.0540 -23.0499
   -23.0442 -23.0439 -23.0439 -23.0350 -23.0065 -22.9991 -22.9760 -22.9760
    11.5624  14.5427  14.9232  15.1036  15.1141  15.1141  15.1747  15.2015
    15.2445  15.4139  15.4642  15.5184  15.5184  15.6029  15.9362  16.8129
    16.9042  16.9042  16.9831  16.9831  17.0589  17.0765  17.1199  17.1350
    17.1350  17.1509  17.4651  17.5087  17.5087  17.6646  17.8194  17.8194
    18.4317  18.4748  18.4748  18.5046  18.5151  18.5871  18.6202  18.6202
    18.8456  18.8456  18.9968  18.9968  19.4646  19.4747  19.5950  19.6444
    19.6606  19.6606  19.7087  19.8397  19.8397  20.0215  20.0215  20.2332
    20.2332  20.4084  20.4746  20.5873  20.5879  20.6237  20.6237  20.6552
    20.6938  20.7349  20.7352  20.7666  20.7846  20.8363  20.8874  21.1730
    21.3876  21.3932

          k = 0.0000 0.3314 0.0000 (  9606 PWs)   bands (ev):

   -67.2236 -66.7996 -66.7865 -52.6327 -52.6164 -52.5931 -52.5851 -52.5403
   -51.7924 -51.7894 -51.7894 -51.7856 -51.7806 -51.7806 -51.7714 -51.7630
   -33.3113 -33.3021 -33.3021 -32.8994 -32.8994 -32.8877 -32.8858 -32.8858
   -32.8737 -24.1512 -24.1512 -24.1406 -24.1020 -24.1020 -24.0314 -24.0258
   -24.0258 -24.0009 -24.0009 -23.9730 -23.9529 -23.9133 -23.8662 -23.8662
   -23.2678 -23.1993 -23.1993 -23.1935 -23.1679 -23.1642 -23.1584 -23.1424
   -23.1424 -23.0835 -23.0806 -23.0673 -23.0668 -23.0668 -23.0481 -23.0481
   -23.0468 -23.0443 -23.0408 -23.0381 -23.0366 -23.0366 -22.9949 -22.9949
    12.0060  13.5911  15.0523  15.2607  15.2607  15.2625  15.3626  15.4510
    15.4963  15.5508  15.5508  15.6239  15.6937  15.6968  16.0421  16.4427
    16.4779  16.6528  16.8609  16.8609  16.9366  16.9366  17.3034  17.3625
    17.3661  17.3661  17.4931  17.6960  17.7778  17.7778  17.9367  17.9367
    18.0820  18.0947  18.2629  18.2629  18.4627  18.4627  18.5410  18.5410
    18.6901  18.7048  18.7241  18.9333  18.9333  19.1704  19.1977  19.2456
    19.2456  19.4789  19.4789  19.8176  19.9144  20.0998  20.0998  20.2290
    20.3470  20.3703  20.3703  20.3930  20.6107  20.6361  20.7183  20.7237
    20.8509  20.8723  20.8808  20.8808  21.0622  21.1280  21.2181  21.2669
    21.2729  21.2729

          k = 0.0000-0.4970 0.0000 (  9626 PWs)   bands (ev):

   -67.2236 -66.7997 -66.7866 -52.6303 -52.6158 -52.5955 -52.5857 -52.5403
   -51.7914 -51.7865 -51.7855 -51.7855 -51.7845 -51.7845 -51.7677 -51.7668
   -33.3106 -33.3021 -33.3021 -32.8993 -32.8993 -32.8883 -32.8859 -32.8859
   -32.8738 -24.1385 -24.1385 -24.0778 -24.0778 -24.0707 -24.0548 -24.0548
   -24.0342 -24.0324 -24.0121 -24.0121 -23.9536 -23.9335 -23.8665 -23.8665
   -23.2629 -23.1929 -23.1873 -23.1873 -23.1486 -23.1486 -23.1257 -23.1213
   -23.1187 -23.0954 -23.0942 -23.0938 -23.0763 -23.0752 -23.0678 -23.0678
   -23.0432 -23.0432 -23.0428 -23.0420 -23.0238 -23.0238 -23.0145 -23.0145
    12.6784  12.7323  15.1518  15.2547  15.4125  15.4125  15.4784  15.4784
    15.4968  15.6695  15.7889  15.8457  15.9262  15.9465  15.9883  16.0337
    16.0720  16.1598  16.8807  16.8807  16.8828  16.8828  17.6301  17.6693
    17.6869  17.7092  17.7458  17.7458  17.7472  17.7472  17.8991  17.9431
    17.9713  18.0880  18.1696  18.1696  18.1791  18.1791  18.4460  18.4460
    18.4769  18.4769  18.5497  18.5497  18.5541  18.5541  18.8913  18.9530
    19.7219  19.8076  19.9054  19.9054  20.0357  20.0357  20.1158  20.1193
    20.1556  20.2342  20.6283  20.6297  20.6326  20.6326  20.7105  20.7105
    20.7191  20.7193  20.9813  21.0054  21.0280  21.0477  21.3840  21.3840
    21.3968  21.4106

          k = 0.1661 0.0000 0.1661 (  9557 PWs)   bands (ev):

   -67.2236 -66.7995 -66.7865 -52.6354 -52.6199 -52.5867 -52.5840 -52.5412
   -51.7933 -51.7920 -51.7911 -51.7847 -51.7778 -51.7762 -51.7762 -51.7612
   -33.3132 -33.3021 -33.3020 -32.8996 -32.8992 -32.8857 -32.8856 -32.8854
   -32.8737 -24.1940 -24.1660 -24.1518 -24.1162 -24.1139 -24.0383 -24.0247
   -24.0149 -24.0089 -23.9803 -23.9674 -23.8867 -23.8815 -23.8804 -23.8439
   -23.2596 -23.2218 -23.2180 -23.2093 -23.2078 -23.1812 -23.1640 -23.1386
   -23.1378 -23.0934 -23.0823 -23.0779 -23.0696 -23.0542 -23.0532 -23.0505
   -23.0490 -23.0428 -23.0388 -23.0360 -23.0079 -23.0046 -22.9894 -22.9720
    11.7136  14.5388  14.7232  15.0001  15.1064  15.2166  15.2264  15.2434
    15.3180  15.4096  15.4994  15.5620  15.5764  15.9292  16.0211  16.7098
    16.8070  16.9547  17.0294  17.0579  17.0593  17.0792  17.1239  17.1370
    17.1399  17.2335  17.2498  17.3850  17.5133  17.5591  17.6418  18.1741
    18.1860  18.3191  18.3640  18.4303  18.4708  18.4901  18.6668  18.6974
    18.9920  19.0325  19.0788  19.0932  19.1170  19.1424  19.3803  19.4264
    19.4608  19.6368  19.6636  19.6934  19.7180  19.7434  20.0500  20.1044
    20.3846  20.4768  20.4925  20.5122  20.5933  20.6258  20.6634  20.6659
    20.6778  20.7286  20.7315  20.9181  20.9536  20.9561  20.9877  21.0603
    21.1276  21.3350

          k = 0.1661 0.3314 0.0000 (  9577 PWs)   bands (ev):

   -67.2236 -66.7996 -66.7865 -52.6313 -52.6171 -52.5926 -52.5857 -52.5408
   -51.7917 -51.7895 -51.7882 -51.7855 -51.7812 -51.7794 -51.7726 -51.7642
   -33.3112 -33.3021 -33.3020 -32.8993 -32.8993 -32.8881 -32.8858 -32.8853
   -32.8737 -24.1485 -24.1473 -24.1297 -24.0971 -24.0927 -24.0494 -24.0294
   -24.0233 -24.0132 -24.0039 -23.9675 -23.9393 -23.9141 -23.8788 -23.8668
   -23.2582 -23.2124 -23.1960 -23.1745 -23.1703 -23.1595 -23.1594 -23.1447
   -23.1356 -23.0901 -23.0876 -23.0800 -23.0754 -23.0700 -23.0616 -23.0554
   -23.0450 -23.0429 -23.0390 -23.0348 -23.0263 -23.0239 -22.9965 -22.9927
    12.1485  13.6960  14.7724  14.9790  15.3174  15.3749  15.4782  15.5204
    15.5486  15.5718  15.6366  15.7094  15.7616  16.0124  16.1006  16.4382
    16.5115  16.6097  16.9042  16.9906  16.9909  17.0094  17.1846  17.2595
    17.3051  17.3138  17.5098  17.5298  17.5585  17.7613  17.8637  17.9765
    18.0245  18.1962  18.2105  18.2830  18.3227  18.3529  18.3974  18.4500
    18.5016  18.5808  18.7991  18.8690  18.8973  18.9093  18.9986  19.2394
    19.4051  19.5254  19.5461  19.8518  19.9326  20.0200  20.0390  20.1544
    20.2848  20.3887  20.3977  20.4782  20.5861  20.6280  20.6869  20.7039
    20.7630  20.7958  20.8252  20.8845  20.9522  21.0992  21.1079  21.1582
    21.1968  21.2206

          k = 0.3323 0.0000 0.1661 (  9577 PWs)   bands (ev):

   -67.2236 -66.7996 -66.7865 -52.6316 -52.6225 -52.5862 -52.5847 -52.5424
   -51.7924 -51.7887 -51.7881 -51.7858 -51.7805 -51.7796 -51.7730 -51.7643
   -33.3133 -33.3020 -33.3019 -32.8994 -32.8991 -32.8858 -32.8855 -32.8854
   -32.8739 -24.1622 -24.1499 -24.1237 -24.0975 -24.0877 -24.0709 -24.0505
   -24.0347 -24.0146 -23.9930 -23.9761 -23.9232 -23.8824 -23.8745 -23.8534
   -23.2354 -23.2091 -23.2034 -23.1890 -23.1683 -23.1586 -23.1509 -23.1487
   -23.1372 -23.1059 -23.1032 -23.0855 -23.0845 -23.0691 -23.0620 -23.0536
   -23.0471 -23.0422 -23.0382 -23.0317 -23.0215 -23.0145 -22.9982 -22.9809
    12.1519  13.7042  14.8051  15.0032  15.3070  15.3712  15.4477  15.5214
    15.5573  15.5862  15.6287  15.7267  15.7692  15.9564  16.0852  16.4512
    16.5499  16.6062  16.9114  16.9851  17.0109  17.0200  17.2101  17.2461
    17.3011  17.3111  17.4731  17.5211  17.5384  17.7544  17.8531  17.9572
    18.0269  18.2084  18.2219  18.2657  18.3131  18.3571  18.3878  18.4611
    18.4861  18.5712  18.7628  18.8635  18.8909  18.9065  19.0227  19.2339
    19.4190  19.5475  19.5485  19.8822  19.9383  19.9958  20.0445  20.1769
    20.3080  20.4009  20.4125  20.4933  20.5475  20.6297  20.6828  20.6927
    20.7669  20.7923  20.8093  20.8797  20.8938  21.0975  21.1040  21.1474
    21.1845  21.2481

          k = 0.1661-0.4970 0.0000 (  9608 PWs)   bands (ev):

   -67.2236 -66.7996 -66.7865 -52.6291 -52.6165 -52.5949 -52.5863 -52.5408
   -51.7910 -51.7873 -51.7850 -51.7846 -51.7843 -51.7834 -51.7688 -51.7679
   -33.3106 -33.3021 -33.3020 -32.8993 -32.8993 -32.8888 -32.8859 -32.8854
   -32.8738 -24.1373 -24.1294 -24.0896 -24.0844 -24.0765 -24.0626 -24.0530
   -24.0235 -24.0164 -24.0126 -23.9992 -23.9491 -23.9358 -23.8789 -23.8672
   -23.2537 -23.2072 -23.1821 -23.1703 -23.1566 -23.1563 -23.1257 -23.1165
   -23.1162 -23.1128 -23.1086 -23.1031 -23.0864 -23.0863 -23.0746 -23.0555
   -23.0467 -23.0343 -23.0342 -23.0272 -23.0228 -23.0168 -23.0145 -23.0124
    12.8053  12.8614  14.8790  14.9611  15.4670  15.4869  15.5221  15.5835
    15.7419  15.8689  15.8700  15.9121  15.9711  16.0236  16.0281  16.0903
    16.1187  16.2018  16.9209  16.9220  16.9385  16.9528  17.4882  17.5055
    17.5408  17.5469  17.5866  17.5896  17.6858  17.7540  17.9583  17.9683
    17.9770  18.0317  18.1911  18.1995  18.2353  18.2637  18.2639  18.2727
    18.2741  18.3146  18.3735  18.3874  18.4046  18.4425  19.1036  19.1319
    19.8182  19.8245  19.9142  19.9451  19.9566  20.0657  20.1487  20.1611
    20.2034  20.2514  20.3678  20.4000  20.4919  20.5625  20.6113  20.6743
    20.6923  20.7707  20.9553  20.9639  20.9791  21.0040  21.1276  21.1536
    21.1556  21.1733

          k =-0.4984 0.0000 0.1661 (  9608 PWs)   bands (ev):

   -67.2236 -66.7996 -66.7865 -52.6277 -52.6258 -52.5855 -52.5855 -52.5430
   -51.7917 -51.7867 -51.7843 -51.7842 -51.7841 -51.7839 -51.7689 -51.7685
   -33.3133 -33.3021 -33.3019 -32.8993 -32.8991 -32.8857 -32.8856 -32.8855
   -32.8740 -24.1350 -24.1175 -24.1172 -24.1095 -24.0878 -24.0821 -24.0457
   -24.0322 -24.0161 -24.0131 -24.0015 -23.9375 -23.8819 -23.8669 -23.8631
   -23.2159 -23.2066 -23.1933 -23.1700 -23.1646 -23.1428 -23.1403 -23.1321
   -23.1255 -23.1202 -23.1127 -23.1092 -23.0927 -23.0823 -23.0804 -23.0692
   -23.0451 -23.0411 -23.0291 -23.0285 -23.0218 -23.0068 -23.0000 -22.9992
    12.8046  12.8763  14.9274  14.9717  15.4839  15.4971  15.5216  15.5751
    15.7139  15.7493  15.8682  15.9661  15.9952  16.0259  16.0560  16.1297
    16.1334  16.1424  16.9316  16.9388  16.9479  16.9583  17.4747  17.5147
    17.5295  17.5641  17.5676  17.5810  17.7002  17.7130  17.9455  17.9555
    17.9669  18.0014  18.1459  18.1944  18.2496  18.2579  18.2591  18.2708
    18.2775  18.2817  18.3792  18.4075  18.4093  18.4452  19.0947  19.1293
    19.8216  19.8775  19.9245  19.9712  19.9730  20.0597  20.1636  20.2020
    20.2379  20.2385  20.3335  20.3747  20.5252  20.5345  20.5595  20.6780
    20.6873  20.7781  20.9230  20.9286  20.9629  20.9928  21.1435  21.1458
    21.1748  21.1833

          k = 0.3323 0.0000 0.3323 (  9582 PWs)   bands (ev):

   -67.2236 -66.7996 -66.7865 -52.6290 -52.6238 -52.5860 -52.5851 -52.5437
   -51.7926 -51.7869 -51.7858 -51.7854 -51.7816 -51.7764 -51.7763 -51.7676
   -33.3132 -33.3020 -33.3019 -32.8995 -32.8992 -32.8856 -32.8855 -32.8852
   -32.8740 -24.1459 -24.1419 -24.1122 -24.1100 -24.0888 -24.0766 -24.0391
   -24.0364 -24.0112 -23.9839 -23.9640 -23.9322 -23.9174 -23.8715 -23.8593
   -23.2170 -23.1988 -23.1906 -23.1883 -23.1689 -23.1611 -23.1586 -23.1372
   -23.1192 -23.1052 -23.1047 -23.1037 -23.1010 -23.0948 -23.0941 -23.0692
   -23.0473 -23.0374 -23.0260 -23.0258 -23.0113 -23.0044 -23.0035 -22.9778
    12.5647  13.9256  14.0628  14.7305  15.5901  15.6345  15.6572  15.7206
    15.7457  15.7926  15.7931  15.9486  15.9624  16.0224  16.2020  16.3947
    16.5198  16.6885  16.8283  16.9501  17.0804  17.1293  17.1464  17.1806
    17.1946  17.2627  17.3649  17.4048  17.4777  17.8045  17.8298  17.8688
    17.9104  17.9274  18.0021  18.0984  18.1612  18.1768  18.1778  18.2268
    18.2872  18.3770  18.3825  18.5290  18.5362  18.8128  18.9338  19.1447
    19.6614  19.8060  19.8180  19.9619  20.0210  20.0322  20.0615  20.2788
    20.2845  20.3522  20.3845  20.4320  20.4508  20.4812  20.5098  20.6032
    20.6406  20.6457  20.7245  20.7390  20.8623  20.8799  20.9465  20.9988
    21.0100  21.0829

          k = 0.3323-0.4970 0.0000 (  9578 PWs)   bands (ev):

   -67.2236 -66.7996 -66.7865 -52.6260 -52.6185 -52.5931 -52.5882 -52.5419
   -51.7897 -51.7882 -51.7863 -51.7836 -51.7810 -51.7801 -51.7721 -51.7712
   -33.3106 -33.3020 -33.3019 -32.8993 -32.8992 -32.8895 -32.8859 -32.8845
   -32.8736 -24.1348 -24.1110 -24.1004 -24.0990 -24.0775 -24.0738 -24.0490
   -24.0153 -24.0136 -23.9870 -23.9735 -23.9434 -23.9424 -23.9079 -23.8685
   -23.2322 -23.2162 -23.1677 -23.1676 -23.1586 -23.1550 -23.1408 -23.1402
   -23.1324 -23.1183 -23.1170 -23.1147 -23.1074 -23.0957 -23.0830 -23.0490
   -23.0264 -23.0239 -23.0210 -23.0202 -23.0201 -23.0163 -23.0085 -23.0079
    13.1671  13.2284  14.3210  14.3992  15.7296  15.7754  15.8017  15.8423
    15.8617  15.9890  16.0622  16.0790  16.0979  16.1139  16.2265  16.2534
    16.2584  16.3600  16.9899  16.9925  17.0611  17.1228  17.1670  17.1784
    17.2087  17.2192  17.3386  17.4307  17.5935  17.6042  17.7985  17.8162
    17.8664  17.8884  17.9584  17.9730  18.0644  18.0684  18.0919  18.1409
    18.1766  18.2334  18.2749  18.2923  18.3783  18.3799  19.2016  19.2096
    19.7664  19.8295  20.0546  20.0824  20.1149  20.1208  20.1553  20.1992
    20.2278  20.2423  20.2700  20.2856  20.3180  20.3307  20.5433  20.6064
    20.7365  20.7379  20.7499  20.7755  20.7887  20.8339  20.8523  20.8930
    20.9465  20.9574

          k =-0.4984 0.0000 0.3323 (  9578 PWs)   bands (ev):

   -67.2236 -66.7996 -66.7865 -52.6264 -52.6257 -52.5855 -52.5855 -52.5444
   -51.7924 -51.7874 -51.7834 -51.7834 -51.7811 -51.7807 -51.7722 -51.7717
   -33.3132 -33.3019 -33.3019 -32.8994 -32.8993 -32.8854 -32.8854 -32.8853
   -32.8740 -24.1344 -24.1302 -24.1149 -24.1148 -24.0943 -24.0925 -24.0215
   -24.0094 -24.0005 -23.9909 -23.9823 -23.9479 -23.9229 -23.8666 -23.8653
   -23.1972 -23.1964 -23.1873 -23.1848 -23.1688 -23.1623 -23.1464 -23.1374
   -23.1346 -23.1171 -23.1116 -23.1105 -23.1048 -23.1020 -23.0874 -23.0828
   -23.0479 -23.0346 -23.0186 -23.0171 -23.0166 -23.0105 -22.9872 -22.9853
    13.1646  13.2437  14.3445  14.4072  15.7846  15.7865  15.7925  15.8282
    15.8656  15.8698  16.0733  16.1133  16.1307  16.1618  16.2128  16.2389
    16.2734  16.3389  16.9967  17.0040  17.0610  17.0780  17.1595  17.2096
    17.2199  17.2516  17.3520  17.3759  17.5781  17.5839  17.7998  17.8180
    17.8377  17.8760  17.9428  17.9668  17.9886  18.0599  18.1480  18.1511
    18.2208  18.2298  18.2601  18.3133  18.3513  18.3654  19.1974  19.2019
    19.7633  19.8417  20.0960  20.1011  20.1097  20.1109  20.1572  20.2096
    20.2436  20.2695  20.2742  20.2912  20.3056  20.3504  20.4958  20.6091
    20.7057  20.7376  20.7432  20.7695  20.7734  20.8170  20.8194  20.8793
    20.9343  20.9801

          k =-0.4984 0.0000-0.4984 (  9580 PWs)   bands (ev):

   -67.2236 -66.7996 -66.7865 -52.6257 -52.6257 -52.5855 -52.5855 -52.5451
   -51.7928 -51.7877 -51.7831 -51.7831 -51.7769 -51.7764 -51.7764 -51.7760
   -33.3133 -33.3019 -33.3019 -32.8994 -32.8994 -32.8854 -32.8852 -32.8852
   -32.8740 -24.1377 -24.1370 -24.1138 -24.1138 -24.0971 -24.0932 -24.0076
   -23.9907 -23.9806 -23.9735 -23.9735 -23.9684 -23.9600 -23.8665 -23.8665
   -23.1947 -23.1947 -23.1774 -23.1750 -23.1648 -23.1648 -23.1569 -23.1477
   -23.1477 -23.1327 -23.1292 -23.1005 -23.0982 -23.0982 -23.0902 -23.0900
   -23.0491 -23.0271 -23.0173 -23.0173 -23.0125 -23.0125 -22.9817 -22.9795
    13.6172  13.7662  13.8116  13.8116  15.9076  15.9076  15.9653  15.9901
    15.9962  16.0470  16.1870  16.1870  16.2004  16.2004  16.2707  16.2984
    16.5937  16.5937  16.7728  16.9238  16.9941  16.9945  17.0090  17.0090
    17.0747  17.0747  17.3519  17.3829  17.6029  17.6029  17.6447  17.7078
    17.7078  17.7091  17.7226  17.7398  17.8811  17.9556  18.0307  18.0307
    18.1862  18.1871  18.1871  18.2557  18.7664  18.7664  18.8775  18.8887
    19.7825  19.8871  19.9878  19.9878  20.2992  20.3102  20.3262  20.3262
    20.3564  20.3571  20.3899  20.3899  20.3915  20.3915  20.4047  20.4182
    20.4182  20.5115  20.5334  20.5758  20.7126  20.7207  20.8093  20.8093
    20.8180  20.8261

          k = 0.1661 0.3314 0.1661 (  9577 PWs)   bands (ev):

   -67.2236 -66.7996 -66.7865 -52.6301 -52.6178 -52.5921 -52.5861 -52.5414
   -51.7910 -51.7894 -51.7874 -51.7854 -51.7803 -51.7799 -51.7737 -51.7653
   -33.3112 -33.3020 -33.3020 -32.8993 -32.8993 -32.8883 -32.8857 -32.8851
   -32.8737 -24.1467 -24.1318 -24.1271 -24.0951 -24.0873 -24.0584 -24.0396
   -24.0183 -24.0073 -24.0065 -23.9718 -23.9338 -23.9163 -23.8823 -23.8783
   -23.2490 -23.2107 -23.1930 -23.1750 -23.1692 -23.1588 -23.1526 -23.1422
   -23.1343 -23.0968 -23.0915 -23.0905 -23.0801 -23.0678 -23.0626 -23.0597
   -23.0526 -23.0417 -23.0398 -23.0284 -23.0264 -23.0175 -22.9989 -22.9940
    12.2898  13.8041  14.7926  14.9944  15.0568  15.2081  15.5042  15.5328
    15.6377  15.6391  15.7994  15.8381  15.9638  16.1753  16.1765  16.4407
    16.5295  16.6586  16.9018  17.0118  17.0350  17.0780  17.1004  17.2364
    17.2370  17.2717  17.4537  17.4797  17.5848  17.7270  17.7562  17.7815
    18.0515  18.0794  18.1504  18.2152  18.2537  18.3104  18.3356  18.3408
    18.3700  18.4130  18.5983  18.6734  18.7230  18.7241  19.0439  19.0613
    19.5574  19.6059  19.6531  19.9248  19.9954  20.0678  20.1865  20.2086
    20.2390  20.3580  20.4362  20.4927  20.5070  20.5597  20.6807  20.7050
    20.7389  20.7645  20.7852  20.8202  20.8477  21.0215  21.0414  21.1443
    21.1645  21.2594

          k = 0.1661-0.4970 0.1661 (  9588 PWs)   bands (ev):

   -67.2236 -66.7996 -66.7865 -52.6280 -52.6170 -52.5943 -52.5869 -52.5414
   -51.7905 -51.7874 -51.7845 -51.7841 -51.7836 -51.7832 -51.7700 -51.7691
   -33.3106 -33.3020 -33.3020 -32.8993 -32.8992 -32.8890 -32.8858 -32.8851
   -32.8737 -24.1309 -24.1234 -24.0883 -24.0865 -24.0809 -24.0701 -24.0474
   -24.0204 -24.0153 -24.0053 -23.9912 -23.9488 -23.9401 -23.8836 -23.8779
   -23.2447 -23.2081 -23.1831 -23.1670 -23.1598 -23.1521 -23.1289 -23.1282
   -23.1178 -23.1138 -23.1066 -23.1053 -23.0898 -23.0862 -23.0643 -23.0594
   -23.0569 -23.0394 -23.0314 -23.0263 -23.0246 -23.0119 -23.0107 -23.0095
    12.9330  12.9911  14.9152  15.0295  15.1494  15.1590  15.7643  15.8015
    15.8698  15.9469  15.9843  16.0039  16.0192  16.0618  16.1040  16.1412
    16.1743  16.2522  16.9405  16.9448  17.0040  17.0215  17.4241  17.4462
    17.4826  17.4882  17.5072  17.5186  17.5707  17.6432  17.9487  17.9490
    17.9835  17.9855  18.0632  18.0723  18.1290  18.1464  18.1695  18.1697
    18.1937  18.2113  18.2133  18.2289  18.2614  18.3056  19.1861  19.1944
    19.8992  19.9119  19.9614  19.9898  20.0075  20.0678  20.0753  20.0800
    20.1813  20.2018  20.2308  20.2680  20.5974  20.6620  20.6760  20.7074
    20.7454  20.8146  20.9142  20.9347  20.9470  20.9658  21.0239  21.0644
    21.0652  21.1022

          k = 0.3323 0.1657 0.3323 (  9595 PWs)   bands (ev):

   -67.2236 -66.7996 -66.7865 -52.6278 -52.6228 -52.5873 -52.5861 -52.5437
   -51.7916 -51.7871 -51.7851 -51.7849 -51.7808 -51.7773 -51.7770 -51.7686
   -33.3126 -33.3019 -33.3019 -32.8994 -32.8992 -32.8867 -32.8854 -32.8851
   -32.8739 -24.1365 -24.1299 -24.1058 -24.1055 -24.0916 -24.0649 -24.0361
   -24.0342 -24.0106 -23.9895 -23.9763 -23.9341 -23.9213 -23.8816 -23.8783
   -23.2133 -23.1917 -23.1899 -23.1863 -23.1679 -23.1588 -23.1529 -23.1386
   -23.1169 -23.1068 -23.1059 -23.1034 -23.0989 -23.0959 -23.0798 -23.0687
   -23.0492 -23.0404 -23.0390 -23.0253 -23.0173 -23.0088 -23.0009 -22.9859
    12.7014  14.0389  14.1832  14.8644  15.1428  15.4331  15.5850  15.7642
    15.8223  15.9320  16.0249  16.0465  16.1481  16.2204  16.3168  16.4457
    16.5793  16.6962  16.7884  16.9253  17.0100  17.1427  17.1613  17.2427
    17.2576  17.2715  17.2727  17.3345  17.5280  17.6831  17.7448  17.7995
    17.8262  17.8568  17.8973  18.0265  18.0326  18.0649  18.0752  18.1350
    18.1644  18.1795  18.2336  18.3053  18.3246  18.5950  18.6235  19.1784
    19.8460  19.8913  19.9188  20.0699  20.1077  20.1429  20.1520  20.1893
    20.3631  20.4174  20.4410  20.4805  20.4943  20.5268  20.5410  20.5818
    20.6574  20.7016  20.7167  20.8789  20.8846  20.9321  20.9865  21.0118
    21.0326  21.0700

          k = 0.3323-0.4970 0.1661 (  9574 PWs)   bands (ev):

   -67.2236 -66.7996 -66.7865 -52.6252 -52.6187 -52.5927 -52.5885 -52.5425
   -51.7892 -51.7877 -51.7855 -51.7831 -51.7811 -51.7805 -51.7730 -51.7721
   -33.3106 -33.3020 -33.3019 -32.8992 -32.8991 -32.8893 -32.8858 -32.8847
   -32.8736 -24.1239 -24.1036 -24.0951 -24.0927 -24.0751 -24.0741 -24.0478
   -24.0161 -24.0129 -23.9840 -23.9775 -23.9506 -23.9497 -23.9142 -23.8844
   -23.2237 -23.2101 -23.1729 -23.1706 -23.1549 -23.1463 -23.1430 -23.1364
   -23.1328 -23.1127 -23.1125 -23.1098 -23.1000 -23.0948 -23.0797 -23.0534
   -23.0384 -23.0329 -23.0318 -23.0275 -23.0215 -23.0144 -23.0093 -23.0072
    13.2968  13.3597  14.4479  14.5291  15.3775  15.4281  15.9749  16.0122
    16.0244  16.0255  16.0592  16.1330  16.2117  16.2730  16.3145  16.3335
    16.3342  16.4157  17.0223  17.0230  17.0867  17.1170  17.1243  17.1485
    17.2363  17.2580  17.3473  17.4211  17.5493  17.5641  17.6492  17.6693
    17.7453  17.7970  17.8912  17.9035  17.9368  17.9467  17.9692  17.9871
    18.0227  18.0691  18.1024  18.1338  18.1849  18.1915  18.9557  18.9621
    19.9625  20.0208  20.1017  20.1045  20.1646  20.1977  20.2139  20.2587
    20.2774  20.3268  20.3282  20.3602  20.5424  20.5587  20.6001  20.6234
    20.7503  20.7869  20.7915  20.8401  20.8568  20.8696  20.8996  20.9080
    20.9667  20.9899

          k =-0.4984 0.1657 0.3323 (  9574 PWs)   bands (ev):

   -67.2236 -66.7996 -66.7865 -52.6253 -52.6246 -52.5867 -52.5867 -52.5444
   -51.7915 -51.7870 -51.7829 -51.7828 -51.7812 -51.7812 -51.7730 -51.7727
   -33.3126 -33.3019 -33.3019 -32.8993 -32.8992 -32.8864 -32.8855 -32.8851
   -32.8739 -24.1266 -24.1226 -24.1069 -24.1062 -24.0848 -24.0817 -24.0257
   -24.0088 -24.0014 -23.9973 -23.9879 -23.9553 -23.9268 -23.8823 -23.8812
   -23.1944 -23.1930 -23.1866 -23.1811 -23.1654 -23.1608 -23.1456 -23.1342
   -23.1300 -23.1122 -23.1096 -23.1035 -23.1015 -23.0998 -23.0848 -23.0820
   -23.0511 -23.0392 -23.0276 -23.0229 -23.0200 -23.0156 -22.9924 -22.9903
    13.2928  13.3742  14.4747  14.5364  15.3547  15.4291  15.9815  15.9859
    16.0363  16.0469  16.0701  16.1296  16.2195  16.2617  16.3242  16.3457
    16.3571  16.3792  17.0272  17.0363  17.0823  17.0933  17.1198  17.1862
    17.2452  17.2569  17.3496  17.3729  17.5349  17.5436  17.6453  17.6566
    17.7478  17.7845  17.8845  17.9101  17.9232  17.9300  17.9958  17.9967
    18.0503  18.0594  18.1155  18.1443  18.1596  18.1729  18.9464  18.9520
    19.9788  20.0334  20.1084  20.1115  20.1854  20.1937  20.2449  20.2585
    20.2889  20.3228  20.3454  20.3574  20.5186  20.5494  20.5610  20.6253
    20.7467  20.7713  20.7810  20.8064  20.8543  20.8575  20.8895  20.9203
    20.9902  20.9937

          k =-0.4984 0.1657-0.4984 (  9588 PWs)   bands (ev):

   -67.2236 -66.7996 -66.7865 -52.6246 -52.6246 -52.5867 -52.5867 -52.5451
   -51.7916 -51.7871 -51.7827 -51.7827 -51.7774 -51.7771 -51.7768 -51.7768
   -33.3126 -33.3019 -33.3019 -32.8993 -32.8993 -32.8861 -32.8853 -32.8853
   -32.8739 -24.1288 -24.1273 -24.0992 -24.0992 -24.0907 -24.0861 -24.0095
   -23.9953 -23.9858 -23.9815 -23.9727 -23.9727 -23.9723 -23.8850 -23.8850
   -23.1864 -23.1864 -23.1752 -23.1743 -23.1654 -23.1654 -23.1584 -23.1397
   -23.1397 -23.1206 -23.1173 -23.1012 -23.0970 -23.0970 -23.0874 -23.0874
   -23.0523 -23.0321 -23.0255 -23.0255 -23.0184 -23.0184 -22.9905 -22.9883
    13.7435  13.8946  13.9471  13.9471  15.6714  15.7602  15.9043  15.9043
    16.0265  16.0265  16.1825  16.3140  16.3950  16.4596  16.4843  16.4843
    16.6178  16.6178  16.7843  16.9364  16.9495  16.9495  17.0126  17.0130
    17.1477  17.1477  17.3571  17.3877  17.4783  17.4783  17.5083  17.5345
    17.6687  17.6687  17.6846  17.7012  17.8314  17.8339  17.8755  17.8755
    18.0205  18.0205  18.0530  18.0950  18.4922  18.4922  18.5148  18.5183
    20.0860  20.2000  20.2078  20.2078  20.3281  20.3502  20.4131  20.4131
    20.4373  20.4373  20.4682  20.4763  20.4763  20.5553  20.5571  20.5662
    20.5662  20.5787  20.5833  20.6228  20.7204  20.7578  20.7966  20.7966
    20.8095  20.8626

          k = 0.3323-0.4970 0.3323 (  9598 PWs)   bands (ev):

   -67.2236 -66.7996 -66.7865 -52.6233 -52.6195 -52.5918 -52.5894 -52.5437
   -51.7876 -51.7866 -51.7844 -51.7814 -51.7814 -51.7806 -51.7754 -51.7747
   -33.3106 -33.3019 -33.3019 -32.8992 -32.8991 -32.8890 -32.8857 -32.8850
   -32.8737 -24.1019 -24.0848 -24.0827 -24.0785 -24.0742 -24.0678 -24.0418
   -24.0212 -24.0085 -23.9865 -23.9768 -23.9685 -23.9663 -23.9331 -23.9186
   -23.2030 -23.1966 -23.1741 -23.1696 -23.1530 -23.1430 -23.1419 -23.1301
   -23.1296 -23.1106 -23.1087 -23.0970 -23.0944 -23.0877 -23.0625 -23.0577
   -23.0575 -23.0476 -23.0437 -23.0392 -23.0289 -23.0221 -23.0184 -23.0144
    13.6656  13.7317  14.7212  14.8361  14.9358  14.9643  15.8182  15.8523
    16.2777  16.3067  16.3097  16.3676  16.3991  16.4168  16.5274  16.5646
    16.5660  16.6233  17.0270  17.0420  17.1052  17.1144  17.1240  17.1600
    17.1799  17.2087  17.4003  17.4098  17.4326  17.4487  17.4837  17.4848
    17.5559  17.5648  17.6258  17.6705  17.6753  17.6756  17.7286  17.7484
    17.7572  17.8099  17.8255  17.8423  17.8964  17.9070  18.4244  18.4316
    20.2656  20.2818  20.3329  20.3511  20.3524  20.3923  20.4331  20.4527
    20.4859  20.4907  20.4950  20.5040  20.6245  20.6740  20.7554  20.7616
    20.7670  20.8056  20.8069  20.8248  20.8421  20.8529  20.8972  20.9243
    20.9249  20.9322

          k =-0.4984 0.3314-0.4984 (  9632 PWs)   bands (ev):

   -67.2237 -66.7997 -66.7866 -52.6222 -52.6222 -52.5892 -52.5892 -52.5450
   -51.7886 -51.7858 -51.7815 -51.7815 -51.7802 -51.7789 -51.7780 -51.7780
   -33.3113 -33.3019 -33.3019 -32.8991 -32.8991 -32.8876 -32.8856 -32.8856
   -32.8739 -24.1047 -24.0995 -24.0755 -24.0674 -24.0597 -24.0597 -24.0202
   -24.0160 -24.0030 -24.0026 -23.9989 -23.9720 -23.9720 -23.9314 -23.9314
   -23.1722 -23.1706 -23.1690 -23.1690 -23.1630 -23.1630 -23.1622 -23.1273
   -23.1273 -23.1025 -23.0904 -23.0904 -23.0898 -23.0867 -23.0806 -23.0804
   -23.0601 -23.0440 -23.0435 -23.0435 -23.0346 -23.0346 -23.0151 -23.0127
    14.1036  14.2564  14.3316  14.3316  15.2083  15.3618  15.4739  15.4739
    16.3583  16.3583  16.4887  16.6397  16.6806  16.6806  16.7561  16.8087
    16.8091  16.8342  16.8342  16.8641  16.8641  16.9650  17.0496  17.0515
    17.2656  17.2656  17.3191  17.3191  17.3519  17.3778  17.3826  17.4130
    17.4918  17.4918  17.5145  17.5635  17.5767  17.5767  17.5901  17.6046
    17.6977  17.6977  17.7443  17.7692  17.9111  17.9262  17.9634  17.9634
    20.4282  20.4326  20.4426  20.5298  20.5298  20.5448  20.5448  20.5963
    20.5963  20.6198  20.6416  20.6638  20.6741  20.6741  20.7130  20.7578
    20.7578  20.7763  20.7827  20.7967  20.8028  20.8787  20.8939  20.8939
    21.0223  21.0223

     the Fermi energy is    19.4614 ev

!    total energy              =   -4214.53588080 Ry
     total all-electron energy =    -34959.350301 Ry
     estimated scf accuracy    <          5.3E-10 Ry
     smearing contrib. (-TS)   =      -0.00000324 Ry
     internal energy E=F+TS    =   -4214.53587756 Ry

     The total energy is F=E-TS. E is the sum of the following terms:
     one-electron contribution =   -1052.88025583 Ry
     hartree contribution      =     669.52677594 Ry
     xc contribution           =    -372.93862397 Ry
     ewald contribution        =   -2244.65817199 Ry
     one-center paw contrib.   =   -1213.58560171 Ry

     total magnetization       =     5.43 Bohr mag/cell
     absolute magnetization    =    13.89 Bohr mag/cell

     convergence has been achieved in  15 iterations

     Forces acting on atoms (cartesian axes, Ry/au):

     atom    1 type  2   force =    -0.00001802   -0.00005017   -0.00001802
     atom    2 type  1   force =     0.00000000    0.00000000    0.00000000
     atom    3 type  2   force =    -0.00001802   -0.00005017    0.00001802
     atom    4 type  2   force =     0.00000000    0.00000000    0.00000000
     atom    5 type  2   force =    -0.00001802    0.00005017   -0.00001802
     atom    6 type  2   force =     0.00000000    0.00000000    0.00000000
     atom    7 type  2   force =    -0.00001802    0.00005017    0.00001802
     atom    8 type  2   force =     0.00000000    0.00000000    0.00000000
     atom    9 type  2   force =     0.00001802   -0.00005017   -0.00001802
     atom   10 type  2   force =     0.00000000    0.00000000    0.00000000
     atom   11 type  2   force =     0.00001802   -0.00005017    0.00001802
     atom   12 type  1   force =     0.00000000    0.00000000    0.00000000
     atom   13 type  2   force =     0.00001802    0.00005017   -0.00001802
     atom   14 type  2   force =     0.00000000    0.00000000    0.00000000
     atom   15 type  2   force =     0.00001802    0.00005017    0.00001802
     atom   16 type  1   force =     0.00000000    0.00000000    0.00000000

     Total force =     0.000159     Total SCF correction =     0.000082
     SCF correction compared to forces is large: reduce conv_thr to get better values


     Computing stress (Cartesian axis) and pressure

          total   stress  (Ry/bohr**3)                   (kbar)     P=        0.08
   0.00000066   0.00000000   0.00000000            0.10        0.00        0.00
   0.00000000   0.00000030   0.00000000            0.00        0.04        0.00
   0.00000000   0.00000000   0.00000066            0.00        0.00        0.10

     Energy error            =      1.3E-06 Ry
     Gradient error          =      5.0E-05 Ry/Bohr
     Cell gradient error     =      9.8E-02 kbar

     bfgs converged in   5 scf cycles and   4 bfgs steps
     (criteria: energy <  1.0E-04 Ry, force <  1.0E-04 Ry/Bohr, cell <  5.0E-01 kbar)

     End of BFGS Geometry Optimization

     Final enthalpy           =   -4214.5358807969 Ry

     File ./tmp/fecr_fe03cr13_vcr.bfgs deleted, as requested
Begin final coordinates
     new unit-cell volume =   1236.98264 a.u.^3 (   183.30192 Ang^3 )
     density =      7.64114 g/cm^3

CELL_PARAMETERS (angstrom)
   5.675143966   0.000000000   0.000000000
   0.000000000   5.691323033   0.000000000
   0.000000000   0.000000000   5.675143966

ATOMIC_POSITIONS (crystal)
Cr               0.0004320559       -0.0009881375        0.0004320559
Fe               0.2500000000        0.2500000000        0.2500000000
Cr               0.0004320559       -0.0009881375        0.4995679441
Cr               0.2500000000        0.2500000000        0.7500000000
Cr               0.0004320559        0.5009881375        0.0004320559
Cr               0.2500000000        0.7500000000        0.2500000000
Cr               0.0004320559        0.5009881375        0.4995679441
Cr               0.2500000000        0.7500000000        0.7500000000
Cr               0.4995679441       -0.0009881375        0.0004320559
Cr               0.7500000000        0.2500000000        0.2500000000
Cr               0.4995679441       -0.0009881375        0.4995679441
Fe               0.7500000000        0.2500000000        0.7500000000
Cr               0.4995679441        0.5009881375        0.0004320559
Cr               0.7500000000        0.7500000000        0.2500000000
Cr               0.4995679441        0.5009881375        0.4995679441
Fe               0.7500000000        0.7500000000        0.7500000000
End final coordinates



     Writing config-only to output data dir ./tmp/fecr_fe03cr13_vcr.save/ :
     XML data file

     Final scf calculation at the relaxed structure.
     The G-vectors are recalculated for the final unit cell
     Results may differ from those at the preceding step.
 
     G-vector sticks info
     --------------------
     sticks:   dense  smooth     PW     G-vecs:    dense   smooth      PW
     Sum        4405    2213    621               219727    77789   11753
 
     Using Slab Decomposition
 


     bravais-lattice index     =            0
     lattice parameter (alat)  =      10.6912  a.u.
     unit-cell volume          =    1236.9826 (a.u.)^3
     number of atoms/cell      =           16
     number of atomic types    =            2
     number of electrons       =       230.00
     number of Kohn-Sham states=          138
     kinetic-energy cutoff     =      60.0000  Ry
     charge density cutoff     =     480.0000  Ry
     scf convergence threshold =      1.0E-09
     mixing beta               =       0.3000
     number of iterations used =            8  plain     mixing
     press convergence thresh. =      5.0E-01
     Exchange-correlation= SLA  PW   PBX  PBC
                           (   1   4   3   4   0   0   0)

     GPU acceleration is ACTIVE.  1 visible GPUs per MPI rank


     celldm(1)=  10.691209  celldm(2)=   0.000000  celldm(3)=   0.000000
     celldm(4)=   0.000000  celldm(5)=   0.000000  celldm(6)=   0.000000

     crystal axes: (cart. coord. in units of alat)
               a(1) = (   1.003111   0.000000   0.000000 )  
               a(2) = (   0.000000   1.005971   0.000000 )  
               a(3) = (   0.000000   0.000000   1.003111 )  

     reciprocal axes: (cart. coord. in units 2 pi/alat)
               b(1) = (  0.996899  0.000000  0.000000 )  
               b(2) = (  0.000000  0.994065  0.000000 )  
               b(3) = (  0.000000  0.000000  0.996899 )  


     PseudoPot. # 1 for Fe read from file:
     ./pseudo/Fe.pbe-spn-kjpaw_psl.1.0.0.UPF
     MD5 check sum: fc81f059e5c5069939230b1155715ae8
     Pseudo is Projector augmented-wave + core cor, Zval = 16.0
     Generated using &quot;atomic&quot; code by A. Dal Corso  v.6.3
     Shape of augmentation charge: PSQ
     Using radial grid of 1191 points,  6 beta functions with: 
                l(1) =   0
                l(2) =   0
                l(3) =   1
                l(4) =   1
                l(5) =   2
                l(6) =   2
     Q(r) pseudized with 0 coefficients 


     PseudoPot. # 2 for Cr read from file:
     ./pseudo/Cr.pbe-spn-kjpaw_psl.1.0.0.UPF
     MD5 check sum: 198f1a2427a48552563eee314eba32ba
     Pseudo is Projector augmented-wave + core cor, Zval = 14.0
     Generated using &quot;atomic&quot; code by A. Dal Corso  v.6.3
     Shape of augmentation charge: PSQ
     Using radial grid of 1183 points,  6 beta functions with: 
                l(1) =   0
                l(2) =   0
                l(3) =   1
                l(4) =   1
                l(5) =   2
                l(6) =   2
     Q(r) pseudized with 0 coefficients 


     atomic species   valence    mass     pseudopotential
     Fe               16.00    55.84500     Fe( 1.00)
     Cr               14.00    51.99600     Cr( 1.00)

     Starting magnetic structure 
     atomic species   magnetization
     Fe              0.070
     Cr              0.015

     16 Sym. Ops., with inversion, found (14 have fractional translation)



   Cartesian axes

     site n.     atom                  positions (alat units)
         1        Cr     tau(   1) = (   0.0004334  -0.0009940   0.0004334  )
         2        Fe     tau(   2) = (   0.2507777   0.2514927   0.2507777  )
         3        Cr     tau(   3) = (   0.0004334  -0.0009940   0.5011220  )
         4        Cr     tau(   4) = (   0.2507777   0.2514927   0.7523332  )
         5        Cr     tau(   5) = (   0.0004334   0.5039793   0.0004334  )
         6        Cr     tau(   6) = (   0.2507777   0.7544780   0.2507777  )
         7        Cr     tau(   7) = (   0.0004334   0.5039793   0.5011220  )
         8        Cr     tau(   8) = (   0.2507777   0.7544780   0.7523332  )
         9        Cr     tau(   9) = (   0.5011220  -0.0009940   0.0004334  )
        10        Cr     tau(  10) = (   0.7523332   0.2514927   0.2507777  )
        11        Cr     tau(  11) = (   0.5011220  -0.0009940   0.5011220  )
        12        Fe     tau(  12) = (   0.7523332   0.2514927   0.7523332  )
        13        Cr     tau(  13) = (   0.5011220   0.5039793   0.0004334  )
        14        Cr     tau(  14) = (   0.7523332   0.7544780   0.2507777  )
        15        Cr     tau(  15) = (   0.5011220   0.5039793   0.5011220  )
        16        Fe     tau(  16) = (   0.7523332   0.7544780   0.7523332  )

     number of k points=    40  Marzari-Vanderbilt smearing, width (Ry)=  0.0200
                       cart. coord. in units 2pi/alat
        k(    1) = (   0.0000000   0.0000000   0.0000000), wk =   0.0046296
        k(    2) = (   0.0000000   0.0000000   0.1661498), wk =   0.0185185
        k(    3) = (   0.0000000   0.0000000   0.3322996), wk =   0.0185185
        k(    4) = (   0.0000000   0.0000000  -0.4984494), wk =   0.0092593
        k(    5) = (   0.0000000   0.1656775   0.1661498), wk =   0.0370370
        k(    6) = (   0.0000000   0.1656775   0.3322996), wk =   0.0370370
        k(    7) = (   0.0000000   0.1656775  -0.4984494), wk =   0.0185185
        k(    8) = (   0.0000000   0.3313549   0.3322996), wk =   0.0370370
        k(    9) = (   0.0000000   0.3313549  -0.4984494), wk =   0.0185185
        k(   10) = (   0.0000000  -0.4970324  -0.4984494), wk =   0.0092593
        k(   11) = (   0.1661498   0.1656775   0.1661498), wk =   0.0370370
        k(   12) = (   0.1661498   0.1656775   0.3322996), wk =   0.0740741
        k(   13) = (   0.1661498   0.1656775  -0.4984494), wk =   0.0370370
        k(   14) = (   0.1661498   0.3313549   0.3322996), wk =   0.0740741
        k(   15) = (   0.1661498   0.3313549  -0.4984494), wk =   0.0370370
        k(   16) = (   0.1661498  -0.4970324  -0.4984494), wk =   0.0185185
        k(   17) = (   0.3322996   0.3313549   0.3322996), wk =   0.0370370
        k(   18) = (   0.3322996   0.3313549  -0.4984494), wk =   0.0370370
        k(   19) = (   0.3322996  -0.4970324  -0.4984494), wk =   0.0185185
        k(   20) = (  -0.4984494  -0.4970324  -0.4984494), wk =   0.0046296
        k(   21) = (   0.0000000   0.1656775   0.0000000), wk =   0.0092593
        k(   22) = (   0.0000000   0.3313549   0.0000000), wk =   0.0092593
        k(   23) = (   0.0000000  -0.4970324   0.0000000), wk =   0.0046296
        k(   24) = (   0.1661498   0.0000000   0.1661498), wk =   0.0185185
        k(   25) = (   0.1661498   0.3313549   0.0000000), wk =   0.0370370
        k(   26) = (   0.3322996   0.0000000   0.1661498), wk =   0.0370370
        k(   27) = (   0.1661498  -0.4970324   0.0000000), wk =   0.0185185
        k(   28) = (  -0.4984494   0.0000000   0.1661498), wk =   0.0185185
        k(   29) = (   0.3322996   0.0000000   0.3322996), wk =   0.0185185
        k(   30) = (   0.3322996  -0.4970324   0.0000000), wk =   0.0185185
        k(   31) = (  -0.4984494   0.0000000   0.3322996), wk =   0.0185185
        k(   32) = (  -0.4984494   0.0000000  -0.4984494), wk =   0.0046296
        k(   33) = (   0.1661498   0.3313549   0.1661498), wk =   0.0370370
        k(   34) = (   0.1661498  -0.4970324   0.1661498), wk =   0.0185185
        k(   35) = (   0.3322996   0.1656775   0.3322996), wk =   0.0370370
        k(   36) = (   0.3322996  -0.4970324   0.1661498), wk =   0.0370370
        k(   37) = (  -0.4984494   0.1656775   0.3322996), wk =   0.0370370
        k(   38) = (  -0.4984494   0.1656775  -0.4984494), wk =   0.0092593
        k(   39) = (   0.3322996  -0.4970324   0.3322996), wk =   0.0185185
        k(   40) = (  -0.4984494   0.3313549  -0.4984494), wk =   0.0092593

     Dense  grid:   219727 G-vectors     FFT dimensions: (  80,  80,  80)

     Smooth grid:    77789 G-vectors     FFT dimensions: (  54,  54,  54)

     Estimated max dynamical RAM per process >       2.62 GB

     Check: negative core charge=   -0.000003
     Generating pointlists ...

     Initial potential from superposition of free atoms

     starting charge     229.9886, renormalised to     230.0000
     Starting wfcs are  160 randomized atomic wfcs
     Checking if some PAW data can be deallocated... 

     total cpu time spent up to now is     7575.5 secs

     Self-consistent Calculation

     iteration #  1     ecut=    60.00 Ry     beta= 0.30
     Davidson diagonalization with overlap
     c_bands:  5 eigenvalues not converged
     c_bands:  1 eigenvalues not converged
     c_bands:  3 eigenvalues not converged
     c_bands:  1 eigenvalues not converged
     c_bands:  1 eigenvalues not converged
     c_bands:  5 eigenvalues not converged
     c_bands:  4 eigenvalues not converged
     c_bands:  1 eigenvalues not converged
     c_bands:  1 eigenvalues not converged
     c_bands:  2 eigenvalues not converged
     c_bands:  4 eigenvalues not converged
     c_bands:  2 eigenvalues not converged
     c_bands:  1 eigenvalues not converged
     c_bands:  1 eigenvalues not converged
     c_bands:  1 eigenvalues not converged
     c_bands:  2 eigenvalues not converged
     c_bands:  4 eigenvalues not converged
     c_bands:  3 eigenvalues not converged
     c_bands:  3 eigenvalues not converged
     c_bands:  2 eigenvalues not converged
     c_bands:  2 eigenvalues not converged
     c_bands:  5 eigenvalues not converged
     c_bands:  5 eigenvalues not converged
     c_bands:  2 eigenvalues not converged
     c_bands:  2 eigenvalues not converged
     c_bands:  3 eigenvalues not converged
     c_bands:  1 eigenvalues not converged
     c_bands:  5 eigenvalues not converged
     c_bands:  1 eigenvalues not converged
     c_bands:  4 eigenvalues not converged
     c_bands:  1 eigenvalues not converged
     c_bands:  3 eigenvalues not converged
     c_bands:  2 eigenvalues not converged
     c_bands:  1 eigenvalues not converged
     c_bands:  4 eigenvalues not converged
     c_bands:  3 eigenvalues not converged
     c_bands:  1 eigenvalues not converged
     c_bands:  5 eigenvalues not converged
     c_bands:  1 eigenvalues not converged
     c_bands:  5 eigenvalues not converged
     c_bands:  2 eigenvalues not converged
     c_bands:  1 eigenvalues not converged
     c_bands:  2 eigenvalues not converged
     c_bands:  1 eigenvalues not converged
     c_bands:  2 eigenvalues not converged
     c_bands:  3 eigenvalues not converged
     c_bands:  1 eigenvalues not converged
     c_bands:  2 eigenvalues not converged
     c_bands:  3 eigenvalues not converged
     c_bands:  1 eigenvalues not converged
     c_bands:  1 eigenvalues not converged
     c_bands:  1 eigenvalues not converged
     c_bands:  3 eigenvalues not converged
     c_bands:  2 eigenvalues not converged
     c_bands:  4 eigenvalues not converged
     c_bands:  1 eigenvalues not converged
     c_bands:  3 eigenvalues not converged
     c_bands:  5 eigenvalues not converged
     ethr =  1.00E-06,  avg # of iterations = 27.8

     total cpu time spent up to now is     7656.4 secs

     total energy              =   -4214.07107533 Ry
     estimated scf accuracy    <       2.01154288 Ry

     total magnetization       =     3.99 Bohr mag/cell
     absolute magnetization    =     4.35 Bohr mag/cell

     iteration #  2     ecut=    60.00 Ry     beta= 0.30
     Davidson diagonalization with overlap
     ethr =  8.75E-04,  avg # of iterations =  6.0

     total cpu time spent up to now is     7689.2 secs

     total energy              =   -4213.32915016 Ry
     estimated scf accuracy    <      18.13440321 Ry

     total magnetization       =     3.88 Bohr mag/cell
     absolute magnetization    =     4.20 Bohr mag/cell

     iteration #  3     ecut=    60.00 Ry     beta= 0.30
     Davidson diagonalization with overlap
     ethr =  8.75E-04,  avg # of iterations =  6.2

     total cpu time spent up to now is     7722.6 secs

     total energy              =   -4214.32291046 Ry
     estimated scf accuracy    <       2.84794962 Ry

     total magnetization       =     3.91 Bohr mag/cell
     absolute magnetization    =     4.25 Bohr mag/cell

     iteration #  4     ecut=    60.00 Ry     beta= 0.30
     Davidson diagonalization with overlap
     ethr =  8.75E-04,  avg # of iterations =  2.1

     total cpu time spent up to now is     7749.8 secs

     total energy              =   -4214.30472851 Ry
     estimated scf accuracy    <       4.80814679 Ry

     total magnetization       =     2.88 Bohr mag/cell
     absolute magnetization    =     3.29 Bohr mag/cell

     iteration #  5     ecut=    60.00 Ry     beta= 0.30
     Davidson diagonalization with overlap
     ethr =  8.75E-04,  avg # of iterations =  1.1

     total cpu time spent up to now is     7775.9 secs

     total energy              =   -4214.48849424 Ry
     estimated scf accuracy    <       0.52397801 Ry

     total magnetization       =     4.02 Bohr mag/cell
     absolute magnetization    =     4.38 Bohr mag/cell

     iteration #  6     ecut=    60.00 Ry     beta= 0.30
     Davidson diagonalization with overlap
     ethr =  2.28E-04,  avg # of iterations =  1.2

     total cpu time spent up to now is     7802.0 secs

     total energy              =   -4214.50489424 Ry
     estimated scf accuracy    <       0.13797984 Ry

     total magnetization       =     4.30 Bohr mag/cell
     absolute magnetization    =     4.61 Bohr mag/cell

     iteration #  7     ecut=    60.00 Ry     beta= 0.30
     Davidson diagonalization with overlap
     ethr =  6.00E-05,  avg # of iterations =  5.3

     total cpu time spent up to now is     7832.8 secs

     total energy              =   -4214.50993834 Ry
     estimated scf accuracy    <       0.15476147 Ry

     total magnetization       =     4.30 Bohr mag/cell
     absolute magnetization    =     4.66 Bohr mag/cell

     iteration #  8     ecut=    60.00 Ry     beta= 0.30
     Davidson diagonalization with overlap
     ethr =  6.00E-05,  avg # of iterations =  1.6

     total cpu time spent up to now is     7859.7 secs

     total energy              =   -4214.51619578 Ry
     estimated scf accuracy    <       0.08643369 Ry

     total magnetization       =     4.32 Bohr mag/cell
     absolute magnetization    =     4.74 Bohr mag/cell

     iteration #  9     ecut=    60.00 Ry     beta= 0.30
     Davidson diagonalization with overlap
     ethr =  3.76E-05,  avg # of iterations =  3.3

     total cpu time spent up to now is     7888.7 secs

     total energy              =   -4214.52082415 Ry
     estimated scf accuracy    <       0.03445692 Ry

     total magnetization       =     4.46 Bohr mag/cell
     absolute magnetization    =     4.93 Bohr mag/cell

     iteration # 10     ecut=    60.00 Ry     beta= 0.30
     Davidson diagonalization with overlap
     c_bands:  1 eigenvalues not converged
     ethr =  1.50E-05,  avg # of iterations =  5.7

     total cpu time spent up to now is     7920.2 secs

     total energy              =   -4214.52488133 Ry
     estimated scf accuracy    <       0.03640941 Ry

     total magnetization       =     4.49 Bohr mag/cell
     absolute magnetization    =     5.29 Bohr mag/cell

     iteration # 11     ecut=    60.00 Ry     beta= 0.30
     Davidson diagonalization with overlap
     ethr =  1.50E-05,  avg # of iterations =  1.2

     total cpu time spent up to now is     7946.2 secs

     total energy              =   -4214.52724418 Ry
     estimated scf accuracy    <       0.01253953 Ry

     total magnetization       =     4.54 Bohr mag/cell
     absolute magnetization    =     5.31 Bohr mag/cell

     iteration # 12     ecut=    60.00 Ry     beta= 0.30
     Davidson diagonalization with overlap
     c_bands:  1 eigenvalues not converged
     c_bands:  2 eigenvalues not converged
     ethr =  5.45E-06,  avg # of iterations =  5.4

     total cpu time spent up to now is     7977.5 secs

     total energy              =   -4214.52919171 Ry
     estimated scf accuracy    <       0.00569295 Ry

     total magnetization       =     4.63 Bohr mag/cell
     absolute magnetization    =     5.53 Bohr mag/cell

     iteration # 13     ecut=    60.00 Ry     beta= 0.30
     Davidson diagonalization with overlap
     c_bands:  1 eigenvalues not converged
     c_bands:  1 eigenvalues not converged
     c_bands:  1 eigenvalues not converged
     c_bands:  1 eigenvalues not converged
     ethr =  2.48E-06,  avg # of iterations = 10.5

     total cpu time spent up to now is     8016.4 secs

     total energy              =   -4214.53147379 Ry
     estimated scf accuracy    <       0.00532736 Ry

     total magnetization       =     4.93 Bohr mag/cell
     absolute magnetization    =     6.18 Bohr mag/cell

     iteration # 14     ecut=    60.00 Ry     beta= 0.30
     Davidson diagonalization with overlap
     c_bands:  1 eigenvalues not converged
     c_bands:  1 eigenvalues not converged
     ethr =  2.32E-06,  avg # of iterations =  6.3

     total cpu time spent up to now is     8049.1 secs

     total energy              =   -4214.53221514 Ry
     estimated scf accuracy    <       0.00626531 Ry

     total magnetization       =     5.05 Bohr mag/cell
     absolute magnetization    =     6.66 Bohr mag/cell

     iteration # 15     ecut=    60.00 Ry     beta= 0.30
     Davidson diagonalization with overlap
     ethr =  2.32E-06,  avg # of iterations =  1.6

     total cpu time spent up to now is     8076.3 secs

     total energy              =   -4214.53320604 Ry
     estimated scf accuracy    <       0.00497418 Ry

     total magnetization       =     5.12 Bohr mag/cell
     absolute magnetization    =     6.72 Bohr mag/cell

     iteration # 16     ecut=    60.00 Ry     beta= 0.30
     Davidson diagonalization with overlap
     ethr =  2.16E-06,  avg # of iterations =  2.5

     total cpu time spent up to now is     8104.2 secs

     total energy              =   -4214.53396228 Ry
     estimated scf accuracy    <       0.00100384 Ry

     total magnetization       =     5.28 Bohr mag/cell
     absolute magnetization    =     7.09 Bohr mag/cell

     iteration # 17     ecut=    60.00 Ry     beta= 0.30
     Davidson diagonalization with overlap
     c_bands:  1 eigenvalues not converged
     ethr =  4.36E-07,  avg # of iterations =  6.8

     total cpu time spent up to now is     8139.8 secs

     total energy              =   -4214.53464422 Ry
     estimated scf accuracy    <       0.00383724 Ry

     total magnetization       =     5.43 Bohr mag/cell
     absolute magnetization    =     7.57 Bohr mag/cell

     iteration # 18     ecut=    60.00 Ry     beta= 0.30
     Davidson diagonalization with overlap
     ethr =  4.36E-07,  avg # of iterations =  2.8

     total cpu time spent up to now is     8168.1 secs

     total energy              =   -4214.53469893 Ry
     estimated scf accuracy    <       0.00230661 Ry

     total magnetization       =     5.46 Bohr mag/cell
     absolute magnetization    =     7.60 Bohr mag/cell

     iteration # 19     ecut=    60.00 Ry     beta= 0.30
     Davidson diagonalization with overlap
     ethr =  4.36E-07,  avg # of iterations =  6.1

     total cpu time spent up to now is     8201.0 secs

     total energy              =   -4214.53514235 Ry
     estimated scf accuracy    <       0.00151975 Ry

     total magnetization       =     5.58 Bohr mag/cell
     absolute magnetization    =     7.99 Bohr mag/cell

     iteration # 20     ecut=    60.00 Ry     beta= 0.30
     Davidson diagonalization with overlap
     ethr =  4.36E-07,  avg # of iterations =  3.1

     total cpu time spent up to now is     8229.2 secs

     total energy              =   -4214.53522922 Ry
     estimated scf accuracy    <       0.00047404 Ry

     total magnetization       =     5.63 Bohr mag/cell
     absolute magnetization    =     8.13 Bohr mag/cell

     iteration # 21     ecut=    60.00 Ry     beta= 0.30
     Davidson diagonalization with overlap
     c_bands:  1 eigenvalues not converged
     c_bands:  1 eigenvalues not converged
     ethr =  2.06E-07,  avg # of iterations =  3.7

     total cpu time spent up to now is     8258.2 secs

     total energy              =   -4214.53525565 Ry
     estimated scf accuracy    <       0.00024813 Ry

     total magnetization       =     5.62 Bohr mag/cell
     absolute magnetization    =     8.15 Bohr mag/cell

     iteration # 22     ecut=    60.00 Ry     beta= 0.30
     Davidson diagonalization with overlap
     ethr =  1.08E-07,  avg # of iterations =  4.0

     total cpu time spent up to now is     8288.0 secs

     total energy              =   -4214.53530946 Ry
     estimated scf accuracy    <       0.00015445 Ry

     total magnetization       =     5.59 Bohr mag/cell
     absolute magnetization    =     8.16 Bohr mag/cell

     iteration # 23     ecut=    60.00 Ry     beta= 0.30
     Davidson diagonalization with overlap
     ethr =  6.72E-08,  avg # of iterations =  6.0

     total cpu time spent up to now is     8321.0 secs

     total energy              =   -4214.53540181 Ry
     estimated scf accuracy    <       0.00006622 Ry

     total magnetization       =     5.64 Bohr mag/cell
     absolute magnetization    =     8.33 Bohr mag/cell

     iteration # 24     ecut=    60.00 Ry     beta= 0.30
     Davidson diagonalization with overlap
     ethr =  2.88E-08,  avg # of iterations =  5.7

     total cpu time spent up to now is     8353.2 secs

     total energy              =   -4214.53544457 Ry
     estimated scf accuracy    <       0.00007444 Ry

     total magnetization       =     5.64 Bohr mag/cell
     absolute magnetization    =     8.39 Bohr mag/cell

     iteration # 25     ecut=    60.00 Ry     beta= 0.30
     Davidson diagonalization with overlap
     ethr =  2.88E-08,  avg # of iterations =  5.3

     total cpu time spent up to now is     8384.0 secs

     total energy              =   -4214.53548685 Ry
     estimated scf accuracy    <       0.00019579 Ry

     total magnetization       =     5.64 Bohr mag/cell
     absolute magnetization    =     8.48 Bohr mag/cell

     iteration # 26     ecut=    60.00 Ry     beta= 0.30
     Davidson diagonalization with overlap
     ethr =  2.88E-08,  avg # of iterations =  5.6

     total cpu time spent up to now is     8416.2 secs

     total energy              =   -4214.53554312 Ry
     estimated scf accuracy    <       0.00007611 Ry

     total magnetization       =     5.67 Bohr mag/cell
     absolute magnetization    =     8.64 Bohr mag/cell

     iteration # 27     ecut=    60.00 Ry     beta= 0.30
     Davidson diagonalization with overlap
     ethr =  2.88E-08,  avg # of iterations =  1.1

     total cpu time spent up to now is     8441.3 secs

     total energy              =   -4214.53557454 Ry
     estimated scf accuracy    <       0.00004838 Ry

     total magnetization       =     5.66 Bohr mag/cell
     absolute magnetization    =     8.64 Bohr mag/cell

     iteration # 28     ecut=    60.00 Ry     beta= 0.30
     Davidson diagonalization with overlap
     ethr =  2.10E-08,  avg # of iterations =  5.9

     total cpu time spent up to now is     8474.9 secs

     total energy              =   -4214.53562057 Ry
     estimated scf accuracy    <       0.00005574 Ry

     total magnetization       =     5.66 Bohr mag/cell
     absolute magnetization    =     8.77 Bohr mag/cell

     iteration # 29     ecut=    60.00 Ry     beta= 0.30
     Davidson diagonalization with overlap
     ethr =  2.10E-08,  avg # of iterations =  1.1

     total cpu time spent up to now is     8501.4 secs

     total energy              =   -4214.53552654 Ry
     estimated scf accuracy    <       0.00006361 Ry

     total magnetization       =     5.65 Bohr mag/cell
     absolute magnetization    =     8.77 Bohr mag/cell

     iteration # 30     ecut=    60.00 Ry     beta= 0.30
     Davidson diagonalization with overlap
     ethr =  2.10E-08,  avg # of iterations =  5.1

     total cpu time spent up to now is     8532.3 secs

     total energy              =   -4214.53558315 Ry
     estimated scf accuracy    <       0.00007670 Ry

     total magnetization       =     5.65 Bohr mag/cell
     absolute magnetization    =     8.67 Bohr mag/cell

     iteration # 31     ecut=    60.00 Ry     beta= 0.30
     Davidson diagonalization with overlap
     ethr =  2.10E-08,  avg # of iterations =  4.8

     total cpu time spent up to now is     8562.2 secs

     total energy              =   -4214.53558453 Ry
     estimated scf accuracy    <       0.00007212 Ry

     total magnetization       =     5.65 Bohr mag/cell
     absolute magnetization    =     8.71 Bohr mag/cell

     iteration # 32     ecut=    60.00 Ry     beta= 0.30
     Davidson diagonalization with overlap
     ethr =  2.10E-08,  avg # of iterations =  4.2

     total cpu time spent up to now is     8592.7 secs

     total energy              =   -4214.53559821 Ry
     estimated scf accuracy    <       0.00011046 Ry

     total magnetization       =     5.64 Bohr mag/cell
     absolute magnetization    =     8.70 Bohr mag/cell

     iteration # 33     ecut=    60.00 Ry     beta= 0.30
     Davidson diagonalization with overlap
     ethr =  2.10E-08,  avg # of iterations =  6.6

     total cpu time spent up to now is     8627.4 secs

     total energy              =   -4214.53566033 Ry
     estimated scf accuracy    <       0.00007205 Ry

     total magnetization       =     5.63 Bohr mag/cell
     absolute magnetization    =     8.88 Bohr mag/cell

     iteration # 34     ecut=    60.00 Ry     beta= 0.30
     Davidson diagonalization with overlap
     ethr =  2.10E-08,  avg # of iterations =  5.0

     total cpu time spent up to now is     8658.1 secs

     total energy              =   -4214.53532340 Ry
     estimated scf accuracy    <       0.00008012 Ry

     total magnetization       =     5.63 Bohr mag/cell
     absolute magnetization    =     8.81 Bohr mag/cell

     iteration # 35     ecut=    60.00 Ry     beta= 0.30
     Davidson diagonalization with overlap
     ethr =  2.10E-08,  avg # of iterations =  6.7

     total cpu time spent up to now is     8693.9 secs

     total energy              =   -4214.53547250 Ry
     estimated scf accuracy    <       0.00009226 Ry

     total magnetization       =     5.64 Bohr mag/cell
     absolute magnetization    =     8.57 Bohr mag/cell

     iteration # 36     ecut=    60.00 Ry     beta= 0.30
     Davidson diagonalization with overlap
     ethr =  2.10E-08,  avg # of iterations =  6.7

     total cpu time spent up to now is     8729.0 secs

     total energy              =   -4214.53567334 Ry
     estimated scf accuracy    <       0.00008295 Ry

     total magnetization       =     5.63 Bohr mag/cell
     absolute magnetization    =     8.82 Bohr mag/cell

     iteration # 37     ecut=    60.00 Ry     beta= 0.30
     Davidson diagonalization with overlap
     ethr =  2.10E-08,  avg # of iterations =  1.2

     total cpu time spent up to now is     8754.1 secs

     total energy              =   -4214.53462869 Ry
     estimated scf accuracy    <       0.00006576 Ry

     total magnetization       =     5.64 Bohr mag/cell
     absolute magnetization    =     8.82 Bohr mag/cell

     iteration # 38     ecut=    60.00 Ry     beta= 0.30
     Davidson diagonalization with overlap
     ethr =  2.10E-08,  avg # of iterations = 10.1

     total cpu time spent up to now is     8797.2 secs

     total energy              =   -4214.53533387 Ry
     estimated scf accuracy    <       0.00012943 Ry

     total magnetization       =     5.62 Bohr mag/cell
     absolute magnetization    =     9.53 Bohr mag/cell

     iteration # 39     ecut=    60.00 Ry     beta= 0.30
     Davidson diagonalization with overlap
     ethr =  2.10E-08,  avg # of iterations =  7.8

     total cpu time spent up to now is     8835.1 secs

     total energy              =   -4214.53506188 Ry
     estimated scf accuracy    <       0.00007426 Ry

     total magnetization       =     5.63 Bohr mag/cell
     absolute magnetization    =     9.10 Bohr mag/cell

     iteration # 40     ecut=    60.00 Ry     beta= 0.30
     Davidson diagonalization with overlap
     c_bands:  1 eigenvalues not converged
     ethr =  2.10E-08,  avg # of iterations =  9.2

     total cpu time spent up to now is     8875.9 secs

     total energy              =   -4214.53619117 Ry
     estimated scf accuracy    <       0.00012962 Ry

     total magnetization       =     5.63 Bohr mag/cell
     absolute magnetization    =     9.77 Bohr mag/cell

     iteration # 41     ecut=    60.00 Ry     beta= 0.30
     Davidson diagonalization with overlap
     ethr =  2.10E-08,  avg # of iterations =  6.9

     total cpu time spent up to now is     8911.9 secs

     total energy              =   -4214.53634364 Ry
     estimated scf accuracy    <       0.00010321 Ry

     total magnetization       =     5.63 Bohr mag/cell
     absolute magnetization    =    10.06 Bohr mag/cell

     iteration # 42     ecut=    60.00 Ry     beta= 0.30
     Davidson diagonalization with overlap
     ethr =  2.10E-08,  avg # of iterations =  6.9

     total cpu time spent up to now is     8948.6 secs

     total energy              =   -4214.53587444 Ry
     estimated scf accuracy    <       0.00005673 Ry

     total magnetization       =     5.64 Bohr mag/cell
     absolute magnetization    =    10.37 Bohr mag/cell

     iteration # 43     ecut=    60.00 Ry     beta= 0.30
     Davidson diagonalization with overlap
     ethr =  2.10E-08,  avg # of iterations =  7.9

     total cpu time spent up to now is     8986.6 secs

     total energy              =   -4214.53635405 Ry
     estimated scf accuracy    <       0.00010924 Ry

     total magnetization       =     5.65 Bohr mag/cell
     absolute magnetization    =     9.96 Bohr mag/cell

     iteration # 44     ecut=    60.00 Ry     beta= 0.30
     Davidson diagonalization with overlap
     ethr =  2.10E-08,  avg # of iterations =  5.4

     total cpu time spent up to now is     9018.5 secs

     total energy              =   -4214.53639925 Ry
     estimated scf accuracy    <       0.00005477 Ry

     total magnetization       =     5.64 Bohr mag/cell
     absolute magnetization    =    10.05 Bohr mag/cell

     iteration # 45     ecut=    60.00 Ry     beta= 0.30
     Davidson diagonalization with overlap
     ethr =  2.10E-08,  avg # of iterations =  1.9

     total cpu time spent up to now is     9045.1 secs

     total energy              =   -4214.53640033 Ry
     estimated scf accuracy    <       0.00004365 Ry

     total magnetization       =     5.64 Bohr mag/cell
     absolute magnetization    =    10.06 Bohr mag/cell

     iteration # 46     ecut=    60.00 Ry     beta= 0.30
     Davidson diagonalization with overlap
     ethr =  1.90E-08,  avg # of iterations =  1.1

     total cpu time spent up to now is     9070.8 secs

     total energy              =   -4214.53627053 Ry
     estimated scf accuracy    <       0.00004398 Ry

     total magnetization       =     5.65 Bohr mag/cell
     absolute magnetization    =    10.06 Bohr mag/cell

     iteration # 47     ecut=    60.00 Ry     beta= 0.30
     Davidson diagonalization with overlap
     ethr =  1.90E-08,  avg # of iterations =  7.3

     total cpu time spent up to now is     9108.5 secs

     total energy              =   -4214.53643262 Ry
     estimated scf accuracy    <       0.00008360 Ry

     total magnetization       =     5.64 Bohr mag/cell
     absolute magnetization    =    10.40 Bohr mag/cell

     iteration # 48     ecut=    60.00 Ry     beta= 0.30
     Davidson diagonalization with overlap
     ethr =  1.90E-08,  avg # of iterations =  5.3

     total cpu time spent up to now is     9141.2 secs

     total energy              =   -4214.53641373 Ry
     estimated scf accuracy    <       0.00004751 Ry

     total magnetization       =     5.64 Bohr mag/cell
     absolute magnetization    =    10.24 Bohr mag/cell

     iteration # 49     ecut=    60.00 Ry     beta= 0.30
     Davidson diagonalization with overlap
     ethr =  1.90E-08,  avg # of iterations =  5.2

     total cpu time spent up to now is     9171.8 secs

     total energy              =   -4214.53644396 Ry
     estimated scf accuracy    <       0.00005692 Ry

     total magnetization       =     5.65 Bohr mag/cell
     absolute magnetization    =    10.14 Bohr mag/cell

     iteration # 50     ecut=    60.00 Ry     beta= 0.30
     Davidson diagonalization with overlap
     ethr =  1.90E-08,  avg # of iterations =  5.7

     total cpu time spent up to now is     9204.9 secs

     total energy              =   -4214.53502685 Ry
     estimated scf accuracy    <       0.00004766 Ry

     total magnetization       =     5.63 Bohr mag/cell
     absolute magnetization    =    10.31 Bohr mag/cell

     iteration # 51     ecut=    60.00 Ry     beta= 0.30
     Davidson diagonalization with overlap
     c_bands:  1 eigenvalues not converged
     ethr =  1.90E-08,  avg # of iterations =  9.2

     total cpu time spent up to now is     9245.8 secs

     total energy              =   -4214.53613642 Ry
     estimated scf accuracy    <       0.00012914 Ry

     total magnetization       =     5.65 Bohr mag/cell
     absolute magnetization    =     9.68 Bohr mag/cell

     iteration # 52     ecut=    60.00 Ry     beta= 0.30
     Davidson diagonalization with overlap
     ethr =  1.90E-08,  avg # of iterations =  6.7

     total cpu time spent up to now is     9280.9 secs

     total energy              =   -4214.53635820 Ry
     estimated scf accuracy    <       0.00008393 Ry

     total magnetization       =     5.64 Bohr mag/cell
     absolute magnetization    =     9.92 Bohr mag/cell

     iteration # 53     ecut=    60.00 Ry     beta= 0.30
     Davidson diagonalization with overlap
     ethr =  1.90E-08,  avg # of iterations =  3.6

     total cpu time spent up to now is     9310.6 secs

     total energy              =   -4214.53629555 Ry
     estimated scf accuracy    <       0.00007175 Ry

     total magnetization       =     5.64 Bohr mag/cell
     absolute magnetization    =     9.96 Bohr mag/cell

     iteration # 54     ecut=    60.00 Ry     beta= 0.30
     Davidson diagonalization with overlap
     ethr =  1.90E-08,  avg # of iterations =  7.1

     total cpu time spent up to now is     9347.2 secs

     total energy              =   -4214.53650601 Ry
     estimated scf accuracy    <       0.00019490 Ry

     total magnetization       =     5.63 Bohr mag/cell
     absolute magnetization    =    10.25 Bohr mag/cell

     iteration # 55     ecut=    60.00 Ry     beta= 0.30
     Davidson diagonalization with overlap
     ethr =  1.90E-08,  avg # of iterations =  6.6

     total cpu time spent up to now is     9382.9 secs

     total energy              =   -4214.53642802 Ry
     estimated scf accuracy    <       0.00008246 Ry

     total magnetization       =     5.64 Bohr mag/cell
     absolute magnetization    =    10.48 Bohr mag/cell

     iteration # 56     ecut=    60.00 Ry     beta= 0.30
     Davidson diagonalization with overlap
     c_bands:  2 eigenvalues not converged
     ethr =  1.90E-08,  avg # of iterations =  8.6

     total cpu time spent up to now is     9422.1 secs

     total energy              =   -4214.53676106 Ry
     estimated scf accuracy    <       0.00005669 Ry

     total magnetization       =     5.62 Bohr mag/cell
     absolute magnetization    =    10.87 Bohr mag/cell

     iteration # 57     ecut=    60.00 Ry     beta= 0.30
     Davidson diagonalization with overlap
     ethr =  1.90E-08,  avg # of iterations =  7.1

     total cpu time spent up to now is     9458.3 secs

     total energy              =   -4214.53550795 Ry
     estimated scf accuracy    <       0.00006028 Ry

     total magnetization       =     5.62 Bohr mag/cell
     absolute magnetization    =    11.18 Bohr mag/cell

     iteration # 58     ecut=    60.00 Ry     beta= 0.30
     Davidson diagonalization with overlap
     c_bands:  1 eigenvalues not converged
     ethr =  1.90E-08,  avg # of iterations =  9.4

     total cpu time spent up to now is     9499.8 secs

     total energy              =   -4214.53460574 Ry
     estimated scf accuracy    <       0.00012932 Ry

     total magnetization       =     5.62 Bohr mag/cell
     absolute magnetization    =    10.52 Bohr mag/cell

     iteration # 59     ecut=    60.00 Ry     beta= 0.30
     Davidson diagonalization with overlap
     c_bands:  1 eigenvalues not converged
     c_bands:  2 eigenvalues not converged
     ethr =  1.90E-08,  avg # of iterations = 11.5

     total cpu time spent up to now is     9544.8 secs

     total energy              =   -4214.53718291 Ry
     estimated scf accuracy    <       0.00004252 Ry

     total magnetization       =     5.58 Bohr mag/cell
     absolute magnetization    =    11.43 Bohr mag/cell

     iteration # 60     ecut=    60.00 Ry     beta= 0.30
     Davidson diagonalization with overlap
     ethr =  1.85E-08,  avg # of iterations =  2.0

     total cpu time spent up to now is     9572.1 secs

     total energy              =   -4214.53497054 Ry
     estimated scf accuracy    <       0.00004511 Ry

     total magnetization       =     5.59 Bohr mag/cell
     absolute magnetization    =    11.42 Bohr mag/cell

     iteration # 61     ecut=    60.00 Ry     beta= 0.30
     Davidson diagonalization with overlap
     c_bands:  1 eigenvalues not converged
     c_bands:  1 eigenvalues not converged
     ethr =  1.85E-08,  avg # of iterations = 11.7

     total cpu time spent up to now is     9618.1 secs

     total energy              =   -4214.53761651 Ry
     estimated scf accuracy    <       0.00004885 Ry

     total magnetization       =     5.54 Bohr mag/cell
     absolute magnetization    =    12.35 Bohr mag/cell

     iteration # 62     ecut=    60.00 Ry     beta= 0.30
     Davidson diagonalization with overlap
     ethr =  1.85E-08,  avg # of iterations =  3.9

     total cpu time spent up to now is     9647.9 secs

     total energy              =   -4214.53597238 Ry
     estimated scf accuracy    <       0.00011161 Ry

     total magnetization       =     5.54 Bohr mag/cell
     absolute magnetization    =    12.31 Bohr mag/cell

     iteration # 63     ecut=    60.00 Ry     beta= 0.30
     Davidson diagonalization with overlap
     c_bands:  1 eigenvalues not converged
     ethr =  1.85E-08,  avg # of iterations = 11.2

     total cpu time spent up to now is     9692.4 secs

     total energy              =   -4214.53772454 Ry
     estimated scf accuracy    <       0.00002642 Ry

     total magnetization       =     5.50 Bohr mag/cell
     absolute magnetization    =    13.10 Bohr mag/cell

     iteration # 64     ecut=    60.00 Ry     beta= 0.30
     Davidson diagonalization with overlap
     ethr =  1.15E-08,  avg # of iterations =  7.0

     total cpu time spent up to now is     9728.3 secs

     total energy              =   -4214.53767728 Ry
     estimated scf accuracy    <       0.00002982 Ry

     total magnetization       =     5.51 Bohr mag/cell
     absolute magnetization    =    12.89 Bohr mag/cell

     iteration # 65     ecut=    60.00 Ry     beta= 0.30
     Davidson diagonalization with overlap
     c_bands:  1 eigenvalues not converged
     ethr =  1.15E-08,  avg # of iterations =  7.8

     total cpu time spent up to now is     9766.4 secs

     total energy              =   -4214.53793416 Ry
     estimated scf accuracy    <       0.00001851 Ry

     total magnetization       =     5.50 Bohr mag/cell
     absolute magnetization    =    13.18 Bohr mag/cell

     iteration # 66     ecut=    60.00 Ry     beta= 0.30
     Davidson diagonalization with overlap
     ethr =  8.05E-09,  avg # of iterations =  5.7

     total cpu time spent up to now is     9799.9 secs

     total energy              =   -4214.53771537 Ry
     estimated scf accuracy    <       0.00003171 Ry

     total magnetization       =     5.49 Bohr mag/cell
     absolute magnetization    =    13.26 Bohr mag/cell

     iteration # 67     ecut=    60.00 Ry     beta= 0.30
     Davidson diagonalization with overlap
     c_bands:  1 eigenvalues not converged
     ethr =  8.05E-09,  avg # of iterations =  8.5

     total cpu time spent up to now is     9839.6 secs

     total energy              =   -4214.53795033 Ry
     estimated scf accuracy    <       0.00006255 Ry

     total magnetization       =     5.46 Bohr mag/cell
     absolute magnetization    =    13.51 Bohr mag/cell

     iteration # 68     ecut=    60.00 Ry     beta= 0.30
     Davidson diagonalization with overlap
     ethr =  8.05E-09,  avg # of iterations =  6.2

     total cpu time spent up to now is     9873.5 secs

     total energy              =   -4214.53796609 Ry
     estimated scf accuracy    <       0.00001498 Ry

     total magnetization       =     5.47 Bohr mag/cell
     absolute magnetization    =    13.39 Bohr mag/cell

     iteration # 69     ecut=    60.00 Ry     beta= 0.30
     Davidson diagonalization with overlap
     ethr =  6.51E-09,  avg # of iterations =  5.5

     total cpu time spent up to now is     9906.6 secs

     total energy              =   -4214.53712844 Ry
     estimated scf accuracy    <       0.00002590 Ry

     total magnetization       =     5.47 Bohr mag/cell
     absolute magnetization    =    13.32 Bohr mag/cell

     iteration # 70     ecut=    60.00 Ry     beta= 0.30
     Davidson diagonalization with overlap
     ethr =  6.51E-09,  avg # of iterations = 11.3

     total cpu time spent up to now is     9951.1 secs

     total energy              =   -4214.53804934 Ry
     estimated scf accuracy    <       0.00000334 Ry

     total magnetization       =     5.44 Bohr mag/cell
     absolute magnetization    =    13.79 Bohr mag/cell

     iteration # 71     ecut=    60.00 Ry     beta= 0.30
     Davidson diagonalization with overlap
     ethr =  1.45E-09,  avg # of iterations =  6.5

     total cpu time spent up to now is     9985.1 secs

     total energy              =   -4214.53798946 Ry
     estimated scf accuracy    <       0.00000255 Ry

     total magnetization       =     5.44 Bohr mag/cell
     absolute magnetization    =    13.73 Bohr mag/cell

     iteration # 72     ecut=    60.00 Ry     beta= 0.30
     Davidson diagonalization with overlap
     ethr =  1.11E-09,  avg # of iterations =  9.7

     total cpu time spent up to now is    10027.1 secs

     total energy              =   -4214.53806145 Ry
     estimated scf accuracy    <       0.00000209 Ry

     total magnetization       =     5.43 Bohr mag/cell
     absolute magnetization    =    13.87 Bohr mag/cell

     iteration # 73     ecut=    60.00 Ry     beta= 0.30
     Davidson diagonalization with overlap
     ethr =  9.07E-10,  avg # of iterations =  5.5

     total cpu time spent up to now is    10060.7 secs

     total energy              =   -4214.53806396 Ry
     estimated scf accuracy    <       0.00000168 Ry

     total magnetization       =     5.43 Bohr mag/cell
     absolute magnetization    =    13.84 Bohr mag/cell

     iteration # 74     ecut=    60.00 Ry     beta= 0.30
     Davidson diagonalization with overlap
     ethr =  7.32E-10,  avg # of iterations =  5.1

     total cpu time spent up to now is    10091.9 secs

     total energy              =   -4214.53806161 Ry
     estimated scf accuracy    <       0.00000300 Ry

     total magnetization       =     5.43 Bohr mag/cell
     absolute magnetization    =    13.85 Bohr mag/cell

     iteration # 75     ecut=    60.00 Ry     beta= 0.30
     Davidson diagonalization with overlap
     ethr =  7.32E-10,  avg # of iterations =  6.0

     total cpu time spent up to now is    10126.2 secs

     total energy              =   -4214.53806380 Ry
     estimated scf accuracy    <       0.00000037 Ry

     total magnetization       =     5.43 Bohr mag/cell
     absolute magnetization    =    13.88 Bohr mag/cell

     iteration # 76     ecut=    60.00 Ry     beta= 0.30
     Davidson diagonalization with overlap
     c_bands:  1 eigenvalues not converged
     ethr =  1.59E-10,  avg # of iterations =  8.2

     total cpu time spent up to now is    10163.9 secs

     total energy              =   -4214.53806617 Ry
     estimated scf accuracy    <       0.00000054 Ry

     total magnetization       =     5.43 Bohr mag/cell
     absolute magnetization    =    13.90 Bohr mag/cell

     iteration # 77     ecut=    60.00 Ry     beta= 0.30
     Davidson diagonalization with overlap
     ethr =  1.59E-10,  avg # of iterations =  1.6

     total cpu time spent up to now is    10191.1 secs

     total energy              =   -4214.53806580 Ry
     estimated scf accuracy    <       0.00000040 Ry

     total magnetization       =     5.43 Bohr mag/cell
     absolute magnetization    =    13.90 Bohr mag/cell

     iteration # 78     ecut=    60.00 Ry     beta= 0.30
     Davidson diagonalization with overlap
     ethr =  1.59E-10,  avg # of iterations =  5.9

     total cpu time spent up to now is    10224.8 secs

     total energy              =   -4214.53806539 Ry
     estimated scf accuracy    <       0.00000042 Ry

     total magnetization       =     5.43 Bohr mag/cell
     absolute magnetization    =    13.89 Bohr mag/cell

     iteration # 79     ecut=    60.00 Ry     beta= 0.30
     Davidson diagonalization with overlap
     ethr =  1.59E-10,  avg # of iterations =  6.1

     total cpu time spent up to now is    10259.2 secs

     total energy              =   -4214.53806612 Ry
     estimated scf accuracy    <       0.00000016 Ry

     total magnetization       =     5.43 Bohr mag/cell
     absolute magnetization    =    13.91 Bohr mag/cell

     iteration # 80     ecut=    60.00 Ry     beta= 0.30
     Davidson diagonalization with overlap
     ethr =  7.10E-11,  avg # of iterations =  6.1

     total cpu time spent up to now is    10294.4 secs

     total energy              =   -4214.53806657 Ry
     estimated scf accuracy    <       0.00000014 Ry

     total magnetization       =     5.43 Bohr mag/cell
     absolute magnetization    =    13.90 Bohr mag/cell

     iteration # 81     ecut=    60.00 Ry     beta= 0.30
     Davidson diagonalization with overlap
     ethr =  6.18E-11,  avg # of iterations =  5.0

     total cpu time spent up to now is    10325.5 secs

     total energy              =   -4214.53806667 Ry
     estimated scf accuracy    <       0.00000011 Ry

     total magnetization       =     5.43 Bohr mag/cell
     absolute magnetization    =    13.89 Bohr mag/cell

     iteration # 82     ecut=    60.00 Ry     beta= 0.30
     Davidson diagonalization with overlap
     ethr =  4.68E-11,  avg # of iterations =  3.6

     total cpu time spent up to now is    10354.6 secs

     total energy              =   -4214.53806600 Ry
     estimated scf accuracy    <       0.00000004 Ry

     total magnetization       =     5.43 Bohr mag/cell
     absolute magnetization    =    13.89 Bohr mag/cell

     iteration # 83     ecut=    60.00 Ry     beta= 0.30
     Davidson diagonalization with overlap
     ethr =  1.85E-11,  avg # of iterations =  8.4

     total cpu time spent up to now is    10394.0 secs

     total energy              =   -4214.53806647 Ry
     estimated scf accuracy    <       0.00000024 Ry

     total magnetization       =     5.43 Bohr mag/cell
     absolute magnetization    =    13.91 Bohr mag/cell

     iteration # 84     ecut=    60.00 Ry     beta= 0.30
     Davidson diagonalization with overlap
     ethr =  1.85E-11,  avg # of iterations =  7.2

     total cpu time spent up to now is    10430.5 secs

     total energy              =   -4214.53806667 Ry
     estimated scf accuracy    <       0.00000011 Ry

     total magnetization       =     5.43 Bohr mag/cell
     absolute magnetization    =    13.90 Bohr mag/cell

     iteration # 85     ecut=    60.00 Ry     beta= 0.30
     Davidson diagonalization with overlap
     ethr =  1.85E-11,  avg # of iterations =  5.5

     total cpu time spent up to now is    10463.6 secs

     total energy              =   -4214.53806672 Ry
     estimated scf accuracy    <       0.00000008 Ry

     total magnetization       =     5.43 Bohr mag/cell
     absolute magnetization    =    13.89 Bohr mag/cell

     iteration # 86     ecut=    60.00 Ry     beta= 0.30
     Davidson diagonalization with overlap
     ethr =  1.85E-11,  avg # of iterations =  5.2

     total cpu time spent up to now is    10495.4 secs

     total energy              =   -4214.53806674 Ry
     estimated scf accuracy    <       0.00000002 Ry

     total magnetization       =     5.43 Bohr mag/cell
     absolute magnetization    =    13.89 Bohr mag/cell

     iteration # 87     ecut=    60.00 Ry     beta= 0.30
     Davidson diagonalization with overlap
     ethr =  6.66E-12,  avg # of iterations =  6.2

     total cpu time spent up to now is    10528.5 secs

     total energy              =   -4214.53806676 Ry
     estimated scf accuracy    <       0.00000002 Ry

     total magnetization       =     5.43 Bohr mag/cell
     absolute magnetization    =    13.90 Bohr mag/cell

     iteration # 88     ecut=    60.00 Ry     beta= 0.30
     Davidson diagonalization with overlap
     ethr =  6.66E-12,  avg # of iterations =  5.0

     total cpu time spent up to now is    10559.8 secs

     total energy              =   -4214.53806677 Ry
     estimated scf accuracy    <          6.9E-09 Ry

     total magnetization       =     5.43 Bohr mag/cell
     absolute magnetization    =    13.90 Bohr mag/cell

     iteration # 89     ecut=    60.00 Ry     beta= 0.30
     Davidson diagonalization with overlap
     ethr =  2.98E-12,  avg # of iterations =  4.3

     total cpu time spent up to now is    10588.8 secs

     total energy              =   -4214.53806677 Ry
     estimated scf accuracy    <          7.2E-09 Ry

     total magnetization       =     5.43 Bohr mag/cell
     absolute magnetization    =    13.90 Bohr mag/cell

     iteration # 90     ecut=    60.00 Ry     beta= 0.30
     Davidson diagonalization with overlap
     ethr =  2.98E-12,  avg # of iterations =  5.5

     total cpu time spent up to now is    10621.6 secs

     total energy              =   -4214.53806677 Ry
     estimated scf accuracy    <          6.2E-09 Ry

     total magnetization       =     5.43 Bohr mag/cell
     absolute magnetization    =    13.90 Bohr mag/cell

     iteration # 91     ecut=    60.00 Ry     beta= 0.30
     Davidson diagonalization with overlap
     ethr =  2.68E-12,  avg # of iterations =  5.1

     total cpu time spent up to now is    10652.2 secs

     total energy              =   -4214.53806677 Ry
     estimated scf accuracy    <          3.3E-09 Ry

     total magnetization       =     5.43 Bohr mag/cell
     absolute magnetization    =    13.90 Bohr mag/cell

     iteration # 92     ecut=    60.00 Ry     beta= 0.30
     Davidson diagonalization with overlap
     ethr =  1.44E-12,  avg # of iterations =  5.3

     total cpu time spent up to now is    10685.7 secs

     total energy              =   -4214.53806678 Ry
     estimated scf accuracy    <          1.9E-09 Ry

     total magnetization       =     5.43 Bohr mag/cell
     absolute magnetization    =    13.90 Bohr mag/cell

     iteration # 93     ecut=    60.00 Ry     beta= 0.30
     Davidson diagonalization with overlap
     ethr =  8.25E-13,  avg # of iterations =  5.0
 
     Magnetic moment per site  (integrated on atomic sphere of radius R)
     atom   1 (R=0.179)  charge= 12.1603  magn=  0.7793
     atom   2 (R=0.179)  charge= 14.4806  magn=  1.1741
     atom   3 (R=0.179)  charge= 12.1603  magn=  0.7793
     atom   4 (R=0.179)  charge= 12.1807  magn= -0.7697
     atom   5 (R=0.179)  charge= 12.1603  magn=  0.7793
     atom   6 (R=0.179)  charge= 12.1997  magn= -0.7128
     atom   7 (R=0.179)  charge= 12.1603  magn=  0.7793
     atom   8 (R=0.179)  charge= 12.1915  magn= -0.7940
     atom   9 (R=0.179)  charge= 12.1603  magn=  0.7793
     atom  10 (R=0.179)  charge= 12.1807  magn= -0.7697
     atom  11 (R=0.179)  charge= 12.1603  magn=  0.7793
     atom  12 (R=0.179)  charge= 14.4638  magn=  0.6870
     atom  13 (R=0.179)  charge= 12.1603  magn=  0.7793
     atom  14 (R=0.179)  charge= 12.1915  magn= -0.7940
     atom  15 (R=0.179)  charge= 12.1603  magn=  0.7793
     atom  16 (R=0.179)  charge= 14.4783  magn=  1.1671

     total cpu time spent up to now is    10716.9 secs

     End of self-consistent calculation

 ------ SPIN UP ------------


          k = 0.0000 0.0000 0.0000 (  9771 PWs)   bands (ev):

   -68.1707 -68.1632 -68.0450 -52.6897 -52.6519 -52.6513 -52.6513 -52.6342
   -52.6342 -52.6336 -52.6174 -51.7710 -51.7697 -51.7519 -51.7505 -51.7481
   -34.2457 -34.2286 -34.2258 -34.2258 -34.2164 -34.2164 -34.1046 -34.0981
   -34.0981 -24.2726 -24.2327 -24.2327 -24.1767 -24.1767 -24.1340 -24.1008
   -24.0877 -24.0867 -24.0597 -24.0597 -24.0560 -23.9796 -23.9704 -23.9704
   -23.9119 -23.9119 -23.9105 -23.9032 -23.9032 -23.9029 -23.8995 -23.8865
   -23.8864 -23.2110 -23.1711 -23.1711 -23.1278 -23.1278 -23.0750 -23.0392
   -23.0344 -23.0344 -23.0132 -23.0132 -22.9936 -22.9738 -22.9718 -22.9718
    11.3599  14.6700  14.7107  14.7983  14.9585  14.9643  14.9643  14.9731
    14.9902  15.1392  15.2519  15.2734  15.2734  15.3199  15.4260  16.5974
    16.7084  16.7084  16.7926  16.7978  16.7978  16.8010  16.8010  16.9862
    16.9899  16.9998  17.0352  17.0352  17.1311  17.4017  17.4068  17.4068
    17.6187  18.0987  18.2218  18.2218  18.4748  18.5477  18.5477  18.6878
    18.7048  18.7048  18.7228  18.7424  18.7424  18.9878  19.0723  19.0723
    19.0833  19.3345  19.5052  19.7382  19.7797  19.8362  19.8995  19.9094
    20.1671  20.1671  20.1988  20.3119  20.3119  20.3264  20.3525  20.3525
    20.5045  20.5045  20.5805  20.6537  20.6565  20.6565  20.6718  20.6756
    20.7133  20.7309

          k = 0.0000 0.0000 0.1661 (  9727 PWs)   bands (ev):

   -68.1707 -68.1631 -68.0449 -52.6873 -52.6539 -52.6507 -52.6501 -52.6354
   -52.6348 -52.6331 -52.6185 -51.7706 -51.7683 -51.7519 -51.7517 -51.7485
   -34.2456 -34.2286 -34.2256 -34.2256 -34.2165 -34.2164 -34.1046 -34.0981
   -34.0980 -24.2563 -24.2252 -24.2193 -24.1715 -24.1649 -24.1276 -24.1044
   -24.0941 -24.0832 -24.0687 -24.0663 -24.0487 -23.9779 -23.9755 -23.9674
   -23.9310 -23.9278 -23.9119 -23.9115 -23.9107 -23.9059 -23.9019 -23.8925
   -23.8874 -23.1912 -23.1596 -23.1569 -23.1188 -23.1175 -23.0740 -23.0366
   -23.0349 -23.0347 -23.0205 -23.0182 -23.0048 -22.9835 -22.9794 -22.9780
    11.5122  14.4506  14.7645  14.7818  14.8896  15.0095  15.0143  15.0547
    15.0691  15.0863  15.2957  15.3039  15.3238  15.3662  15.7257  16.6003
    16.6300  16.6518  16.6831  16.7269  16.7445  16.7514  16.8138  16.8610
    16.9885  17.0194  17.0715  17.1822  17.1971  17.3010  17.3570  17.3988
    18.0057  18.1265  18.1503  18.1965  18.3604  18.3851  18.4097  18.5031
    18.5554  18.7089  18.7852  18.8129  18.8535  18.9108  18.9881  19.0047
    19.2307  19.3036  19.4421  19.5187  19.5849  19.6356  19.6677  19.8547
    19.8830  20.0264  20.0650  20.0889  20.1134  20.2198  20.3160  20.3283
    20.4120  20.4510  20.5582  20.5652  20.6610  20.6686  20.7073  20.7095
    20.7193  21.0023

          k = 0.0000 0.0000 0.3323 (  9712 PWs)   bands (ev):

   -68.1707 -68.1631 -68.0449 -52.6806 -52.6608 -52.6475 -52.6469 -52.6386
   -52.6380 -52.6300 -52.6216 -51.7696 -51.7647 -51.7551 -51.7520 -51.7494
   -34.2454 -34.2288 -34.2253 -34.2252 -34.2168 -34.2166 -34.1046 -34.0981
   -34.0979 -24.2121 -24.2059 -24.1879 -24.1576 -24.1285 -24.1248 -24.1184
   -24.1115 -24.0913 -24.0878 -24.0614 -24.0179 -23.9991 -23.9910 -23.9838
   -23.9609 -23.9552 -23.9338 -23.9260 -23.9211 -23.9075 -23.8989 -23.8984
   -23.8906 -23.1428 -23.1310 -23.1235 -23.0937 -23.0906 -23.0723 -23.0490
   -23.0433 -23.0373 -23.0359 -23.0259 -23.0223 -23.0148 -22.9987 -22.9895
    11.9563  13.5345  14.9324  14.9441  15.1455  15.1472  15.1751  15.2643
    15.2880  15.3347  15.3657  15.3687  15.3824  15.4285  15.7583  16.1261
    16.2103  16.4295  16.5807  16.6372  16.7010  16.7329  17.0196  17.0391
    17.1100  17.1697  17.1711  17.3350  17.3578  17.3612  17.6147  17.6759
    17.8330  17.8718  18.0487  18.0882  18.1302  18.1637  18.2581  18.3931
    18.3974  18.4627  18.5113  18.5861  18.6237  18.6276  18.8796  18.9950
    19.0476  19.0555  19.0625  19.2317  19.3629  19.4040  19.6063  19.6561
    19.8539  20.0085  20.0563  20.1205  20.1347  20.2352  20.3510  20.5010
    20.5130  20.5138  20.6715  20.6949  20.7031  20.7301  20.7416  20.8522
    20.9482  21.0392

          k = 0.0000 0.0000-0.4984 (  9702 PWs)   bands (ev):

   -68.1706 -68.1631 -68.0449 -52.6735 -52.6681 -52.6433 -52.6428 -52.6427
   -52.6423 -52.6260 -52.6256 -51.7691 -51.7598 -51.7598 -51.7521 -51.7498
   -34.2453 -34.2289 -34.2251 -34.2250 -34.2169 -34.2167 -34.1046 -34.0980
   -34.0979 -24.1899 -24.1654 -24.1598 -24.1513 -24.1455 -24.1373 -24.1297
   -24.1141 -24.0820 -24.0690 -24.0570 -24.0371 -24.0222 -24.0161 -23.9776
   -23.9741 -23.9497 -23.9473 -23.9413 -23.9277 -23.9034 -23.9029 -23.8949
   -23.8946 -23.1092 -23.0969 -23.0868 -23.0862 -23.0713 -23.0683 -23.0654
   -23.0590 -23.0587 -23.0533 -23.0482 -23.0271 -23.0109 -23.0075 -23.0038
    12.6069  12.7052  15.0763  15.1191  15.2095  15.2502  15.3009  15.3045
    15.3063  15.3084  15.5112  15.5582  15.6191  15.6635  15.6976  15.7456
    15.8817  15.9567  16.5731  16.6405  16.6928  16.7054  17.3014  17.3199
    17.3885  17.4318  17.4350  17.4845  17.4913  17.4935  17.5009  17.6101
    17.7233  17.7813  17.7821  17.8022  17.8366  18.1281  18.1555  18.2048
    18.2328  18.2451  18.2834  18.3454  18.5239  18.5242  18.6679  18.7739
    18.8038  18.8097  18.9071  19.4949  19.6689  19.7423  19.7642  19.7989
    19.8123  19.8171  19.9312  19.9787  20.3157  20.3943  20.4414  20.4761
    20.5004  20.5200  20.5306  20.5760  20.6860  20.6863  20.6888  20.9165
    21.0093  21.0465

          k = 0.0000 0.1657 0.1661 (  9707 PWs)   bands (ev):

   -68.1706 -68.1631 -68.0449 -52.6850 -52.6533 -52.6526 -52.6490 -52.6366
   -52.6342 -52.6337 -52.6196 -51.7701 -51.7673 -51.7530 -51.7517 -51.7490
   -34.2436 -34.2287 -34.2255 -34.2254 -34.2166 -34.2165 -34.1065 -34.0981
   -34.0980 -24.2474 -24.2128 -24.2074 -24.1586 -24.1530 -24.1333 -24.1068
   -24.0975 -24.0851 -24.0689 -24.0651 -24.0479 -23.9867 -23.9717 -23.9655
   -23.9377 -23.9362 -23.9255 -23.9186 -23.9117 -23.9098 -23.9071 -23.8990
   -23.8908 -23.1835 -23.1481 -23.1456 -23.1078 -23.1075 -23.0745 -23.0397
   -23.0358 -23.0326 -23.0272 -23.0263 -23.0077 -22.9986 -22.9859 -22.9753
    11.6613  14.4932  14.5490  14.8079  14.8890  14.9392  15.0830  15.1307
    15.1338  15.1371  15.1653  15.3865  15.3904  15.7351  15.7610  16.4852
    16.5539  16.6198  16.6504  16.6945  16.7614  16.7791  16.7929  16.8731
    16.9226  17.0017  17.1189  17.1822  17.1974  17.2242  17.2753  17.7624
    17.8511  17.9615  18.1454  18.1923  18.2677  18.3370  18.4740  18.4836
    18.5638  18.5765  18.6678  18.7686  18.8570  18.9109  18.9509  19.1241
    19.1967  19.2254  19.2975  19.3697  19.3960  19.4010  19.6215  19.6318
    19.7473  19.7869  19.9984  19.9989  20.1230  20.1941  20.2346  20.3083
    20.5188  20.5695  20.6187  20.6880  20.6973  20.7364  20.7472  20.8040
    20.8697  20.9040

          k = 0.0000 0.1657 0.3323 (  9707 PWs)   bands (ev):

   -68.1707 -68.1631 -68.0449 -52.6785 -52.6594 -52.6496 -52.6458 -52.6401
   -52.6369 -52.6311 -52.6227 -51.7693 -51.7639 -51.7549 -51.7528 -51.7500
   -34.2435 -34.2290 -34.2253 -34.2249 -34.2168 -34.2166 -34.1066 -34.0981
   -34.0979 -24.2147 -24.1909 -24.1763 -24.1456 -24.1293 -24.1269 -24.1196
   -24.1126 -24.0824 -24.0794 -24.0603 -24.0221 -24.0009 -23.9911 -23.9838
   -23.9639 -23.9529 -23.9379 -23.9365 -23.9237 -23.9163 -23.9077 -23.9044
   -23.8947 -23.1528 -23.1226 -23.1173 -23.0850 -23.0846 -23.0736 -23.0663
   -23.0462 -23.0405 -23.0377 -23.0366 -23.0137 -23.0098 -23.0022 -22.9803
    12.0974  13.6362  14.6747  14.8410  15.0450  15.2359  15.2668  15.2710
    15.3494  15.3915  15.4310  15.4773  15.4781  15.7185  15.8125  16.1588
    16.2081  16.3796  16.6649  16.6694  16.7626  16.7881  16.8511  16.9854
    16.9900  17.1055  17.1344  17.2397  17.3546  17.4032  17.4970  17.7797
    17.7951  17.8270  17.8968  17.9773  18.0622  18.1312  18.2126  18.2276
    18.3466  18.3989  18.4632  18.5330  18.7007  18.7374  18.7852  18.8272
    18.9925  19.0109  19.1351  19.2671  19.2920  19.4425  19.5397  19.5937
    19.7057  19.9255  19.9486  19.9717  20.1380  20.1671  20.2461  20.5013
    20.5055  20.5520  20.6068  20.6466  20.7103  20.7190  20.7430  20.8104
    20.8865  21.0170

          k = 0.0000 0.1657-0.4984 (  9712 PWs)   bands (ev):

   -68.1707 -68.1631 -68.0449 -52.6716 -52.6664 -52.6452 -52.6445 -52.6416
   -52.6412 -52.6271 -52.6267 -51.7688 -51.7593 -51.7593 -51.7526 -51.7506
   -34.2434 -34.2291 -34.2252 -34.2248 -34.2169 -34.2167 -34.1065 -34.0981
   -34.0979 -24.1857 -24.1688 -24.1585 -24.1548 -24.1480 -24.1225 -24.1154
   -24.1024 -24.0748 -24.0641 -24.0531 -24.0383 -24.0222 -24.0165 -23.9815
   -23.9774 -23.9533 -23.9493 -23.9473 -23.9288 -23.9154 -23.9112 -23.8996
   -23.8993 -23.1182 -23.1085 -23.0956 -23.0919 -23.0758 -23.0691 -23.0664
   -23.0612 -23.0570 -23.0487 -23.0393 -23.0244 -23.0121 -22.9958 -22.9926
    12.7324  12.8319  14.7574  14.8578  15.2019  15.3328  15.4213  15.4272
    15.5064  15.5294  15.5632  15.6375  15.6914  15.7091  15.7561  15.8089
    15.9202  15.9895  16.6299  16.6767  16.7164  16.7526  17.1473  17.1683
    17.1856  17.2690  17.2991  17.3635  17.3746  17.4270  17.6032  17.6960
    17.7025  17.7419  17.8149  17.8667  17.9341  17.9649  18.0537  18.0652
    18.1769  18.1827  18.1918  18.2258  18.2777  18.3486  18.8858  18.9193
    18.9322  18.9384  19.0150  19.4711  19.5104  19.5705  19.6584  19.6625
    19.6741  19.8121  19.9109  20.0381  20.2441  20.2647  20.2746  20.3699
    20.4120  20.4474  20.4919  20.6370  20.6678  20.7001  20.8189  20.8358
    20.9211  21.0023

          k = 0.0000 0.3314 0.3323 (  9705 PWs)   bands (ev):

   -68.1706 -68.1631 -68.0449 -52.6728 -52.6562 -52.6547 -52.6441 -52.6427
   -52.6342 -52.6340 -52.6257 -51.7685 -51.7615 -51.7551 -51.7542 -51.7514
   -34.2395 -34.2293 -34.2252 -34.2244 -34.2169 -34.2166 -34.1106 -34.0981
   -34.0979 -24.2016 -24.1731 -24.1489 -24.1479 -24.1399 -24.1191 -24.1126
   -24.0935 -24.0687 -24.0655 -24.0488 -24.0207 -24.0089 -24.0025 -23.9870
   -23.9692 -23.9669 -23.9507 -23.9459 -23.9447 -23.9345 -23.9171 -23.9106
   -23.9004 -23.1499 -23.1194 -23.1027 -23.0938 -23.0860 -23.0713 -23.0696
   -23.0680 -23.0544 -23.0400 -23.0251 -23.0101 -22.9986 -22.9964 -22.9815
    12.5058  13.8685  13.9510  14.5970  15.3261  15.3871  15.4687  15.5330
    15.5750  15.5907  15.6150  15.6565  15.6757  15.7706  15.8757  16.1545
    16.2557  16.3000  16.4154  16.7699  16.7952  16.8392  16.8743  16.8755
    16.8972  16.9829  17.0783  17.2401  17.2963  17.3725  17.4457  17.5554
    17.6747  17.7048  17.7923  17.8108  17.9015  17.9512  18.0408  18.0931
    18.0984  18.1530  18.2039  18.3426  18.5237  18.6052  18.8478  18.9896
    19.0171  19.1174  19.1426  19.2361  19.3635  19.3666  19.3943  19.4883
    19.6295  19.7057  19.8269  19.8565  20.0587  20.1293  20.2201  20.4242
    20.4371  20.5270  20.6049  20.6141  20.6432  20.6852  20.7095  20.7891
    20.8648  20.8956

          k = 0.0000 0.3314-0.4984 (  9714 PWs)   bands (ev):

   -68.1706 -68.1631 -68.0449 -52.6665 -52.6618 -52.6504 -52.6492 -52.6385
   -52.6381 -52.6302 -52.6297 -51.7683 -51.7579 -51.7578 -51.7540 -51.7526
   -34.2395 -34.2295 -34.2251 -34.2242 -34.2169 -34.2166 -34.1106 -34.0981
   -34.0979 -24.1744 -24.1726 -24.1629 -24.1560 -24.1305 -24.1087 -24.1074
   -24.0721 -24.0504 -24.0446 -24.0440 -24.0314 -24.0217 -24.0169 -23.9891
   -23.9854 -23.9715 -23.9712 -23.9515 -23.9499 -23.9394 -23.9181 -23.9071
   -23.9065 -23.1288 -23.1260 -23.1105 -23.1050 -23.0928 -23.0712 -23.0652
   -23.0616 -23.0525 -23.0503 -23.0146 -23.0093 -23.0063 -22.9867 -22.9834
    13.0897  13.1901  14.2151  14.3286  15.4658  15.5615  15.6387  15.6761
    15.6837  15.7182  15.7321  15.8097  15.8125  15.8623  15.9291  16.0126
    16.0306  16.0597  16.5902  16.7080  16.7559  16.8640  16.8908  16.8994
    16.9840  16.9936  17.0524  17.0654  17.3847  17.3958  17.4098  17.4555
    17.5937  17.6155  17.6503  17.6949  17.7370  17.8446  17.8608  17.9215
    18.1430  18.1492  18.1865  18.2033  18.2052  18.2342  19.0519  19.0912
    19.1148  19.1375  19.1966  19.3139  19.3232  19.3346  19.3727  19.4512
    19.5531  19.6678  19.7517  20.0231  20.0670  20.1902  20.1978  20.2295
    20.2470  20.5222  20.5480  20.6089  20.6486  20.7325  20.7349  20.7424
    20.7656  20.8628

          k = 0.0000-0.4970-0.4984 (  9692 PWs)   bands (ev):

   -68.1706 -68.1631 -68.0449 -52.6616 -52.6561 -52.6553 -52.6549 -52.6348
   -52.6344 -52.6339 -52.6335 -51.7680 -51.7564 -51.7555 -51.7555 -51.7551
   -34.2375 -34.2297 -34.2251 -34.2239 -34.2169 -34.2165 -34.1127 -34.0981
   -34.0979 -24.1681 -24.1656 -24.1649 -24.1643 -24.1159 -24.1085 -24.1073
   -24.0442 -24.0429 -24.0387 -24.0242 -24.0211 -24.0083 -24.0031 -23.9996
   -23.9974 -23.9883 -23.9866 -23.9806 -23.9750 -23.9368 -23.9148 -23.9122
   -23.9115 -23.1275 -23.1263 -23.1256 -23.1235 -23.0912 -23.0714 -23.0656
   -23.0580 -23.0523 -23.0500 -23.0162 -22.9932 -22.9909 -22.9884 -22.9873
    13.6141  13.6227  13.6364  13.8209  15.6083  15.6329  15.6970  15.8304
    15.8399  15.8533  15.8631  15.9655  15.9661  15.9672  16.0595  16.0641
    16.1764  16.2173  16.2645  16.5853  16.7896  16.8077  16.8134  16.8330
    16.8395  16.8892  16.9750  16.9797  17.2649  17.2859  17.4094  17.4212
    17.5021  17.5104  17.5109  17.5913  17.6101  17.6241  17.6268  17.8578
    18.1142  18.1281  18.1425  18.1615  18.5914  18.5927  18.8005  18.8099
    19.1623  19.1782  19.2499  19.2667  19.2840  19.3327  19.4988  19.5263
    19.5419  19.5575  19.5658  19.8093  19.8393  20.1018  20.3051  20.4181
    20.4255  20.4420  20.4575  20.5819  20.6621  20.6674  20.7046  20.7112
    20.7184  20.8081

          k = 0.1661 0.1657 0.1661 (  9727 PWs)   bands (ev):

   -68.1707 -68.1631 -68.0449 -52.6826 -52.6523 -52.6520 -52.6505 -52.6355
   -52.6354 -52.6350 -52.6207 -51.7697 -51.7662 -51.7530 -51.7527 -51.7494
   -34.2435 -34.2288 -34.2256 -34.2252 -34.2168 -34.2165 -34.1066 -34.0980
   -34.0980 -24.2340 -24.2026 -24.2008 -24.1493 -24.1457 -24.1266 -24.1081
   -24.1075 -24.0852 -24.0641 -24.0592 -24.0564 -23.9833 -23.9787 -23.9630
   -23.9416 -23.9414 -23.9270 -23.9265 -23.9216 -23.9188 -23.9135 -23.9017
   -23.9001 -23.1702 -23.1466 -23.1371 -23.1021 -23.0938 -23.0732 -23.0522
   -23.0391 -23.0382 -23.0244 -23.0211 -23.0190 -23.0066 -22.9816 -22.9809
    11.8089  14.4906  14.6112  14.7381  14.8900  14.9310  14.9851  15.1643
    15.1817  15.2134  15.2351  15.2680  15.7890  15.8111  15.8193  16.3832
    16.5497  16.5793  16.6630  16.7326  16.7540  16.7924  16.8239  16.8793
    16.9231  16.9486  17.1070  17.1077  17.1271  17.1395  17.5161  17.6521
    17.7606  17.8709  18.1165  18.1341  18.1993  18.3031  18.3480  18.5100
    18.5375  18.5606  18.6316  18.6866  18.7233  18.7687  18.8617  19.0577
    19.1339  19.1463  19.2079  19.3160  19.3326  19.4044  19.4470  19.5319
    19.5496  19.9489  19.9645  20.0844  20.0889  20.1319  20.2930  20.3183
    20.5394  20.5675  20.6277  20.6392  20.6905  20.6944  20.7384  20.8062
    20.8099  20.8881

          k = 0.1661 0.1657 0.3323 (  9698 PWs)   bands (ev):

   -68.1706 -68.1631 -68.0449 -52.6764 -52.6581 -52.6485 -52.6477 -52.6390
   -52.6384 -52.6324 -52.6238 -51.7688 -51.7632 -51.7555 -51.7528 -51.7504
   -34.2434 -34.2290 -34.2254 -34.2249 -34.2168 -34.2165 -34.1065 -34.0980
   -34.0979 -24.2016 -24.1816 -24.1771 -24.1355 -24.1286 -24.1240 -24.1150
   -24.1104 -24.0823 -24.0756 -24.0574 -24.0289 -23.9994 -23.9869 -23.9828
   -23.9665 -23.9538 -23.9397 -23.9372 -23.9325 -23.9271 -23.9167 -23.9135
   -23.9045 -23.1416 -23.1305 -23.1160 -23.0814 -23.0799 -23.0741 -23.0698
   -23.0616 -23.0380 -23.0366 -23.0318 -23.0167 -23.0074 -22.9976 -22.9821
    12.2379  13.7383  14.7704  14.8091  14.9421  14.9931  15.2772  15.3196
    15.3844  15.4458  15.5001  15.5437  15.7723  15.8422  15.8954  16.2121
    16.2170  16.4242  16.6492  16.7136  16.7480  16.8203  16.8386  16.8766
    16.9725  17.0677  17.1539  17.2531  17.2795  17.3161  17.4462  17.6239
    17.6891  17.8164  17.8916  17.9081  17.9907  18.0480  18.0998  18.1610
    18.2067  18.2549  18.2877  18.4059  18.5284  18.6513  18.8493  18.8586
    18.9440  19.0486  19.1640  19.2182  19.3489  19.4512  19.4860  19.5320
    19.6793  19.8166  19.9569  20.0680  20.0835  20.2325  20.2958  20.3840
    20.5064  20.5433  20.5564  20.6598  20.6686  20.7316  20.7910  20.8248
    20.8535  20.9085

          k = 0.1661 0.1657-0.4984 (  9716 PWs)   bands (ev):

   -68.1707 -68.1631 -68.0449 -52.6696 -52.6650 -52.6442 -52.6434 -52.6434
   -52.6426 -52.6283 -52.6279 -51.7684 -51.7593 -51.7593 -51.7526 -51.7511
   -34.2434 -34.2291 -34.2252 -34.2249 -34.2167 -34.2166 -34.1066 -34.0980
   -34.0979 -24.1777 -24.1616 -24.1558 -24.1503 -24.1408 -24.1247 -24.1093
   -24.1012 -24.0748 -24.0559 -24.0552 -24.0271 -24.0218 -24.0135 -23.9858
   -23.9794 -23.9588 -23.9477 -23.9469 -23.9392 -23.9234 -23.9186 -23.9105
   -23.9102 -23.1172 -23.1097 -23.1016 -23.1003 -23.0765 -23.0758 -23.0703
   -23.0619 -23.0589 -23.0329 -23.0303 -23.0228 -23.0131 -22.9945 -22.9900
    12.8579  12.9603  14.8758  14.9069  14.9385  15.0252  15.5201  15.5932
    15.6206  15.6558  15.6564  15.7233  15.7530  15.8070  15.8458  15.8575
    15.9633  16.0326  16.6488  16.7438  16.7480  16.7861  17.0999  17.1004
    17.1570  17.1718  17.1857  17.2714  17.2856  17.4237  17.5434  17.5919
    17.6185  17.6934  17.7158  17.7879  17.8117  17.9585  17.9849  18.0376
    18.0500  18.0625  18.0910  18.1026  18.1168  18.1685  18.9654  19.0062
    19.0769  19.0827  19.1378  19.3101  19.3692  19.4287  19.5354  19.6055
    19.6992  19.7892  19.8091  20.0479  20.1036  20.3015  20.3370  20.3815
    20.4374  20.5118  20.5126  20.6398  20.6569  20.7206  20.7669  20.8080
    20.9271  20.9708

          k = 0.1661 0.3314 0.3323 (  9701 PWs)   bands (ev):

   -68.1706 -68.1631 -68.0449 -52.6708 -52.6548 -52.6535 -52.6446 -52.6429
   -52.6356 -52.6353 -52.6269 -51.7682 -51.7610 -51.7550 -51.7546 -51.7518
   -34.2395 -34.2292 -34.2252 -34.2245 -34.2168 -34.2166 -34.1106 -34.0980
   -34.0979 -24.1889 -24.1610 -24.1473 -24.1383 -24.1329 -24.1143 -24.1079
   -24.0928 -24.0715 -24.0633 -24.0446 -24.0295 -24.0042 -23.9985 -23.9885
   -23.9711 -23.9659 -23.9536 -23.9520 -23.9489 -23.9400 -23.9308 -23.9266
   -23.9144 -23.1379 -23.1130 -23.1008 -23.0948 -23.0899 -23.0749 -23.0713
   -23.0637 -23.0500 -23.0398 -23.0233 -23.0110 -23.0047 -22.9968 -22.9881
    12.6427  13.9822  14.0670  14.7281  15.0567  15.2960  15.3358  15.5297
    15.6068  15.6384  15.7276  15.7781  15.8463  15.9769  16.0617  16.2021
    16.2481  16.3691  16.4050  16.7425  16.7604  16.8233  16.8661  16.9157
    16.9363  16.9968  17.0885  17.1492  17.2596  17.2779  17.4030  17.4752
    17.5401  17.6091  17.6813  17.7136  17.8658  17.8716  17.8975  17.9080
    17.9467  18.0275  18.0781  18.1394  18.3038  18.3963  18.5226  19.0526
    19.1138  19.1881  19.2125  19.2707  19.3825  19.3958  19.4138  19.4754
    19.6732  19.7665  19.9044  20.0077  20.0905  20.1995  20.3183  20.3728
    20.5554  20.6079  20.6240  20.6284  20.6688  20.6745  20.7276  20.7844
    20.8232  20.8617

          k = 0.1661 0.3314-0.4984 (  9714 PWs)   bands (ev):

   -68.1706 -68.1631 -68.0450 -52.6646 -52.6604 -52.6491 -52.6479 -52.6404
   -52.6395 -52.6315 -52.6310 -51.7679 -51.7579 -51.7578 -51.7540 -51.7529
   -34.2395 -34.2294 -34.2251 -34.2244 -34.2168 -34.2166 -34.1106 -34.0980
   -34.0979 -24.1628 -24.1601 -24.1507 -24.1481 -24.1246 -24.1043 -24.1005
   -24.0775 -24.0569 -24.0458 -24.0391 -24.0243 -24.0213 -24.0141 -23.9947
   -23.9900 -23.9735 -23.9693 -23.9561 -23.9539 -23.9482 -23.9327 -23.9225
   -23.9213 -23.1200 -23.1178 -23.1074 -23.1042 -23.0851 -23.0715 -23.0670
   -23.0604 -23.0519 -23.0471 -23.0211 -23.0127 -23.0121 -22.9906 -22.9874
    13.2176  13.3204  14.3441  14.4584  15.2314  15.3071  15.6964  15.7179
    15.7803  15.8006  15.8454  15.8597  15.9185  15.9310  16.0605  16.0890
    16.1002  16.1434  16.6061  16.7196  16.7693  16.8556  16.8702  16.9008
    16.9872  17.0302  17.0393  17.0762  17.2730  17.3220  17.3540  17.3645
    17.4199  17.4684  17.5327  17.6075  17.6111  17.7845  17.8050  17.8111
    17.9432  17.9687  17.9959  18.0043  18.0364  18.0633  18.8338  18.8842
    19.1218  19.1706  19.1988  19.2952  19.3590  19.4201  19.4476  19.4964
    19.7055  19.8034  19.9177  20.0706  20.1745  20.2595  20.2870  20.3558
    20.4706  20.5437  20.5475  20.6070  20.6430  20.7127  20.7186  20.8047
    20.8570  20.8594

          k = 0.1661-0.4970-0.4984 (  9688 PWs)   bands (ev):

   -68.1706 -68.1631 -68.0449 -52.6598 -52.6547 -52.6540 -52.6536 -52.6366
   -52.6357 -52.6353 -52.6348 -51.7677 -51.7564 -51.7555 -51.7555 -51.7554
   -34.2374 -34.2295 -34.2251 -34.2241 -34.2168 -34.2165 -34.1126 -34.0980
   -34.0979 -24.1560 -24.1514 -24.1510 -24.1502 -24.1083 -24.1030 -24.1018
   -24.0475 -24.0468 -24.0423 -24.0209 -24.0170 -24.0153 -24.0001 -23.9989
   -23.9984 -23.9933 -23.9891 -23.9882 -23.9811 -23.9471 -23.9290 -23.9282
   -23.9276 -23.1170 -23.1158 -23.1151 -23.1131 -23.0875 -23.0719 -23.0647
   -23.0583 -23.0527 -23.0488 -23.0218 -23.0005 -22.9982 -22.9957 -22.9947
    13.7448  13.7528  13.7672  13.9551  15.6106  15.6129  15.6263  15.7443
    15.7834  15.7843  15.8294  15.9856  16.1697  16.1887  16.2140  16.2191
    16.2446  16.2555  16.2802  16.6069  16.7802  16.7808  16.8069  16.8262
    16.8759  16.9098  16.9905  16.9971  17.1617  17.1765  17.2574  17.2841
    17.3697  17.3754  17.4304  17.5145  17.5621  17.5745  17.5758  17.7234
    17.9290  17.9444  17.9510  17.9818  18.3050  18.3080  18.4286  18.4294
    19.2320  19.2475  19.2878  19.2994  19.3602  19.3831  19.5667  19.6282
    19.7843  19.8241  19.8492  19.9595  19.9642  20.3459  20.3701  20.5368
    20.5460  20.5583  20.5760  20.6162  20.6248  20.6260  20.7126  20.7218
    20.7400  20.8072

          k = 0.3323 0.3314 0.3323 (  9716 PWs)   bands (ev):

   -68.1706 -68.1631 -68.0450 -52.6655 -52.6521 -52.6506 -52.6479 -52.6403
   -52.6393 -52.6386 -52.6303 -51.7675 -51.7597 -51.7560 -51.7546 -51.7527
   -34.2394 -34.2291 -34.2252 -34.2247 -34.2167 -34.2167 -34.1106 -34.0980
   -34.0979 -24.1575 -24.1365 -24.1329 -24.1272 -24.1268 -24.0996 -24.0929
   -24.0812 -24.0740 -24.0517 -24.0505 -24.0342 -23.9965 -23.9953 -23.9910
   -23.9871 -23.9702 -23.9685 -23.9618 -23.9604 -23.9571 -23.9555 -23.9534
   -23.9415 -23.1098 -23.1048 -23.0974 -23.0973 -23.0936 -23.0701 -23.0701
   -23.0617 -23.0462 -23.0388 -23.0259 -23.0214 -23.0075 -23.0066 -22.9959
    13.0357  14.2116  14.3639  14.4850  15.0335  15.1438  15.2051  15.7093
    15.7699  15.9191  15.9489  16.0150  16.0636  16.1040  16.2384  16.2437
    16.3719  16.4008  16.4340  16.5310  16.7755  16.7778  16.8804  16.9097
    16.9994  17.0017  17.0782  17.0902  17.1292  17.1726  17.2375  17.3571
    17.4069  17.4273  17.4834  17.4999  17.5513  17.5609  17.6011  17.7393
    17.7875  17.8052  17.8134  17.8527  17.9570  18.0026  18.0935  18.8145
    19.1868  19.1915  19.2921  19.2935  19.4233  19.4625  19.5013  19.7078
    19.8178  19.9245  19.9899  20.1978  20.2406  20.3431  20.3460  20.5796
    20.5861  20.6127  20.6380  20.6382  20.6701  20.6900  20.7749  20.8108
    20.8645  20.9216

          k = 0.3323 0.3314-0.4984 (  9710 PWs)   bands (ev):

   -68.1706 -68.1631 -68.0449 -52.6596 -52.6568 -52.6465 -52.6445 -52.6444
   -52.6432 -52.6352 -52.6345 -51.7671 -51.7579 -51.7578 -51.7540 -51.7536
   -34.2394 -34.2290 -34.2251 -34.2248 -34.2167 -34.2166 -34.1106 -34.0980
   -34.0979 -24.1347 -24.1310 -24.1278 -24.1223 -24.1110 -24.0927 -24.0860
   -24.0844 -24.0589 -24.0433 -24.0425 -24.0152 -24.0140 -24.0105 -24.0087
   -23.9998 -23.9830 -23.9749 -23.9707 -23.9677 -23.9646 -23.9619 -23.9533
   -23.9520 -23.1026 -23.1017 -23.0984 -23.0979 -23.0715 -23.0690 -23.0664
   -23.0595 -23.0570 -23.0372 -23.0285 -23.0270 -23.0240 -23.0014 -22.9986
    13.5753  13.6881  14.7009  14.7574  14.7637  14.8920  15.6683  15.7464
    15.8505  15.9480  16.0096  16.0520  16.0933  16.2433  16.2659  16.2814
    16.2819  16.3556  16.6076  16.7028  16.7907  16.7976  16.8822  16.9022
    16.9362  16.9773  17.0466  17.0534  17.0801  17.1125  17.1240  17.1698
    17.2673  17.2850  17.3518  17.4588  17.4605  17.5488  17.5622  17.6110
    17.6527  17.6678  17.6820  17.6961  17.7552  17.7681  18.2829  18.3098
    19.2418  19.2713  19.2961  19.3330  19.4338  19.5103  19.6566  19.7471
    19.9116  19.9486  20.0810  20.2191  20.3371  20.4451  20.4672  20.5342
    20.5454  20.5919  20.5998  20.6370  20.6527  20.7151  20.7173  20.7324
    20.8340  20.8490

          k = 0.3323-0.4970-0.4984 (  9724 PWs)   bands (ev):

   -68.1706 -68.1631 -68.0450 -52.6549 -52.6512 -52.6503 -52.6500 -52.6415
   -52.6394 -52.6390 -52.6384 -51.7671 -51.7564 -51.7560 -51.7555 -51.7555
   -34.2374 -34.2290 -34.2250 -34.2247 -34.2168 -34.2167 -34.1127 -34.0980
   -34.0979 -24.1225 -24.1130 -24.1129 -24.1120 -24.0893 -24.0891 -24.0879
   -24.0540 -24.0534 -24.0482 -24.0404 -24.0181 -24.0176 -24.0171 -24.0143
   -24.0050 -24.0034 -23.9905 -23.9883 -23.9849 -23.9668 -23.9659 -23.9656
   -23.9594 -23.0908 -23.0894 -23.0894 -23.0891 -23.0770 -23.0700 -23.0633
   -23.0584 -23.0527 -23.0466 -23.0356 -23.0211 -23.0186 -23.0161 -23.0158
    14.1097  14.1156  14.1338  14.3338  15.2495  15.2717  15.2717  15.4041
    16.0213  16.0363  16.1060  16.2170  16.2512  16.3002  16.3101  16.5023
    16.5224  16.5674  16.5758  16.6813  16.7498  16.7576  16.7888  16.7965
    16.9336  16.9449  16.9482  16.9711  16.9865  17.0256  17.0272  17.0348
    17.2038  17.2042  17.2286  17.4093  17.4120  17.4427  17.4601  17.4804
    17.5726  17.5912  17.6052  17.6212  17.7751  17.7877  17.8385  17.8447
    19.3263  19.3507  19.3660  19.3701  19.4270  19.4576  19.8316  19.8916
    20.0149  20.1046  20.1224  20.1561  20.2072  20.4583  20.4915  20.5721
    20.6930  20.7067  20.7076  20.7533  20.7780  20.7797  20.7840  20.8037
    20.8682  20.8716

          k =-0.4984-0.4970-0.4984 (  9808 PWs)   bands (ev):

   -68.1707 -68.1632 -68.0451 -52.6486 -52.6479 -52.6479 -52.6467 -52.6467
   -52.6426 -52.6426 -52.6417 -51.7667 -51.7564 -51.7564 -51.7555 -51.7555
   -34.2374 -34.2288 -34.2251 -34.2251 -34.2169 -34.2169 -34.1128 -34.0980
   -34.0980 -24.0815 -24.0815 -24.0815 -24.0741 -24.0697 -24.0679 -24.0647
   -24.0607 -24.0605 -24.0605 -24.0546 -24.0529 -24.0529 -24.0520 -24.0393
   -23.9933 -23.9926 -23.9926 -23.9898 -23.9854 -23.9834 -23.9834 -23.9806
   -23.9806 -23.0808 -23.0707 -23.0673 -23.0670 -23.0670 -23.0662 -23.0499
   -23.0486 -23.0471 -23.0471 -23.0440 -23.0433 -23.0421 -23.0416 -23.0416
    14.5042  14.5053  14.5458  14.8471  14.8471  14.8711  14.8711  14.8763
    16.2093  16.2578  16.2831  16.2846  16.2911  16.3766  16.6565  16.6660
    16.6660  16.6843  16.6843  16.7616  16.7616  16.7861  16.7861  16.7969
    16.8754  16.9110  16.9185  16.9333  16.9333  16.9568  16.9568  16.9995
    16.9995  17.3439  17.3540  17.3591  17.3717  17.3720  17.3720  17.3779
    17.3779  17.3837  17.3851  17.3871  17.4038  17.4067  17.4361  17.4361
    19.3668  19.3987  19.3998  19.4160  19.4590  19.4848  20.0815  20.0815
    20.1493  20.1866  20.1866  20.2217  20.2498  20.3146  20.3146  20.7050
    20.7054  20.7054  20.8051  20.8051  20.8271  20.8271  20.8324  20.8371
    20.8371  20.9898

          k = 0.0000 0.1657 0.0000 (  9743 PWs)   bands (ev):

   -68.1707 -68.1631 -68.0449 -52.6873 -52.6544 -52.6502 -52.6502 -52.6353
   -52.6353 -52.6325 -52.6184 -51.7705 -51.7685 -51.7531 -51.7505 -51.7485
   -34.2437 -34.2286 -34.2256 -34.2256 -34.2165 -34.2165 -34.1065 -34.0981
   -34.0981 -24.2605 -24.2208 -24.2208 -24.1636 -24.1636 -24.1400 -24.1003
   -24.0943 -24.0798 -24.0697 -24.0697 -24.0457 -23.9870 -23.9681 -23.9681
   -23.9298 -23.9298 -23.9112 -23.9112 -23.9093 -23.9061 -23.9016 -23.8919
   -23.8873 -23.1954 -23.1577 -23.1577 -23.1168 -23.1168 -23.0754 -23.0355
   -23.0350 -23.0350 -23.0205 -23.0205 -22.9960 -22.9897 -22.9795 -22.9795
    11.5114  14.4522  14.7453  14.8173  14.8565  15.0147  15.0147  15.0468
    15.0798  15.0811  15.2337  15.3235  15.3235  15.4366  15.6996  16.6299
    16.6456  16.6565  16.6600  16.6600  16.7326  16.7326  16.8759  16.8988
    16.8988  16.9057  17.0730  17.2081  17.2081  17.3648  17.3648  17.5475
    17.9280  18.0071  18.2021  18.2021  18.3876  18.3876  18.4163  18.5619
    18.5619  18.6366  18.7662  18.8976  18.8976  18.9146  18.9188  19.0548
    19.3060  19.3060  19.3491  19.4383  19.5675  19.5675  19.8323  19.8780
    19.8780  20.0091  20.0515  20.0918  20.1806  20.2335  20.2335  20.3405
    20.3962  20.4714  20.4714  20.6235  20.6606  20.6758  20.7208  20.7272
    20.8016  20.9506

          k = 0.0000 0.3314 0.0000 (  9702 PWs)   bands (ev):

   -68.1706 -68.1631 -68.0449 -52.6808 -52.6611 -52.6471 -52.6471 -52.6385
   -52.6385 -52.6296 -52.6214 -51.7692 -51.7653 -51.7563 -51.7507 -51.7494
   -34.2395 -34.2286 -34.2253 -34.2253 -34.2168 -34.2168 -34.1105 -34.0981
   -34.0981 -24.2275 -24.1911 -24.1911 -24.1487 -24.1348 -24.1271 -24.1271
   -24.0938 -24.0938 -24.0858 -24.0604 -24.0153 -24.0072 -23.9894 -23.9894
   -23.9545 -23.9545 -23.9334 -23.9241 -23.9241 -23.9063 -23.8987 -23.8975
   -23.8904 -23.1522 -23.1250 -23.1250 -23.0893 -23.0893 -23.0766 -23.0439
   -23.0439 -23.0356 -23.0356 -23.0318 -23.0266 -23.0038 -22.9984 -22.9984
    11.9538  13.5281  14.8985  15.0152  15.1057  15.1495  15.1495  15.2554
    15.2567  15.3653  15.3824  15.3824  15.4042  15.4204  15.7230  16.1058
    16.2267  16.4168  16.5974  16.5974  16.7047  16.7047  16.8727  16.9139
    17.1053  17.1053  17.3283  17.3587  17.3587  17.6455  17.6455  17.6753
    17.7061  17.9219  17.9219  17.9489  18.2552  18.2552  18.2797  18.4233
    18.4359  18.4359  18.4883  18.6125  18.6125  18.8881  18.9233  19.0583
    19.0887  19.0931  19.0931  19.2659  19.2659  19.2968  19.3843  19.7306
    19.7306  19.9033  19.9435  20.1107  20.1107  20.2729  20.3585  20.5458
    20.5468  20.6725  20.6866  20.7155  20.8042  20.8042  20.8430  20.9022
    20.9051  21.0085

          k = 0.0000-0.4970 0.0000 (  9722 PWs)   bands (ev):

   -68.1706 -68.1631 -68.0450 -52.6743 -52.6678 -52.6432 -52.6432 -52.6423
   -52.6423 -52.6259 -52.6250 -51.7686 -51.7614 -51.7602 -51.7510 -51.7497
   -34.2374 -34.2288 -34.2251 -34.2251 -34.2169 -34.2169 -34.1128 -34.0981
   -34.0981 -24.1832 -24.1798 -24.1676 -24.1676 -24.1521 -24.1220 -24.1220
   -24.0824 -24.0754 -24.0754 -24.0413 -24.0413 -24.0349 -24.0326 -23.9779
   -23.9708 -23.9493 -23.9493 -23.9331 -23.9331 -23.9025 -23.9016 -23.8949
   -23.8941 -23.0982 -23.0972 -23.0972 -23.0937 -23.0699 -23.0699 -23.0694
   -23.0617 -23.0617 -23.0442 -23.0442 -23.0165 -23.0139 -23.0110 -23.0110
    12.6110  12.6904  15.0414  15.2032  15.2094  15.2417  15.3075  15.3075
    15.3112  15.3112  15.4396  15.5029  15.5812  15.6872  15.7313  15.7678
    15.8843  15.9334  16.5833  16.5833  16.6864  16.6864  17.0600  17.1296
    17.3816  17.3922  17.3922  17.4520  17.4795  17.4795  17.7129  17.7649
    17.8196  17.8196  17.8266  17.8266  18.0056  18.0056  18.2014  18.2189
    18.2527  18.2527  18.4966  18.4966  18.5466  18.5466  18.6410  18.7470
    18.8093  18.8147  18.9612  19.4005  19.5056  19.5056  19.6028  19.7653
    19.8183  19.8183  19.9255  20.2552  20.2552  20.3353  20.4014  20.4744
    20.5435  20.5435  20.6496  20.6720  20.7001  20.7024  20.9258  20.9970
    21.0539  21.0562

          k = 0.1661 0.0000 0.1661 (  9703 PWs)   bands (ev):

   -68.1707 -68.1631 -68.0449 -52.6849 -52.6536 -52.6517 -52.6495 -52.6361
   -52.6343 -52.6342 -52.6196 -51.7701 -51.7672 -51.7528 -51.7520 -51.7490
   -34.2455 -34.2287 -34.2257 -34.2253 -34.2167 -34.2163 -34.1046 -34.0980
   -34.0980 -24.2406 -24.2150 -24.2137 -24.1600 -24.1576 -24.1212 -24.1091
   -24.0973 -24.0879 -24.0687 -24.0653 -24.0496 -23.9813 -23.9717 -23.9687
   -23.9377 -23.9358 -23.9251 -23.9206 -23.9116 -23.9098 -23.9068 -23.8994
   -23.8911 -23.1746 -23.1598 -23.1467 -23.1059 -23.1048 -23.0729 -23.0418
   -23.0371 -23.0310 -23.0298 -23.0151 -23.0144 -23.0057 -22.9817 -22.9731
    11.6620  14.4227  14.6639  14.8009  14.8615  14.9706  15.0577  15.1355
    15.1375  15.1420  15.1621  15.3683  15.3736  15.7185  15.7888  16.4887
    16.5811  16.6172  16.6714  16.7169  16.7756  16.7993  16.8214  16.8365
    16.9794  17.0143  17.0271  17.1086  17.1907  17.2173  17.3253  17.6560
    17.9290  17.9617  18.1294  18.1858  18.3578  18.3714  18.4139  18.5271
    18.5490  18.5508  18.6299  18.8037  18.8039  18.9641  18.9738  18.9771
    19.1856  19.1874  19.2382  19.2823  19.4515  19.5604  19.6110  19.6993
    19.7440  19.7635  20.0384  20.0827  20.1251  20.1891  20.2950  20.3161
    20.4021  20.4570  20.5342  20.6313  20.6924  20.7207  20.7233  20.8590
    20.8990  20.9630

          k = 0.1661 0.3314 0.0000 (  9709 PWs)   bands (ev):

   -68.1706 -68.1631 -68.0449 -52.6787 -52.6596 -52.6493 -52.6459 -52.6400
   -52.6373 -52.6307 -52.6226 -51.7690 -51.7643 -51.7560 -51.7516 -51.7500
   -34.2395 -34.2289 -34.2253 -34.2250 -34.2168 -34.2167 -34.1106 -34.0981
   -34.0981 -24.2207 -24.1853 -24.1786 -24.1423 -24.1361 -24.1233 -24.1189
   -24.1081 -24.0842 -24.0816 -24.0563 -24.0202 -24.0061 -23.9898 -23.9860
   -23.9594 -23.9531 -23.9378 -23.9359 -23.9216 -23.9175 -23.9070 -23.9054
   -23.8952 -23.1556 -23.1221 -23.1181 -23.0839 -23.0832 -23.0753 -23.0589
   -23.0540 -23.0468 -23.0363 -23.0338 -23.0158 -23.0020 -22.9975 -22.9892
    12.0956  13.6306  14.6725  14.8383  15.0893  15.1731  15.2715  15.2738
    15.3420  15.3970  15.4581  15.4701  15.4781  15.7269  15.7871  16.1445
    16.2241  16.3732  16.6374  16.6943  16.7008  16.7464  16.7761  16.9008
    17.0401  17.1434  17.2235  17.2461  17.3968  17.4323  17.4983  17.6797
    17.7156  17.8174  18.0092  18.0667  18.1102  18.1507  18.1693  18.1851
    18.3380  18.3808  18.4624  18.6451  18.6904  18.7909  18.8721  18.9110
    19.0094  19.1323  19.1663  19.2083  19.3097  19.3511  19.3982  19.5042
    19.6204  19.7701  19.9019  20.0067  20.0909  20.1733  20.4284  20.5419
    20.5446  20.5885  20.6423  20.6812  20.7622  20.7795  20.8401  20.8533
    20.8685  20.9328

          k = 0.3323 0.0000 0.1661 (  9709 PWs)   bands (ev):

   -68.1707 -68.1631 -68.0449 -52.6784 -52.6596 -52.6489 -52.6463 -52.6395
   -52.6375 -52.6312 -52.6227 -51.7691 -51.7640 -51.7557 -51.7520 -51.7499
   -34.2453 -34.2288 -34.2255 -34.2251 -34.2168 -34.2164 -34.1046 -34.0980
   -34.0979 -24.1988 -24.1984 -24.1889 -24.1452 -24.1312 -24.1239 -24.1158
   -24.1108 -24.0875 -24.0814 -24.0620 -24.0232 -23.9999 -23.9854 -23.9818
   -23.9604 -23.9577 -23.9363 -23.9341 -23.9261 -23.9189 -23.9083 -23.9042
   -23.8949 -23.1402 -23.1334 -23.1297 -23.0822 -23.0795 -23.0707 -23.0659
   -23.0514 -23.0425 -23.0341 -23.0259 -23.0204 -23.0177 -22.9918 -22.9826
    12.0979  13.6330  14.7081  14.8391  15.0492  15.2198  15.2466  15.2693
    15.3740  15.3778  15.4399  15.4647  15.4777  15.6882  15.8346  16.1854
    16.2167  16.3963  16.6300  16.7217  16.7251  16.7957  16.8558  16.9806
    17.0865  17.0930  17.1286  17.2256  17.2577  17.4229  17.5151  17.6966
    17.7042  17.9898  18.0160  18.0530  18.0631  18.0834  18.1672  18.1913
    18.2497  18.3470  18.4200  18.6129  18.6734  18.7075  18.7954  18.8235
    19.0304  19.1223  19.1790  19.2153  19.2885  19.3608  19.5271  19.5471
    19.6528  19.9499  19.9747  19.9982  20.0939  20.2878  20.3417  20.4522
    20.4883  20.4999  20.5456  20.6060  20.6775  20.7713  20.7863  20.8135
    20.8710  20.9531

          k = 0.1661-0.4970 0.0000 (  9730 PWs)   bands (ev):

   -68.1706 -68.1631 -68.0450 -52.6723 -52.6661 -52.6453 -52.6440 -52.6421
   -52.6412 -52.6271 -52.6262 -51.7684 -51.7607 -51.7596 -51.7516 -51.7505
   -34.2374 -34.2291 -34.2252 -34.2248 -34.2169 -34.2168 -34.1127 -34.0981
   -34.0981 -24.1813 -24.1807 -24.1627 -24.1566 -24.1438 -24.1308 -24.1094
   -24.0857 -24.0704 -24.0700 -24.0388 -24.0374 -24.0301 -24.0260 -23.9824
   -23.9754 -23.9556 -23.9468 -23.9441 -23.9295 -23.9132 -23.9118 -23.9012
   -23.8998 -23.1120 -23.1104 -23.0958 -23.0950 -23.0850 -23.0721 -23.0676
   -23.0649 -23.0596 -23.0452 -23.0266 -23.0122 -23.0092 -23.0032 -23.0031
    12.7372  12.8180  14.7550  14.8563  15.2514  15.3328  15.4268  15.4271
    15.4960  15.5156  15.5240  15.5947  15.6384  15.7523  15.7860  15.8288
    15.9234  15.9679  16.6247  16.6411  16.7173  16.7461  16.9004  17.0618
    17.1598  17.2693  17.3676  17.4011  17.4204  17.4551  17.6787  17.6910
    17.7957  17.7968  17.8365  17.8485  17.8690  17.9193  18.0840  18.1037
    18.1866  18.2465  18.2579  18.2718  18.3804  18.4255  18.9059  18.9135
    18.9491  19.0086  19.0389  19.3796  19.3807  19.5374  19.5570  19.5935
    19.7036  19.7800  19.8824  19.9981  20.0443  20.1221  20.4346  20.4801
    20.4907  20.5256  20.6617  20.6988  20.7166  20.7309  20.8448  20.9349
    20.9644  21.0113

          k =-0.4984 0.0000 0.1661 (  9718 PWs)   bands (ev):

   -68.1707 -68.1631 -68.0449 -52.6715 -52.6666 -52.6447 -52.6437 -52.6421
   -52.6417 -52.6272 -52.6267 -51.7686 -51.7598 -51.7598 -51.7521 -51.7503
   -34.2453 -34.2289 -34.2253 -34.2252 -34.2167 -34.2166 -34.1047 -34.0980
   -34.0979 -24.1836 -24.1691 -24.1480 -24.1479 -24.1452 -24.1408 -24.1225
   -24.1105 -24.0777 -24.0604 -24.0599 -24.0232 -24.0217 -24.0137 -23.9818
   -23.9751 -23.9556 -23.9449 -23.9402 -23.9396 -23.9154 -23.9131 -23.9002
   -23.8991 -23.1145 -23.1059 -23.0946 -23.0924 -23.0851 -23.0847 -23.0697
   -23.0625 -23.0589 -23.0344 -23.0313 -23.0108 -23.0075 -23.0047 -22.9991
    12.7315  12.8328  14.7855  14.8586  15.1984  15.3416  15.4200  15.4205
    15.4226  15.5128  15.6072  15.6396  15.7110  15.7232  15.7707  15.8062
    15.9203  15.9940  16.6181  16.6990  16.7168  16.7626  17.1743  17.1793
    17.2110  17.2438  17.3170  17.3237  17.3797  17.4410  17.6080  17.6579
    17.6937  17.7272  17.8193  17.8338  17.9617  17.9756  18.0718  18.0796
    18.1097  18.1451  18.1985  18.2494  18.2586  18.3450  18.8947  18.9222
    18.9552  19.0018  19.0152  19.3901  19.5217  19.5363  19.6796  19.6901
    19.6927  19.7805  19.8342  20.0194  20.0574  20.3668  20.3680  20.3778
    20.4404  20.4596  20.5041  20.6636  20.7004  20.7116  20.7506  20.8619
    20.9985  21.0075

          k = 0.3323 0.0000 0.3323 (  9707 PWs)   bands (ev):

   -68.1707 -68.1631 -68.0449 -52.6726 -52.6580 -52.6526 -52.6434 -52.6431
   -52.6344 -52.6344 -52.6258 -51.7680 -51.7622 -51.7574 -51.7521 -51.7509
   -34.2453 -34.2289 -34.2256 -34.2252 -34.2167 -34.2162 -34.1046 -34.0979
   -34.0979 -24.1883 -24.1751 -24.1617 -24.1523 -24.1267 -24.1262 -24.1137
   -24.0977 -24.0735 -24.0725 -24.0508 -24.0220 -24.0054 -23.9851 -23.9805
   -23.9737 -23.9627 -23.9492 -23.9463 -23.9433 -23.9396 -23.9280 -23.9080
   -23.8996 -23.1427 -23.1306 -23.1098 -23.0952 -23.0911 -23.0676 -23.0667
   -23.0647 -23.0580 -23.0290 -23.0150 -23.0137 -23.0061 -22.9982 -22.9756
    12.5069  13.7981  14.0509  14.6076  15.2914  15.3725  15.4543  15.5579
    15.5826  15.6215  15.6231  15.6272  15.6639  15.7082  15.9415  16.1696
    16.2945  16.3408  16.5355  16.6638  16.7510  16.7680  16.9271  16.9303
    16.9643  17.0009  17.1279  17.2034  17.2816  17.3396  17.3993  17.5185
    17.6687  17.7301  17.8418  17.8690  17.9006  17.9089  18.0213  18.0628
    18.0817  18.1440  18.2529  18.2758  18.4334  18.4335  18.9436  18.9908
    19.0247  19.1005  19.1401  19.1481  19.3382  19.3603  19.4215  19.5233
    19.6843  19.7479  19.8197  19.9318  20.0015  20.1679  20.3592  20.3632
    20.4029  20.4996  20.5449  20.5652  20.5786  20.6309  20.7315  20.8158
    20.8166  20.8773

          k = 0.3323-0.4970 0.0000 (  9724 PWs)   bands (ev):

   -68.1706 -68.1631 -68.0450 -52.6669 -52.6615 -52.6507 -52.6487 -52.6389
   -52.6380 -52.6303 -52.6294 -51.7681 -51.7587 -51.7578 -51.7532 -51.7527
   -34.2375 -34.2295 -34.2251 -34.2242 -34.2169 -34.2166 -34.1127 -34.0981
   -34.0980 -24.1762 -24.1751 -24.1616 -24.1485 -24.1312 -24.1219 -24.0997
   -24.0759 -24.0558 -24.0455 -24.0341 -24.0274 -24.0208 -24.0152 -23.9909
   -23.9842 -23.9744 -23.9716 -23.9503 -23.9467 -23.9393 -23.9217 -23.9082
   -23.9055 -23.1257 -23.1255 -23.1124 -23.1095 -23.0928 -23.0719 -23.0656
   -23.0620 -23.0549 -23.0476 -23.0147 -23.0037 -22.9969 -22.9923 -22.9907
    13.0960  13.1784  14.2197  14.3260  15.5177  15.5477  15.6017  15.6721
    15.6864  15.7238  15.7332  15.7866  15.7994  15.8723  15.9542  16.0166
    16.0276  16.0444  16.5784  16.6777  16.7656  16.7683  16.8607  16.8834
    16.9430  17.0715  17.0966  17.1028  17.3362  17.4146  17.4253  17.4404
    17.6319  17.6505  17.6731  17.7297  17.7481  17.7961  17.8300  17.9086
    18.1869  18.1898  18.1944  18.2059  18.2068  18.2344  19.0948  19.1023
    19.1659  19.2455  19.2544  19.2762  19.3182  19.3362  19.3459  19.3711
    19.4907  19.6734  19.7059  19.8060  19.8584  20.1907  20.2059  20.4609
    20.4801  20.5218  20.5714  20.6086  20.6979  20.6984  20.6985  20.7686
    20.7707  20.8711

          k =-0.4984 0.0000 0.3323 (  9738 PWs)   bands (ev):

   -68.1707 -68.1631 -68.0449 -52.6660 -52.6630 -52.6503 -52.6475 -52.6390
   -52.6385 -52.6303 -52.6299 -51.7674 -51.7598 -51.7598 -51.7521 -51.7515
   -34.2453 -34.2289 -34.2255 -34.2254 -34.2164 -34.2164 -34.1047 -34.0979
   -34.0979 -24.1750 -24.1729 -24.1505 -24.1482 -24.1195 -24.1164 -24.1163
   -24.1149 -24.0667 -24.0441 -24.0376 -24.0181 -24.0064 -24.0052 -23.9899
   -23.9776 -23.9731 -23.9703 -23.9510 -23.9467 -23.9390 -23.9368 -23.9074
   -23.9031 -23.1268 -23.1239 -23.1202 -23.1152 -23.0820 -23.0819 -23.0662
   -23.0629 -23.0618 -23.0202 -23.0179 -23.0073 -23.0063 -22.9879 -22.9822
    13.0808  13.1935  14.2608  14.3303  15.4344  15.5055  15.5604  15.6588
    15.7132  15.7234  15.8214  15.8250  15.8497  15.8783  15.9248  16.0222
    16.0357  16.0872  16.6761  16.7083  16.7881  16.8317  16.8587  16.8821
    16.9289  17.0960  17.1076  17.1161  17.2451  17.2784  17.4217  17.4435
    17.5715  17.6293  17.7628  17.7856  17.8168  17.8176  17.8220  17.9876
    18.0234  18.0895  18.1102  18.1201  18.1928  18.2020  19.0472  19.0880
    19.1104  19.2409  19.2443  19.2621  19.2749  19.3159  19.3202  19.3338
    19.5851  19.7653  19.8023  19.8668  20.0838  20.1373  20.2912  20.4090
    20.4202  20.4484  20.5292  20.6120  20.6162  20.6235  20.6753  20.6778
    20.6955  20.8642

          k =-0.4984 0.0000-0.4984 (  9700 PWs)   bands (ev):

   -68.1706 -68.1631 -68.0449 -52.6602 -52.6602 -52.6562 -52.6503 -52.6349
   -52.6344 -52.6344 -52.6340 -51.7668 -51.7597 -51.7597 -51.7521 -51.7521
   -34.2452 -34.2289 -34.2255 -34.2255 -34.2162 -34.2162 -34.1046 -34.0978
   -34.0978 -24.1751 -24.1745 -24.1476 -24.1435 -24.1190 -24.1190 -24.1013
   -24.1013 -24.0581 -24.0162 -24.0162 -24.0117 -24.0096 -23.9944 -23.9944
   -23.9875 -23.9875 -23.9816 -23.9796 -23.9780 -23.9354 -23.9354 -23.9114
   -23.9048 -23.1360 -23.1330 -23.1259 -23.1226 -23.0805 -23.0805 -23.0642
   -23.0626 -23.0626 -23.0161 -23.0121 -23.0072 -23.0072 -22.9791 -22.9753
    13.4653  13.6527  13.8112  13.8112  15.5003  15.6142  15.6258  15.8193
    15.9022  15.9022  15.9210  15.9210  15.9816  15.9816  16.1326  16.1501
    16.1623  16.2288  16.4975  16.5937  16.5937  16.7083  16.7083  16.8308
    16.8876  16.8876  17.1412  17.1596  17.1818  17.2752  17.2752  17.2756
    17.4500  17.5211  17.5952  17.5952  17.6717  17.6788  17.6983  17.9350
    18.0171  18.0171  18.1701  18.1701  18.3841  18.3841  18.9123  18.9267
    19.0998  19.1100  19.1106  19.2002  19.2173  19.2637  19.4892  19.4892
    19.5776  19.7697  19.8845  19.8845  19.9939  19.9939  20.3933  20.3933
    20.4177  20.4202  20.4274  20.4621  20.5844  20.5844  20.6226  20.6226
    20.7104  20.7596

          k = 0.1661 0.3314 0.1661 (  9704 PWs)   bands (ev):

   -68.1706 -68.1631 -68.0449 -52.6765 -52.6582 -52.6488 -52.6474 -52.6391
   -52.6386 -52.6320 -52.6237 -51.7687 -51.7634 -51.7557 -51.7524 -51.7505
   -34.2395 -34.2290 -34.2252 -34.2248 -34.2167 -34.2167 -34.1106 -34.0981
   -34.0980 -24.2116 -24.1744 -24.1719 -24.1369 -24.1336 -24.1220 -24.1124
   -24.1091 -24.0812 -24.0801 -24.0526 -24.0264 -24.0031 -23.9874 -23.9868
   -23.9623 -23.9536 -23.9406 -23.9355 -23.9350 -23.9222 -23.9198 -23.9097
   -23.9076 -23.1507 -23.1164 -23.1155 -23.0874 -23.0801 -23.0719 -23.0688
   -23.0649 -23.0426 -23.0407 -23.0283 -23.0103 -23.0008 -22.9985 -22.9912
    12.2364  13.7368  14.6847  14.9002  14.9233  15.0201  15.2242  15.3568
    15.4041  15.4424  15.4605  15.5563  15.7930  15.8474  15.8904  16.1711
    16.2231  16.4252  16.5515  16.6449  16.7622  16.8001  16.8337  16.9211
    16.9855  17.0727  17.1461  17.2744  17.3490  17.3746  17.3761  17.5927
    17.6536  17.7508  17.9953  17.9998  18.0081  18.0515  18.0545  18.1632
    18.1919  18.2427  18.3078  18.4741  18.5478  18.7273  18.8563  18.9480
    18.9770  19.0598  19.0953  19.2211  19.3331  19.3892  19.4822  19.5631
    19.6260  19.7888  19.8709  19.9601  20.0122  20.1703  20.4635  20.4786
    20.5069  20.5467  20.6373  20.6547  20.7060  20.7951  20.8064  20.8567
    20.8672  20.9038

          k = 0.1661-0.4970 0.1661 (  9708 PWs)   bands (ev):

   -68.1706 -68.1631 -68.0450 -52.6703 -52.6644 -52.6444 -52.6437 -52.6434
   -52.6423 -52.6283 -52.6274 -51.7682 -51.7601 -51.7590 -51.7521 -51.7513
   -34.2374 -34.2292 -34.2251 -34.2246 -34.2169 -34.2167 -34.1127 -34.0981
   -34.0980 -24.1782 -24.1751 -24.1540 -24.1494 -24.1367 -24.1230 -24.1117
   -24.0883 -24.0714 -24.0600 -24.0459 -24.0274 -24.0242 -24.0216 -23.9871
   -23.9794 -23.9594 -23.9489 -23.9435 -23.9396 -23.9165 -23.9161 -23.9148
   -23.9137 -23.1157 -23.1144 -23.1010 -23.0879 -23.0858 -23.0761 -23.0714
   -23.0654 -23.0550 -23.0450 -23.0201 -23.0182 -23.0043 -22.9999 -22.9997
    12.8643  12.9464  14.7923  14.9329  15.0009  15.0278  15.5719  15.5979
    15.6015  15.6191  15.6641  15.6934  15.7109  15.8307  15.8310  15.8812
    15.9698  16.0100  16.6393  16.7071  16.7374  16.8015  16.8081  17.0362
    17.0873  17.2192  17.2492  17.3143  17.4344  17.4477  17.5516  17.5652
    17.7018  17.7236  17.7430  17.8117  17.8210  17.8829  17.9567  17.9842
    18.0226  18.1197  18.1582  18.1846  18.2073  18.2512  19.0045  19.0083
    19.1019  19.1563  19.1995  19.3343  19.3536  19.4037  19.4464  19.5366
    19.5956  19.6400  19.8558  19.8802  20.0504  20.2156  20.4597  20.4775
    20.5089  20.5102  20.6996  20.7039  20.7293  20.7946  20.8131  20.8476
    20.9120  20.9713

          k = 0.3323 0.1657 0.3323 (  9699 PWs)   bands (ev):

   -68.1706 -68.1631 -68.0449 -52.6707 -52.6564 -52.6515 -52.6450 -52.6423
   -52.6359 -52.6356 -52.6270 -51.7678 -51.7615 -51.7570 -51.7527 -51.7514
   -34.2434 -34.2289 -34.2254 -34.2250 -34.2167 -34.2163 -34.1065 -34.0979
   -34.0979 -24.1729 -24.1698 -24.1568 -24.1448 -24.1256 -24.1110 -24.1073
   -24.0964 -24.0758 -24.0669 -24.0462 -24.0310 -24.0018 -23.9863 -23.9837
   -23.9788 -23.9627 -23.9532 -23.9505 -23.9461 -23.9452 -23.9359 -23.9265
   -23.9137 -23.1320 -23.1195 -23.1101 -23.0976 -23.0925 -23.0687 -23.0668
   -23.0645 -23.0465 -23.0304 -23.0271 -23.0202 -23.0007 -22.9977 -22.9836
    12.6433  13.9133  14.1682  14.7401  15.0208  15.2700  15.3774  15.4586
    15.6324  15.7215  15.7278  15.7341  15.7934  16.0223  16.0335  16.2119
    16.3083  16.4216  16.5061  16.5826  16.7785  16.8280  16.8358  16.9630
    16.9964  17.0319  17.0697  17.1137  17.2440  17.3250  17.3462  17.4897
    17.5143  17.6176  17.7106  17.7465  17.7592  17.8079  17.8726  17.9417
    18.0182  18.0484  18.0532  18.1573  18.1867  18.3186  18.5723  19.0401
    19.1085  19.1758  19.2038  19.2857  19.3219  19.3746  19.4470  19.5605
    19.5942  19.7900  19.9048  20.0453  20.1540  20.2759  20.3438  20.4639
    20.4942  20.5258  20.5326  20.5914  20.6350  20.6459  20.7441  20.7626
    20.8181  20.8458

          k = 0.3323-0.4970 0.1661 (  9706 PWs)   bands (ev):

   -68.1706 -68.1631 -68.0450 -52.6651 -52.6599 -52.6494 -52.6476 -52.6407
   -52.6395 -52.6316 -52.6306 -51.7679 -51.7585 -51.7575 -51.7535 -51.7532
   -34.2374 -34.2294 -34.2251 -34.2243 -34.2169 -34.2166 -34.1127 -34.0981
   -34.0980 -24.1673 -24.1638 -24.1481 -24.1351 -24.1248 -24.1161 -24.0959
   -24.0807 -24.0600 -24.0446 -24.0415 -24.0200 -24.0164 -24.0088 -23.9970
   -23.9881 -23.9761 -23.9711 -23.9547 -23.9522 -23.9486 -23.9357 -23.9236
   -23.9202 -23.1194 -23.1191 -23.1062 -23.1020 -23.0874 -23.0740 -23.0660
   -23.0614 -23.0552 -23.0466 -23.0207 -23.0075 -23.0008 -22.9961 -22.9952
    13.2252  13.3086  14.3445  14.4551  15.2451  15.3076  15.6797  15.6957
    15.7737  15.8246  15.8344  15.9254  15.9346  15.9489  15.9704  16.0776
    16.1136  16.1406  16.5579  16.6931  16.7700  16.7969  16.8834  16.8861
    16.9558  17.0801  17.0836  17.0967  17.2718  17.2999  17.3366  17.3489
    17.4650  17.5232  17.5248  17.6322  17.6821  17.7182  17.7664  17.8039
    17.9717  17.9760  18.0203  18.0270  18.0372  18.0528  18.8836  18.8889
    19.1728  19.1796  19.2548  19.2721  19.3138  19.3884  19.4798  19.4957
    19.6622  19.8193  19.8340  19.9191  20.0140  20.2668  20.3917  20.4746
    20.5216  20.5495  20.6470  20.6626  20.6805  20.7301  20.7535  20.8235
    20.8321  20.8800

          k =-0.4984 0.1657 0.3323 (  9714 PWs)   bands (ev):

   -68.1707 -68.1631 -68.0449 -52.6643 -52.6613 -52.6490 -52.6463 -52.6407
   -52.6401 -52.6317 -52.6311 -51.7673 -51.7593 -51.7593 -51.7526 -51.7521
   -34.2433 -34.2289 -34.2254 -34.2252 -34.2165 -34.2164 -34.1066 -34.0979
   -34.0979 -24.1629 -24.1597 -24.1444 -24.1403 -24.1231 -24.1146 -24.1020
   -24.0990 -24.0675 -24.0414 -24.0378 -24.0174 -24.0136 -24.0045 -23.9952
   -23.9840 -23.9767 -23.9705 -23.9570 -23.9515 -23.9444 -23.9431 -23.9233
   -23.9202 -23.1195 -23.1172 -23.1135 -23.1099 -23.0778 -23.0761 -23.0665
   -23.0623 -23.0620 -23.0234 -23.0205 -23.0164 -23.0134 -22.9904 -22.9858
    13.2095  13.3230  14.3915  14.4591  15.1925  15.3114  15.5857  15.6957
    15.7832  15.8535  15.9040  15.9212  15.9550  15.9692  15.9826  16.0903
    16.0939  16.1578  16.6942  16.7260  16.8001  16.8400  16.8530  16.8775
    16.9117  17.0773  17.1218  17.1256  17.1981  17.2272  17.3290  17.3317
    17.4002  17.4663  17.6296  17.7019  17.7036  17.7132  17.7637  17.8296
    17.8733  17.9048  17.9306  17.9423  18.0764  18.0839  18.8155  18.8631
    19.1251  19.1725  19.1725  19.2930  19.3396  19.4102  19.4806  19.5914
    19.6537  19.8167  19.8549  20.0056  20.2473  20.3059  20.3264  20.4287
    20.4456  20.4478  20.5520  20.6311  20.6368  20.6858  20.7031  20.7774
    20.8378  20.8560

          k =-0.4984 0.1657-0.4984 (  9692 PWs)   bands (ev):

   -68.1706 -68.1631 -68.0449 -52.6585 -52.6585 -52.6549 -52.6492 -52.6362
   -52.6361 -52.6361 -52.6351 -51.7667 -51.7592 -51.7592 -51.7526 -51.7526
   -34.2433 -34.2288 -34.2254 -34.2254 -34.2163 -34.2163 -34.1065 -34.0978
   -34.0978 -24.1599 -24.1586 -24.1377 -24.1337 -24.1148 -24.1148 -24.0908
   -24.0908 -24.0611 -24.0139 -24.0139 -24.0092 -24.0084 -24.0039 -24.0039
   -23.9945 -23.9909 -23.9881 -23.9881 -23.9815 -23.9413 -23.9413 -23.9297
   -23.9242 -23.1256 -23.1233 -23.1145 -23.1111 -23.0772 -23.0772 -23.0645
   -23.0616 -23.0616 -23.0224 -23.0180 -23.0127 -23.0127 -22.9876 -22.9838
    13.5948  13.7821  13.9450  13.9450  15.4696  15.6173  15.6432  15.7252
    15.7252  15.7586  16.0214  16.0214  16.1722  16.2025  16.2025  16.2417
    16.2456  16.3015  16.4795  16.6100  16.6100  16.7141  16.7141  16.8253
    16.8997  16.8997  17.0726  17.1653  17.1751  17.1823  17.2371  17.2371
    17.2826  17.3671  17.4373  17.4373  17.5618  17.6341  17.6517  17.7959
    17.8594  17.8594  17.9086  17.9086  18.2363  18.2363  18.4659  18.4847
    19.1676  19.2034  19.2397  19.2972  19.3693  19.5122  19.5716  19.5912
    19.5912  19.9050  19.9379  19.9379  20.2960  20.2960  20.4528  20.4528
    20.4826  20.5155  20.6048  20.6048  20.6236  20.6236  20.6265  20.6291
    20.7210  20.7569

          k = 0.3323-0.4970 0.3323 (  9720 PWs)   bands (ev):

   -68.1706 -68.1631 -68.0450 -52.6602 -52.6558 -52.6468 -52.6456 -52.6447
   -52.6422 -52.6353 -52.6341 -51.7673 -51.7576 -51.7566 -51.7545 -51.7543
   -34.2374 -34.2291 -34.2250 -34.2246 -34.2168 -34.2167 -34.1127 -34.0980
   -34.0980 -24.1440 -24.1369 -24.1139 -24.1123 -24.1057 -24.0994 -24.0900
   -24.0855 -24.0581 -24.0509 -24.0456 -24.0128 -24.0118 -24.0102 -23.9974
   -23.9950 -23.9835 -23.9770 -23.9744 -23.9703 -23.9682 -23.9664 -23.9531
   -23.9473 -23.1043 -23.1042 -23.0931 -23.0858 -23.0782 -23.0764 -23.0645
   -23.0593 -23.0573 -23.0456 -23.0310 -23.0166 -23.0117 -23.0069 -23.0069
    13.5913  13.6752  14.5882  14.7507  14.8746  14.8995  15.6598  15.7335
    15.9616  15.9621  15.9996  16.0190  16.0569  16.1634  16.2387  16.2593
    16.3396  16.3631  16.5178  16.6767  16.7982  16.8747  16.8987  16.9061
    16.9704  16.9921  16.9952  17.0658  17.0795  17.0826  17.0903  17.1593
    17.2674  17.2858  17.3984  17.4474  17.5122  17.5171  17.6206  17.6409
    17.6668  17.6814  17.6996  17.7044  17.7093  17.7481  18.2912  18.3065
    19.2924  19.3002  19.3095  19.3380  19.4107  19.4116  19.6901  19.7528
    19.9668  20.0360  20.0498  20.0958  20.0994  20.4528  20.4866  20.5342
    20.5807  20.6354  20.6877  20.6880  20.7107  20.7326  20.8008  20.8067
    20.8451  20.8804

          k =-0.4984 0.3314-0.4984 (  9724 PWs)   bands (ev):

   -68.1706 -68.1631 -68.0450 -52.6538 -52.6538 -52.6515 -52.6462 -52.6409
   -52.6409 -52.6396 -52.6381 -51.7667 -51.7579 -51.7579 -51.7540 -51.7540
   -34.2394 -34.2288 -34.2251 -34.2251 -34.2166 -34.2166 -34.1106 -34.0979
   -34.0979 -24.1189 -24.1146 -24.1104 -24.1064 -24.0986 -24.0986 -24.0715
   -24.0715 -24.0661 -24.0300 -24.0300 -24.0280 -24.0243 -24.0096 -24.0091
   -24.0034 -24.0034 -23.9894 -23.9894 -23.9877 -23.9728 -23.9696 -23.9586
   -23.9586 -23.0998 -23.0995 -23.0845 -23.0809 -23.0701 -23.0701 -23.0654
   -23.0573 -23.0573 -23.0408 -23.0343 -23.0268 -23.0268 -23.0115 -23.0079
    13.9637  14.1448  14.3225  14.3225  15.0756  15.2966  15.3841  15.3841
    15.8867  16.0094  16.2309  16.2695  16.3516  16.3516  16.4180  16.4268
    16.5148  16.5148  16.5795  16.6526  16.6526  16.7205  16.7205  16.8085
    16.8993  16.9349  16.9349  16.9628  17.1234  17.1234  17.1261  17.1451
    17.1990  17.1990  17.2443  17.2579  17.2690  17.4940  17.4940  17.5116
    17.5184  17.5316  17.5377  17.5377  17.7906  17.7906  17.8838  17.8992
    19.3003  19.3048  19.3488  19.3648  19.4708  19.5411  19.8643  19.8643
    19.8807  20.1245  20.1250  20.1250  20.4537  20.4537  20.5029  20.5615
    20.5615  20.6407  20.6930  20.7148  20.7148  20.7690  20.7858  20.7858
    20.8173  20.8685

 ------ SPIN DOWN ----------


          k = 0.0000 0.0000 0.0000 (  9771 PWs)   bands (ev):

   -67.2236 -66.8000 -66.7867 -52.6387 -52.6183 -52.5874 -52.5837 -52.5403
   -51.7944 -51.7938 -51.7938 -51.7838 -51.7761 -51.7761 -51.7755 -51.7588
   -33.3132 -33.3021 -33.3021 -32.9001 -32.9001 -32.8862 -32.8856 -32.8856
   -32.8736 -24.2186 -24.1798 -24.1798 -24.1324 -24.1324 -24.0283 -23.9989
   -23.9913 -23.9913 -23.9673 -23.9673 -23.8846 -23.8653 -23.8653 -23.8360
   -23.2810 -23.2431 -23.2399 -23.2281 -23.2281 -23.2059 -23.1738 -23.1318
   -23.1318 -23.0848 -23.0702 -23.0683 -23.0683 -23.0509 -23.0508 -23.0508
   -23.0496 -23.0496 -23.0336 -23.0332 -22.9947 -22.9818 -22.9687 -22.9687
    11.4104  14.8680  14.9931  15.0595  15.0595  15.0596  15.1398  15.1552
    15.3158  15.3419  15.4559  15.4673  15.4789  15.4789  15.5388  16.9514
    16.9657  16.9657  16.9879  16.9879  16.9984  17.0721  17.0721  17.0780
    17.3092  17.3130  17.3130  17.4604  17.6261  17.7037  17.9692  17.9924
    17.9924  18.4730  18.4730  18.4910  18.6488  18.6491  18.6491  18.6973
    18.6973  18.7146  19.3752  19.4492  19.4492  19.4932  19.4932  19.5180
    19.6156  19.6363  19.6363  20.2927  20.4072  20.4072  20.4259  20.4372
    20.5254  20.5254  20.5808  20.5994  20.6355  20.6444  20.6480  20.6577
    20.6831  20.6847  20.6980  20.7037  20.7037  20.7248  20.7379  20.7533
    20.7653  21.3892

          k = 0.0000 0.0000 0.1661 (  9727 PWs)   bands (ev):

   -67.2236 -66.8000 -66.7867 -52.6371 -52.6193 -52.5872 -52.5840 -52.5408
   -51.7932 -51.7932 -51.7925 -51.7842 -51.7773 -51.7767 -51.7749 -51.7599
   -33.3132 -33.3021 -33.3020 -32.8999 -32.8998 -32.8861 -32.8857 -32.8856
   -32.8737 -24.2057 -24.1712 -24.1645 -24.1245 -24.1242 -24.0309 -24.0108
   -24.0033 -24.0012 -23.9771 -23.9718 -23.8847 -23.8822 -23.8655 -23.8402
   -23.2696 -23.2269 -23.2229 -23.2217 -23.2168 -23.1958 -23.1702 -23.1388
   -23.1299 -23.0904 -23.0772 -23.0669 -23.0660 -23.0584 -23.0529 -23.0495
   -23.0467 -23.0451 -23.0395 -23.0342 -23.0021 -22.9858 -22.9856 -22.9738
    11.5632  14.5416  14.9602  15.0701  15.1139  15.1144  15.1756  15.2299
    15.3141  15.4204  15.4308  15.5086  15.5195  15.5199  15.9507  16.8272
    16.8973  16.9064  17.0029  17.0035  17.0632  17.0778  17.1142  17.1151
    17.1317  17.1475  17.4994  17.5009  17.5023  17.6200  17.8037  17.8184
    18.4147  18.4645  18.4893  18.5140  18.5342  18.5738  18.5996  18.6201
    18.8756  18.8774  18.9792  18.9818  19.4843  19.5696  19.5760  19.6137
    19.6216  19.6534  19.6751  19.7837  19.8506  20.0046  20.0736  20.2245
    20.2392  20.4007  20.5094  20.5717  20.5954  20.6299  20.6563  20.6649
    20.6944  20.7092  20.7484  20.7589  20.7612  20.8465  20.8837  21.2638
    21.3004  21.3775

          k = 0.0000 0.0000 0.3323 (  9712 PWs)   bands (ev):

   -67.2236 -66.7999 -66.7866 -52.6329 -52.6223 -52.5866 -52.5849 -52.5419
   -51.7920 -51.7898 -51.7892 -51.7853 -51.7807 -51.7801 -51.7718 -51.7631
   -33.3131 -33.3020 -33.3018 -32.8997 -32.8995 -32.8859 -32.8858 -32.8856
   -32.8739 -24.1698 -24.1511 -24.1243 -24.1019 -24.1009 -24.0647 -24.0336
   -24.0275 -24.0160 -23.9996 -23.9940 -23.9211 -23.8756 -23.8659 -23.8510
   -23.2436 -23.2155 -23.1958 -23.1853 -23.1702 -23.1679 -23.1587 -23.1554
   -23.1262 -23.1082 -23.1021 -23.0828 -23.0631 -23.0600 -23.0598 -23.0498
   -23.0463 -23.0375 -23.0344 -23.0325 -23.0291 -23.0216 -22.9960 -22.9879
    12.0093  13.6005  15.1390  15.2374  15.2600  15.2615  15.3779  15.5008
    15.5010  15.5385  15.5446  15.5532  15.6548  15.6913  16.0329  16.4543
    16.5061  16.6423  16.8634  16.8684  16.9539  16.9577  17.2838  17.3430
    17.3631  17.3669  17.5149  17.6648  17.7557  17.7753  17.9196  17.9374
    18.0438  18.1204  18.2397  18.2732  18.4552  18.4670  18.5404  18.5473
    18.6646  18.6898  18.7253  18.9040  18.9387  19.1963  19.2032  19.2287
    19.2594  19.4900  19.4929  19.8471  19.9270  20.0556  20.1010  20.2575
    20.3508  20.3800  20.3894  20.4393  20.5550  20.6400  20.7128  20.7438
    20.8259  20.8406  20.8764  20.8884  21.0413  21.1705  21.2073  21.2292
    21.2500  21.2713

          k = 0.0000 0.0000-0.4984 (  9702 PWs)   bands (ev):

   -67.2235 -66.7999 -66.7866 -52.6286 -52.6260 -52.5858 -52.5858 -52.5425
   -51.7912 -51.7860 -51.7855 -51.7850 -51.7848 -51.7844 -51.7676 -51.7672
   -33.3131 -33.3020 -33.3018 -32.8995 -32.8993 -32.8859 -32.8857 -32.8857
   -32.8741 -24.1383 -24.1188 -24.1185 -24.0871 -24.0793 -24.0752 -24.0534
   -24.0523 -24.0357 -24.0147 -24.0130 -23.9343 -23.8668 -23.8660 -23.8619
   -23.2242 -23.2134 -23.1869 -23.1564 -23.1505 -23.1445 -23.1439 -23.1414
   -23.1309 -23.1235 -23.1048 -23.0985 -23.0963 -23.0635 -23.0577 -23.0571
   -23.0457 -23.0446 -23.0422 -23.0418 -23.0231 -23.0081 -23.0077 -23.0055
    12.6779  12.7472  15.2761  15.3618  15.3854  15.4144  15.4151  15.4708
    15.4793  15.5001  15.7871  15.8841  15.9482  15.9820  15.9828  16.0718
    16.0827  16.0979  16.8905  16.8936  16.8946  16.8996  17.5922  17.6615
    17.7003  17.7082  17.7153  17.7375  17.7449  17.7549  17.8620  17.9474
    18.0206  18.0263  18.1317  18.1576  18.1737  18.1921  18.4226  18.4267
    18.4971  18.5132  18.5224  18.5246  18.5575  18.5608  18.8703  18.9547
    19.7648  19.8341  19.9269  19.9294  20.0338  20.0486  20.0926  20.1733
    20.2204  20.2216  20.5711  20.5742  20.6320  20.6527  20.6820  20.6891
    20.7111  20.7418  20.9697  20.9710  21.0122  21.0371  21.2744  21.3694
    21.4182  21.4195

          k = 0.0000 0.1657 0.1661 (  9707 PWs)   bands (ev):

   -67.2235 -66.7999 -66.7866 -52.6354 -52.6187 -52.5889 -52.5847 -52.5409
   -51.7928 -51.7922 -51.7914 -51.7846 -51.7784 -51.7761 -51.7756 -51.7610
   -33.3125 -33.3020 -33.3020 -32.8998 -32.8997 -32.8869 -32.8857 -32.8854
   -32.8737 -24.1887 -24.1640 -24.1559 -24.1169 -24.1160 -24.0343 -24.0141
   -24.0079 -24.0043 -23.9862 -23.9752 -23.8942 -23.8824 -23.8667 -23.8659
   -23.2659 -23.2253 -23.2121 -23.2051 -23.2021 -23.1833 -23.1722 -23.1408
   -23.1320 -23.0898 -23.0801 -23.0683 -23.0676 -23.0565 -23.0555 -23.0511
   -23.0453 -23.0445 -23.0384 -23.0342 -23.0130 -23.0090 -22.9801 -22.9796
    11.7126  14.5876  14.6426  14.9750  15.1555  15.1984  15.2247  15.2344
    15.3104  15.4675  15.4957  15.5352  15.5714  15.9764  16.0001  16.7019
    16.8060  16.9478  17.0220  17.0439  17.0493  17.0724  17.0997  17.1221
    17.1484  17.2632  17.2706  17.3984  17.5255  17.5620  17.6532  18.1470
    18.1945  18.3565  18.3763  18.4239  18.4618  18.4716  18.6521  18.7049
    18.9948  19.0398  19.0544  19.0776  19.1316  19.1691  19.3765  19.4280
    19.5440  19.6137  19.6336  19.6553  19.7142  19.7381  20.0682  20.0936
    20.3762  20.4619  20.5013  20.5237  20.5790  20.6328  20.6475  20.6687
    20.6764  20.7254  20.7563  20.9127  20.9556  20.9903  21.0283  21.0289
    21.0902  21.3415

          k = 0.0000 0.1657 0.3323 (  9707 PWs)   bands (ev):

   -67.2235 -66.7999 -66.7866 -52.6314 -52.6215 -52.5881 -52.5857 -52.5420
   -51.7914 -51.7898 -51.7880 -51.7853 -51.7813 -51.7789 -51.7729 -51.7642
   -33.3125 -33.3020 -33.3018 -32.8996 -32.8995 -32.8872 -32.8859 -32.8850
   -32.8739 -24.1605 -24.1472 -24.1194 -24.0972 -24.0904 -24.0697 -24.0342
   -24.0302 -24.0158 -24.0033 -23.9868 -23.9256 -23.8821 -23.8682 -23.8666
   -23.2412 -23.2175 -23.1889 -23.1866 -23.1668 -23.1598 -23.1569 -23.1521
   -23.1265 -23.1133 -23.1010 -23.0916 -23.0710 -23.0564 -23.0558 -23.0534
   -23.0492 -23.0486 -23.0388 -23.0303 -23.0225 -23.0199 -22.9917 -22.9905
    12.1508  13.7038  14.7864  14.9901  15.3248  15.3746  15.4253  15.5529
    15.5648  15.5773  15.6378  15.7279  15.7377  15.9732  16.0976  16.4460
    16.5362  16.6023  16.9069  16.9919  17.0069  17.0231  17.2001  17.2404
    17.2954  17.3062  17.4953  17.5266  17.5599  17.7489  17.8481  17.9809
    18.0167  18.1935  18.2062  18.2852  18.3212  18.3455  18.3839  18.4505
    18.5060  18.5862  18.7929  18.8051  18.8932  18.9700  18.9840  19.2176
    19.4262  19.5306  19.5821  19.8741  19.9347  20.0123  20.0137  20.1562
    20.3237  20.4038  20.4123  20.4940  20.5344  20.6259  20.6856  20.7052
    20.7591  20.7975  20.8237  20.8867  20.9300  21.0435  21.1200  21.1566
    21.1765  21.2052

          k = 0.0000 0.1657-0.4984 (  9712 PWs)   bands (ev):

   -67.2235 -66.7999 -66.7866 -52.6274 -52.6249 -52.5870 -52.5870 -52.5425
   -51.7908 -51.7870 -51.7854 -51.7844 -51.7837 -51.7833 -51.7688 -51.7684
   -33.3124 -33.3020 -33.3018 -32.8996 -32.8994 -32.8873 -32.8860 -32.8848
   -32.8739 -24.1372 -24.1195 -24.1169 -24.0843 -24.0779 -24.0778 -24.0511
   -24.0377 -24.0229 -24.0142 -24.0133 -23.9406 -23.8761 -23.8728 -23.8669
   -23.2225 -23.2154 -23.1826 -23.1622 -23.1540 -23.1524 -23.1470 -23.1301
   -23.1233 -23.1208 -23.1166 -23.1081 -23.1053 -23.0736 -23.0574 -23.0523
   -23.0494 -23.0408 -23.0382 -23.0360 -23.0167 -23.0062 -23.0058 -23.0040
    12.8036  12.8753  14.9077  14.9642  15.4891  15.5042  15.5235  15.5840
    15.7358  15.7413  15.8655  15.9523  15.9916  16.0222  16.0567  16.1284
    16.1325  16.1442  16.9285  16.9333  16.9502  16.9639  17.4654  17.4992
    17.5142  17.5769  17.5883  17.5943  17.6897  17.6985  17.9602  17.9769
    17.9787  18.0167  18.1765  18.1883  18.2074  18.2109  18.2513  18.2863
    18.3277  18.3325  18.3482  18.3878  18.4027  18.4347  19.0930  19.1290
    19.8415  19.8419  19.9339  19.9580  19.9795  20.0744  20.1480  20.2067
    20.2310  20.2398  20.3931  20.3971  20.4570  20.5410  20.5588  20.6802
    20.6854  20.7877  20.9107  20.9274  20.9520  20.9944  21.1218  21.1621
    21.1823  21.1828

          k = 0.0000 0.3314 0.3323 (  9705 PWs)   bands (ev):

   -67.2235 -66.7999 -66.7866 -52.6282 -52.6197 -52.5915 -52.5875 -52.5420
   -51.7898 -51.7896 -51.7855 -51.7849 -51.7827 -51.7761 -51.7758 -51.7673
   -33.3111 -33.3020 -33.3018 -32.8996 -32.8995 -32.8889 -32.8859 -32.8847
   -32.8737 -24.1392 -24.1358 -24.1086 -24.0845 -24.0842 -24.0711 -24.0394
   -24.0270 -24.0154 -24.0105 -23.9666 -23.9383 -23.9122 -23.8971 -23.8679
   -23.2358 -23.2163 -23.1817 -23.1711 -23.1646 -23.1535 -23.1478 -23.1476
   -23.1221 -23.1167 -23.1085 -23.1067 -23.0944 -23.0808 -23.0762 -23.0496
   -23.0412 -23.0333 -23.0300 -23.0249 -23.0171 -23.0169 -23.0012 -22.9944
    12.5612  13.9637  14.0015  14.7155  15.5962  15.6518  15.6648  15.7063
    15.7443  15.7550  15.8064  15.9246  15.9623  16.0920  16.1903  16.3762
    16.5193  16.7147  16.7518  16.9455  17.1155  17.1396  17.1414  17.1697
    17.2147  17.2672  17.3651  17.3839  17.4958  17.8177  17.8321  17.8847
    17.9156  17.9540  18.0056  18.1114  18.1467  18.1491  18.2023  18.2404
    18.2712  18.3632  18.4453  18.4816  18.5269  18.8668  18.9041  19.1476
    19.7175  19.7282  19.8216  19.9497  19.9819  20.0309  20.0656  20.2724
    20.2957  20.3276  20.3900  20.4068  20.4695  20.5096  20.5346  20.5936
    20.6405  20.6520  20.7336  20.7568  20.8949  20.8965  20.9460  20.9683
    21.0077  21.0873

          k = 0.0000 0.3314-0.4984 (  9714 PWs)   bands (ev):

   -67.2235 -66.8000 -66.7866 -52.6249 -52.6224 -52.5895 -52.5895 -52.5426
   -51.7897 -51.7878 -51.7865 -51.7835 -51.7806 -51.7801 -51.7719 -51.7715
   -33.3111 -33.3020 -33.3018 -32.8996 -32.8995 -32.8891 -32.8860 -32.8844
   -32.8737 -24.1349 -24.1159 -24.1105 -24.0851 -24.0833 -24.0743 -24.0484
   -24.0140 -24.0132 -23.9987 -23.9903 -23.9533 -23.9032 -23.9022 -23.8685
   -23.2197 -23.2175 -23.1740 -23.1630 -23.1550 -23.1548 -23.1466 -23.1374
   -23.1309 -23.1286 -23.1259 -23.1193 -23.1100 -23.0860 -23.0786 -23.0417
   -23.0379 -23.0355 -23.0247 -23.0208 -23.0085 -23.0082 -23.0079 -23.0036
    13.1626  13.2399  14.3179  14.4022  15.7682  15.7855  15.7990  15.8441
    15.8582  15.9367  16.0589  16.0851  16.0928  16.1078  16.2403  16.2488
    16.2767  16.3511  16.9939  16.9980  17.0632  17.0925  17.1585  17.2041
    17.2153  17.2639  17.3540  17.3640  17.5976  17.5992  17.7971  17.8124
    17.8526  17.8879  17.9658  17.9795  18.0331  18.0759  18.0893  18.1425
    18.1840  18.2311  18.2688  18.2933  18.3759  18.3844  19.1936  19.2045
    19.7801  19.8207  20.0537  20.1148  20.1182  20.1203  20.1878  20.1933
    20.2424  20.2470  20.2774  20.2926  20.3199  20.3230  20.5125  20.6043
    20.6852  20.6874  20.7413  20.8089  20.8229  20.8256  20.8540  20.8882
    20.9281  20.9553

          k = 0.0000-0.4970-0.4984 (  9692 PWs)   bands (ev):

   -67.2235 -66.7999 -66.7866 -52.6234 -52.6210 -52.5909 -52.5909 -52.5426
   -51.7885 -51.7881 -51.7877 -51.7832 -51.7767 -51.7763 -51.7758 -51.7754
   -33.3104 -33.3020 -33.3018 -32.8995 -32.8995 -32.8900 -32.8859 -32.8842
   -32.8735 -24.1336 -24.1121 -24.1043 -24.0916 -24.0842 -24.0725 -24.0471
   -24.0144 -24.0126 -23.9714 -23.9581 -23.9445 -23.9404 -23.9328 -23.8694
   -23.2187 -23.2179 -23.1677 -23.1545 -23.1496 -23.1495 -23.1493 -23.1492
   -23.1439 -23.1363 -23.1356 -23.1253 -23.1023 -23.0926 -23.0893 -23.0390
   -23.0238 -23.0234 -23.0185 -23.0158 -23.0156 -23.0138 -23.0065 -23.0052
    13.6800  13.7178  13.7320  13.8368  15.8960  15.9648  15.9651  15.9718
    16.0180  16.0295  16.1273  16.1464  16.1838  16.1959  16.2726  16.3066
    16.6060  16.7205  16.7534  16.7567  16.9923  16.9949  17.0362  17.0722
    17.0764  17.1862  17.2864  17.3360  17.5747  17.6343  17.6892  17.7031
    17.7112  17.7169  17.7527  17.7714  17.9487  17.9566  17.9691  18.0283
    18.1231  18.2002  18.2197  18.2218  18.8162  18.8233  18.8506  18.8636
    19.8504  19.8728  19.8875  19.9782  20.2568  20.2960  20.3122  20.3199
    20.3416  20.3478  20.3524  20.3729  20.3739  20.4541  20.4587  20.4725
    20.4811  20.4999  20.5171  20.5172  20.7563  20.7723  20.8186  20.8340
    20.8348  20.8602

          k = 0.1661 0.1657 0.1661 (  9727 PWs)   bands (ev):

   -67.2236 -66.8000 -66.7866 -52.6340 -52.6195 -52.5887 -52.5850 -52.5414
   -51.7922 -51.7916 -51.7901 -51.7849 -51.7773 -51.7771 -51.7766 -51.7622
   -33.3125 -33.3020 -33.3020 -32.8998 -32.8996 -32.8870 -32.8856 -32.8854
   -32.8738 -24.1791 -24.1564 -24.1459 -24.1106 -24.1067 -24.0451 -24.0288
   -24.0164 -24.0019 -23.9840 -23.9800 -23.8952 -23.8844 -23.8795 -23.8677
   -23.2561 -23.2161 -23.2098 -23.2034 -23.1917 -23.1751 -23.1607 -23.1395
   -23.1392 -23.0928 -23.0843 -23.0835 -23.0678 -23.0600 -23.0543 -23.0506
   -23.0477 -23.0426 -23.0407 -23.0275 -23.0252 -23.0114 -22.9870 -22.9791
    11.8607  14.6030  14.7112  14.8049  15.0555  15.1714  15.2186  15.3094
    15.3423  15.4207  15.5795  15.6121  15.9523  16.0442  16.1031  16.6069
    16.9049  16.9092  16.9511  17.0554  17.0711  17.1009  17.1075  17.1290
    17.1948  17.2140  17.2457  17.3198  17.4198  17.4318  17.9379  17.9731
    17.9838  18.2722  18.3458  18.3507  18.3748  18.3844  18.7890  18.7930
    18.8238  18.8370  18.9844  19.0124  19.0349  19.2145  19.2245  19.2316
    19.2699  19.3529  19.4177  19.7635  19.8071  19.8385  20.3010  20.3038
    20.3382  20.3988  20.4307  20.4860  20.5745  20.5857  20.6303  20.6507
    20.6647  20.7243  20.7330  20.9176  20.9256  20.9676  20.9958  21.0590
    21.1702  21.2299

          k = 0.1661 0.1657 0.3323 (  9698 PWs)   bands (ev):

   -67.2235 -66.7999 -66.7866 -52.6304 -52.6218 -52.5880 -52.5859 -52.5426
   -51.7915 -51.7888 -51.7871 -51.7855 -51.7802 -51.7794 -51.7740 -51.7654
   -33.3124 -33.3019 -33.3018 -32.8997 -32.8994 -32.8871 -32.8857 -32.8851
   -32.8739 -24.1520 -24.1431 -24.1178 -24.0926 -24.0868 -24.0740 -24.0473
   -24.0248 -24.0142 -23.9973 -23.9824 -23.9271 -23.8867 -23.8790 -23.8717
   -23.2327 -23.2097 -23.1940 -23.1856 -23.1642 -23.1597 -23.1529 -23.1414
   -23.1347 -23.1103 -23.1016 -23.0945 -23.0757 -23.0705 -23.0662 -23.0578
   -23.0503 -23.0413 -23.0392 -23.0347 -23.0174 -23.0126 -22.9992 -22.9855
    12.2922  13.8107  14.8714  14.9191  15.0961  15.1742  15.5044  15.5549
    15.5808  15.6811  15.8141  15.8201  16.0235  16.0880  16.1663  16.4487
    16.5689  16.6541  16.9041  17.0296  17.0468  17.0899  17.1138  17.2127
    17.2208  17.2658  17.4381  17.4796  17.5674  17.7127  17.7633  17.7771
    18.0397  18.0950  18.1554  18.2067  18.2465  18.3009  18.3259  18.3508
    18.3817  18.3962  18.5830  18.6646  18.6879  18.7732  19.0394  19.0459
    19.5730  19.6258  19.6558  19.9476  19.9926  20.0669  20.1695  20.2133
    20.2661  20.3765  20.4434  20.4761  20.5112  20.5631  20.6691  20.6950
    20.7328  20.7543  20.7840  20.7894  20.8612  21.0140  21.0387  21.1372
    21.1554  21.2600

          k = 0.1661 0.1657-0.4984 (  9716 PWs)   bands (ev):

   -67.2235 -66.7999 -66.7866 -52.6268 -52.6249 -52.5870 -52.5870 -52.5432
   -51.7910 -51.7868 -51.7843 -51.7838 -51.7833 -51.7831 -51.7699 -51.7695
   -33.3125 -33.3019 -33.3018 -32.8995 -32.8995 -32.8872 -32.8858 -32.8849
   -32.8740 -24.1321 -24.1166 -24.1131 -24.1041 -24.0844 -24.0721 -24.0436
   -24.0269 -24.0154 -24.0117 -24.0041 -23.9443 -23.8848 -23.8779 -23.8742
   -23.2140 -23.2084 -23.1882 -23.1752 -23.1567 -23.1467 -23.1389 -23.1314
   -23.1280 -23.1167 -23.1165 -23.1111 -23.0979 -23.0763 -23.0722 -23.0689
   -23.0521 -23.0419 -23.0270 -23.0264 -23.0249 -23.0117 -22.9975 -22.9973
    12.9310  13.0050  15.0284  15.0392  15.0488  15.1590  15.8114  15.8197
    15.8540  15.8689  15.9416  16.0254  16.0373  16.0486  16.1340  16.1893
    16.1932  16.1993  16.9507  16.9580  17.0103  17.0267  17.4268  17.4281
    17.4820  17.5013  17.5099  17.5227  17.5723  17.5844  17.9119  17.9597
    17.9651  17.9950  18.0191  18.0640  18.1524  18.1613  18.1698  18.1765
    18.1952  18.2016  18.2087  18.2123  18.2782  18.2898  19.1778  19.1849
    19.9301  19.9407  19.9539  20.0166  20.0414  20.0460  20.0750  20.0783
    20.2092  20.2304  20.2341  20.2651  20.5490  20.6532  20.6709  20.6767
    20.7569  20.8144  20.8827  20.9004  20.9285  20.9566  21.0475  21.0587
    21.0746  21.0941

          k = 0.1661 0.3314 0.3323 (  9701 PWs)   bands (ev):

   -67.2235 -66.7999 -66.7866 -52.6273 -52.6200 -52.5912 -52.5878 -52.5427
   -51.7894 -51.7890 -51.7852 -51.7846 -51.7818 -51.7769 -51.7766 -51.7684
   -33.3111 -33.3019 -33.3018 -32.8995 -32.8995 -32.8888 -32.8858 -32.8848
   -32.8737 -24.1310 -24.1245 -24.1048 -24.0845 -24.0844 -24.0749 -24.0374
   -24.0197 -24.0133 -24.0072 -23.9773 -23.9386 -23.9176 -23.9025 -23.8831
   -23.2271 -23.2090 -23.1810 -23.1715 -23.1644 -23.1534 -23.1472 -23.1421
   -23.1225 -23.1136 -23.1060 -23.1050 -23.0964 -23.0756 -23.0726 -23.0567
   -23.0522 -23.0388 -23.0357 -23.0245 -23.0226 -23.0095 -23.0041 -22.9990
    12.6990  14.0791  14.1202  14.8479  15.1587  15.4771  15.5385  15.7891
    15.8242  15.8937  16.0322  16.0497  16.1441  16.2155  16.3610  16.4252
    16.5758  16.7090  16.7155  16.9495  17.0422  17.1269  17.1596  17.2362
    17.2537  17.2753  17.2893  17.3478  17.5138  17.6933  17.7528  17.8010
    17.8344  17.8800  17.8924  18.0110  18.0540  18.0724  18.0839  18.1168
    18.1611  18.2045  18.2301  18.2552  18.3409  18.5990  18.6383  19.1814
    19.8521  19.8622  19.9241  20.0735  20.0922  20.1120  20.1739  20.1947
    20.3712  20.4012  20.4397  20.4650  20.4821  20.5065  20.5521  20.6016
    20.6588  20.7218  20.7456  20.8930  20.9013  20.9220  20.9506  21.0194
    21.0566  21.0751

          k = 0.1661 0.3314-0.4984 (  9714 PWs)   bands (ev):

   -67.2235 -66.8000 -66.7866 -52.6243 -52.6224 -52.5895 -52.5895 -52.5432
   -51.7894 -51.7873 -51.7855 -51.7830 -51.7807 -51.7804 -51.7728 -51.7725
   -33.3111 -33.3020 -33.3018 -32.8995 -32.8995 -32.8889 -32.8859 -32.8846
   -32.8737 -24.1248 -24.1102 -24.1025 -24.0904 -24.0820 -24.0646 -24.0446
   -24.0127 -24.0109 -23.9981 -23.9971 -23.9585 -23.9099 -23.9089 -23.8852
   -23.2112 -23.2100 -23.1785 -23.1707 -23.1524 -23.1445 -23.1415 -23.1362
   -23.1357 -23.1240 -23.1178 -23.1157 -23.1000 -23.0845 -23.0762 -23.0540
   -23.0480 -23.0425 -23.0241 -23.0232 -23.0215 -23.0148 -23.0039 -23.0027
    13.2919  13.3712  14.4471  14.5328  15.3777  15.4311  15.9745  16.0006
    16.0226  16.0605  16.0772  16.0957  16.2112  16.2261  16.3407  16.3463
    16.3478  16.4064  17.0255  17.0319  17.0822  17.1079  17.1187  17.1815
    17.2465  17.2616  17.3580  17.3657  17.5499  17.5532  17.6377  17.6659
    17.7452  17.7997  17.8959  17.9106  17.9364  17.9453  17.9719  17.9895
    18.0269  18.0624  18.0993  18.1307  18.1795  18.1916  18.9523  18.9544
    19.9821  20.0155  20.0891  20.1008  20.1916  20.2145  20.2462  20.2688
    20.2787  20.3129  20.3292  20.3685  20.5318  20.5478  20.5855  20.6177
    20.7477  20.7681  20.7691  20.8105  20.8560  20.8636  20.9154  20.9237
    20.9416  21.0089

          k = 0.1661-0.4970-0.4984 (  9688 PWs)   bands (ev):

   -67.2235 -66.7999 -66.7866 -52.6229 -52.6210 -52.5909 -52.5909 -52.5433
   -51.7878 -51.7875 -51.7870 -51.7828 -51.7771 -51.7770 -51.7765 -51.7761
   -33.3104 -33.3019 -33.3017 -32.8995 -32.8995 -32.8896 -32.8859 -32.8845
   -32.8736 -24.1202 -24.1053 -24.0959 -24.0828 -24.0754 -24.0726 -24.0485
   -24.0150 -24.0104 -23.9707 -23.9681 -23.9544 -23.9487 -23.9425 -23.8873
   -23.2103 -23.2099 -23.1710 -23.1620 -23.1473 -23.1467 -23.1444 -23.1416
   -23.1352 -23.1291 -23.1277 -23.1162 -23.0990 -23.0913 -23.0882 -23.0451
   -23.0306 -23.0295 -23.0254 -23.0230 -23.0206 -23.0193 -23.0116 -23.0108
    13.8120  13.8479  13.8626  13.9722  15.7655  15.7665  15.7975  15.8853
    16.0162  16.1408  16.1578  16.1740  16.4539  16.4555  16.4567  16.4761
    16.6307  16.7395  16.7660  16.7679  16.9672  17.0082  17.0134  17.0494
    17.1606  17.2299  17.2944  17.3436  17.4563  17.4930  17.5343  17.5516
    17.6656  17.6794  17.7108  17.7304  17.8351  17.8437  17.8581  17.8682
    17.9692  18.0401  18.0654  18.0680  18.4897  18.4990  18.5339  18.5361
    20.1197  20.1494  20.1631  20.2282  20.2866  20.3522  20.4023  20.4265
    20.4284  20.4716  20.4756  20.4777  20.5114  20.5232  20.5332  20.5380
    20.5638  20.5880  20.6031  20.6125  20.7529  20.7961  20.8099  20.8224
    20.8248  20.8887

          k = 0.3323 0.3314 0.3323 (  9716 PWs)   bands (ev):

   -67.2235 -66.8000 -66.7866 -52.6251 -52.6209 -52.5905 -52.5885 -52.5439
   -51.7890 -51.7872 -51.7842 -51.7834 -51.7796 -51.7786 -51.7785 -51.7713
   -33.3111 -33.3019 -33.3018 -32.8995 -32.8995 -32.8884 -32.8857 -32.8851
   -32.8738 -24.1120 -24.1066 -24.0908 -24.0906 -24.0846 -24.0623 -24.0304
   -24.0183 -24.0089 -24.0014 -23.9976 -23.9416 -23.9311 -23.9249 -23.9056
   -23.2065 -23.1939 -23.1780 -23.1737 -23.1612 -23.1552 -23.1404 -23.1384
   -23.1146 -23.1100 -23.1051 -23.1039 -23.1019 -23.0733 -23.0716 -23.0609
   -23.0594 -23.0521 -23.0453 -23.0325 -23.0230 -23.0132 -23.0098 -23.0047
    13.0956  14.3402  14.4331  14.5129  15.1528  15.2765  15.3349  16.0583
    16.0710  16.0987  16.2756  16.2834  16.3848  16.4345  16.5020  16.5123
    16.6215  16.6362  16.7561  16.7939  17.0286  17.0309  17.2099  17.2544
    17.2548  17.3864  17.3883  17.4121  17.4332  17.4520  17.6415  17.6624
    17.6893  17.7128  17.7147  17.7295  17.7657  17.7895  17.7912  17.8109
    17.8800  17.9203  17.9838  17.9868  18.1190  18.1908  18.1914  18.8882
    20.0909  20.0971  20.1231  20.1537  20.3054  20.3401  20.3805  20.4087
    20.4201  20.4383  20.5431  20.5531  20.5868  20.5992  20.6187  20.7148
    20.7288  20.8075  20.8515  20.8680  20.8874  20.9028  20.9109  21.0411
    21.0570  21.1006

          k = 0.3323 0.3314-0.4984 (  9710 PWs)   bands (ev):

   -67.2235 -66.8000 -66.7866 -52.6230 -52.6224 -52.5895 -52.5895 -52.5445
   -51.7889 -51.7862 -51.7829 -51.7815 -51.7810 -51.7809 -51.7752 -51.7752
   -33.3111 -33.3018 -33.3018 -32.8994 -32.8994 -32.8883 -32.8857 -32.8852
   -32.8738 -24.1058 -24.1037 -24.0872 -24.0851 -24.0664 -24.0575 -24.0335
   -24.0128 -24.0059 -24.0059 -23.9995 -23.9681 -23.9368 -23.9226 -23.9187
   -23.1901 -23.1896 -23.1778 -23.1703 -23.1579 -23.1543 -23.1454 -23.1312
   -23.1235 -23.1084 -23.1044 -23.1035 -23.0876 -23.0804 -23.0766 -23.0693
   -23.0650 -23.0496 -23.0389 -23.0344 -23.0281 -23.0239 -23.0100 -23.0068
    13.6581  13.7443  14.8066  14.8420  14.8533  14.9532  15.8228  15.8559
    16.2836  16.2927  16.3202  16.3689  16.3814  16.4291  16.5390  16.5758
    16.5834  16.5918  17.0277  17.0692  17.1025  17.1209  17.1306  17.1383
    17.1838  17.1896  17.3723  17.3889  17.4238  17.4333  17.4832  17.4900
    17.5609  17.5634  17.6191  17.6863  17.7007  17.7044  17.7271  17.7692
    17.7932  17.7954  17.8134  17.8168  17.8844  17.8925  18.4232  18.4232
    20.2925  20.2997  20.3328  20.3395  20.3672  20.3963  20.4069  20.4499
    20.4653  20.4854  20.5361  20.5453  20.5860  20.6752  20.7405  20.7500
    20.7778  20.7887  20.7903  20.8094  20.8564  20.8711  20.8863  20.9217
    20.9261  20.9366

          k = 0.3323-0.4970-0.4984 (  9724 PWs)   bands (ev):

   -67.2235 -66.8000 -66.7866 -52.6216 -52.6210 -52.5909 -52.5909 -52.5445
   -51.7861 -51.7859 -51.7852 -51.7815 -51.7787 -51.7783 -51.7781 -51.7779
   -33.3104 -33.3018 -33.3018 -32.8994 -32.8994 -32.8890 -32.8858 -32.8852
   -32.8737 -24.0908 -24.0855 -24.0742 -24.0707 -24.0601 -24.0518 -24.0506
   -24.0162 -24.0064 -23.9938 -23.9806 -23.9760 -23.9670 -23.9617 -23.9311
   -23.1906 -23.1872 -23.1716 -23.1670 -23.1477 -23.1428 -23.1392 -23.1350
   -23.1349 -23.1076 -23.1064 -23.0926 -23.0846 -23.0842 -23.0787 -23.0570
   -23.0450 -23.0439 -23.0415 -23.0412 -23.0344 -23.0341 -23.0277 -23.0273
    14.1849  14.2137  14.2318  14.3554  15.3548  15.3549  15.3567  15.4755
    16.3489  16.4422  16.4644  16.4812  16.6947  16.7766  16.7916  16.7923
    16.8097  16.8114  16.8268  16.8352  16.8805  17.0072  17.0389  17.0518
    17.2857  17.2999  17.3245  17.3257  17.3359  17.3613  17.3797  17.3879
    17.4899  17.5045  17.5075  17.5284  17.5778  17.5859  17.5998  17.6218
    17.6591  17.7209  17.7397  17.7472  17.9281  17.9386  17.9656  17.9701
    20.3903  20.4388  20.4444  20.4778  20.4915  20.5784  20.5886  20.6039
    20.6143  20.6183  20.6377  20.6409  20.7159  20.7164  20.7235  20.7389
    20.7664  20.7801  20.7819  20.7982  20.8179  20.8537  20.8794  20.8993
    20.9830  20.9915

          k =-0.4984-0.4970-0.4984 (  9808 PWs)   bands (ev):

   -67.2237 -66.8001 -66.7868 -52.6210 -52.6210 -52.5909 -52.5909 -52.5452
   -51.7848 -51.7847 -51.7839 -51.7800 -51.7800 -51.7798 -51.7793 -51.7793
   -33.3105 -33.3019 -33.3019 -32.8994 -32.8994 -32.8886 -32.8858 -32.8858
   -32.8739 -24.0851 -24.0656 -24.0600 -24.0594 -24.0463 -24.0395 -24.0264
   -24.0164 -24.0164 -24.0081 -24.0045 -23.9875 -23.9875 -23.9627 -23.9627
   -23.1703 -23.1683 -23.1683 -23.1682 -23.1648 -23.1445 -23.1445 -23.1307
   -23.1307 -23.1029 -23.0783 -23.0783 -23.0736 -23.0725 -23.0680 -23.0536
   -23.0536 -23.0531 -23.0527 -23.0486 -23.0486 -23.0484 -23.0482 -23.0474
    14.6310  14.6355  14.6895  14.8718  14.8718  14.9068  14.9092  14.9092
    16.7648  16.7648  16.7668  16.7668  16.7766  16.8077  16.8077  16.8196
    16.8196  16.8221  16.9739  16.9816  17.0467  17.0671  17.0708  17.0709
    17.3102  17.3401  17.3486  17.3486  17.3664  17.3893  17.3893  17.4032
    17.4032  17.4056  17.4256  17.4497  17.4497  17.4658  17.4860  17.4888
    17.4948  17.4948  17.4949  17.5038  17.5038  17.5114  17.5147  17.5153
    20.4720  20.5045  20.6467  20.6467  20.6867  20.6867  20.7025  20.7025
    20.7026  20.7098  20.7111  20.7141  20.7334  20.7356  20.7418  20.7418
    20.8340  20.8340  20.8621  20.8870  20.9035  20.9117  20.9117  20.9806
    20.9806  21.0855

          k = 0.0000 0.1657 0.0000 (  9743 PWs)   bands (ev):

   -67.2236 -66.8000 -66.7867 -52.6369 -52.6177 -52.5892 -52.5842 -52.5403
   -51.7938 -51.7926 -51.7926 -51.7843 -51.7773 -51.7773 -51.7744 -51.7599
   -33.3125 -33.3021 -33.3021 -32.8999 -32.8999 -32.8868 -32.8857 -32.8857
   -32.8737 -24.1981 -24.1714 -24.1714 -24.1242 -24.1242 -24.0291 -23.9996
   -23.9996 -23.9923 -23.9787 -23.9787 -23.8925 -23.8702 -23.8656 -23.8656
   -23.2765 -23.2237 -23.2192 -23.2192 -23.2173 -23.1952 -23.1759 -23.1346
   -23.1346 -23.0835 -23.0718 -23.0665 -23.0665 -23.0537 -23.0537 -23.0496
   -23.0441 -23.0436 -23.0436 -23.0346 -23.0062 -22.9987 -22.9759 -22.9759
    11.5622  14.5427  14.9231  15.1035  15.1141  15.1141  15.1745  15.2016
    15.2444  15.4138  15.4642  15.5184  15.5184  15.6028  15.9361  16.8127
    16.9039  16.9039  16.9830  16.9830  17.0589  17.0765  17.1198  17.1350
    17.1350  17.1509  17.4651  17.5084  17.5084  17.6645  17.8195  17.8195
    18.4316  18.4747  18.4747  18.5045  18.5149  18.5870  18.6200  18.6200
    18.8455  18.8455  18.9968  18.9968  19.4646  19.4746  19.5950  19.6445
    19.6606  19.6606  19.7086  19.8397  19.8397  20.0214  20.0214  20.2331
    20.2331  20.4085  20.4746  20.5872  20.5877  20.6237  20.6237  20.6549
    20.6935  20.7346  20.7350  20.7663  20.7844  20.8359  20.8874  21.1728
    21.3873  21.3924

          k = 0.0000 0.3314 0.0000 (  9702 PWs)   bands (ev):

   -67.2235 -66.7999 -66.7866 -52.6329 -52.6166 -52.5934 -52.5854 -52.5404
   -51.7923 -51.7894 -51.7894 -51.7855 -51.7805 -51.7805 -51.7713 -51.7629
   -33.3111 -33.3020 -33.3020 -32.8997 -32.8997 -32.8879 -32.8858 -32.8858
   -32.8737 -24.1511 -24.1511 -24.1405 -24.1020 -24.1020 -24.0313 -24.0260
   -24.0260 -24.0010 -24.0010 -23.9729 -23.9528 -23.9132 -23.8662 -23.8662
   -23.2675 -23.1992 -23.1992 -23.1932 -23.1675 -23.1638 -23.1581 -23.1420
   -23.1420 -23.0831 -23.0803 -23.0669 -23.0664 -23.0664 -23.0477 -23.0477
   -23.0465 -23.0442 -23.0406 -23.0378 -23.0363 -23.0363 -22.9946 -22.9946
    12.0059  13.5911  15.0521  15.2607  15.2607  15.2624  15.3626  15.4510
    15.4963  15.5508  15.5508  15.6239  15.6938  15.6968  16.0421  16.4426
    16.4779  16.6527  16.8608  16.8608  16.9366  16.9366  17.3034  17.3624
    17.3661  17.3661  17.4931  17.6960  17.7778  17.7778  17.9366  17.9366
    18.0820  18.0946  18.2629  18.2629  18.4626  18.4626  18.5409  18.5409
    18.6902  18.7048  18.7239  18.9333  18.9333  19.1704  19.1976  19.2456
    19.2456  19.4788  19.4788  19.8176  19.9145  20.0997  20.0997  20.2290
    20.3469  20.3702  20.3702  20.3930  20.6108  20.6360  20.7182  20.7234
    20.8510  20.8722  20.8808  20.8808  21.0622  21.1281  21.2182  21.2670
    21.2727  21.2727

          k = 0.0000-0.4970 0.0000 (  9722 PWs)   bands (ev):

   -67.2235 -66.8000 -66.7866 -52.6305 -52.6160 -52.5958 -52.5860 -52.5405
   -51.7914 -51.7864 -51.7854 -51.7854 -51.7845 -51.7845 -51.7676 -51.7667
   -33.3105 -33.3020 -33.3020 -32.8996 -32.8996 -32.8886 -32.8859 -32.8859
   -32.8739 -24.1385 -24.1385 -24.0778 -24.0778 -24.0708 -24.0549 -24.0549
   -24.0343 -24.0324 -24.0122 -24.0122 -23.9536 -23.9335 -23.8665 -23.8665
   -23.2626 -23.1927 -23.1869 -23.1869 -23.1482 -23.1482 -23.1253 -23.1209
   -23.1184 -23.0950 -23.0940 -23.0935 -23.0760 -23.0749 -23.0677 -23.0677
   -23.0430 -23.0430 -23.0425 -23.0417 -23.0235 -23.0235 -23.0142 -23.0142
    12.6784  12.7322  15.1516  15.2546  15.4124  15.4124  15.4783  15.4783
    15.4967  15.6695  15.7889  15.8456  15.9261  15.9464  15.9883  16.0336
    16.0720  16.1599  16.8807  16.8807  16.8828  16.8828  17.6301  17.6693
    17.6868  17.7091  17.7457  17.7457  17.7471  17.7471  17.8989  17.9428
    17.9712  18.0881  18.1695  18.1695  18.1790  18.1790  18.4461  18.4461
    18.4768  18.4768  18.5497  18.5497  18.5540  18.5540  18.8912  18.9529
    19.7220  19.8076  19.9054  19.9054  20.0356  20.0356  20.1156  20.1191
    20.1556  20.2341  20.6282  20.6298  20.6326  20.6326  20.7104  20.7104
    20.7190  20.7192  20.9813  21.0055  21.0280  21.0477  21.3839  21.3839
    21.3968  21.4108

          k = 0.1661 0.0000 0.1661 (  9703 PWs)   bands (ev):

   -67.2235 -66.7999 -66.7866 -52.6357 -52.6201 -52.5870 -52.5843 -52.5414
   -51.7932 -51.7919 -51.7911 -51.7847 -51.7777 -51.7762 -51.7761 -51.7611
   -33.3131 -33.3020 -33.3020 -32.8999 -32.8996 -32.8860 -32.8858 -32.8854
   -32.8738 -24.1942 -24.1660 -24.1520 -24.1163 -24.1140 -24.0384 -24.0248
   -24.0149 -24.0092 -23.9805 -23.9676 -23.8867 -23.8814 -23.8804 -23.8438
   -23.2593 -23.2217 -23.2179 -23.2095 -23.2075 -23.1811 -23.1639 -23.1384
   -23.1375 -23.0932 -23.0820 -23.0777 -23.0694 -23.0539 -23.0530 -23.0502
   -23.0487 -23.0425 -23.0386 -23.0357 -23.0078 -23.0044 -22.9889 -22.9716
    11.7135  14.5387  14.7231  15.0001  15.1062  15.2165  15.2263  15.2434
    15.3180  15.4095  15.4994  15.5619  15.5764  15.9291  16.0211  16.7096
    16.8067  16.9545  17.0294  17.0579  17.0593  17.0792  17.1239  17.1370
    17.1399  17.2334  17.2497  17.3847  17.5131  17.5591  17.6418  18.1740
    18.1860  18.3190  18.3640  18.4302  18.4705  18.4899  18.6668  18.6973
    18.9919  19.0325  19.0787  19.0931  19.1169  19.1423  19.3801  19.4263
    19.4607  19.6368  19.6636  19.6933  19.7180  19.7434  20.0499  20.1045
    20.3846  20.4768  20.4925  20.5121  20.5933  20.6257  20.6633  20.6658
    20.6776  20.7284  20.7312  20.9181  20.9535  20.9559  20.9877  21.0600
    21.1277  21.3345

          k = 0.1661 0.3314 0.0000 (  9709 PWs)   bands (ev):

   -67.2235 -66.7999 -66.7866 -52.6316 -52.6174 -52.5929 -52.5860 -52.5410
   -51.7916 -51.7895 -51.7882 -51.7854 -51.7812 -51.7793 -51.7725 -51.7641
   -33.3111 -33.3020 -33.3020 -32.8997 -32.8996 -32.8883 -32.8859 -32.8854
   -32.8737 -24.1487 -24.1473 -24.1298 -24.0972 -24.0928 -24.0494 -24.0294
   -24.0233 -24.0132 -24.0040 -23.9675 -23.9394 -23.9141 -23.8788 -23.8668
   -23.2580 -23.2122 -23.1958 -23.1743 -23.1699 -23.1592 -23.1592 -23.1445
   -23.1354 -23.0898 -23.0874 -23.0799 -23.0751 -23.0697 -23.0615 -23.0551
   -23.0447 -23.0426 -23.0387 -23.0345 -23.0260 -23.0236 -22.9964 -22.9924
    12.1484  13.6959  14.7722  14.9789  15.3173  15.3748  15.4781  15.5203
    15.5485  15.5717  15.6365  15.7093  15.7616  16.0124  16.1006  16.4381
    16.5115  16.6096  16.9041  16.9905  16.9909  17.0094  17.1845  17.2594
    17.3051  17.3137  17.5098  17.5298  17.5584  17.7612  17.8636  17.9765
    18.0244  18.1960  18.2105  18.2830  18.3225  18.3528  18.3973  18.4499
    18.5015  18.5807  18.7990  18.8689  18.8971  18.9093  18.9985  19.2392
    19.4051  19.5253  19.5460  19.8517  19.9327  20.0200  20.0390  20.1542
    20.2847  20.3886  20.3976  20.4782  20.5861  20.6279  20.6868  20.7038
    20.7630  20.7956  20.8250  20.8842  20.9521  21.0991  21.1078  21.1582
    21.1968  21.2204

          k = 0.3323 0.0000 0.1661 (  9709 PWs)   bands (ev):

   -67.2235 -66.7999 -66.7866 -52.6319 -52.6227 -52.5865 -52.5850 -52.5426
   -51.7924 -51.7886 -51.7880 -51.7857 -51.7804 -51.7795 -51.7730 -51.7643
   -33.3131 -33.3020 -33.3018 -32.8997 -32.8994 -32.8858 -32.8858 -32.8855
   -32.8740 -24.1623 -24.1500 -24.1238 -24.0975 -24.0877 -24.0710 -24.0506
   -24.0348 -24.0145 -23.9931 -23.9763 -23.9232 -23.8824 -23.8746 -23.8533
   -23.2351 -23.2090 -23.2032 -23.1888 -23.1680 -23.1584 -23.1507 -23.1485
   -23.1370 -23.1056 -23.1029 -23.0853 -23.0842 -23.0688 -23.0617 -23.0535
   -23.0467 -23.0420 -23.0380 -23.0313 -23.0212 -23.0143 -22.9980 -22.9807
    12.1518  13.7041  14.8050  15.0030  15.3068  15.3711  15.4476  15.5213
    15.5572  15.5862  15.6287  15.7267  15.7692  15.9564  16.0852  16.4511
    16.5499  16.6061  16.9113  16.9850  17.0108  17.0200  17.2101  17.2461
    17.3010  17.3111  17.4731  17.5210  17.5382  17.7544  17.8530  17.9572
    18.0269  18.2084  18.2218  18.2657  18.3130  18.3570  18.3876  18.4609
    18.4860  18.5711  18.7627  18.8635  18.8908  18.9064  19.0226  19.2337
    19.4190  19.5475  19.5485  19.8823  19.9383  19.9958  20.0445  20.1768
    20.3080  20.4009  20.4125  20.4933  20.5474  20.6296  20.6826  20.6926
    20.7668  20.7921  20.8091  20.8796  20.8935  21.0974  21.1040  21.1473
    21.1845  21.2481

          k = 0.1661-0.4970 0.0000 (  9730 PWs)   bands (ev):

   -67.2236 -66.8000 -66.7866 -52.6293 -52.6167 -52.5952 -52.5867 -52.5410
   -51.7909 -51.7873 -51.7849 -51.7845 -51.7842 -51.7833 -51.7688 -51.7679
   -33.3105 -33.3020 -33.3019 -32.8996 -32.8996 -32.8891 -32.8860 -32.8854
   -32.8738 -24.1373 -24.1294 -24.0896 -24.0844 -24.0765 -24.0628 -24.0531
   -24.0235 -24.0164 -24.0127 -23.9991 -23.9491 -23.9359 -23.8788 -23.8673
   -23.2534 -23.2070 -23.1820 -23.1701 -23.1564 -23.1562 -23.1255 -23.1163
   -23.1159 -23.1125 -23.1084 -23.1028 -23.0860 -23.0860 -23.0743 -23.0552
   -23.0463 -23.0340 -23.0339 -23.0269 -23.0225 -23.0166 -23.0142 -23.0122
    12.8052  12.8613  14.8789  14.9610  15.4670  15.4869  15.5220  15.5835
    15.7418  15.8687  15.8699  15.9120  15.9710  16.0235  16.0281  16.0902
    16.1186  16.2018  16.9208  16.9220  16.9385  16.9527  17.4881  17.5055
    17.5407  17.5469  17.5865  17.5895  17.6858  17.7540  17.9582  17.9682
    17.9769  18.0317  18.1911  18.1994  18.2353  18.2637  18.2639  18.2726
    18.2741  18.3146  18.3734  18.3873  18.4046  18.4424  19.1035  19.1318
    19.8182  19.8245  19.9141  19.9450  19.9566  20.0656  20.1487  20.1610
    20.2035  20.2513  20.3677  20.3998  20.4918  20.5624  20.6112  20.6742
    20.6921  20.7704  20.9552  20.9638  20.9789  21.0040  21.1276  21.1535
    21.1556  21.1732

          k =-0.4984 0.0000 0.1661 (  9718 PWs)   bands (ev):

   -67.2236 -66.8000 -66.7866 -52.6279 -52.6260 -52.5858 -52.5858 -52.5431
   -51.7917 -51.7866 -51.7843 -51.7841 -51.7840 -51.7838 -51.7688 -51.7684
   -33.3131 -33.3020 -33.3018 -32.8996 -32.8994 -32.8858 -32.8857 -32.8856
   -32.8741 -24.1350 -24.1175 -24.1173 -24.1095 -24.0878 -24.0821 -24.0457
   -24.0322 -24.0162 -24.0130 -24.0016 -23.9375 -23.8819 -23.8669 -23.8631
   -23.2156 -23.2065 -23.1930 -23.1698 -23.1644 -23.1424 -23.1401 -23.1318
   -23.1252 -23.1200 -23.1125 -23.1090 -23.0924 -23.0820 -23.0801 -23.0689
   -23.0448 -23.0408 -23.0288 -23.0282 -23.0214 -23.0064 -22.9998 -22.9989
    12.8045  12.8762  14.9273  14.9716  15.4838  15.4970  15.5216  15.5751
    15.7139  15.7493  15.8682  15.9661  15.9952  16.0259  16.0559  16.1297
    16.1333  16.1425  16.9315  16.9388  16.9479  16.9583  17.4746  17.5146
    17.5294  17.5640  17.5676  17.5809  17.7002  17.7130  17.9455  17.9554
    17.9668  18.0013  18.1458  18.1944  18.2496  18.2579  18.2591  18.2707
    18.2775  18.2817  18.3792  18.4074  18.4092  18.4451  19.0946  19.1292
    19.8216  19.8776  19.9245  19.9712  19.9729  20.0596  20.1636  20.2019
    20.2379  20.2385  20.3335  20.3746  20.5252  20.5345  20.5594  20.6779
    20.6871  20.7780  20.9230  20.9285  20.9629  20.9927  21.1435  21.1456
    21.1748  21.1831

          k = 0.3323 0.0000 0.3323 (  9707 PWs)   bands (ev):

   -67.2235 -66.7999 -66.7866 -52.6293 -52.6240 -52.5862 -52.5854 -52.5439
   -51.7925 -51.7868 -51.7857 -51.7853 -51.7815 -51.7763 -51.7763 -51.7675
   -33.3131 -33.3019 -33.3018 -32.8997 -32.8995 -32.8857 -32.8857 -32.8853
   -32.8740 -24.1458 -24.1420 -24.1122 -24.1100 -24.0890 -24.0767 -24.0393
   -24.0365 -24.0111 -23.9840 -23.9643 -23.9322 -23.9174 -23.8714 -23.8592
   -23.2167 -23.1986 -23.1905 -23.1880 -23.1686 -23.1608 -23.1583 -23.1368
   -23.1190 -23.1052 -23.1044 -23.1034 -23.1007 -23.0946 -23.0938 -23.0689
   -23.0469 -23.0371 -23.0258 -23.0255 -23.0109 -23.0041 -23.0034 -22.9775
    12.5646  13.9255  14.0627  14.7305  15.5899  15.6344  15.6572  15.7205
    15.7457  15.7925  15.7931  15.9486  15.9624  16.0224  16.2020  16.3946
    16.5198  16.6884  16.8283  16.9499  17.0802  17.1292  17.1464  17.1805
    17.1946  17.2626  17.3648  17.4047  17.4776  17.8044  17.8298  17.8687
    17.9104  17.9272  18.0020  18.0983  18.1610  18.1767  18.1777  18.2267
    18.2872  18.3770  18.3825  18.5287  18.5363  18.8127  18.9336  19.1445
    19.6613  19.8058  19.8179  19.9619  20.0210  20.0322  20.0614  20.2789
    20.2845  20.3523  20.3845  20.4320  20.4508  20.4812  20.5097  20.6033
    20.6405  20.6456  20.7243  20.7389  20.8623  20.8798  20.9462  20.9988
    21.0098  21.0828

          k = 0.3323-0.4970 0.0000 (  9724 PWs)   bands (ev):

   -67.2235 -66.8000 -66.7866 -52.6263 -52.6187 -52.5934 -52.5885 -52.5421
   -51.7897 -51.7881 -51.7862 -51.7836 -51.7809 -51.7800 -51.7720 -51.7711
   -33.3104 -33.3020 -33.3018 -32.8996 -32.8996 -32.8897 -32.8860 -32.8846
   -32.8736 -24.1349 -24.1112 -24.1004 -24.0991 -24.0776 -24.0739 -24.0492
   -24.0153 -24.0138 -23.9871 -23.9735 -23.9434 -23.9425 -23.9079 -23.8687
   -23.2320 -23.2160 -23.1675 -23.1673 -23.1583 -23.1548 -23.1405 -23.1399
   -23.1321 -23.1181 -23.1167 -23.1145 -23.1071 -23.0954 -23.0828 -23.0488
   -23.0262 -23.0238 -23.0209 -23.0200 -23.0198 -23.0161 -23.0082 -23.0076
    13.1670  13.2284  14.3208  14.3991  15.7295  15.7754  15.8016  15.8423
    15.8616  15.9890  16.0622  16.0789  16.0979  16.1139  16.2265  16.2534
    16.2582  16.3600  16.9898  16.9924  17.0611  17.1228  17.1668  17.1783
    17.2086  17.2192  17.3386  17.4307  17.5934  17.6041  17.7984  17.8161
    17.8663  17.8883  17.9583  17.9729  18.0644  18.0684  18.0918  18.1409
    18.1765  18.2333  18.2749  18.2922  18.3782  18.3798  19.2014  19.2094
    19.7663  19.8294  20.0545  20.0823  20.1149  20.1209  20.1553  20.1992
    20.2277  20.2423  20.2699  20.2855  20.3179  20.3307  20.5433  20.6063
    20.7364  20.7377  20.7497  20.7755  20.7887  20.8337  20.8523  20.8929
    20.9471  20.9710

          k =-0.4984 0.0000 0.3323 (  9738 PWs)   bands (ev):

   -67.2236 -66.8000 -66.7867 -52.6266 -52.6260 -52.5858 -52.5858 -52.5445
   -51.7924 -51.7874 -51.7834 -51.7834 -51.7810 -51.7806 -51.7721 -51.7717
   -33.3132 -33.3019 -33.3018 -32.8997 -32.8996 -32.8858 -32.8855 -32.8854
   -32.8741 -24.1346 -24.1304 -24.1150 -24.1149 -24.0944 -24.0926 -24.0216
   -24.0094 -24.0006 -23.9910 -23.9824 -23.9480 -23.9230 -23.8668 -23.8655
   -23.1970 -23.1962 -23.1871 -23.1846 -23.1686 -23.1621 -23.1461 -23.1371
   -23.1343 -23.1169 -23.1114 -23.1103 -23.1045 -23.1019 -23.0873 -23.0826
   -23.0478 -23.0345 -23.0184 -23.0169 -23.0164 -23.0102 -22.9871 -22.9851
    13.1644  13.2436  14.3443  14.4070  15.7845  15.7864  15.7925  15.8281
    15.8655  15.8697  16.0733  16.1132  16.1306  16.1618  16.2128  16.2388
    16.2733  16.3388  16.9967  17.0039  17.0609  17.0779  17.1593  17.2095
    17.2198  17.2515  17.3519  17.3759  17.5779  17.5838  17.7997  17.8179
    17.8376  17.8759  17.9426  17.9666  17.9886  18.0598  18.1479  18.1510
    18.2207  18.2297  18.2600  18.3132  18.3512  18.3653  19.1971  19.2017
    19.7632  19.8416  20.0959  20.1011  20.1097  20.1108  20.1572  20.2095
    20.2436  20.2695  20.2741  20.2910  20.3056  20.3503  20.4957  20.6090
    20.7057  20.7374  20.7431  20.7695  20.7734  20.8169  20.8194  20.8792
    20.9342  20.9802

          k =-0.4984 0.0000-0.4984 (  9700 PWs)   bands (ev):

   -67.2235 -66.7999 -66.7866 -52.6260 -52.6260 -52.5858 -52.5858 -52.5452
   -51.7927 -51.7876 -51.7831 -51.7831 -51.7768 -51.7763 -51.7763 -51.7759
   -33.3131 -33.3018 -33.3018 -32.8997 -32.8997 -32.8857 -32.8852 -32.8852
   -32.8741 -24.1381 -24.1374 -24.1137 -24.1137 -24.0969 -24.0930 -24.0075
   -23.9908 -23.9807 -23.9734 -23.9734 -23.9683 -23.9599 -23.8667 -23.8667
   -23.1944 -23.1944 -23.1772 -23.1748 -23.1644 -23.1644 -23.1564 -23.1475
   -23.1475 -23.1322 -23.1288 -23.1002 -23.0981 -23.0981 -23.0898 -23.0897
   -23.0490 -23.0269 -23.0171 -23.0171 -23.0121 -23.0121 -22.9817 -22.9795
    13.6169  13.7661  13.8115  13.8115  15.9073  15.9073  15.9653  15.9901
    15.9962  16.0471  16.1870  16.1870  16.2004  16.2004  16.2707  16.2984
    16.5933  16.5933  16.7726  16.9238  16.9941  16.9945  17.0091  17.0091
    17.0747  17.0747  17.3520  17.3830  17.6028  17.6028  17.6447  17.7077
    17.7077  17.7091  17.7223  17.7394  17.8812  17.9557  18.0308  18.0308
    18.1862  18.1871  18.1871  18.2557  18.7663  18.7663  18.8771  18.8883
    19.7826  19.8871  19.9878  19.9878  20.2993  20.3103  20.3262  20.3262
    20.3563  20.3570  20.3899  20.3899  20.3916  20.3916  20.4048  20.4182
    20.4182  20.5115  20.5334  20.5758  20.7126  20.7205  20.8090  20.8090
    20.8179  20.8260

          k = 0.1661 0.3314 0.1661 (  9704 PWs)   bands (ev):

   -67.2235 -66.7999 -66.7866 -52.6304 -52.6180 -52.5924 -52.5864 -52.5415
   -51.7909 -51.7893 -51.7874 -51.7853 -51.7802 -51.7799 -51.7736 -51.7653
   -33.3111 -33.3020 -33.3019 -32.8996 -32.8996 -32.8885 -32.8858 -32.8852
   -32.8737 -24.1468 -24.1318 -24.1271 -24.0952 -24.0873 -24.0585 -24.0397
   -24.0183 -24.0074 -24.0067 -23.9718 -23.9339 -23.9163 -23.8823 -23.8784
   -23.2487 -23.2105 -23.1927 -23.1748 -23.1689 -23.1586 -23.1523 -23.1420
   -23.1340 -23.0966 -23.0913 -23.0902 -23.0798 -23.0675 -23.0624 -23.0595
   -23.0524 -23.0414 -23.0396 -23.0282 -23.0263 -23.0173 -22.9986 -22.9937
    12.2898  13.8040  14.7924  14.9943  15.0567  15.2081  15.5041  15.5327
    15.6376  15.6390  15.7993  15.8380  15.9637  16.1752  16.1765  16.4406
    16.5294  16.6586  16.9018  17.0118  17.0349  17.0779  17.1003  17.2364
    17.2369  17.2716  17.4536  17.4797  17.5847  17.7269  17.7561  17.7815
    18.0515  18.0792  18.1503  18.2151  18.2537  18.3103  18.3355  18.3407
    18.3699  18.4129  18.5983  18.6734  18.7230  18.7239  19.0438  19.0611
    19.5572  19.6059  19.6529  19.9247  19.9954  20.0678  20.1865  20.2085
    20.2389  20.3580  20.4362  20.4926  20.5069  20.5596  20.6807  20.7049
    20.7388  20.7644  20.7851  20.8200  20.8476  21.0214  21.0413  21.1444
    21.1643  21.2594

          k = 0.1661-0.4970 0.1661 (  9708 PWs)   bands (ev):

   -67.2235 -66.7999 -66.7866 -52.6282 -52.6173 -52.5946 -52.5872 -52.5416
   -51.7904 -51.7873 -51.7844 -51.7840 -51.7835 -51.7832 -51.7699 -51.7690
   -33.3105 -33.3019 -33.3019 -32.8995 -32.8995 -32.8893 -32.8859 -32.8852
   -32.8738 -24.1310 -24.1234 -24.0884 -24.0866 -24.0810 -24.0703 -24.0476
   -24.0205 -24.0153 -24.0054 -23.9913 -23.9488 -23.9402 -23.8836 -23.8778
   -23.2445 -23.2079 -23.1829 -23.1668 -23.1596 -23.1518 -23.1286 -23.1279
   -23.1175 -23.1135 -23.1063 -23.1050 -23.0894 -23.0858 -23.0640 -23.0590
   -23.0565 -23.0391 -23.0312 -23.0260 -23.0243 -23.0116 -23.0105 -23.0094
    12.9329  12.9911  14.9150  15.0294  15.1494  15.1589  15.7643  15.8015
    15.8698  15.9467  15.9841  16.0038  16.0192  16.0617  16.1039  16.1411
    16.1743  16.2522  16.9404  16.9447  17.0039  17.0215  17.4241  17.4461
    17.4826  17.4882  17.5071  17.5185  17.5707  17.6432  17.9487  17.9489
    17.9835  17.9854  18.0631  18.0722  18.1289  18.1464  18.1695  18.1695
    18.1936  18.2111  18.2133  18.2287  18.2614  18.3055  19.1860  19.1942
    19.8992  19.9119  19.9614  19.9898  20.0074  20.0679  20.0753  20.0800
    20.1813  20.2018  20.2308  20.2679  20.5974  20.6620  20.6759  20.7073
    20.7453  20.8144  20.9141  20.9347  20.9469  20.9657  21.0238  21.0643
    21.0652  21.1021

          k = 0.3323 0.1657 0.3323 (  9699 PWs)   bands (ev):

   -67.2235 -66.7999 -66.7866 -52.6280 -52.6230 -52.5876 -52.5863 -52.5439
   -51.7915 -51.7870 -51.7851 -51.7848 -51.7808 -51.7772 -51.7769 -51.7685
   -33.3124 -33.3018 -33.3018 -32.8996 -32.8994 -32.8869 -32.8854 -32.8852
   -32.8739 -24.1364 -24.1300 -24.1058 -24.1056 -24.0915 -24.0649 -24.0361
   -24.0344 -24.0105 -23.9895 -23.9763 -23.9340 -23.9213 -23.8816 -23.8784
   -23.2130 -23.1914 -23.1896 -23.1859 -23.1676 -23.1585 -23.1526 -23.1383
   -23.1165 -23.1065 -23.1056 -23.1032 -23.0986 -23.0955 -23.0795 -23.0685
   -23.0489 -23.0401 -23.0387 -23.0250 -23.0171 -23.0085 -23.0007 -22.9856
    12.7014  14.0388  14.1831  14.8643  15.1428  15.4330  15.5850  15.7643
    15.8222  15.9319  16.0249  16.0465  16.1480  16.2205  16.3168  16.4457
    16.5793  16.6961  16.7884  16.9253  17.0100  17.1427  17.1613  17.2427
    17.2576  17.2715  17.2726  17.3345  17.5280  17.6832  17.7448  17.7995
    17.8262  17.8567  17.8972  18.0265  18.0325  18.0649  18.0750  18.1350
    18.1644  18.1795  18.2336  18.3052  18.3246  18.5950  18.6233  19.1782
    19.8459  19.8913  19.9187  20.0700  20.1077  20.1429  20.1521  20.1893
    20.3629  20.4174  20.4410  20.4805  20.4942  20.5268  20.5409  20.5817
    20.6574  20.7016  20.7166  20.8789  20.8845  20.9320  20.9861  21.0119
    21.0326  21.0700

          k = 0.3323-0.4970 0.1661 (  9706 PWs)   bands (ev):

   -67.2235 -66.8000 -66.7866 -52.6255 -52.6190 -52.5930 -52.5888 -52.5427
   -51.7891 -51.7876 -51.7854 -51.7831 -51.7811 -51.7804 -51.7729 -51.7721
   -33.3104 -33.3019 -33.3018 -32.8995 -32.8995 -32.8895 -32.8859 -32.8848
   -32.8736 -24.1240 -24.1037 -24.0951 -24.0928 -24.0752 -24.0742 -24.0479
   -24.0162 -24.0128 -23.9840 -23.9775 -23.9506 -23.9497 -23.9143 -23.8844
   -23.2235 -23.2099 -23.1726 -23.1703 -23.1546 -23.1461 -23.1427 -23.1361
   -23.1325 -23.1125 -23.1122 -23.1095 -23.0997 -23.0945 -23.0794 -23.0531
   -23.0382 -23.0327 -23.0316 -23.0273 -23.0213 -23.0143 -23.0091 -23.0070
    13.2967  13.3596  14.4478  14.5290  15.3774  15.4280  15.9749  16.0121
    16.0244  16.0254  16.0591  16.1329  16.2116  16.2729  16.3145  16.3335
    16.3341  16.4157  17.0222  17.0229  17.0867  17.1169  17.1242  17.1484
    17.2362  17.2579  17.3473  17.4211  17.5492  17.5640  17.6491  17.6692
    17.7453  17.7969  17.8911  17.9034  17.9368  17.9466  17.9691  17.9871
    18.0226  18.0691  18.1023  18.1337  18.1849  18.1914  18.9555  18.9620
    19.9625  20.0208  20.1017  20.1044  20.1646  20.1976  20.2137  20.2587
    20.2773  20.3267  20.3281  20.3600  20.5423  20.5587  20.6000  20.6233
    20.7502  20.7869  20.7915  20.8400  20.8567  20.8694  20.8995  20.9079
    20.9666  20.9898

          k =-0.4984 0.1657 0.3323 (  9714 PWs)   bands (ev):

   -67.2235 -66.8000 -66.7866 -52.6255 -52.6249 -52.5870 -52.5870 -52.5445
   -51.7914 -51.7870 -51.7828 -51.7828 -51.7812 -51.7811 -51.7729 -51.7726
   -33.3124 -33.3019 -33.3018 -32.8996 -32.8996 -32.8867 -32.8855 -32.8852
   -32.8740 -24.1267 -24.1227 -24.1070 -24.1063 -24.0849 -24.0818 -24.0258
   -24.0088 -24.0014 -23.9973 -23.9880 -23.9553 -23.9268 -23.8823 -23.8812
   -23.1942 -23.1927 -23.1864 -23.1808 -23.1652 -23.1605 -23.1453 -23.1339
   -23.1297 -23.1120 -23.1094 -23.1034 -23.1013 -23.0996 -23.0846 -23.0817
   -23.0508 -23.0388 -23.0273 -23.0227 -23.0198 -23.0154 -22.9923 -22.9902
    13.2927  13.3741  14.4746  14.5363  15.3546  15.4290  15.9814  15.9858
    16.0363  16.0468  16.0700  16.1295  16.2194  16.2616  16.3242  16.3457
    16.3570  16.3792  17.0270  17.0362  17.0822  17.0932  17.1198  17.1861
    17.2452  17.2569  17.3495  17.3729  17.5348  17.5435  17.6452  17.6565
    17.7477  17.7844  17.8845  17.9100  17.9231  17.9299  17.9957  17.9966
    18.0503  18.0593  18.1154  18.1442  18.1596  18.1729  18.9463  18.9518
    19.9788  20.0334  20.1084  20.1114  20.1854  20.1936  20.2448  20.2583
    20.2889  20.3226  20.3452  20.3573  20.5185  20.5493  20.5609  20.6253
    20.7466  20.7712  20.7810  20.8063  20.8542  20.8573  20.8894  20.9202
    20.9899  20.9934

          k =-0.4984 0.1657-0.4984 (  9692 PWs)   bands (ev):

   -67.2235 -66.7999 -66.7866 -52.6248 -52.6248 -52.5870 -52.5870 -52.5452
   -51.7916 -51.7871 -51.7826 -51.7826 -51.7774 -51.7770 -51.7768 -51.7768
   -33.3124 -33.3018 -33.3018 -32.8996 -32.8996 -32.8864 -32.8853 -32.8853
   -32.8739 -24.1289 -24.1274 -24.0993 -24.0993 -24.0906 -24.0861 -24.0094
   -23.9953 -23.9859 -23.9816 -23.9726 -23.9726 -23.9724 -23.8849 -23.8849
   -23.1861 -23.1861 -23.1749 -23.1740 -23.1652 -23.1652 -23.1581 -23.1394
   -23.1394 -23.1204 -23.1171 -23.1008 -23.0968 -23.0968 -23.0871 -23.0871
   -23.0519 -23.0318 -23.0252 -23.0252 -23.0180 -23.0180 -22.9903 -22.9881
    13.7434  13.8945  13.9471  13.9471  15.6713  15.7601  15.9043  15.9043
    16.0264  16.0264  16.1824  16.3140  16.3950  16.4596  16.4843  16.4843
    16.6177  16.6177  16.7843  16.9364  16.9494  16.9494  17.0124  17.0128
    17.1476  17.1476  17.3571  17.3877  17.4782  17.4782  17.5083  17.5345
    17.6687  17.6687  17.6845  17.7011  17.8314  17.8339  17.8755  17.8755
    18.0205  18.0205  18.0529  18.0950  18.4922  18.4922  18.5147  18.5182
    20.0860  20.2000  20.2078  20.2078  20.3283  20.3502  20.4131  20.4131
    20.4373  20.4373  20.4682  20.4761  20.4761  20.5551  20.5570  20.5662
    20.5662  20.5785  20.5833  20.6227  20.7203  20.7577  20.7963  20.7963
    20.8095  20.8627

          k = 0.3323-0.4970 0.3323 (  9720 PWs)   bands (ev):

   -67.2235 -66.8000 -66.7866 -52.6235 -52.6198 -52.5921 -52.5897 -52.5439
   -51.7876 -51.7866 -51.7843 -51.7814 -51.7814 -51.7806 -51.7753 -51.7746
   -33.3104 -33.3018 -33.3018 -32.8995 -32.8994 -32.8892 -32.8858 -32.8851
   -32.8737 -24.1019 -24.0850 -24.0827 -24.0785 -24.0742 -24.0679 -24.0419
   -24.0212 -24.0084 -23.9866 -23.9769 -23.9685 -23.9664 -23.9331 -23.9186
   -23.2028 -23.1964 -23.1739 -23.1694 -23.1528 -23.1427 -23.1417 -23.1299
   -23.1293 -23.1104 -23.1084 -23.0968 -23.0940 -23.0873 -23.0622 -23.0575
   -23.0572 -23.0473 -23.0435 -23.0389 -23.0287 -23.0219 -23.0182 -23.0142
    13.6655  13.7316  14.7212  14.8361  14.9357  14.9642  15.8181  15.8522
    16.2777  16.3067  16.3096  16.3675  16.3991  16.4166  16.5274  16.5646
    16.5659  16.6233  17.0269  17.0419  17.1051  17.1143  17.1240  17.1599
    17.1798  17.2088  17.4002  17.4097  17.4326  17.4485  17.4836  17.4848
    17.5557  17.5647  17.6258  17.6704  17.6752  17.6755  17.7285  17.7483
    17.7571  17.8098  17.8254  17.8422  17.8964  17.9070  18.4243  18.4315
    20.2655  20.2819  20.3328  20.3510  20.3525  20.3922  20.4330  20.4527
    20.4859  20.4907  20.4950  20.5039  20.6245  20.6739  20.7553  20.7615
    20.7669  20.8056  20.8068  20.8247  20.8419  20.8528  20.8971  20.9240
    20.9246  20.9321

          k =-0.4984 0.3314-0.4984 (  9724 PWs)   bands (ev):

   -67.2235 -66.8000 -66.7866 -52.6224 -52.6224 -52.5895 -52.5895 -52.5452
   -51.7885 -51.7857 -51.7814 -51.7814 -51.7801 -51.7788 -51.7780 -51.7780
   -33.3111 -33.3018 -33.3018 -32.8994 -32.8994 -32.8878 -32.8856 -32.8856
   -32.8739 -24.1048 -24.0997 -24.0757 -24.0676 -24.0598 -24.0598 -24.0202
   -24.0159 -24.0029 -24.0025 -23.9990 -23.9720 -23.9720 -23.9314 -23.9314
   -23.1719 -23.1703 -23.1686 -23.1686 -23.1627 -23.1627 -23.1620 -23.1269
   -23.1269 -23.1022 -23.0900 -23.0900 -23.0895 -23.0864 -23.0801 -23.0800
   -23.0597 -23.0436 -23.0431 -23.0431 -23.0343 -23.0343 -23.0147 -23.0124
    14.1035  14.2563  14.3316  14.3316  15.2082  15.3617  15.4738  15.4738
    16.3581  16.3581  16.4886  16.6397  16.6805  16.6805  16.7559  16.8087
    16.8090  16.8341  16.8341  16.8641  16.8641  16.9650  17.0496  17.0515
    17.2656  17.2656  17.3191  17.3191  17.3518  17.3778  17.3826  17.4130
    17.4917  17.4917  17.5145  17.5636  17.5767  17.5767  17.5901  17.6046
    17.6977  17.6977  17.7443  17.7692  17.9110  17.9262  17.9634  17.9634
    20.4284  20.4328  20.4427  20.5298  20.5298  20.5448  20.5448  20.5962
    20.5962  20.6198  20.6416  20.6638  20.6741  20.6741  20.7130  20.7577
    20.7577  20.7763  20.7827  20.7967  20.8027  20.8788  20.8939  20.8939
    21.0223  21.0223

     the Fermi energy is    19.4613 ev

!    total energy              =   -4214.53806678 Ry
     total all-electron energy =    -34959.352487 Ry
     estimated scf accuracy    <          8.5E-10 Ry
     smearing contrib. (-TS)   =       0.00000132 Ry
     internal energy E=F+TS    =   -4214.53806810 Ry

     The total energy is F=E-TS. E is the sum of the following terms:
     one-electron contribution =   -1052.88205669 Ry
     hartree contribution      =     669.52837852 Ry
     xc contribution           =    -372.94006141 Ry
     ewald contribution        =   -2244.65817199 Ry
     one-center paw contrib.   =   -1213.58615653 Ry

     total magnetization       =     5.43 Bohr mag/cell
     absolute magnetization    =    13.90 Bohr mag/cell

     convergence has been achieved in  93 iterations

     Forces acting on atoms (cartesian axes, Ry/au):

     atom    1 type  2   force =    -0.00002359   -0.00004594   -0.00002359
     atom    2 type  1   force =     0.00000000    0.00000000    0.00000000
     atom    3 type  2   force =    -0.00002359   -0.00004594    0.00002359
     atom    4 type  2   force =     0.00000000    0.00000000    0.00000000
     atom    5 type  2   force =    -0.00002359    0.00004594   -0.00002359
     atom    6 type  2   force =     0.00000000    0.00000000    0.00000000
     atom    7 type  2   force =    -0.00002359    0.00004594    0.00002359
     atom    8 type  2   force =     0.00000000    0.00000000    0.00000000
     atom    9 type  2   force =     0.00002359   -0.00004594   -0.00002359
     atom   10 type  2   force =     0.00000000    0.00000000    0.00000000
     atom   11 type  2   force =     0.00002359   -0.00004594    0.00002359
     atom   12 type  1   force =     0.00000000    0.00000000    0.00000000
     atom   13 type  2   force =     0.00002359    0.00004594   -0.00002359
     atom   14 type  2   force =     0.00000000    0.00000000    0.00000000
     atom   15 type  2   force =     0.00002359    0.00004594    0.00002359
     atom   16 type  1   force =     0.00000000    0.00000000    0.00000000

     Total force =     0.000161     Total SCF correction =     0.000093
     SCF correction compared to forces is large: reduce conv_thr to get better values


     Computing stress (Cartesian axis) and pressure

          total   stress  (Ry/bohr**3)                   (kbar)     P=       -0.38
  -0.00000230   0.00000000   0.00000000           -0.34        0.00        0.00
   0.00000000  -0.00000305   0.00000000            0.00       -0.45        0.00
   0.00000000   0.00000000  -0.00000230            0.00        0.00       -0.34


     Writing all to output data dir ./tmp/fecr_fe03cr13_vcr.save/ :
     XML data file, charge density, pseudopotentials, collected wavefunctions
 
     init_run     :     68.44s CPU     45.31s WALL (       2 calls)
     electrons    :  14218.10s CPU  10420.35s WALL (       6 calls)
     update_pot   :    119.99s CPU     70.84s WALL (       4 calls)
     forces       :     27.51s CPU     26.21s WALL (       6 calls)
     stress       :     70.11s CPU     69.26s WALL (       6 calls)

     Called by init_run:
     wfcinit      :      7.42s CPU      8.31s WALL (       2 calls)
     potinit      :     59.38s CPU     35.19s WALL (       2 calls)
     hinit0       :      1.22s CPU      1.21s WALL (       2 calls)

     Called by electrons:
     c_bands      :   4505.26s CPU   4518.59s WALL (     317 calls)
     sum_band     :    364.02s CPU    364.59s WALL (     317 calls)
     v_of_rho     :     17.17s CPU     14.19s WALL (     321 calls)
     newd         :     12.98s CPU     13.06s WALL (     321 calls)
                                       13.06s GPU  (     321 calls)
     PAW_pot      :   9593.10s CPU   5661.93s WALL (     325 calls)
     mix_rho      :     10.23s CPU     10.29s WALL (     317 calls)

     Called by c_bands:
     init_us_2    :     33.24s CPU     31.16s WALL (   52160 calls)
     cegterg      :   4134.57s CPU   4148.35s WALL (   25401 calls)

     Called by *egterg:
     cdiaghg      :   1454.36s CPU   1464.71s WALL (  161926 calls)
                                     1464.00s GPU  (  161926 calls)
     h_psi        :   1220.65s CPU   1228.59s WALL (  162607 calls)
                                     1227.43s GPU  (  162607 calls)
     s_psi        :     83.20s CPU     84.47s WALL (  162607 calls)
     g_psi        :      0.74s CPU      7.52s WALL (  137046 calls)
                                        7.12s GPU  (  137046 calls)

     Called by h_psi:
     h_psi:calbec :      5.69s CPU    260.85s WALL (  162607 calls)
                                      260.25s GPU  (  162607 calls)
     vloc_psi     :    636.98s CPU    635.53s WALL (  162607 calls)
                                      634.98s GPU  (  162607 calls)
     add_vuspsi   :     81.31s CPU    323.46s WALL (  162607 calls)
                                      322.84s GPU  (  162607 calls)

     General routines
     calbec       :     48.94s CPU     32.41s WALL (  190687 calls)
     fft          :      8.12s CPU      8.80s WALL (    8261 calls)
                                        0.82s GPU  (    7619 calls)
     ffts         :      1.20s CPU      1.22s WALL (    1276 calls)
                                        0.03s GPU  (     634 calls)
     fftw         :     34.79s CPU    582.49s WALL ( 1645588 calls)
                                      578.57s GPU  ( 1645588 calls)
     interpolate  :      9.70s CPU      9.73s WALL (     642 calls)
 
     Parallel routines
 
     PWSCF        :      4h 4m CPU      2h58m WALL

 
   This run was terminated on:   1:23:27  22May2026            

=------------------------------------------------------------------------------=
   JOB DONE.
=------------------------------------------------------------------------------=
Warning: ieee_invalid is signaling
Warning: ieee_divide_by_zero is signaling
Warning: ieee_inexact is signaling
FORTRAN STOP
