--------------------------------------------------------------------------
WARNING: Open MPI tried to bind a process but failed.  This is a
warning only; your job will continue, though performance may
be degraded.

  Local host:        b1c76c1b6516
  Application name:  /workspace/q-e-qe-7.3.1/bin/pw.x
  Error message:     failed to bind memory
  Location:          ../../../../../orte/mca/rtc/hwloc/rtc_hwloc.c:447

--------------------------------------------------------------------------

     Program PWSCF v.7.3.1 starts on 14May2026 at 18:23: 8 

     This program is part of the open-source Quantum ESPRESSO suite
     for quantum simulation of materials; please cite
         "P. Giannozzi et al., J. Phys.:Condens. Matter 21 395502 (2009);
         "P. Giannozzi et al., J. Phys.:Condens. Matter 29 465901 (2017);
         "P. Giannozzi et al., J. Chem. Phys. 152 154105 (2020);
          URL http://www.quantum-espresso.org", 
     in publications or presentations arising from this work. More details at
     http://www.quantum-espresso.org/quote

     Parallel version (MPI & OpenMP), running on       8 processor cores
     Number of MPI processes:                 1
     Threads/MPI process:                     8

     MPI processes distributed on     1 nodes
     203536 MiB available memory on the printing compute node when the environment starts
 
     Reading input from inputs/fecr_fe09cr07_h-0.01.in

     Current dimensions of program PWSCF are:
     Max number of different atomic species (ntypx) = 10
     Max number of k-points (npk) =  40000
     Max angular momentum in pseudopotentials (lmaxx) =  4
     file Fe.pbe-spn-kjpaw_psl.1.0.0.UPF: wavefunction(s)  3P 3D renormalized
     file Cr.pbe-spn-kjpaw_psl.1.0.0.UPF: wavefunction(s)  3S 3P 3D renormalized
     Message from routine setup:
     using ibrav=0 with symmetry is DISCOURAGED, use correct ibrav instead
 
     Subspace diagonalization in iterative solution of the eigenvalue problem:
     a serial algorithm will be used

 
     G-vector sticks info
     --------------------
     sticks:   dense  smooth     PW     G-vecs:    dense   smooth      PW
     Sum        4373    2185    613               216199    76405   11513
 
     Using Slab Decomposition
 


     bravais-lattice index     =            0
     lattice parameter (alat)  =      10.6750  a.u.
     unit-cell volume          =    1216.4836 (a.u.)^3
     number of atoms/cell      =           16
     number of atomic types    =            2
     number of electrons       =       242.00
     number of Kohn-Sham states=          145
     kinetic-energy cutoff     =      60.0000  Ry
     charge density cutoff     =     480.0000  Ry
     scf convergence threshold =      1.0E-08
     mixing beta               =       0.3000
     number of iterations used =            8  plain     mixing
     Exchange-correlation= SLA  PW   PBX  PBC
                           (   1   4   3   4   0   0   0)

     GPU acceleration is ACTIVE.  1 visible GPUs per MPI rank


     celldm(1)=  10.675021  celldm(2)=   0.000000  celldm(3)=   0.000000
     celldm(4)=   0.000000  celldm(5)=   0.000000  celldm(6)=   0.000000

     crystal axes: (cart. coord. in units of alat)
               a(1) = (   1.000000   0.000000   0.000000 )  
               a(2) = (   0.000000   1.000000   0.000000 )  
               a(3) = (   0.000000   0.000000   1.000000 )  

     reciprocal axes: (cart. coord. in units 2 pi/alat)
               b(1) = (  1.000000  0.000000  0.000000 )  
               b(2) = (  0.000000  1.000000  0.000000 )  
               b(3) = (  0.000000  0.000000  1.000000 )  


     PseudoPot. # 1 for Fe read from file:
     ./pseudo/Fe.pbe-spn-kjpaw_psl.1.0.0.UPF
     MD5 check sum: fc81f059e5c5069939230b1155715ae8
     Pseudo is Projector augmented-wave + core cor, Zval = 16.0
     Generated using &quot;atomic&quot; code by A. Dal Corso  v.6.3
     Shape of augmentation charge: PSQ
     Using radial grid of 1191 points,  6 beta functions with: 
                l(1) =   0
                l(2) =   0
                l(3) =   1
                l(4) =   1
                l(5) =   2
                l(6) =   2
     Q(r) pseudized with 0 coefficients 


     PseudoPot. # 2 for Cr read from file:
     ./pseudo/Cr.pbe-spn-kjpaw_psl.1.0.0.UPF
     MD5 check sum: 198f1a2427a48552563eee314eba32ba
     Pseudo is Projector augmented-wave + core cor, Zval = 14.0
     Generated using &quot;atomic&quot; code by A. Dal Corso  v.6.3
     Shape of augmentation charge: PSQ
     Using radial grid of 1183 points,  6 beta functions with: 
                l(1) =   0
                l(2) =   0
                l(3) =   1
                l(4) =   1
                l(5) =   2
                l(6) =   2
     Q(r) pseudized with 0 coefficients 


     atomic species   valence    mass     pseudopotential
     Fe               16.00    55.84500     Fe( 1.00)
     Cr               14.00    51.99600     Cr( 1.00)

     Starting magnetic structure 
     atomic species   magnetization
     Fe              0.500
     Cr              0.300

      4 Sym. Ops., with inversion, found ( 2 have fractional translation)



   Cartesian axes

     site n.     atom                  positions (alat units)
         1        Cr     tau(   1) = (   0.0000000   0.0000000   0.0000000  )
         2        Fe     tau(   2) = (   0.2500000   0.2500000   0.2500000  )
         3        Fe     tau(   3) = (   0.0000000   0.0000000   0.5000000  )
         4        Cr     tau(   4) = (   0.2500000   0.2500000   0.7500000  )
         5        Cr     tau(   5) = (   0.0000000   0.5000000   0.0000000  )
         6        Fe     tau(   6) = (   0.2500000   0.7500000   0.2500000  )
         7        Cr     tau(   7) = (   0.0000000   0.5000000   0.5000000  )
         8        Fe     tau(   8) = (   0.2500000   0.7500000   0.7500000  )
         9        Cr     tau(   9) = (   0.5000000   0.0000000   0.0000000  )
        10        Fe     tau(  10) = (   0.7500000   0.2500000   0.2500000  )
        11        Fe     tau(  11) = (   0.5000000   0.0000000   0.5000000  )
        12        Fe     tau(  12) = (   0.7500000   0.2500000   0.7500000  )
        13        Fe     tau(  13) = (   0.5000000   0.5000000   0.0000000  )
        14        Cr     tau(  14) = (   0.7500000   0.7500000   0.2500000  )
        15        Cr     tau(  15) = (   0.5000000   0.5000000   0.5000000  )
        16        Fe     tau(  16) = (   0.7500000   0.7500000   0.7500000  )

     number of k points=    68  Marzari-Vanderbilt smearing, width (Ry)=  0.0200
                       cart. coord. in units 2pi/alat
        k(    1) = (   0.0000000   0.0000000   0.0000000), wk =   0.0046296
        k(    2) = (   0.0000000   0.0000000   0.1666667), wk =   0.0185185
        k(    3) = (   0.0000000   0.0000000   0.3333333), wk =   0.0185185
        k(    4) = (   0.0000000   0.0000000  -0.5000000), wk =   0.0092593
        k(    5) = (   0.0000000   0.1666667   0.1666667), wk =   0.0092593
        k(    6) = (   0.0000000   0.1666667   0.3333333), wk =   0.0185185
        k(    7) = (   0.0000000   0.1666667  -0.5000000), wk =   0.0185185
        k(    8) = (   0.0000000   0.3333333   0.3333333), wk =   0.0092593
        k(    9) = (   0.0000000   0.3333333  -0.5000000), wk =   0.0185185
        k(   10) = (   0.0000000  -0.5000000  -0.5000000), wk =   0.0046296
        k(   11) = (   0.1666667   0.1666667   0.1666667), wk =   0.0092593
        k(   12) = (   0.1666667   0.1666667   0.3333333), wk =   0.0185185
        k(   13) = (   0.1666667   0.1666667  -0.5000000), wk =   0.0185185
        k(   14) = (   0.1666667   0.3333333   0.3333333), wk =   0.0092593
        k(   15) = (   0.1666667   0.3333333  -0.5000000), wk =   0.0185185
        k(   16) = (   0.1666667  -0.5000000  -0.5000000), wk =   0.0092593
        k(   17) = (   0.3333333   0.3333333   0.3333333), wk =   0.0092593
        k(   18) = (   0.3333333   0.3333333  -0.5000000), wk =   0.0185185
        k(   19) = (   0.3333333  -0.5000000  -0.5000000), wk =   0.0092593
        k(   20) = (  -0.5000000  -0.5000000  -0.5000000), wk =   0.0046296
        k(   21) = (   0.1666667   0.0000000   0.0000000), wk =   0.0092593
        k(   22) = (   0.3333333   0.0000000   0.0000000), wk =   0.0092593
        k(   23) = (  -0.5000000   0.0000000   0.0000000), wk =   0.0046296
        k(   24) = (   0.1666667   0.0000000  -0.1666667), wk =   0.0185185
        k(   25) = (  -0.1666667   0.0000000  -0.1666667), wk =   0.0185185
        k(   26) = (   0.0000000  -0.1666667   0.1666667), wk =   0.0092593
        k(   27) = (   0.1666667   0.0000000  -0.3333333), wk =   0.0185185
        k(   28) = (  -0.1666667   0.0000000  -0.3333333), wk =   0.0185185
        k(   29) = (   0.3333333  -0.1666667   0.0000000), wk =   0.0185185
        k(   30) = (  -0.3333333  -0.1666667   0.0000000), wk =   0.0185185
        k(   31) = (   0.0000000  -0.1666667   0.3333333), wk =   0.0185185
        k(   32) = (   0.1666667   0.0000000   0.5000000), wk =   0.0185185
        k(   33) = (  -0.5000000  -0.1666667   0.0000000), wk =   0.0185185
        k(   34) = (   0.3333333   0.0000000  -0.3333333), wk =   0.0185185
        k(   35) = (  -0.3333333   0.0000000  -0.3333333), wk =   0.0185185
        k(   36) = (   0.0000000  -0.3333333   0.3333333), wk =   0.0092593
        k(   37) = (   0.3333333   0.0000000   0.5000000), wk =   0.0185185
        k(   38) = (  -0.5000000  -0.3333333   0.0000000), wk =   0.0185185
        k(   39) = (  -0.5000000   0.0000000   0.5000000), wk =   0.0092593
        k(   40) = (   0.1666667   0.1666667  -0.1666667), wk =   0.0185185
        k(   41) = (  -0.1666667   0.1666667   0.1666667), wk =   0.0092593
        k(   42) = (   0.1666667   0.1666667  -0.3333333), wk =   0.0185185
        k(   43) = (   0.1666667  -0.1666667   0.3333333), wk =   0.0185185
        k(   44) = (  -0.1666667   0.1666667   0.3333333), wk =   0.0185185
        k(   45) = (   0.3333333  -0.1666667   0.1666667), wk =   0.0185185
        k(   46) = (  -0.3333333  -0.1666667  -0.1666667), wk =   0.0092593
        k(   47) = (  -0.3333333   0.1666667   0.1666667), wk =   0.0092593
        k(   48) = (   0.1666667  -0.1666667  -0.5000000), wk =   0.0185185
        k(   49) = (  -0.5000000  -0.1666667   0.1666667), wk =   0.0092593
        k(   50) = (   0.5000000  -0.1666667  -0.1666667), wk =   0.0092593
        k(   51) = (   0.3333333   0.1666667  -0.3333333), wk =   0.0185185
        k(   52) = (  -0.3333333  -0.1666667  -0.3333333), wk =   0.0185185
        k(   53) = (   0.3333333  -0.1666667   0.3333333), wk =   0.0185185
        k(   54) = (  -0.3333333   0.1666667   0.3333333), wk =   0.0185185
        k(   55) = (  -0.1666667   0.3333333   0.3333333), wk =   0.0092593
        k(   56) = (  -0.1666667  -0.3333333   0.3333333), wk =   0.0185185
        k(   57) = (   0.3333333   0.1666667   0.5000000), wk =   0.0185185
        k(   58) = (   0.3333333  -0.1666667  -0.5000000), wk =   0.0185185
        k(   59) = (  -0.5000000  -0.3333333   0.1666667), wk =   0.0185185
        k(   60) = (   0.5000000  -0.3333333  -0.1666667), wk =   0.0185185
        k(   61) = (  -0.1666667  -0.5000000   0.3333333), wk =   0.0185185
        k(   62) = (  -0.5000000   0.1666667   0.5000000), wk =   0.0185185
        k(   63) = (   0.3333333   0.3333333  -0.3333333), wk =   0.0185185
        k(   64) = (  -0.3333333   0.3333333   0.3333333), wk =   0.0092593
        k(   65) = (   0.3333333  -0.3333333  -0.5000000), wk =   0.0185185
        k(   66) = (  -0.5000000  -0.3333333   0.3333333), wk =   0.0092593
        k(   67) = (   0.5000000  -0.3333333  -0.3333333), wk =   0.0092593
        k(   68) = (  -0.5000000   0.3333333   0.5000000), wk =   0.0185185

     Dense  grid:   216199 G-vectors     FFT dimensions: (  75,  80,  80)

     Smooth grid:    76405 G-vectors     FFT dimensions: (  54,  54,  54)

     Estimated max dynamical RAM per process >       3.73 GB

     Check: negative core charge=   -0.000003
     Generating pointlists ...
     new r_m :   0.1786 (alat units)  1.9067 (a.u.) for type    1
     new r_m :   0.1786 (alat units)  1.9067 (a.u.) for type    2

     Initial potential from superposition of free atoms

     starting charge     241.9907, renormalised to     242.0000
     Starting wfcs are  160 randomized atomic wfcs
     Checking if some PAW data can be deallocated... 

     total cpu time spent up to now is       21.4 secs

     Self-consistent Calculation

     iteration #  1     ecut=    60.00 Ry     beta= 0.30
     Davidson diagonalization with overlap
     ethr =  1.00E-02,  avg # of iterations =  3.9

     negative rho (up, down):  0.000E+00 7.200E-01

     total cpu time spent up to now is       68.4 secs

     total energy              =   -4690.15801485 Ry
     estimated scf accuracy    <      51.03281975 Ry

     total magnetization       =    48.15 Bohr mag/cell
     absolute magnetization    =    58.28 Bohr mag/cell

     iteration #  2     ecut=    60.00 Ry     beta= 0.30
     Davidson diagonalization with overlap
     ethr =  1.00E-02,  avg # of iterations =  4.3

     negative rho (up, down):  0.000E+00 5.953E-01

     total cpu time spent up to now is      114.3 secs

     total energy              =   -4688.50176443 Ry
     estimated scf accuracy    <      82.64576165 Ry

     total magnetization       =    18.62 Bohr mag/cell
     absolute magnetization    =    19.72 Bohr mag/cell

     iteration #  3     ecut=    60.00 Ry     beta= 0.30
     Davidson diagonalization with overlap
     ethr =  1.00E-02,  avg # of iterations =  2.4

     negative rho (up, down):  0.000E+00 4.316E-01

     total cpu time spent up to now is      156.1 secs

     total energy              =   -4696.69855840 Ry
     estimated scf accuracy    <      19.64128855 Ry

     total magnetization       =    41.24 Bohr mag/cell
     absolute magnetization    =    41.74 Bohr mag/cell

     iteration #  4     ecut=    60.00 Ry     beta= 0.30
     Davidson diagonalization with overlap
     ethr =  8.12E-03,  avg # of iterations =  1.6

     negative rho (up, down):  0.000E+00 3.639E-01

     total cpu time spent up to now is      191.4 secs

     total energy              =   -4698.17457094 Ry
     estimated scf accuracy    <      10.75649565 Ry

     total magnetization       =    34.05 Bohr mag/cell
     absolute magnetization    =    34.64 Bohr mag/cell

     iteration #  5     ecut=    60.00 Ry     beta= 0.30
     Davidson diagonalization with overlap
     ethr =  4.44E-03,  avg # of iterations =  1.3

     negative rho (up, down):  0.000E+00 1.957E-01

     total cpu time spent up to now is      226.2 secs

     total energy              =   -4699.11982320 Ry
     estimated scf accuracy    <       6.25358750 Ry

     total magnetization       =    33.13 Bohr mag/cell
     absolute magnetization    =    33.70 Bohr mag/cell

     iteration #  6     ecut=    60.00 Ry     beta= 0.30
     Davidson diagonalization with overlap
     ethr =  2.58E-03,  avg # of iterations =  2.4

     negative rho (up, down):  0.000E+00 3.596E-03

     total cpu time spent up to now is      265.2 secs

     total energy              =   -4699.69570341 Ry
     estimated scf accuracy    <      11.66274968 Ry

     total magnetization       =    30.44 Bohr mag/cell
     absolute magnetization    =    31.56 Bohr mag/cell

     iteration #  7     ecut=    60.00 Ry     beta= 0.30
     Davidson diagonalization with overlap
     ethr =  2.58E-03,  avg # of iterations =  2.4

     negative rho (up, down):  0.000E+00 2.652E-03

     total cpu time spent up to now is      303.6 secs

     total energy              =   -4700.22136813 Ry
     estimated scf accuracy    <       5.20404378 Ry

     total magnetization       =    24.86 Bohr mag/cell
     absolute magnetization    =    26.41 Bohr mag/cell

     iteration #  8     ecut=    60.00 Ry     beta= 0.30
     Davidson diagonalization with overlap
     ethr =  2.15E-03,  avg # of iterations =  1.1

     negative rho (up, down):  0.000E+00 2.596E-03

     total cpu time spent up to now is      337.1 secs

     total energy              =   -4700.48398641 Ry
     estimated scf accuracy    <       0.76152231 Ry

     total magnetization       =    24.61 Bohr mag/cell
     absolute magnetization    =    26.36 Bohr mag/cell

     iteration #  9     ecut=    60.00 Ry     beta= 0.30
     Davidson diagonalization with overlap
     ethr =  3.15E-04,  avg # of iterations =  5.3

     negative rho (up, down):  0.000E+00 2.534E-03

     total cpu time spent up to now is      384.1 secs

     total energy              =   -4700.56280044 Ry
     estimated scf accuracy    <       0.55211090 Ry

     total magnetization       =    23.38 Bohr mag/cell
     absolute magnetization    =    25.24 Bohr mag/cell

     iteration # 10     ecut=    60.00 Ry     beta= 0.30
     Davidson diagonalization with overlap
     ethr =  2.28E-04,  avg # of iterations =  2.3

     negative rho (up, down):  0.000E+00 2.090E-03

     total cpu time spent up to now is      422.4 secs

     total energy              =   -4700.62403751 Ry
     estimated scf accuracy    <       1.05315140 Ry

     total magnetization       =    22.67 Bohr mag/cell
     absolute magnetization    =    24.57 Bohr mag/cell

     iteration # 11     ecut=    60.00 Ry     beta= 0.30
     Davidson diagonalization with overlap
     ethr =  2.28E-04,  avg # of iterations =  1.5

     negative rho (up, down):  0.000E+00 1.524E-03

     total cpu time spent up to now is      457.7 secs

     total energy              =   -4700.66252932 Ry
     estimated scf accuracy    <       0.68586726 Ry

     total magnetization       =    20.50 Bohr mag/cell
     absolute magnetization    =    22.73 Bohr mag/cell

     iteration # 12     ecut=    60.00 Ry     beta= 0.30
     Davidson diagonalization with overlap
     ethr =  2.28E-04,  avg # of iterations =  1.6

     negative rho (up, down):  0.000E+00 1.358E-03

     total cpu time spent up to now is      493.5 secs

     total energy              =   -4700.69427947 Ry
     estimated scf accuracy    <       0.39649711 Ry

     total magnetization       =    19.04 Bohr mag/cell
     absolute magnetization    =    21.44 Bohr mag/cell

     iteration # 13     ecut=    60.00 Ry     beta= 0.30
     Davidson diagonalization with overlap
     ethr =  1.64E-04,  avg # of iterations =  1.3

     negative rho (up, down):  0.000E+00 8.712E-04

     total cpu time spent up to now is      527.9 secs

     total energy              =   -4700.71930863 Ry
     estimated scf accuracy    <       0.06479273 Ry

     total magnetization       =    18.88 Bohr mag/cell
     absolute magnetization    =    21.17 Bohr mag/cell

     iteration # 14     ecut=    60.00 Ry     beta= 0.30
     Davidson diagonalization with overlap
     c_bands:  1 eigenvalues not converged
     c_bands:  1 eigenvalues not converged
     c_bands:  1 eigenvalues not converged
     c_bands:  3 eigenvalues not converged
     c_bands:  2 eigenvalues not converged
     ethr =  2.68E-05,  avg # of iterations = 10.1

     negative rho (up, down):  0.000E+00 5.642E-04

     total cpu time spent up to now is      594.3 secs

     total energy              =   -4700.73040937 Ry
     estimated scf accuracy    <       0.17620663 Ry

     total magnetization       =    18.75 Bohr mag/cell
     absolute magnetization    =    20.79 Bohr mag/cell

     iteration # 15     ecut=    60.00 Ry     beta= 0.30
     Davidson diagonalization with overlap
     ethr =  2.68E-05,  avg # of iterations =  2.0

     negative rho (up, down):  0.000E+00 4.839E-04

     total cpu time spent up to now is      631.6 secs

     total energy              =   -4700.73393462 Ry
     estimated scf accuracy    <       0.08780437 Ry

     total magnetization       =    18.53 Bohr mag/cell
     absolute magnetization    =    20.57 Bohr mag/cell

     iteration # 16     ecut=    60.00 Ry     beta= 0.30
     Davidson diagonalization with overlap
     ethr =  2.68E-05,  avg # of iterations =  2.1

     negative rho (up, down):  0.000E+00 8.577E-05

     total cpu time spent up to now is      669.4 secs

     total energy              =   -4700.74388869 Ry
     estimated scf accuracy    <       0.04683400 Ry

     total magnetization       =    17.86 Bohr mag/cell
     absolute magnetization    =    20.10 Bohr mag/cell

     iteration # 17     ecut=    60.00 Ry     beta= 0.30
     Davidson diagonalization with overlap
     c_bands:  3 eigenvalues not converged
     ethr =  1.94E-05,  avg # of iterations =  2.0

     negative rho (up, down):  0.000E+00 7.861E-05

     total cpu time spent up to now is      706.3 secs

     total energy              =   -4700.74855602 Ry
     estimated scf accuracy    <       0.00807921 Ry

     total magnetization       =    17.01 Bohr mag/cell
     absolute magnetization    =    19.41 Bohr mag/cell

     iteration # 18     ecut=    60.00 Ry     beta= 0.30
     Davidson diagonalization with overlap
     c_bands:  1 eigenvalues not converged
     c_bands:  1 eigenvalues not converged
     c_bands:  2 eigenvalues not converged
     c_bands:  3 eigenvalues not converged
     c_bands:  1 eigenvalues not converged
     c_bands:  1 eigenvalues not converged
     c_bands:  5 eigenvalues not converged
     c_bands:  1 eigenvalues not converged
     c_bands:  3 eigenvalues not converged
     c_bands:  1 eigenvalues not converged
     ethr =  3.34E-06,  avg # of iterations = 10.3

     negative rho (up, down):  0.000E+00 7.716E-05

     total cpu time spent up to now is      777.0 secs

     total energy              =   -4700.74814472 Ry
     estimated scf accuracy    <       0.05065331 Ry

     total magnetization       =    16.87 Bohr mag/cell
     absolute magnetization    =    19.26 Bohr mag/cell

     iteration # 19     ecut=    60.00 Ry     beta= 0.30
     Davidson diagonalization with overlap
     c_bands:  2 eigenvalues not converged
     c_bands:  2 eigenvalues not converged
     ethr =  3.34E-06,  avg # of iterations =  4.8

     negative rho (up, down):  0.000E+00 7.140E-05

     total cpu time spent up to now is      823.0 secs

     total energy              =   -4700.74996172 Ry
     estimated scf accuracy    <       0.01460166 Ry

     total magnetization       =    16.97 Bohr mag/cell
     absolute magnetization    =    19.25 Bohr mag/cell

     iteration # 20     ecut=    60.00 Ry     beta= 0.30
     Davidson diagonalization with overlap
     ethr =  3.34E-06,  avg # of iterations =  1.3

     negative rho (up, down):  0.000E+00 7.258E-05

     total cpu time spent up to now is      857.0 secs

     total energy              =   -4700.75057600 Ry
     estimated scf accuracy    <       0.00202435 Ry

     total magnetization       =    16.83 Bohr mag/cell
     absolute magnetization    =    19.20 Bohr mag/cell

     iteration # 21     ecut=    60.00 Ry     beta= 0.30
     Davidson diagonalization with overlap
     ethr =  8.37E-07,  avg # of iterations =  6.8

     negative rho (up, down):  0.000E+00 6.745E-05

     total cpu time spent up to now is      910.1 secs

     total energy              =   -4700.75105506 Ry
     estimated scf accuracy    <       0.00741491 Ry

     total magnetization       =    16.85 Bohr mag/cell
     absolute magnetization    =    19.22 Bohr mag/cell

     iteration # 22     ecut=    60.00 Ry     beta= 0.30
     Davidson diagonalization with overlap
     ethr =  8.37E-07,  avg # of iterations =  2.6

     negative rho (up, down):  0.000E+00 6.305E-05

     total cpu time spent up to now is      950.1 secs

     total energy              =   -4700.75150346 Ry
     estimated scf accuracy    <       0.00350103 Ry

     total magnetization       =    16.73 Bohr mag/cell
     absolute magnetization    =    19.15 Bohr mag/cell

     iteration # 23     ecut=    60.00 Ry     beta= 0.30
     Davidson diagonalization with overlap
     ethr =  8.37E-07,  avg # of iterations =  1.6

     negative rho (up, down):  0.000E+00 6.558E-05

     total cpu time spent up to now is      986.3 secs

     total energy              =   -4700.75170112 Ry
     estimated scf accuracy    <       0.00081099 Ry

     total magnetization       =    16.64 Bohr mag/cell
     absolute magnetization    =    19.10 Bohr mag/cell

     iteration # 24     ecut=    60.00 Ry     beta= 0.30
     Davidson diagonalization with overlap
     ethr =  3.35E-07,  avg # of iterations =  3.3

     negative rho (up, down):  0.000E+00 5.941E-05

     total cpu time spent up to now is     1027.7 secs

     total energy              =   -4700.75188563 Ry
     estimated scf accuracy    <       0.00109050 Ry

     total magnetization       =    16.67 Bohr mag/cell
     absolute magnetization    =    19.12 Bohr mag/cell

     iteration # 25     ecut=    60.00 Ry     beta= 0.30
     Davidson diagonalization with overlap
     ethr =  3.35E-07,  avg # of iterations =  5.8

     negative rho (up, down):  0.000E+00 5.953E-05

     total cpu time spent up to now is     1079.2 secs

     total energy              =   -4700.75222944 Ry
     estimated scf accuracy    <       0.00045638 Ry

     total magnetization       =    16.49 Bohr mag/cell
     absolute magnetization    =    19.07 Bohr mag/cell

     iteration # 26     ecut=    60.00 Ry     beta= 0.30
     Davidson diagonalization with overlap
     ethr =  1.89E-07,  avg # of iterations =  3.1

     negative rho (up, down):  0.000E+00 6.071E-05

     total cpu time spent up to now is     1119.6 secs

     total energy              =   -4700.75232318 Ry
     estimated scf accuracy    <       0.00042790 Ry

     total magnetization       =    16.49 Bohr mag/cell
     absolute magnetization    =    19.08 Bohr mag/cell

     iteration # 27     ecut=    60.00 Ry     beta= 0.30
     Davidson diagonalization with overlap
     ethr =  1.77E-07,  avg # of iterations =  2.4

     negative rho (up, down):  0.000E+00 6.116E-05

     total cpu time spent up to now is     1158.4 secs

     total energy              =   -4700.75238698 Ry
     estimated scf accuracy    <       0.00034756 Ry

     total magnetization       =    16.46 Bohr mag/cell
     absolute magnetization    =    19.09 Bohr mag/cell

     iteration # 28     ecut=    60.00 Ry     beta= 0.30
     Davidson diagonalization with overlap
     ethr =  1.44E-07,  avg # of iterations =  3.5

     negative rho (up, down):  0.000E+00 6.436E-05

     total cpu time spent up to now is     1200.2 secs

     total energy              =   -4700.75248713 Ry
     estimated scf accuracy    <       0.00029231 Ry

     total magnetization       =    16.47 Bohr mag/cell
     absolute magnetization    =    19.11 Bohr mag/cell

     iteration # 29     ecut=    60.00 Ry     beta= 0.30
     Davidson diagonalization with overlap
     ethr =  1.21E-07,  avg # of iterations =  7.0

     negative rho (up, down):  0.000E+00 6.245E-05

     total cpu time spent up to now is     1255.5 secs

     total energy              =   -4700.75253997 Ry
     estimated scf accuracy    <       0.00063702 Ry

     total magnetization       =    16.44 Bohr mag/cell
     absolute magnetization    =    19.17 Bohr mag/cell

     iteration # 30     ecut=    60.00 Ry     beta= 0.30
     Davidson diagonalization with overlap
     ethr =  1.21E-07,  avg # of iterations =  1.3

     negative rho (up, down):  0.000E+00 6.418E-05

     total cpu time spent up to now is     1290.3 secs

     total energy              =   -4700.75261905 Ry
     estimated scf accuracy    <       0.00014845 Ry

     total magnetization       =    16.41 Bohr mag/cell
     absolute magnetization    =    19.16 Bohr mag/cell

     iteration # 31     ecut=    60.00 Ry     beta= 0.30
     Davidson diagonalization with overlap
     ethr =  6.13E-08,  avg # of iterations =  3.4

     negative rho (up, down):  0.000E+00 6.830E-05

     total cpu time spent up to now is     1331.8 secs

     total energy              =   -4700.75268610 Ry
     estimated scf accuracy    <       0.00018565 Ry

     total magnetization       =    16.41 Bohr mag/cell
     absolute magnetization    =    19.20 Bohr mag/cell

     iteration # 32     ecut=    60.00 Ry     beta= 0.30
     Davidson diagonalization with overlap
     ethr =  6.13E-08,  avg # of iterations =  5.4

     negative rho (up, down):  0.000E+00 6.721E-05

     total cpu time spent up to now is     1381.3 secs

     total energy              =   -4700.75270164 Ry
     estimated scf accuracy    <       0.00046755 Ry

     total magnetization       =    16.43 Bohr mag/cell
     absolute magnetization    =    19.28 Bohr mag/cell

     iteration # 33     ecut=    60.00 Ry     beta= 0.30
     Davidson diagonalization with overlap
     ethr =  6.13E-08,  avg # of iterations =  3.9

     negative rho (up, down):  0.000E+00 6.957E-05

     total cpu time spent up to now is     1423.5 secs

     total energy              =   -4700.75274515 Ry
     estimated scf accuracy    <       0.00013128 Ry

     total magnetization       =    16.41 Bohr mag/cell
     absolute magnetization    =    19.28 Bohr mag/cell

     iteration # 34     ecut=    60.00 Ry     beta= 0.30
     Davidson diagonalization with overlap
     ethr =  5.42E-08,  avg # of iterations =  5.8

     negative rho (up, down):  0.000E+00 7.075E-05

     total cpu time spent up to now is     1474.5 secs

     total energy              =   -4700.75278856 Ry
     estimated scf accuracy    <       0.00056445 Ry

     total magnetization       =    16.41 Bohr mag/cell
     absolute magnetization    =    19.35 Bohr mag/cell

     iteration # 35     ecut=    60.00 Ry     beta= 0.30
     Davidson diagonalization with overlap
     ethr =  5.42E-08,  avg # of iterations =  2.8

     negative rho (up, down):  0.000E+00 7.058E-05

     total cpu time spent up to now is     1514.3 secs

     total energy              =   -4700.75280781 Ry
     estimated scf accuracy    <       0.00011127 Ry

     total magnetization       =    16.42 Bohr mag/cell
     absolute magnetization    =    19.37 Bohr mag/cell

     iteration # 36     ecut=    60.00 Ry     beta= 0.30
     Davidson diagonalization with overlap
     ethr =  4.60E-08,  avg # of iterations =  2.2

     negative rho (up, down):  0.000E+00 7.196E-05

     total cpu time spent up to now is     1551.7 secs

     total energy              =   -4700.75282533 Ry
     estimated scf accuracy    <       0.00011071 Ry

     total magnetization       =    16.42 Bohr mag/cell
     absolute magnetization    =    19.37 Bohr mag/cell

     iteration # 37     ecut=    60.00 Ry     beta= 0.30
     Davidson diagonalization with overlap
     ethr =  4.57E-08,  avg # of iterations =  4.2

     negative rho (up, down):  0.000E+00 7.182E-05

     total cpu time spent up to now is     1595.4 secs

     total energy              =   -4700.75283803 Ry
     estimated scf accuracy    <       0.00008153 Ry

     total magnetization       =    16.42 Bohr mag/cell
     absolute magnetization    =    19.41 Bohr mag/cell

     iteration # 38     ecut=    60.00 Ry     beta= 0.30
     Davidson diagonalization with overlap
     ethr =  3.37E-08,  avg # of iterations =  2.9

     negative rho (up, down):  0.000E+00 7.176E-05

     total cpu time spent up to now is     1635.3 secs

     total energy              =   -4700.75284644 Ry
     estimated scf accuracy    <       0.00007751 Ry

     total magnetization       =    16.42 Bohr mag/cell
     absolute magnetization    =    19.42 Bohr mag/cell

     iteration # 39     ecut=    60.00 Ry     beta= 0.30
     Davidson diagonalization with overlap
     ethr =  3.20E-08,  avg # of iterations =  1.5

     negative rho (up, down):  0.000E+00 7.287E-05

     total cpu time spent up to now is     1670.8 secs

     total energy              =   -4700.75286162 Ry
     estimated scf accuracy    <       0.00004715 Ry

     total magnetization       =    16.42 Bohr mag/cell
     absolute magnetization    =    19.43 Bohr mag/cell

     iteration # 40     ecut=    60.00 Ry     beta= 0.30
     Davidson diagonalization with overlap
     ethr =  1.95E-08,  avg # of iterations =  5.9

     negative rho (up, down):  0.000E+00 7.387E-05

     total cpu time spent up to now is     1722.1 secs

     total energy              =   -4700.75288524 Ry
     estimated scf accuracy    <       0.00003489 Ry

     total magnetization       =    16.42 Bohr mag/cell
     absolute magnetization    =    19.49 Bohr mag/cell

     iteration # 41     ecut=    60.00 Ry     beta= 0.30
     Davidson diagonalization with overlap
     ethr =  1.44E-08,  avg # of iterations =  4.9

     negative rho (up, down):  0.000E+00 7.271E-05

     total cpu time spent up to now is     1770.4 secs

     total energy              =   -4700.75287388 Ry
     estimated scf accuracy    <       0.00004757 Ry

     total magnetization       =    16.42 Bohr mag/cell
     absolute magnetization    =    19.54 Bohr mag/cell

     iteration # 42     ecut=    60.00 Ry     beta= 0.30
     Davidson diagonalization with overlap
     ethr =  1.44E-08,  avg # of iterations =  3.4

     negative rho (up, down):  0.000E+00 7.274E-05

     total cpu time spent up to now is     1812.2 secs

     total energy              =   -4700.75289543 Ry
     estimated scf accuracy    <       0.00002999 Ry

     total magnetization       =    16.42 Bohr mag/cell
     absolute magnetization    =    19.50 Bohr mag/cell

     iteration # 43     ecut=    60.00 Ry     beta= 0.30
     Davidson diagonalization with overlap
     ethr =  1.24E-08,  avg # of iterations =  2.3

     negative rho (up, down):  0.000E+00 7.341E-05

     total cpu time spent up to now is     1850.2 secs

     total energy              =   -4700.75290057 Ry
     estimated scf accuracy    <       0.00002590 Ry

     total magnetization       =    16.42 Bohr mag/cell
     absolute magnetization    =    19.52 Bohr mag/cell

     iteration # 44     ecut=    60.00 Ry     beta= 0.30
     Davidson diagonalization with overlap
     ethr =  1.07E-08,  avg # of iterations =  5.9

     negative rho (up, down):  0.000E+00 7.271E-05

     total cpu time spent up to now is     1906.7 secs

     total energy              =   -4700.75290708 Ry
     estimated scf accuracy    <       0.00003593 Ry

     total magnetization       =    16.41 Bohr mag/cell
     absolute magnetization    =    19.60 Bohr mag/cell

     iteration # 45     ecut=    60.00 Ry     beta= 0.30
     Davidson diagonalization with overlap
     ethr =  1.07E-08,  avg # of iterations =  4.5

     negative rho (up, down):  0.000E+00 7.286E-05

     total cpu time spent up to now is     1951.3 secs

     total energy              =   -4700.75289044 Ry
     estimated scf accuracy    <       0.00004992 Ry

     total magnetization       =    16.41 Bohr mag/cell
     absolute magnetization    =    19.56 Bohr mag/cell

     iteration # 46     ecut=    60.00 Ry     beta= 0.30
     Davidson diagonalization with overlap
     ethr =  1.07E-08,  avg # of iterations =  6.6

     negative rho (up, down):  0.000E+00 7.256E-05

     total cpu time spent up to now is     2013.3 secs

     total energy              =   -4700.75295915 Ry
     estimated scf accuracy    <       0.00002993 Ry

     total magnetization       =    16.40 Bohr mag/cell
     absolute magnetization    =    19.68 Bohr mag/cell

     iteration # 47     ecut=    60.00 Ry     beta= 0.30
     Davidson diagonalization with overlap
     ethr =  1.07E-08,  avg # of iterations =  1.3

     negative rho (up, down):  0.000E+00 7.278E-05

     total cpu time spent up to now is     2047.8 secs

     total energy              =   -4700.75295873 Ry
     estimated scf accuracy    <       0.00002425 Ry

     total magnetization       =    16.39 Bohr mag/cell
     absolute magnetization    =    19.68 Bohr mag/cell

     iteration # 48     ecut=    60.00 Ry     beta= 0.30
     Davidson diagonalization with overlap
     ethr =  1.00E-08,  avg # of iterations =  1.8

     negative rho (up, down):  0.000E+00 7.275E-05

     total cpu time spent up to now is     2084.1 secs

     total energy              =   -4700.75295933 Ry
     estimated scf accuracy    <       0.00003230 Ry

     total magnetization       =    16.40 Bohr mag/cell
     absolute magnetization    =    19.69 Bohr mag/cell

     iteration # 49     ecut=    60.00 Ry     beta= 0.30
     Davidson diagonalization with overlap
     ethr =  1.00E-08,  avg # of iterations =  1.0

     negative rho (up, down):  0.000E+00 7.195E-05

     total cpu time spent up to now is     2117.4 secs

     total energy              =   -4700.75296736 Ry
     estimated scf accuracy    <       0.00002438 Ry

     total magnetization       =    16.40 Bohr mag/cell
     absolute magnetization    =    19.69 Bohr mag/cell

     iteration # 50     ecut=    60.00 Ry     beta= 0.30
     Davidson diagonalization with overlap
     ethr =  1.00E-08,  avg # of iterations =  5.6

     negative rho (up, down):  0.000E+00 7.216E-05

     total cpu time spent up to now is     2167.0 secs

     total energy              =   -4700.75297414 Ry
     estimated scf accuracy    <       0.00002828 Ry

     total magnetization       =    16.38 Bohr mag/cell
     absolute magnetization    =    19.73 Bohr mag/cell

     iteration # 51     ecut=    60.00 Ry     beta= 0.30
     Davidson diagonalization with overlap
     ethr =  1.00E-08,  avg # of iterations =  1.1

     negative rho (up, down):  0.000E+00 7.189E-05

     total cpu time spent up to now is     2200.6 secs

     total energy              =   -4700.75297971 Ry
     estimated scf accuracy    <       0.00002986 Ry

     total magnetization       =    16.39 Bohr mag/cell
     absolute magnetization    =    19.73 Bohr mag/cell

     iteration # 52     ecut=    60.00 Ry     beta= 0.30
     Davidson diagonalization with overlap
     ethr =  1.00E-08,  avg # of iterations =  3.8

     negative rho (up, down):  0.000E+00 7.139E-05

     total cpu time spent up to now is     2243.1 secs

     total energy              =   -4700.75298233 Ry
     estimated scf accuracy    <       0.00001628 Ry

     total magnetization       =    16.38 Bohr mag/cell
     absolute magnetization    =    19.76 Bohr mag/cell

     iteration # 53     ecut=    60.00 Ry     beta= 0.30
     Davidson diagonalization with overlap
     ethr =  6.73E-09,  avg # of iterations =  6.2

     negative rho (up, down):  0.000E+00 7.066E-05

     total cpu time spent up to now is     2302.6 secs

     total energy              =   -4700.75300633 Ry
     estimated scf accuracy    <       0.00001204 Ry

     total magnetization       =    16.37 Bohr mag/cell
     absolute magnetization    =    19.82 Bohr mag/cell

     iteration # 54     ecut=    60.00 Ry     beta= 0.30
     Davidson diagonalization with overlap
     ethr =  4.98E-09,  avg # of iterations =  5.5

     negative rho (up, down):  0.000E+00 7.123E-05

     total cpu time spent up to now is     2358.0 secs

     total energy              =   -4700.75299938 Ry
     estimated scf accuracy    <       0.00004799 Ry

     total magnetization       =    16.36 Bohr mag/cell
     absolute magnetization    =    19.87 Bohr mag/cell

     iteration # 55     ecut=    60.00 Ry     beta= 0.30
     Davidson diagonalization with overlap
     ethr =  4.98E-09,  avg # of iterations =  5.3

     negative rho (up, down):  0.000E+00 7.065E-05

     total cpu time spent up to now is     2409.2 secs

     total energy              =   -4700.75300205 Ry
     estimated scf accuracy    <       0.00003179 Ry

     total magnetization       =    16.37 Bohr mag/cell
     absolute magnetization    =    19.83 Bohr mag/cell

     iteration # 56     ecut=    60.00 Ry     beta= 0.30
     Davidson diagonalization with overlap
     ethr =  4.98E-09,  avg # of iterations =  6.1

     negative rho (up, down):  0.000E+00 7.016E-05

     total cpu time spent up to now is     2467.8 secs

     total energy              =   -4700.75301469 Ry
     estimated scf accuracy    <       0.00000742 Ry

     total magnetization       =    16.35 Bohr mag/cell
     absolute magnetization    =    19.90 Bohr mag/cell

     iteration # 57     ecut=    60.00 Ry     beta= 0.30
     Davidson diagonalization with overlap
     ethr =  3.07E-09,  avg # of iterations =  7.2

     negative rho (up, down):  0.000E+00 6.963E-05

     total cpu time spent up to now is     2533.3 secs

     total energy              =   -4700.75302979 Ry
     estimated scf accuracy    <       0.00001598 Ry

     total magnetization       =    16.34 Bohr mag/cell
     absolute magnetization    =    19.97 Bohr mag/cell

     iteration # 58     ecut=    60.00 Ry     beta= 0.30
     Davidson diagonalization with overlap
     ethr =  3.07E-09,  avg # of iterations =  7.1

     negative rho (up, down):  0.000E+00 6.981E-05

     total cpu time spent up to now is     2597.0 secs

     total energy              =   -4700.75304396 Ry
     estimated scf accuracy    <       0.00001304 Ry

     total magnetization       =    16.33 Bohr mag/cell
     absolute magnetization    =    20.04 Bohr mag/cell

     iteration # 59     ecut=    60.00 Ry     beta= 0.30
     Davidson diagonalization with overlap
     ethr =  3.07E-09,  avg # of iterations =  5.0

     negative rho (up, down):  0.000E+00 6.852E-05

     total cpu time spent up to now is     2643.6 secs

     total energy              =   -4700.75290438 Ry
     estimated scf accuracy    <       0.00001008 Ry

     total magnetization       =    16.33 Bohr mag/cell
     absolute magnetization    =    20.02 Bohr mag/cell

     iteration # 60     ecut=    60.00 Ry     beta= 0.30
     Davidson diagonalization with overlap
     ethr =  3.07E-09,  avg # of iterations = 11.4

     negative rho (up, down):  0.000E+00 6.908E-05

     total cpu time spent up to now is     2732.4 secs

     total energy              =   -4700.75303594 Ry
     estimated scf accuracy    <       0.00000800 Ry

     total magnetization       =    16.29 Bohr mag/cell
     absolute magnetization    =    20.22 Bohr mag/cell

     iteration # 61     ecut=    60.00 Ry     beta= 0.30
     Davidson diagonalization with overlap
     ethr =  3.07E-09,  avg # of iterations =  7.7

     negative rho (up, down):  0.000E+00 6.913E-05

     total cpu time spent up to now is     2798.4 secs

     total energy              =   -4700.75306439 Ry
     estimated scf accuracy    <       0.00002579 Ry

     total magnetization       =    16.30 Bohr mag/cell
     absolute magnetization    =    20.14 Bohr mag/cell

     iteration # 62     ecut=    60.00 Ry     beta= 0.30
     Davidson diagonalization with overlap
     ethr =  3.07E-09,  avg # of iterations =  3.8

     negative rho (up, down):  0.000E+00 6.860E-05

     total cpu time spent up to now is     2841.6 secs

     total energy              =   -4700.75303980 Ry
     estimated scf accuracy    <       0.00002690 Ry

     total magnetization       =    16.31 Bohr mag/cell
     absolute magnetization    =    20.14 Bohr mag/cell

     iteration # 63     ecut=    60.00 Ry     beta= 0.30
     Davidson diagonalization with overlap
     ethr =  3.07E-09,  avg # of iterations =  7.7

     negative rho (up, down):  0.000E+00 6.836E-05

     total cpu time spent up to now is     2909.7 secs

     total energy              =   -4700.75306611 Ry
     estimated scf accuracy    <       0.00000666 Ry

     total magnetization       =    16.29 Bohr mag/cell
     absolute magnetization    =    20.23 Bohr mag/cell

     iteration # 64     ecut=    60.00 Ry     beta= 0.30
     Davidson diagonalization with overlap
     ethr =  2.75E-09,  avg # of iterations =  5.5

     negative rho (up, down):  0.000E+00 6.920E-05

     total cpu time spent up to now is     2967.0 secs

     total energy              =   -4700.75304360 Ry
     estimated scf accuracy    <       0.00000803 Ry

     total magnetization       =    16.28 Bohr mag/cell
     absolute magnetization    =    20.28 Bohr mag/cell

     iteration # 65     ecut=    60.00 Ry     beta= 0.30
     Davidson diagonalization with overlap
     ethr =  2.75E-09,  avg # of iterations =  8.2

     negative rho (up, down):  0.000E+00 6.828E-05

     total cpu time spent up to now is     3037.1 secs

     total energy              =   -4700.75302251 Ry
     estimated scf accuracy    <       0.00000429 Ry

     total magnetization       =    16.29 Bohr mag/cell
     absolute magnetization    =    20.19 Bohr mag/cell

     iteration # 66     ecut=    60.00 Ry     beta= 0.30
     Davidson diagonalization with overlap
     ethr =  1.77E-09,  avg # of iterations = 10.1

     negative rho (up, down):  0.000E+00 6.873E-05

     total cpu time spent up to now is     3119.0 secs

     total energy              =   -4700.75307004 Ry
     estimated scf accuracy    <       0.00001278 Ry

     total magnetization       =    16.27 Bohr mag/cell
     absolute magnetization    =    20.31 Bohr mag/cell

     iteration # 67     ecut=    60.00 Ry     beta= 0.30
     Davidson diagonalization with overlap
     ethr =  1.77E-09,  avg # of iterations =  6.0

     negative rho (up, down):  0.000E+00 6.895E-05

     total cpu time spent up to now is     3177.2 secs

     total energy              =   -4700.75306879 Ry
     estimated scf accuracy    <       0.00000446 Ry

     total magnetization       =    16.28 Bohr mag/cell
     absolute magnetization    =    20.27 Bohr mag/cell

     iteration # 68     ecut=    60.00 Ry     beta= 0.30
     Davidson diagonalization with overlap
     ethr =  1.77E-09,  avg # of iterations =  6.4

     negative rho (up, down):  0.000E+00 6.887E-05

     total cpu time spent up to now is     3236.7 secs

     total energy              =   -4700.75307233 Ry
     estimated scf accuracy    <       0.00000700 Ry

     total magnetization       =    16.28 Bohr mag/cell
     absolute magnetization    =    20.23 Bohr mag/cell

     iteration # 69     ecut=    60.00 Ry     beta= 0.30
     Davidson diagonalization with overlap
     ethr =  1.77E-09,  avg # of iterations =  5.4

     negative rho (up, down):  0.000E+00 6.886E-05

     total cpu time spent up to now is     3290.5 secs

     total energy              =   -4700.75307661 Ry
     estimated scf accuracy    <       0.00000063 Ry

     total magnetization       =    16.28 Bohr mag/cell
     absolute magnetization    =    20.26 Bohr mag/cell

     iteration # 70     ecut=    60.00 Ry     beta= 0.30
     Davidson diagonalization with overlap
     ethr =  2.62E-10,  avg # of iterations =  5.2

     negative rho (up, down):  0.000E+00 6.888E-05

     total cpu time spent up to now is     3339.8 secs

     total energy              =   -4700.75307572 Ry
     estimated scf accuracy    <       0.00000152 Ry

     total magnetization       =    16.28 Bohr mag/cell
     absolute magnetization    =    20.26 Bohr mag/cell

     iteration # 71     ecut=    60.00 Ry     beta= 0.30
     Davidson diagonalization with overlap
     ethr =  2.62E-10,  avg # of iterations =  6.9

     negative rho (up, down):  0.000E+00 6.887E-05

     total cpu time spent up to now is     3403.1 secs

     total energy              =   -4700.75307684 Ry
     estimated scf accuracy    <       0.00000302 Ry

     total magnetization       =    16.27 Bohr mag/cell
     absolute magnetization    =    20.28 Bohr mag/cell

     iteration # 72     ecut=    60.00 Ry     beta= 0.30
     Davidson diagonalization with overlap
     ethr =  2.62E-10,  avg # of iterations =  4.6

     negative rho (up, down):  0.000E+00 6.887E-05

     total cpu time spent up to now is     3451.6 secs

     total energy              =   -4700.75307717 Ry
     estimated scf accuracy    <       0.00000068 Ry

     total magnetization       =    16.28 Bohr mag/cell
     absolute magnetization    =    20.27 Bohr mag/cell

     iteration # 73     ecut=    60.00 Ry     beta= 0.30
     Davidson diagonalization with overlap
     ethr =  2.62E-10,  avg # of iterations =  5.2

     negative rho (up, down):  0.000E+00 6.888E-05

     total cpu time spent up to now is     3501.9 secs

     total energy              =   -4700.75307744 Ry
     estimated scf accuracy    <       0.00000076 Ry

     total magnetization       =    16.27 Bohr mag/cell
     absolute magnetization    =    20.28 Bohr mag/cell

     iteration # 74     ecut=    60.00 Ry     beta= 0.30
     Davidson diagonalization with overlap
     ethr =  2.62E-10,  avg # of iterations =  5.3

     negative rho (up, down):  0.000E+00 6.889E-05

     total cpu time spent up to now is     3552.3 secs

     total energy              =   -4700.75307726 Ry
     estimated scf accuracy    <       0.00000015 Ry

     total magnetization       =    16.27 Bohr mag/cell
     absolute magnetization    =    20.29 Bohr mag/cell

     iteration # 75     ecut=    60.00 Ry     beta= 0.30
     Davidson diagonalization with overlap
     ethr =  6.20E-11,  avg # of iterations =  7.1

     negative rho (up, down):  0.000E+00 6.892E-05

     total cpu time spent up to now is     3616.9 secs

     total energy              =   -4700.75307671 Ry
     estimated scf accuracy    <       0.00000117 Ry

     total magnetization       =    16.27 Bohr mag/cell
     absolute magnetization    =    20.28 Bohr mag/cell

     iteration # 76     ecut=    60.00 Ry     beta= 0.30
     Davidson diagonalization with overlap
     ethr =  6.20E-11,  avg # of iterations =  9.1

     negative rho (up, down):  0.000E+00 6.896E-05

     total cpu time spent up to now is     3694.1 secs

     total energy              =   -4700.75307796 Ry
     estimated scf accuracy    <       0.00000005 Ry

     total magnetization       =    16.27 Bohr mag/cell
     absolute magnetization    =    20.30 Bohr mag/cell

     iteration # 77     ecut=    60.00 Ry     beta= 0.30
     Davidson diagonalization with overlap
     ethr =  1.92E-11,  avg # of iterations =  5.8

     negative rho (up, down):  0.000E+00 6.897E-05

     total cpu time spent up to now is     3750.4 secs

     total energy              =   -4700.75307795 Ry
     estimated scf accuracy    <       0.00000010 Ry

     total magnetization       =    16.27 Bohr mag/cell
     absolute magnetization    =    20.30 Bohr mag/cell

     iteration # 78     ecut=    60.00 Ry     beta= 0.30
     Davidson diagonalization with overlap
     ethr =  1.92E-11,  avg # of iterations =  5.5

     negative rho (up, down):  0.000E+00 6.900E-05

     total cpu time spent up to now is     3804.2 secs

     total energy              =   -4700.75307791 Ry
     estimated scf accuracy    <       0.00000026 Ry

     total magnetization       =    16.27 Bohr mag/cell
     absolute magnetization    =    20.30 Bohr mag/cell

     iteration # 79     ecut=    60.00 Ry     beta= 0.30
     Davidson diagonalization with overlap
     ethr =  1.92E-11,  avg # of iterations =  7.1

     negative rho (up, down):  0.000E+00 6.901E-05

     total cpu time spent up to now is     3868.0 secs

     total energy              =   -4700.75307803 Ry
     estimated scf accuracy    <       0.00000004 Ry

     total magnetization       =    16.27 Bohr mag/cell
     absolute magnetization    =    20.30 Bohr mag/cell

     iteration # 80     ecut=    60.00 Ry     beta= 0.30
     Davidson diagonalization with overlap
     ethr =  1.82E-11,  avg # of iterations =  3.7

     negative rho (up, down):  0.000E+00 6.909E-05

     total cpu time spent up to now is     3911.3 secs

     total energy              =   -4700.75307803 Ry
     estimated scf accuracy    <       0.00000017 Ry

     total magnetization       =    16.27 Bohr mag/cell
     absolute magnetization    =    20.30 Bohr mag/cell

     iteration # 81     ecut=    60.00 Ry     beta= 0.30
     Davidson diagonalization with overlap
     ethr =  1.82E-11,  avg # of iterations =  5.5

     negative rho (up, down):  0.000E+00 6.906E-05

     total cpu time spent up to now is     3963.5 secs

     total energy              =   -4700.75307790 Ry
     estimated scf accuracy    <       0.00000004 Ry

     total magnetization       =    16.27 Bohr mag/cell
     absolute magnetization    =    20.31 Bohr mag/cell

     iteration # 82     ecut=    60.00 Ry     beta= 0.30
     Davidson diagonalization with overlap
     ethr =  1.79E-11,  avg # of iterations =  6.9

     negative rho (up, down):  0.000E+00 6.910E-05

     total cpu time spent up to now is     4027.6 secs

     total energy              =   -4700.75307801 Ry
     estimated scf accuracy    <       0.00000026 Ry

     total magnetization       =    16.27 Bohr mag/cell
     absolute magnetization    =    20.30 Bohr mag/cell

     iteration # 83     ecut=    60.00 Ry     beta= 0.30
     Davidson diagonalization with overlap
     ethr =  1.79E-11,  avg # of iterations =  5.5

     negative rho (up, down):  0.000E+00 6.911E-05

     total cpu time spent up to now is     4082.1 secs

     total energy              =   -4700.75307806 Ry
     estimated scf accuracy    <       0.00000004 Ry

     total magnetization       =    16.27 Bohr mag/cell
     absolute magnetization    =    20.30 Bohr mag/cell

     iteration # 84     ecut=    60.00 Ry     beta= 0.30
     Davidson diagonalization with overlap
     ethr =  1.63E-11,  avg # of iterations =  5.4

     negative rho (up, down):  0.000E+00 6.913E-05

     total cpu time spent up to now is     4132.2 secs

     total energy              =   -4700.75307808 Ry
     estimated scf accuracy    <       0.00000003 Ry

     total magnetization       =    16.27 Bohr mag/cell
     absolute magnetization    =    20.31 Bohr mag/cell

     iteration # 85     ecut=    60.00 Ry     beta= 0.30
     Davidson diagonalization with overlap
     ethr =  1.42E-11,  avg # of iterations =  4.1

     negative rho (up, down):  0.000E+00 6.914E-05

     total cpu time spent up to now is     4175.5 secs

     total energy              =   -4700.75307808 Ry
     estimated scf accuracy    <       0.00000006 Ry

     total magnetization       =    16.27 Bohr mag/cell
     absolute magnetization    =    20.31 Bohr mag/cell

     iteration # 86     ecut=    60.00 Ry     beta= 0.30
     Davidson diagonalization with overlap
     ethr =  1.42E-11,  avg # of iterations =  2.4

     negative rho (up, down):  0.000E+00 6.914E-05
 
     Magnetic moment per site  (integrated on atomic sphere of radius R)
     atom   1 (R=0.179)  charge= 12.1358  magn= -0.2357
     atom   2 (R=0.179)  charge= 14.4357  magn=  1.8727
     atom   3 (R=0.179)  charge= 14.4114  magn=  2.0356
     atom   4 (R=0.179)  charge= 12.1645  magn=  0.2412
     atom   5 (R=0.179)  charge= 12.1383  magn=  0.0029
     atom   6 (R=0.179)  charge= 14.4353  magn=  1.8904
     atom   7 (R=0.179)  charge= 12.1358  magn= -0.2357
     atom   8 (R=0.179)  charge= 14.4357  magn=  1.8727
     atom   9 (R=0.179)  charge= 12.1287  magn= -0.3766
     atom  10 (R=0.179)  charge= 14.4357  magn=  1.8727
     atom  11 (R=0.179)  charge= 14.4105  magn=  2.2560
     atom  12 (R=0.179)  charge= 14.4353  magn=  1.8904
     atom  13 (R=0.179)  charge= 14.4170  magn=  1.9158
     atom  14 (R=0.179)  charge= 12.1645  magn=  0.2412
     atom  15 (R=0.179)  charge= 12.1287  magn= -0.3766
     atom  16 (R=0.179)  charge= 14.4357  magn=  1.8727

     total cpu time spent up to now is     4214.0 secs

     End of self-consistent calculation

     Number of k-points >= 100: set verbosity='high' to print the bands.

     the Fermi energy is    19.3932 ev

!    total energy              =   -4700.75307809 Ry
     total all-electron energy =    -37622.150625 Ry
     estimated scf accuracy    <          8.3E-09 Ry
     smearing contrib. (-TS)   =      -0.00275441 Ry
     internal energy E=F+TS    =   -4700.75032368 Ry

     The total energy is F=E-TS. E is the sum of the following terms:
     one-electron contribution =   -1368.78671942 Ry
     hartree contribution      =     838.56341837 Ry
     xc contribution           =    -405.58859776 Ry
     ewald contribution        =   -2500.06876074 Ry
     one-center paw contrib.   =   -1264.86966412 Ry

     total magnetization       =    16.27 Bohr mag/cell
     absolute magnetization    =    20.31 Bohr mag/cell

     convergence has been achieved in  86 iterations


     Computing stress (Cartesian axis) and pressure


     negative rho (up, down):  0.000E+00 6.914E-05
          total   stress  (Ry/bohr**3)                   (kbar)     P=        9.78
   0.00012719   0.00005266   0.00005266           18.71        7.75        7.75
   0.00005266   0.00003608   0.00009080            7.75        5.31       13.36
   0.00005266   0.00009080   0.00003608            7.75       13.36        5.31


     Writing all to output data dir ./tmp/fecr_fe09cr07_h-0.01.save/ :
     XML data file, charge density, pseudopotentials, collected wavefunctions
 
     init_run     :     25.89s CPU     21.07s WALL (       1 calls)
     electrons    :   4715.33s CPU   4192.58s WALL (       1 calls)
     stress       :     35.50s CPU     35.08s WALL (       1 calls)

     Called by init_run:
     wfcinit      :     10.22s CPU     11.64s WALL (       1 calls)
     potinit      :     14.97s CPU      8.62s WALL (       1 calls)
     hinit0       :      0.44s CPU      0.44s WALL (       1 calls)

     Called by electrons:
     c_bands      :   3214.47s CPU   3217.57s WALL (      86 calls)
     sum_band     :    253.58s CPU    253.21s WALL (      86 calls)
     v_of_rho     :      1.77s CPU      1.68s WALL (      87 calls)
     newd         :      6.45s CPU      6.46s WALL (      87 calls)
                                        6.46s GPU  (      87 calls)
     PAW_pot      :   1248.13s CPU    716.64s WALL (      87 calls)
     mix_rho      :      3.48s CPU      3.49s WALL (      86 calls)

     Called by c_bands:
     init_us_2    :     17.27s CPU     16.96s WALL (   23664 calls)
     cegterg      :   3048.63s CPU   3051.95s WALL (   11696 calls)

     Called by *egterg:
     cdiaghg      :    842.19s CPU    846.00s WALL (   64926 calls)
                                      845.70s GPU  (   64926 calls)
     h_psi        :    995.09s CPU    997.93s WALL (   65062 calls)
                                      997.17s GPU  (   65062 calls)
     s_psi        :     38.83s CPU     39.14s WALL (   65062 calls)
     g_psi        :      0.27s CPU      5.47s WALL (   53230 calls)
                                        5.26s GPU  (   53230 calls)

     Called by h_psi:
     h_psi:calbec :      2.26s CPU    181.72s WALL (   65062 calls)
                                      181.45s GPU  (   65062 calls)
     vloc_psi     :    559.99s CPU    560.71s WALL (   65062 calls)
                                      560.46s GPU  (   65062 calls)
     add_vuspsi   :     37.76s CPU    250.54s WALL (   65062 calls)
                                      250.27s GPU  (   65062 calls)

     General routines
     calbec       :      2.81s CPU      2.96s WALL (   76894 calls)
     fft          :      0.96s CPU      1.28s WALL (    2194 calls)
                                        0.39s GPU  (    2020 calls)
     ffts         :      0.26s CPU      0.27s WALL (     346 calls)
                                        0.01s GPU  (     172 calls)
     fftw         :     12.45s CPU    553.85s WALL (  746722 calls)
                                      551.51s GPU  (  746722 calls)
     interpolate  :      1.36s CPU      1.30s WALL (     174 calls)
 
     Parallel routines
 
     PWSCF        :      1h19m CPU      1h10m WALL

 
   This run was terminated on:  19:33:59  14May2026            

=------------------------------------------------------------------------------=
   JOB DONE.
=------------------------------------------------------------------------------=
Warning: ieee_invalid is signaling
Warning: ieee_divide_by_zero is signaling
Warning: ieee_inexact is signaling
FORTRAN STOP
