--------------------------------------------------------------------------
WARNING: Open MPI tried to bind a process but failed.  This is a
warning only; your job will continue, though performance may
be degraded.

  Local host:        4b82db919bf5
  Application name:  /root/q-e-qe-7.3.1/bin/pw.x
  Error message:     failed to bind memory
  Location:          ../../../../../orte/mca/rtc/hwloc/rtc_hwloc.c:447

--------------------------------------------------------------------------

     Program PWSCF v.7.3.1 starts on 21May2026 at 13:31: 4 

     This program is part of the open-source Quantum ESPRESSO suite
     for quantum simulation of materials; please cite
         "P. Giannozzi et al., J. Phys.:Condens. Matter 21 395502 (2009);
         "P. Giannozzi et al., J. Phys.:Condens. Matter 29 465901 (2017);
         "P. Giannozzi et al., J. Chem. Phys. 152 154105 (2020);
          URL http://www.quantum-espresso.org", 
     in publications or presentations arising from this work. More details at
     http://www.quantum-espresso.org/quote

     Parallel version (MPI & OpenMP), running on       8 processor cores
     Number of MPI processes:                 1
     Threads/MPI process:                     8

     MPI processes distributed on     1 nodes
     200660 MiB available memory on the printing compute node when the environment starts
 
     Reading input from inputs/fecr_fe04cr12_t-0.01.in

     Current dimensions of program PWSCF are:
     Max number of different atomic species (ntypx) = 10
     Max number of k-points (npk) =  40000
     Max angular momentum in pseudopotentials (lmaxx) =  4
     file Fe.pbe-spn-kjpaw_psl.1.0.0.UPF: wavefunction(s)  3P 3D renormalized
     file Cr.pbe-spn-kjpaw_psl.1.0.0.UPF: wavefunction(s)  3S 3P 3D renormalized
     Found identity + (  0.0000 -0.5000  0.0000) symmetry
     This is a supercell, fractional translations are disabled
     Message from routine setup:
     using ibrav=0 with symmetry is DISCOURAGED, use correct ibrav instead
 
     Subspace diagonalization in iterative solution of the eigenvalue problem:
     a serial algorithm will be used

 
     G-vector sticks info
     --------------------
     sticks:   dense  smooth     PW     G-vecs:    dense   smooth      PW
     Sum        4397    2209    621               216389    76453   11567
 
     Using Slab Decomposition
 


     bravais-lattice index     =            0
     lattice parameter (alat)  =      10.7315  a.u.
     unit-cell volume          =    1217.3977 (a.u.)^3
     number of atoms/cell      =           16
     number of atomic types    =            2
     number of electrons       =       232.00
     number of Kohn-Sham states=          139
     kinetic-energy cutoff     =      60.0000  Ry
     charge density cutoff     =     480.0000  Ry
     scf convergence threshold =      1.0E-07
     mixing beta               =       0.3000
     number of iterations used =            8  plain     mixing
     Exchange-correlation= SLA  PW   PBX  PBC
                           (   1   4   3   4   0   0   0)

     GPU acceleration is ACTIVE.  1 visible GPUs per MPI rank


     celldm(1)=  10.731486  celldm(2)=   0.000000  celldm(3)=   0.000000
     celldm(4)=   0.000000  celldm(5)=   0.000000  celldm(6)=   0.000000

     crystal axes: (cart. coord. in units of alat)
               a(1) = (   1.000000   0.000000   0.000000 )  
               a(2) = (   0.000000   1.000000   0.000000 )  
               a(3) = (   0.000000   0.000000   0.985038 )  

     reciprocal axes: (cart. coord. in units 2 pi/alat)
               b(1) = (  1.000000  0.000000  0.000000 )  
               b(2) = (  0.000000  1.000000  0.000000 )  
               b(3) = (  0.000000  0.000000  1.015190 )  


     PseudoPot. # 1 for Fe read from file:
     ./pseudo/Fe.pbe-spn-kjpaw_psl.1.0.0.UPF
     MD5 check sum: fc81f059e5c5069939230b1155715ae8
     Pseudo is Projector augmented-wave + core cor, Zval = 16.0
     Generated using &quot;atomic&quot; code by A. Dal Corso  v.6.3
     Shape of augmentation charge: PSQ
     Using radial grid of 1191 points,  6 beta functions with: 
                l(1) =   0
                l(2) =   0
                l(3) =   1
                l(4) =   1
                l(5) =   2
                l(6) =   2
     Q(r) pseudized with 0 coefficients 


     PseudoPot. # 2 for Cr read from file:
     ./pseudo/Cr.pbe-spn-kjpaw_psl.1.0.0.UPF
     MD5 check sum: 198f1a2427a48552563eee314eba32ba
     Pseudo is Projector augmented-wave + core cor, Zval = 14.0
     Generated using &quot;atomic&quot; code by A. Dal Corso  v.6.3
     Shape of augmentation charge: PSQ
     Using radial grid of 1183 points,  6 beta functions with: 
                l(1) =   0
                l(2) =   0
                l(3) =   1
                l(4) =   1
                l(5) =   2
                l(6) =   2
     Q(r) pseudized with 0 coefficients 


     atomic species   valence    mass     pseudopotential
     Fe               16.00    55.84500     Fe( 1.00)
     Cr               14.00    51.99600     Cr( 1.00)

     Starting magnetic structure 
     atomic species   magnetization
     Fe              0.500
     Cr              0.300

      4 Sym. Ops., with inversion, found



   Cartesian axes

     site n.     atom                  positions (alat units)
         1        Cr     tau(   1) = (   0.0000000   0.0000000   0.0000000  )
         2        Fe     tau(   2) = (   0.2500000   0.2500000   0.2462594  )
         3        Cr     tau(   3) = (   0.0000000   0.0000000   0.4925188  )
         4        Cr     tau(   4) = (   0.2500000   0.2500000   0.7387782  )
         5        Cr     tau(   5) = (   0.0000000   0.5000000   0.0000000  )
         6        Fe     tau(   6) = (   0.2500000   0.7500000   0.2462594  )
         7        Cr     tau(   7) = (   0.0000000   0.5000000   0.4925188  )
         8        Cr     tau(   8) = (   0.2500000   0.7500000   0.7387782  )
         9        Cr     tau(   9) = (   0.5000000   0.0000000   0.0000000  )
        10        Cr     tau(  10) = (   0.7500000   0.2500000   0.2462594  )
        11        Cr     tau(  11) = (   0.5000000   0.0000000   0.4925188  )
        12        Fe     tau(  12) = (   0.7500000   0.2500000   0.7387782  )
        13        Cr     tau(  13) = (   0.5000000   0.5000000   0.0000000  )
        14        Cr     tau(  14) = (   0.7500000   0.7500000   0.2462594  )
        15        Cr     tau(  15) = (   0.5000000   0.5000000   0.4925188  )
        16        Fe     tau(  16) = (   0.7500000   0.7500000   0.7387782  )

     number of k points=    80  Marzari-Vanderbilt smearing, width (Ry)=  0.0200
                       cart. coord. in units 2pi/alat
        k(    1) = (   0.0000000   0.0000000   0.0000000), wk =   0.0046296
        k(    2) = (   0.0000000   0.0000000   0.1691983), wk =   0.0092593
        k(    3) = (   0.0000000   0.0000000   0.3383965), wk =   0.0092593
        k(    4) = (   0.0000000   0.0000000  -0.5075948), wk =   0.0046296
        k(    5) = (   0.0000000   0.1666667   0.0000000), wk =   0.0092593
        k(    6) = (   0.0000000   0.1666667   0.1691983), wk =   0.0185185
        k(    7) = (   0.0000000   0.1666667   0.3383965), wk =   0.0185185
        k(    8) = (   0.0000000   0.1666667  -0.5075948), wk =   0.0092593
        k(    9) = (   0.0000000   0.3333333   0.0000000), wk =   0.0092593
        k(   10) = (   0.0000000   0.3333333   0.1691983), wk =   0.0185185
        k(   11) = (   0.0000000   0.3333333   0.3383965), wk =   0.0185185
        k(   12) = (   0.0000000   0.3333333  -0.5075948), wk =   0.0092593
        k(   13) = (   0.0000000  -0.5000000   0.0000000), wk =   0.0046296
        k(   14) = (   0.0000000  -0.5000000   0.1691983), wk =   0.0092593
        k(   15) = (   0.0000000  -0.5000000   0.3383965), wk =   0.0092593
        k(   16) = (   0.0000000  -0.5000000  -0.5075948), wk =   0.0046296
        k(   17) = (   0.1666667   0.1666667   0.0000000), wk =   0.0185185
        k(   18) = (   0.1666667   0.1666667   0.1691983), wk =   0.0185185
        k(   19) = (   0.1666667   0.1666667   0.3383965), wk =   0.0185185
        k(   20) = (   0.1666667   0.1666667  -0.5075948), wk =   0.0185185
        k(   21) = (   0.1666667   0.3333333   0.0000000), wk =   0.0185185
        k(   22) = (   0.1666667   0.3333333   0.1691983), wk =   0.0185185
        k(   23) = (   0.1666667   0.3333333   0.3383965), wk =   0.0185185
        k(   24) = (   0.1666667   0.3333333  -0.5075948), wk =   0.0185185
        k(   25) = (   0.1666667  -0.5000000   0.0000000), wk =   0.0092593
        k(   26) = (   0.1666667  -0.5000000   0.1691983), wk =   0.0092593
        k(   27) = (   0.1666667  -0.5000000   0.3383965), wk =   0.0092593
        k(   28) = (   0.1666667  -0.5000000  -0.5075948), wk =   0.0092593
        k(   29) = (   0.3333333   0.3333333   0.0000000), wk =   0.0185185
        k(   30) = (   0.3333333   0.3333333   0.1691983), wk =   0.0185185
        k(   31) = (   0.3333333   0.3333333   0.3383965), wk =   0.0185185
        k(   32) = (   0.3333333   0.3333333  -0.5075948), wk =   0.0185185
        k(   33) = (   0.3333333  -0.5000000   0.0000000), wk =   0.0092593
        k(   34) = (   0.3333333  -0.5000000   0.1691983), wk =   0.0092593
        k(   35) = (   0.3333333  -0.5000000   0.3383965), wk =   0.0092593
        k(   36) = (   0.3333333  -0.5000000  -0.5075948), wk =   0.0092593
        k(   37) = (  -0.5000000  -0.5000000   0.0000000), wk =   0.0046296
        k(   38) = (  -0.5000000  -0.5000000   0.1691983), wk =   0.0092593
        k(   39) = (  -0.5000000  -0.5000000   0.3383965), wk =   0.0092593
        k(   40) = (  -0.5000000  -0.5000000  -0.5075948), wk =   0.0046296
        k(   41) = (   0.1666667   0.0000000   0.0000000), wk =   0.0092593
        k(   42) = (   0.1666667   0.0000000  -0.1691983), wk =   0.0092593
        k(   43) = (  -0.1666667   0.0000000  -0.1691983), wk =   0.0092593
        k(   44) = (   0.1666667   0.0000000  -0.3383965), wk =   0.0092593
        k(   45) = (  -0.1666667   0.0000000  -0.3383965), wk =   0.0092593
        k(   46) = (   0.1666667   0.0000000   0.5075948), wk =   0.0092593
        k(   47) = (   0.3333333   0.0000000   0.0000000), wk =   0.0092593
        k(   48) = (   0.3333333   0.0000000  -0.1691983), wk =   0.0092593
        k(   49) = (  -0.3333333   0.0000000  -0.1691983), wk =   0.0092593
        k(   50) = (   0.3333333   0.0000000  -0.3383965), wk =   0.0092593
        k(   51) = (  -0.3333333   0.0000000  -0.3383965), wk =   0.0092593
        k(   52) = (   0.3333333   0.0000000   0.5075948), wk =   0.0092593
        k(   53) = (  -0.5000000   0.0000000   0.0000000), wk =   0.0046296
        k(   54) = (  -0.5000000   0.0000000  -0.1691983), wk =   0.0092593
        k(   55) = (  -0.5000000   0.0000000  -0.3383965), wk =   0.0092593
        k(   56) = (  -0.5000000   0.0000000   0.5075948), wk =   0.0046296
        k(   57) = (   0.1666667   0.1666667  -0.1691983), wk =   0.0185185
        k(   58) = (   0.1666667   0.1666667  -0.3383965), wk =   0.0185185
        k(   59) = (   0.3333333   0.1666667   0.0000000), wk =   0.0185185
        k(   60) = (   0.3333333   0.1666667  -0.1691983), wk =   0.0185185
        k(   61) = (  -0.3333333  -0.1666667  -0.1691983), wk =   0.0185185
        k(   62) = (  -0.1666667  -0.3333333   0.1691983), wk =   0.0185185
        k(   63) = (   0.3333333   0.1666667  -0.3383965), wk =   0.0185185
        k(   64) = (  -0.3333333  -0.1666667  -0.3383965), wk =   0.0185185
        k(   65) = (  -0.1666667  -0.3333333   0.3383965), wk =   0.0185185
        k(   66) = (   0.3333333   0.1666667   0.5075948), wk =   0.0185185
        k(   67) = (  -0.5000000   0.1666667   0.0000000), wk =   0.0092593
        k(   68) = (  -0.5000000   0.1666667  -0.1691983), wk =   0.0185185
        k(   69) = (  -0.1666667   0.5000000   0.1691983), wk =   0.0092593
        k(   70) = (  -0.5000000   0.1666667  -0.3383965), wk =   0.0185185
        k(   71) = (  -0.1666667   0.5000000   0.3383965), wk =   0.0092593
        k(   72) = (  -0.5000000   0.1666667   0.5075948), wk =   0.0092593
        k(   73) = (   0.3333333   0.3333333  -0.1691983), wk =   0.0185185
        k(   74) = (   0.3333333   0.3333333  -0.3383965), wk =   0.0185185
        k(   75) = (  -0.5000000   0.3333333   0.0000000), wk =   0.0092593
        k(   76) = (  -0.5000000   0.3333333  -0.1691983), wk =   0.0185185
        k(   77) = (  -0.3333333   0.5000000   0.1691983), wk =   0.0092593
        k(   78) = (  -0.5000000   0.3333333  -0.3383965), wk =   0.0185185
        k(   79) = (  -0.3333333   0.5000000   0.3383965), wk =   0.0092593
        k(   80) = (  -0.5000000   0.3333333   0.5075948), wk =   0.0092593

     Dense  grid:   216389 G-vectors     FFT dimensions: (  75,  75,  75)

     Smooth grid:    76453 G-vectors     FFT dimensions: (  54,  54,  54)

     Estimated max dynamical RAM per process >       4.09 GB

     Check: negative core charge=   -0.000003
     Generating pointlists ...
     new r_m :   0.1777 (alat units)  1.9073 (a.u.) for type    1
     new r_m :   0.1777 (alat units)  1.9073 (a.u.) for type    2

     Initial potential from superposition of free atoms

     starting charge     231.9890, renormalised to     232.0000
     Starting wfcs are  160 randomized atomic wfcs
     Checking if some PAW data can be deallocated... 

     total cpu time spent up to now is       28.6 secs

     Self-consistent Calculation

     iteration #  1     ecut=    60.00 Ry     beta= 0.30
     Davidson diagonalization with overlap
     ethr =  1.00E-02,  avg # of iterations =  5.4

     negative rho (up, down):  1.874E-01 1.738E+00

     total cpu time spent up to now is       75.7 secs

     total energy              =   -4281.96339744 Ry
     estimated scf accuracy    <     238.27796367 Ry

     total magnetization       =    40.43 Bohr mag/cell
     absolute magnetization    =    60.18 Bohr mag/cell

     iteration #  2     ecut=    60.00 Ry     beta= 0.30
     Davidson diagonalization with overlap
     ethr =  1.00E-02,  avg # of iterations =  5.4

     negative rho (up, down):  1.331E-01 1.282E+00

     total cpu time spent up to now is      119.9 secs

     total energy              =   -4287.19578369 Ry
     estimated scf accuracy    <      50.09913204 Ry

     total magnetization       =    26.10 Bohr mag/cell
     absolute magnetization    =    26.63 Bohr mag/cell

     iteration #  3     ecut=    60.00 Ry     beta= 0.30
     Davidson diagonalization with overlap
     ethr =  1.00E-02,  avg # of iterations =  5.2

     negative rho (up, down):  1.082E-01 1.141E+00

     total cpu time spent up to now is      168.6 secs

     total energy              =   -4286.97164171 Ry
     estimated scf accuracy    <     103.92215666 Ry

     total magnetization       =    26.19 Bohr mag/cell
     absolute magnetization    =    26.39 Bohr mag/cell

     iteration #  4     ecut=    60.00 Ry     beta= 0.30
     Davidson diagonalization with overlap
     ethr =  1.00E-02,  avg # of iterations =  2.5

     negative rho (up, down):  8.447E-02 9.835E-01

     total cpu time spent up to now is      207.7 secs

     total energy              =   -4292.75136656 Ry
     estimated scf accuracy    <      14.78231722 Ry

     total magnetization       =    21.98 Bohr mag/cell
     absolute magnetization    =    23.15 Bohr mag/cell

     iteration #  5     ecut=    60.00 Ry     beta= 0.30
     Davidson diagonalization with overlap
     ethr =  6.37E-03,  avg # of iterations =  2.2

     negative rho (up, down):  4.557E-02 6.761E-01

     total cpu time spent up to now is      244.7 secs

     total energy              =   -4293.73579259 Ry
     estimated scf accuracy    <      12.43053776 Ry

     total magnetization       =    21.42 Bohr mag/cell
     absolute magnetization    =    22.26 Bohr mag/cell

     iteration #  6     ecut=    60.00 Ry     beta= 0.30
     Davidson diagonalization with overlap
     ethr =  5.36E-03,  avg # of iterations =  1.3

     negative rho (up, down):  9.177E-03 3.154E-01

     total cpu time spent up to now is      279.0 secs

     total energy              =   -4294.23491959 Ry
     estimated scf accuracy    <       9.55497397 Ry

     total magnetization       =    19.97 Bohr mag/cell
     absolute magnetization    =    20.79 Bohr mag/cell

     iteration #  7     ecut=    60.00 Ry     beta= 0.30
     Davidson diagonalization with overlap
     ethr =  4.12E-03,  avg # of iterations =  1.8

     negative rho (up, down):  0.000E+00 9.901E-02

     total cpu time spent up to now is      315.2 secs

     total energy              =   -4294.95518567 Ry
     estimated scf accuracy    <       8.03998082 Ry

     total magnetization       =    17.73 Bohr mag/cell
     absolute magnetization    =    18.61 Bohr mag/cell

     iteration #  8     ecut=    60.00 Ry     beta= 0.30
     Davidson diagonalization with overlap
     ethr =  3.47E-03,  avg # of iterations =  1.0

     negative rho (up, down):  0.000E+00 2.296E-02

     total cpu time spent up to now is      349.4 secs

     total energy              =   -4295.17765769 Ry
     estimated scf accuracy    <       2.45960406 Ry

     total magnetization       =    13.77 Bohr mag/cell
     absolute magnetization    =    15.59 Bohr mag/cell

     iteration #  9     ecut=    60.00 Ry     beta= 0.30
     Davidson diagonalization with overlap
     ethr =  1.06E-03,  avg # of iterations =  1.8

     negative rho (up, down):  0.000E+00 8.219E-03

     total cpu time spent up to now is      385.7 secs

     total energy              =   -4295.32136034 Ry
     estimated scf accuracy    <       1.42426070 Ry

     total magnetization       =    12.70 Bohr mag/cell
     absolute magnetization    =    14.75 Bohr mag/cell

     iteration # 10     ecut=    60.00 Ry     beta= 0.30
     Davidson diagonalization with overlap
     ethr =  6.14E-04,  avg # of iterations =  4.3

     negative rho (up, down):  0.000E+00 1.366E-04

     total cpu time spent up to now is      427.3 secs

     total energy              =   -4295.36516312 Ry
     estimated scf accuracy    <       2.27316662 Ry

     total magnetization       =    10.05 Bohr mag/cell
     absolute magnetization    =    12.86 Bohr mag/cell

     iteration # 11     ecut=    60.00 Ry     beta= 0.30
     Davidson diagonalization with overlap
     ethr =  6.14E-04,  avg # of iterations =  2.6

     negative rho (up, down):  0.000E+00 1.888E-05

     total cpu time spent up to now is      465.2 secs

     total energy              =   -4295.46765423 Ry
     estimated scf accuracy    <       0.33875207 Ry

     total magnetization       =    10.08 Bohr mag/cell
     absolute magnetization    =    12.47 Bohr mag/cell

     iteration # 12     ecut=    60.00 Ry     beta= 0.30
     Davidson diagonalization with overlap
     ethr =  1.46E-04,  avg # of iterations = 10.3

     total cpu time spent up to now is      521.8 secs

     total energy              =   -4295.49032350 Ry
     estimated scf accuracy    <       0.32246646 Ry

     total magnetization       =     9.56 Bohr mag/cell
     absolute magnetization    =    11.81 Bohr mag/cell

     iteration # 13     ecut=    60.00 Ry     beta= 0.30
     Davidson diagonalization with overlap
     ethr =  1.39E-04,  avg # of iterations =  1.3

     total cpu time spent up to now is      556.1 secs

     total energy              =   -4295.50386166 Ry
     estimated scf accuracy    <       0.08160046 Ry

     total magnetization       =     9.44 Bohr mag/cell
     absolute magnetization    =    11.69 Bohr mag/cell

     iteration # 14     ecut=    60.00 Ry     beta= 0.30
     Davidson diagonalization with overlap
     c_bands:  2 eigenvalues not converged
     c_bands:  1 eigenvalues not converged
     c_bands:  1 eigenvalues not converged
     ethr =  3.52E-05,  avg # of iterations =  8.7

     total cpu time spent up to now is      611.3 secs

     total energy              =   -4295.50896883 Ry
     estimated scf accuracy    <       0.38877762 Ry

     total magnetization       =     9.27 Bohr mag/cell
     absolute magnetization    =    11.39 Bohr mag/cell

     iteration # 15     ecut=    60.00 Ry     beta= 0.30
     Davidson diagonalization with overlap
     ethr =  3.52E-05,  avg # of iterations =  3.1

     total cpu time spent up to now is      651.0 secs

     total energy              =   -4295.53149115 Ry
     estimated scf accuracy    <       0.03167918 Ry

     total magnetization       =     8.56 Bohr mag/cell
     absolute magnetization    =    10.70 Bohr mag/cell

     iteration # 16     ecut=    60.00 Ry     beta= 0.30
     Davidson diagonalization with overlap
     c_bands:  1 eigenvalues not converged
     c_bands:  2 eigenvalues not converged
     c_bands:  5 eigenvalues not converged
     ethr =  1.37E-05,  avg # of iterations = 10.6

     total cpu time spent up to now is      712.2 secs

     total energy              =   -4295.53163094 Ry
     estimated scf accuracy    <       0.14621635 Ry

     total magnetization       =     7.93 Bohr mag/cell
     absolute magnetization    =     9.97 Bohr mag/cell

     iteration # 17     ecut=    60.00 Ry     beta= 0.30
     Davidson diagonalization with overlap
     c_bands:  1 eigenvalues not converged
     ethr =  1.37E-05,  avg # of iterations =  7.0

     total cpu time spent up to now is      761.5 secs

     total energy              =   -4295.53687372 Ry
     estimated scf accuracy    <       0.07896048 Ry

     total magnetization       =     8.03 Bohr mag/cell
     absolute magnetization    =     9.96 Bohr mag/cell

     iteration # 18     ecut=    60.00 Ry     beta= 0.30
     Davidson diagonalization with overlap
     ethr =  1.37E-05,  avg # of iterations =  2.8

     total cpu time spent up to now is      800.3 secs

     total energy              =   -4295.54099969 Ry
     estimated scf accuracy    <       0.04056937 Ry

     total magnetization       =     7.49 Bohr mag/cell
     absolute magnetization    =     9.51 Bohr mag/cell

     iteration # 19     ecut=    60.00 Ry     beta= 0.30
     Davidson diagonalization with overlap
     ethr =  1.37E-05,  avg # of iterations =  1.4

     total cpu time spent up to now is      836.2 secs

     total energy              =   -4295.54137385 Ry
     estimated scf accuracy    <       0.01789446 Ry

     total magnetization       =     7.48 Bohr mag/cell
     absolute magnetization    =     9.39 Bohr mag/cell

     iteration # 20     ecut=    60.00 Ry     beta= 0.30
     Davidson diagonalization with overlap
     c_bands:  1 eigenvalues not converged
     ethr =  7.71E-06,  avg # of iterations =  5.8

     total cpu time spent up to now is      882.0 secs

     total energy              =   -4295.54162684 Ry
     estimated scf accuracy    <       0.03229757 Ry

     total magnetization       =     7.50 Bohr mag/cell
     absolute magnetization    =     9.37 Bohr mag/cell

     iteration # 21     ecut=    60.00 Ry     beta= 0.30
     Davidson diagonalization with overlap
     ethr =  7.71E-06,  avg # of iterations =  3.3

     total cpu time spent up to now is      921.2 secs

     total energy              =   -4295.54179241 Ry
     estimated scf accuracy    <       0.01050914 Ry

     total magnetization       =     7.38 Bohr mag/cell
     absolute magnetization    =     9.23 Bohr mag/cell

     iteration # 22     ecut=    60.00 Ry     beta= 0.30
     Davidson diagonalization with overlap
     c_bands:  1 eigenvalues not converged
     c_bands:  1 eigenvalues not converged
     c_bands:  1 eigenvalues not converged
     c_bands:  1 eigenvalues not converged
     c_bands:  1 eigenvalues not converged
     ethr =  4.53E-06,  avg # of iterations =  6.0

     total cpu time spent up to now is      966.7 secs

     total energy              =   -4295.54120468 Ry
     estimated scf accuracy    <       0.02192250 Ry

     total magnetization       =     7.54 Bohr mag/cell
     absolute magnetization    =     9.35 Bohr mag/cell

     iteration # 23     ecut=    60.00 Ry     beta= 0.30
     Davidson diagonalization with overlap
     c_bands:  3 eigenvalues not converged
     ethr =  4.53E-06,  avg # of iterations =  4.5

     total cpu time spent up to now is     1008.7 secs

     total energy              =   -4295.54267741 Ry
     estimated scf accuracy    <       0.01645441 Ry

     total magnetization       =     7.63 Bohr mag/cell
     absolute magnetization    =     9.43 Bohr mag/cell

     iteration # 24     ecut=    60.00 Ry     beta= 0.30
     Davidson diagonalization with overlap
     ethr =  4.53E-06,  avg # of iterations =  3.0

     total cpu time spent up to now is     1047.7 secs

     total energy              =   -4295.54390267 Ry
     estimated scf accuracy    <       0.00129999 Ry

     total magnetization       =     7.25 Bohr mag/cell
     absolute magnetization    =     9.02 Bohr mag/cell

     iteration # 25     ecut=    60.00 Ry     beta= 0.30
     Davidson diagonalization with overlap
     c_bands:  2 eigenvalues not converged
     c_bands:  2 eigenvalues not converged
     c_bands:  3 eigenvalues not converged
     c_bands:  1 eigenvalues not converged
     c_bands:  1 eigenvalues not converged
     c_bands:  1 eigenvalues not converged
     c_bands:  1 eigenvalues not converged
     c_bands:  1 eigenvalues not converged
     c_bands:  3 eigenvalues not converged
     ethr =  5.60E-07,  avg # of iterations = 10.7

     total cpu time spent up to now is     1107.4 secs

     total energy              =   -4295.54449160 Ry
     estimated scf accuracy    <       0.00234999 Ry

     total magnetization       =     7.36 Bohr mag/cell
     absolute magnetization    =     9.06 Bohr mag/cell

     iteration # 26     ecut=    60.00 Ry     beta= 0.30
     Davidson diagonalization with overlap
     c_bands:  1 eigenvalues not converged
     ethr =  5.60E-07,  avg # of iterations =  6.2

     total cpu time spent up to now is     1156.6 secs

     total energy              =   -4295.54487887 Ry
     estimated scf accuracy    <       0.00254267 Ry

     total magnetization       =     7.24 Bohr mag/cell
     absolute magnetization    =     8.87 Bohr mag/cell

     iteration # 27     ecut=    60.00 Ry     beta= 0.30
     Davidson diagonalization with overlap
     ethr =  5.60E-07,  avg # of iterations =  1.6

     total cpu time spent up to now is     1193.0 secs

     total energy              =   -4295.54500008 Ry
     estimated scf accuracy    <       0.00082644 Ry

     total magnetization       =     7.22 Bohr mag/cell
     absolute magnetization    =     8.84 Bohr mag/cell

     iteration # 28     ecut=    60.00 Ry     beta= 0.30
     Davidson diagonalization with overlap
     ethr =  3.56E-07,  avg # of iterations =  2.7

     total cpu time spent up to now is     1231.8 secs

     total energy              =   -4295.54489428 Ry
     estimated scf accuracy    <       0.00082521 Ry

     total magnetization       =     7.21 Bohr mag/cell
     absolute magnetization    =     8.82 Bohr mag/cell

     iteration # 29     ecut=    60.00 Ry     beta= 0.30
     Davidson diagonalization with overlap
     ethr =  3.56E-07,  avg # of iterations =  1.3

     total cpu time spent up to now is     1266.2 secs

     total energy              =   -4295.54509342 Ry
     estimated scf accuracy    <       0.00087681 Ry

     total magnetization       =     7.27 Bohr mag/cell
     absolute magnetization    =     8.87 Bohr mag/cell

     iteration # 30     ecut=    60.00 Ry     beta= 0.30
     Davidson diagonalization with overlap
     ethr =  3.56E-07,  avg # of iterations =  1.4

     total cpu time spent up to now is     1302.1 secs

     total energy              =   -4295.54538267 Ry
     estimated scf accuracy    <       0.00058802 Ry

     total magnetization       =     7.25 Bohr mag/cell
     absolute magnetization    =     8.83 Bohr mag/cell

     iteration # 31     ecut=    60.00 Ry     beta= 0.30
     Davidson diagonalization with overlap
     ethr =  2.53E-07,  avg # of iterations =  7.6

     total cpu time spent up to now is     1356.5 secs

     total energy              =   -4295.54574470 Ry
     estimated scf accuracy    <       0.00140665 Ry

     total magnetization       =     7.25 Bohr mag/cell
     absolute magnetization    =     8.75 Bohr mag/cell

     iteration # 32     ecut=    60.00 Ry     beta= 0.30
     Davidson diagonalization with overlap
     ethr =  2.53E-07,  avg # of iterations =  4.3

     total cpu time spent up to now is     1397.7 secs

     total energy              =   -4295.54593326 Ry
     estimated scf accuracy    <       0.00034549 Ry

     total magnetization       =     7.24 Bohr mag/cell
     absolute magnetization    =     8.73 Bohr mag/cell

     iteration # 33     ecut=    60.00 Ry     beta= 0.30
     Davidson diagonalization with overlap
     ethr =  1.49E-07,  avg # of iterations =  5.8

     total cpu time spent up to now is     1443.8 secs

     total energy              =   -4295.54605612 Ry
     estimated scf accuracy    <       0.00069022 Ry

     total magnetization       =     7.23 Bohr mag/cell
     absolute magnetization    =     8.73 Bohr mag/cell

     iteration # 34     ecut=    60.00 Ry     beta= 0.30
     Davidson diagonalization with overlap
     ethr =  1.49E-07,  avg # of iterations =  3.8

     total cpu time spent up to now is     1484.3 secs

     total energy              =   -4295.54612420 Ry
     estimated scf accuracy    <       0.00052302 Ry

     total magnetization       =     7.24 Bohr mag/cell
     absolute magnetization    =     8.75 Bohr mag/cell

     iteration # 35     ecut=    60.00 Ry     beta= 0.30
     Davidson diagonalization with overlap
     ethr =  1.49E-07,  avg # of iterations =  3.9

     total cpu time spent up to now is     1525.1 secs

     total energy              =   -4295.54621388 Ry
     estimated scf accuracy    <       0.00123622 Ry

     total magnetization       =     7.26 Bohr mag/cell
     absolute magnetization    =     8.76 Bohr mag/cell

     iteration # 36     ecut=    60.00 Ry     beta= 0.30
     Davidson diagonalization with overlap
     ethr =  1.49E-07,  avg # of iterations =  4.9

     total cpu time spent up to now is     1569.0 secs

     total energy              =   -4295.54632288 Ry
     estimated scf accuracy    <       0.00023768 Ry

     total magnetization       =     7.27 Bohr mag/cell
     absolute magnetization    =     8.79 Bohr mag/cell

     iteration # 37     ecut=    60.00 Ry     beta= 0.30
     Davidson diagonalization with overlap
     ethr =  1.02E-07,  avg # of iterations =  3.1

     total cpu time spent up to now is     1608.8 secs

     total energy              =   -4295.54638570 Ry
     estimated scf accuracy    <       0.00041359 Ry

     total magnetization       =     7.27 Bohr mag/cell
     absolute magnetization    =     8.80 Bohr mag/cell

     iteration # 38     ecut=    60.00 Ry     beta= 0.30
     Davidson diagonalization with overlap
     c_bands:  2 eigenvalues not converged
     ethr =  1.02E-07,  avg # of iterations =  4.1

     total cpu time spent up to now is     1650.7 secs

     total energy              =   -4295.54646348 Ry
     estimated scf accuracy    <       0.00064591 Ry

     total magnetization       =     7.30 Bohr mag/cell
     absolute magnetization    =     8.84 Bohr mag/cell

     iteration # 39     ecut=    60.00 Ry     beta= 0.30
     Davidson diagonalization with overlap
     ethr =  1.02E-07,  avg # of iterations =  6.9

     total cpu time spent up to now is     1703.7 secs

     total energy              =   -4295.54676854 Ry
     estimated scf accuracy    <       0.00023547 Ry

     total magnetization       =     7.31 Bohr mag/cell
     absolute magnetization    =     8.95 Bohr mag/cell

     iteration # 40     ecut=    60.00 Ry     beta= 0.30
     Davidson diagonalization with overlap
     ethr =  1.01E-07,  avg # of iterations =  1.9

     total cpu time spent up to now is     1739.7 secs

     total energy              =   -4295.54684771 Ry
     estimated scf accuracy    <       0.00012955 Ry

     total magnetization       =     7.33 Bohr mag/cell
     absolute magnetization    =     8.98 Bohr mag/cell

     iteration # 41     ecut=    60.00 Ry     beta= 0.30
     Davidson diagonalization with overlap
     ethr =  5.58E-08,  avg # of iterations =  5.7

     total cpu time spent up to now is     1786.8 secs

     total energy              =   -4295.54689922 Ry
     estimated scf accuracy    <       0.00057312 Ry

     total magnetization       =     7.35 Bohr mag/cell
     absolute magnetization    =     9.04 Bohr mag/cell

     iteration # 42     ecut=    60.00 Ry     beta= 0.30
     Davidson diagonalization with overlap
     ethr =  5.58E-08,  avg # of iterations =  6.8

     total cpu time spent up to now is     1839.2 secs

     total energy              =   -4295.54704274 Ry
     estimated scf accuracy    <       0.00017982 Ry

     total magnetization       =     7.36 Bohr mag/cell
     absolute magnetization    =     9.13 Bohr mag/cell

     iteration # 43     ecut=    60.00 Ry     beta= 0.30
     Davidson diagonalization with overlap
     ethr =  5.58E-08,  avg # of iterations =  1.1

     total cpu time spent up to now is     1873.6 secs

     total energy              =   -4295.54707784 Ry
     estimated scf accuracy    <       0.00013103 Ry

     total magnetization       =     7.37 Bohr mag/cell
     absolute magnetization    =     9.15 Bohr mag/cell

     iteration # 44     ecut=    60.00 Ry     beta= 0.30
     Davidson diagonalization with overlap
     ethr =  5.58E-08,  avg # of iterations =  2.1

     total cpu time spent up to now is     1910.3 secs

     total energy              =   -4295.54714434 Ry
     estimated scf accuracy    <       0.00012083 Ry

     total magnetization       =     7.37 Bohr mag/cell
     absolute magnetization    =     9.17 Bohr mag/cell

     iteration # 45     ecut=    60.00 Ry     beta= 0.30
     Davidson diagonalization with overlap
     ethr =  5.21E-08,  avg # of iterations =  6.5

     total cpu time spent up to now is     1962.3 secs

     total energy              =   -4295.54731626 Ry
     estimated scf accuracy    <       0.00047676 Ry

     total magnetization       =     7.42 Bohr mag/cell
     absolute magnetization    =     9.35 Bohr mag/cell

     iteration # 46     ecut=    60.00 Ry     beta= 0.30
     Davidson diagonalization with overlap
     ethr =  5.21E-08,  avg # of iterations =  4.5

     total cpu time spent up to now is     2006.7 secs

     total energy              =   -4295.54740088 Ry
     estimated scf accuracy    <       0.00016929 Ry

     total magnetization       =     7.42 Bohr mag/cell
     absolute magnetization    =     9.41 Bohr mag/cell

     iteration # 47     ecut=    60.00 Ry     beta= 0.30
     Davidson diagonalization with overlap
     ethr =  5.21E-08,  avg # of iterations =  3.7

     total cpu time spent up to now is     2047.2 secs

     total energy              =   -4295.54738445 Ry
     estimated scf accuracy    <       0.00014093 Ry

     total magnetization       =     7.43 Bohr mag/cell
     absolute magnetization    =     9.45 Bohr mag/cell

     iteration # 48     ecut=    60.00 Ry     beta= 0.30
     Davidson diagonalization with overlap
     ethr =  5.21E-08,  avg # of iterations =  2.4

     total cpu time spent up to now is     2085.5 secs

     total energy              =   -4295.54744746 Ry
     estimated scf accuracy    <       0.00019662 Ry

     total magnetization       =     7.43 Bohr mag/cell
     absolute magnetization    =     9.43 Bohr mag/cell

     iteration # 49     ecut=    60.00 Ry     beta= 0.30
     Davidson diagonalization with overlap
     ethr =  5.21E-08,  avg # of iterations =  6.1

     total cpu time spent up to now is     2135.9 secs

     total energy              =   -4295.54762318 Ry
     estimated scf accuracy    <       0.00018663 Ry

     total magnetization       =     7.45 Bohr mag/cell
     absolute magnetization    =     9.61 Bohr mag/cell

     iteration # 50     ecut=    60.00 Ry     beta= 0.30
     Davidson diagonalization with overlap
     c_bands:  1 eigenvalues not converged
     ethr =  5.21E-08,  avg # of iterations =  5.3

     total cpu time spent up to now is     2181.1 secs

     total energy              =   -4295.54764427 Ry
     estimated scf accuracy    <       0.00037455 Ry

     total magnetization       =     7.46 Bohr mag/cell
     absolute magnetization    =     9.68 Bohr mag/cell

     iteration # 51     ecut=    60.00 Ry     beta= 0.30
     Davidson diagonalization with overlap
     ethr =  5.21E-08,  avg # of iterations =  1.5

     total cpu time spent up to now is     2216.8 secs

     total energy              =   -4295.54713571 Ry
     estimated scf accuracy    <       0.00012657 Ry

     total magnetization       =     7.46 Bohr mag/cell
     absolute magnetization    =     9.67 Bohr mag/cell

     iteration # 52     ecut=    60.00 Ry     beta= 0.30
     Davidson diagonalization with overlap
     ethr =  5.21E-08,  avg # of iterations =  6.8

     total cpu time spent up to now is     2271.0 secs

     total energy              =   -4295.54740548 Ry
     estimated scf accuracy    <       0.00049524 Ry

     total magnetization       =     7.41 Bohr mag/cell
     absolute magnetization    =     9.43 Bohr mag/cell

     iteration # 53     ecut=    60.00 Ry     beta= 0.30
     Davidson diagonalization with overlap
     ethr =  5.21E-08,  avg # of iterations =  6.0

     total cpu time spent up to now is     2321.1 secs

     total energy              =   -4295.54768287 Ry
     estimated scf accuracy    <       0.00011571 Ry

     total magnetization       =     7.45 Bohr mag/cell
     absolute magnetization    =     9.67 Bohr mag/cell

     iteration # 54     ecut=    60.00 Ry     beta= 0.30
     Davidson diagonalization with overlap
     ethr =  4.99E-08,  avg # of iterations =  5.8

     total cpu time spent up to now is     2371.6 secs

     total energy              =   -4295.54769641 Ry
     estimated scf accuracy    <       0.00010136 Ry

     total magnetization       =     7.48 Bohr mag/cell
     absolute magnetization    =     9.88 Bohr mag/cell

     iteration # 55     ecut=    60.00 Ry     beta= 0.30
     Davidson diagonalization with overlap
     c_bands:  1 eigenvalues not converged
     ethr =  4.37E-08,  avg # of iterations =  7.4

     total cpu time spent up to now is     2428.2 secs

     total energy              =   -4295.54803611 Ry
     estimated scf accuracy    <       0.00013372 Ry

     total magnetization       =     7.50 Bohr mag/cell
     absolute magnetization    =    10.21 Bohr mag/cell

     iteration # 56     ecut=    60.00 Ry     beta= 0.30
     Davidson diagonalization with overlap
     ethr =  4.37E-08,  avg # of iterations =  6.9

     total cpu time spent up to now is     2483.2 secs

     total energy              =   -4295.54824856 Ry
     estimated scf accuracy    <       0.00022228 Ry

     total magnetization       =     7.51 Bohr mag/cell
     absolute magnetization    =    10.49 Bohr mag/cell

     iteration # 57     ecut=    60.00 Ry     beta= 0.30
     Davidson diagonalization with overlap
     ethr =  4.37E-08,  avg # of iterations =  5.2

     total cpu time spent up to now is     2530.6 secs

     total energy              =   -4295.54830628 Ry
     estimated scf accuracy    <       0.00030285 Ry

     total magnetization       =     7.51 Bohr mag/cell
     absolute magnetization    =    10.40 Bohr mag/cell

     iteration # 58     ecut=    60.00 Ry     beta= 0.30
     Davidson diagonalization with overlap
     ethr =  4.37E-08,  avg # of iterations =  2.9

     total cpu time spent up to now is     2569.2 secs

     total energy              =   -4295.54809835 Ry
     estimated scf accuracy    <       0.00010215 Ry

     total magnetization       =     7.52 Bohr mag/cell
     absolute magnetization    =    10.43 Bohr mag/cell

     iteration # 59     ecut=    60.00 Ry     beta= 0.30
     Davidson diagonalization with overlap
     ethr =  4.37E-08,  avg # of iterations =  5.6

     total cpu time spent up to now is     2617.9 secs

     total energy              =   -4295.54818679 Ry
     estimated scf accuracy    <       0.00017908 Ry

     total magnetization       =     7.50 Bohr mag/cell
     absolute magnetization    =    10.27 Bohr mag/cell

     iteration # 60     ecut=    60.00 Ry     beta= 0.30
     Davidson diagonalization with overlap
     ethr =  4.37E-08,  avg # of iterations =  5.4

     total cpu time spent up to now is     2666.4 secs

     total energy              =   -4295.54802816 Ry
     estimated scf accuracy    <       0.00011309 Ry

     total magnetization       =     7.51 Bohr mag/cell
     absolute magnetization    =    10.46 Bohr mag/cell

     iteration # 61     ecut=    60.00 Ry     beta= 0.30
     Davidson diagonalization with overlap
     ethr =  4.37E-08,  avg # of iterations =  5.7

     total cpu time spent up to now is     2716.1 secs

     total energy              =   -4295.54810422 Ry
     estimated scf accuracy    <       0.00021862 Ry

     total magnetization       =     7.50 Bohr mag/cell
     absolute magnetization    =    10.25 Bohr mag/cell

     iteration # 62     ecut=    60.00 Ry     beta= 0.30
     Davidson diagonalization with overlap
     ethr =  4.37E-08,  avg # of iterations =  6.6

     total cpu time spent up to now is     2768.4 secs

     total energy              =   -4295.54840803 Ry
     estimated scf accuracy    <       0.00014377 Ry

     total magnetization       =     7.51 Bohr mag/cell
     absolute magnetization    =    10.51 Bohr mag/cell

     iteration # 63     ecut=    60.00 Ry     beta= 0.30
     Davidson diagonalization with overlap
     ethr =  4.37E-08,  avg # of iterations =  4.8

     total cpu time spent up to now is     2811.4 secs

     total energy              =   -4295.54832994 Ry
     estimated scf accuracy    <       0.00007269 Ry

     total magnetization       =     7.51 Bohr mag/cell
     absolute magnetization    =    10.57 Bohr mag/cell

     iteration # 64     ecut=    60.00 Ry     beta= 0.30
     Davidson diagonalization with overlap
     ethr =  3.13E-08,  avg # of iterations =  4.9

     total cpu time spent up to now is     2856.0 secs

     total energy              =   -4295.54839736 Ry
     estimated scf accuracy    <       0.00010741 Ry

     total magnetization       =     7.51 Bohr mag/cell
     absolute magnetization    =    10.49 Bohr mag/cell

     iteration # 65     ecut=    60.00 Ry     beta= 0.30
     Davidson diagonalization with overlap
     ethr =  3.13E-08,  avg # of iterations =  4.9

     total cpu time spent up to now is     2897.9 secs

     total energy              =   -4295.54836288 Ry
     estimated scf accuracy    <       0.00011049 Ry

     total magnetization       =     7.51 Bohr mag/cell
     absolute magnetization    =    10.54 Bohr mag/cell

     iteration # 66     ecut=    60.00 Ry     beta= 0.30
     Davidson diagonalization with overlap
     ethr =  3.13E-08,  avg # of iterations =  7.1

     total cpu time spent up to now is     2952.2 secs

     total energy              =   -4295.54754157 Ry
     estimated scf accuracy    <       0.00026495 Ry

     total magnetization       =     7.51 Bohr mag/cell
     absolute magnetization    =    10.75 Bohr mag/cell

     iteration # 67     ecut=    60.00 Ry     beta= 0.30
     Davidson diagonalization with overlap
     ethr =  3.13E-08,  avg # of iterations =  9.0

     total cpu time spent up to now is     3016.5 secs

     total energy              =   -4295.54760910 Ry
     estimated scf accuracy    <       0.00008802 Ry

     total magnetization       =     7.51 Bohr mag/cell
     absolute magnetization    =    11.30 Bohr mag/cell

     iteration # 68     ecut=    60.00 Ry     beta= 0.30
     Davidson diagonalization with overlap
     ethr =  3.13E-08,  avg # of iterations =  9.0

     total cpu time spent up to now is     3079.0 secs

     total energy              =   -4295.54842768 Ry
     estimated scf accuracy    <       0.00012754 Ry

     total magnetization       =     7.51 Bohr mag/cell
     absolute magnetization    =    10.82 Bohr mag/cell

     iteration # 69     ecut=    60.00 Ry     beta= 0.30
     Davidson diagonalization with overlap
     c_bands:  1 eigenvalues not converged
     ethr =  3.13E-08,  avg # of iterations =  7.1

     total cpu time spent up to now is     3133.1 secs

     total energy              =   -4295.54866363 Ry
     estimated scf accuracy    <       0.00021992 Ry

     total magnetization       =     7.51 Bohr mag/cell
     absolute magnetization    =    11.08 Bohr mag/cell

     iteration # 70     ecut=    60.00 Ry     beta= 0.30
     Davidson diagonalization with overlap
     c_bands:  1 eigenvalues not converged
     ethr =  3.13E-08,  avg # of iterations =  6.9

     total cpu time spent up to now is     3186.9 secs

     total energy              =   -4295.54856590 Ry
     estimated scf accuracy    <       0.00017882 Ry

     total magnetization       =     7.51 Bohr mag/cell
     absolute magnetization    =    11.27 Bohr mag/cell

     iteration # 71     ecut=    60.00 Ry     beta= 0.30
     Davidson diagonalization with overlap
     c_bands:  1 eigenvalues not converged
     ethr =  3.13E-08,  avg # of iterations =  7.2

     total cpu time spent up to now is     3242.5 secs

     total energy              =   -4295.54879878 Ry
     estimated scf accuracy    <       0.00004871 Ry

     total magnetization       =     7.50 Bohr mag/cell
     absolute magnetization    =    11.56 Bohr mag/cell

     iteration # 72     ecut=    60.00 Ry     beta= 0.30
     Davidson diagonalization with overlap
     ethr =  2.10E-08,  avg # of iterations =  5.7

     total cpu time spent up to now is     3292.4 secs

     total energy              =   -4295.54887561 Ry
     estimated scf accuracy    <       0.00010708 Ry

     total magnetization       =     7.50 Bohr mag/cell
     absolute magnetization    =    11.42 Bohr mag/cell

     iteration # 73     ecut=    60.00 Ry     beta= 0.30
     Davidson diagonalization with overlap
     ethr =  2.10E-08,  avg # of iterations =  1.4

     total cpu time spent up to now is     3328.1 secs

     total energy              =   -4295.54888887 Ry
     estimated scf accuracy    <       0.00004054 Ry

     total magnetization       =     7.50 Bohr mag/cell
     absolute magnetization    =    11.41 Bohr mag/cell

     iteration # 74     ecut=    60.00 Ry     beta= 0.30
     Davidson diagonalization with overlap
     ethr =  1.75E-08,  avg # of iterations =  3.3

     total cpu time spent up to now is     3367.9 secs

     total energy              =   -4295.54729233 Ry
     estimated scf accuracy    <       0.00009821 Ry

     total magnetization       =     7.50 Bohr mag/cell
     absolute magnetization    =    11.43 Bohr mag/cell

     iteration # 75     ecut=    60.00 Ry     beta= 0.30
     Davidson diagonalization with overlap
     c_bands:  1 eigenvalues not converged
     ethr =  1.75E-08,  avg # of iterations = 10.8

     total cpu time spent up to now is     3439.1 secs

     total energy              =   -4295.54903924 Ry
     estimated scf accuracy    <       0.00005394 Ry

     total magnetization       =     7.49 Bohr mag/cell
     absolute magnetization    =    12.06 Bohr mag/cell

     iteration # 76     ecut=    60.00 Ry     beta= 0.30
     Davidson diagonalization with overlap
     ethr =  1.75E-08,  avg # of iterations =  5.8

     total cpu time spent up to now is     3488.5 secs

     total energy              =   -4295.54825058 Ry
     estimated scf accuracy    <       0.00004239 Ry

     total magnetization       =     7.48 Bohr mag/cell
     absolute magnetization    =    12.15 Bohr mag/cell

     iteration # 77     ecut=    60.00 Ry     beta= 0.30
     Davidson diagonalization with overlap
     ethr =  1.75E-08,  avg # of iterations =  8.3

     total cpu time spent up to now is     3550.3 secs

     total energy              =   -4295.54888772 Ry
     estimated scf accuracy    <       0.00011467 Ry

     total magnetization       =     7.50 Bohr mag/cell
     absolute magnetization    =    11.73 Bohr mag/cell

     iteration # 78     ecut=    60.00 Ry     beta= 0.30
     Davidson diagonalization with overlap
     ethr =  1.75E-08,  avg # of iterations =  6.8

     total cpu time spent up to now is     3603.9 secs

     total energy              =   -4295.54849417 Ry
     estimated scf accuracy    <       0.00006337 Ry

     total magnetization       =     7.49 Bohr mag/cell
     absolute magnetization    =    11.91 Bohr mag/cell

     iteration # 79     ecut=    60.00 Ry     beta= 0.30
     Davidson diagonalization with overlap
     c_bands:  1 eigenvalues not converged
     ethr =  1.75E-08,  avg # of iterations =  8.2

     total cpu time spent up to now is     3665.7 secs

     total energy              =   -4295.54910047 Ry
     estimated scf accuracy    <       0.00002702 Ry

     total magnetization       =     7.47 Bohr mag/cell
     absolute magnetization    =    12.27 Bohr mag/cell

     iteration # 80     ecut=    60.00 Ry     beta= 0.30
     Davidson diagonalization with overlap
     ethr =  1.16E-08,  avg # of iterations =  1.5

     total cpu time spent up to now is     3701.8 secs

     total energy              =   -4295.54910497 Ry
     estimated scf accuracy    <       0.00003177 Ry

     total magnetization       =     7.47 Bohr mag/cell
     absolute magnetization    =    12.25 Bohr mag/cell

     iteration # 81     ecut=    60.00 Ry     beta= 0.30
     Davidson diagonalization with overlap
     ethr =  1.16E-08,  avg # of iterations =  5.6

     total cpu time spent up to now is     3747.3 secs

     total energy              =   -4295.54902805 Ry
     estimated scf accuracy    <       0.00008992 Ry

     total magnetization       =     7.47 Bohr mag/cell
     absolute magnetization    =    12.22 Bohr mag/cell

     iteration # 82     ecut=    60.00 Ry     beta= 0.30
     Davidson diagonalization with overlap
     ethr =  1.16E-08,  avg # of iterations =  7.0

     total cpu time spent up to now is     3800.9 secs

     total energy              =   -4295.54905490 Ry
     estimated scf accuracy    <       0.00006790 Ry

     total magnetization       =     7.47 Bohr mag/cell
     absolute magnetization    =    12.12 Bohr mag/cell

     iteration # 83     ecut=    60.00 Ry     beta= 0.30
     Davidson diagonalization with overlap
     c_bands:  1 eigenvalues not converged
     ethr =  1.16E-08,  avg # of iterations =  6.2

     total cpu time spent up to now is     3851.9 secs

     total energy              =   -4295.54866042 Ry
     estimated scf accuracy    <       0.00006562 Ry

     total magnetization       =     7.47 Bohr mag/cell
     absolute magnetization    =    12.21 Bohr mag/cell

     iteration # 84     ecut=    60.00 Ry     beta= 0.30
     Davidson diagonalization with overlap
     ethr =  1.16E-08,  avg # of iterations =  8.5

     total cpu time spent up to now is     3915.0 secs

     total energy              =   -4295.54912688 Ry
     estimated scf accuracy    <       0.00000557 Ry

     total magnetization       =     7.45 Bohr mag/cell
     absolute magnetization    =    12.48 Bohr mag/cell

     iteration # 85     ecut=    60.00 Ry     beta= 0.30
     Davidson diagonalization with overlap
     ethr =  2.40E-09,  avg # of iterations =  5.3

     total cpu time spent up to now is     3959.9 secs

     total energy              =   -4295.54912803 Ry
     estimated scf accuracy    <       0.00000627 Ry

     total magnetization       =     7.44 Bohr mag/cell
     absolute magnetization    =    12.46 Bohr mag/cell

     iteration # 86     ecut=    60.00 Ry     beta= 0.30
     Davidson diagonalization with overlap
     ethr =  2.40E-09,  avg # of iterations =  2.7

     total cpu time spent up to now is     3997.5 secs

     total energy              =   -4295.54912891 Ry
     estimated scf accuracy    <       0.00000333 Ry

     total magnetization       =     7.44 Bohr mag/cell
     absolute magnetization    =    12.46 Bohr mag/cell

     iteration # 87     ecut=    60.00 Ry     beta= 0.30
     Davidson diagonalization with overlap
     ethr =  1.44E-09,  avg # of iterations =  5.2

     total cpu time spent up to now is     4044.0 secs

     total energy              =   -4295.54911720 Ry
     estimated scf accuracy    <       0.00001304 Ry

     total magnetization       =     7.44 Bohr mag/cell
     absolute magnetization    =    12.45 Bohr mag/cell

     iteration # 88     ecut=    60.00 Ry     beta= 0.30
     Davidson diagonalization with overlap
     ethr =  1.44E-09,  avg # of iterations =  6.9

     total cpu time spent up to now is     4100.3 secs

     total energy              =   -4295.54913056 Ry
     estimated scf accuracy    <       0.00000137 Ry

     total magnetization       =     7.45 Bohr mag/cell
     absolute magnetization    =    12.39 Bohr mag/cell

     iteration # 89     ecut=    60.00 Ry     beta= 0.30
     Davidson diagonalization with overlap
     ethr =  5.89E-10,  avg # of iterations =  5.6

     total cpu time spent up to now is     4149.8 secs

     total energy              =   -4295.54912906 Ry
     estimated scf accuracy    <       0.00001215 Ry

     total magnetization       =     7.45 Bohr mag/cell
     absolute magnetization    =    12.39 Bohr mag/cell

     iteration # 90     ecut=    60.00 Ry     beta= 0.30
     Davidson diagonalization with overlap
     ethr =  5.89E-10,  avg # of iterations =  5.8

     total cpu time spent up to now is     4199.2 secs

     total energy              =   -4295.54913089 Ry
     estimated scf accuracy    <       0.00000154 Ry

     total magnetization       =     7.44 Bohr mag/cell
     absolute magnetization    =    12.40 Bohr mag/cell

     iteration # 91     ecut=    60.00 Ry     beta= 0.30
     Davidson diagonalization with overlap
     ethr =  5.89E-10,  avg # of iterations =  5.1

     total cpu time spent up to now is     4243.6 secs

     total energy              =   -4295.54913049 Ry
     estimated scf accuracy    <       0.00000131 Ry

     total magnetization       =     7.44 Bohr mag/cell
     absolute magnetization    =    12.39 Bohr mag/cell

     iteration # 92     ecut=    60.00 Ry     beta= 0.30
     Davidson diagonalization with overlap
     ethr =  5.63E-10,  avg # of iterations =  5.3

     total cpu time spent up to now is     4290.1 secs

     total energy              =   -4295.54913029 Ry
     estimated scf accuracy    <       0.00000257 Ry

     total magnetization       =     7.44 Bohr mag/cell
     absolute magnetization    =    12.39 Bohr mag/cell

     iteration # 93     ecut=    60.00 Ry     beta= 0.30
     Davidson diagonalization with overlap
     ethr =  5.63E-10,  avg # of iterations =  5.4

     total cpu time spent up to now is     4337.3 secs

     total energy              =   -4295.54913147 Ry
     estimated scf accuracy    <       0.00000034 Ry

     total magnetization       =     7.44 Bohr mag/cell
     absolute magnetization    =    12.37 Bohr mag/cell

     iteration # 94     ecut=    60.00 Ry     beta= 0.30
     Davidson diagonalization with overlap
     ethr =  1.48E-10,  avg # of iterations =  4.8

     total cpu time spent up to now is     4380.0 secs

     total energy              =   -4295.54913144 Ry
     estimated scf accuracy    <       0.00000139 Ry

     total magnetization       =     7.44 Bohr mag/cell
     absolute magnetization    =    12.37 Bohr mag/cell

     iteration # 95     ecut=    60.00 Ry     beta= 0.30
     Davidson diagonalization with overlap
     ethr =  1.48E-10,  avg # of iterations =  3.8

     total cpu time spent up to now is     4421.5 secs

     total energy              =   -4295.54913151 Ry
     estimated scf accuracy    <       0.00000036 Ry

     total magnetization       =     7.44 Bohr mag/cell
     absolute magnetization    =    12.37 Bohr mag/cell

     iteration # 96     ecut=    60.00 Ry     beta= 0.30
     Davidson diagonalization with overlap
     ethr =  1.48E-10,  avg # of iterations =  2.3

     total cpu time spent up to now is     4459.2 secs

     total energy              =   -4295.54913151 Ry
     estimated scf accuracy    <       0.00000064 Ry

     total magnetization       =     7.44 Bohr mag/cell
     absolute magnetization    =    12.37 Bohr mag/cell

     iteration # 97     ecut=    60.00 Ry     beta= 0.30
     Davidson diagonalization with overlap
     ethr =  1.48E-10,  avg # of iterations =  2.8

     total cpu time spent up to now is     4498.2 secs

     total energy              =   -4295.54913152 Ry
     estimated scf accuracy    <       0.00000034 Ry

     total magnetization       =     7.44 Bohr mag/cell
     absolute magnetization    =    12.37 Bohr mag/cell

     iteration # 98     ecut=    60.00 Ry     beta= 0.30
     Davidson diagonalization with overlap
     ethr =  1.48E-10,  avg # of iterations =  1.4

     total cpu time spent up to now is     4533.2 secs

     total energy              =   -4295.54913094 Ry
     estimated scf accuracy    <       0.00000016 Ry

     total magnetization       =     7.44 Bohr mag/cell
     absolute magnetization    =    12.37 Bohr mag/cell

     iteration # 99     ecut=    60.00 Ry     beta= 0.30
     Davidson diagonalization with overlap
     ethr =  6.79E-11,  avg # of iterations =  7.2

     total cpu time spent up to now is     4588.9 secs

     total energy              =   -4295.54913124 Ry
     estimated scf accuracy    <       0.00000023 Ry

     total magnetization       =     7.44 Bohr mag/cell
     absolute magnetization    =    12.35 Bohr mag/cell

     iteration #100     ecut=    60.00 Ry     beta= 0.30
     Davidson diagonalization with overlap
     ethr =  6.79E-11,  avg # of iterations =  6.5

     total cpu time spent up to now is     4640.3 secs

     total energy              =   -4295.54913155 Ry
     estimated scf accuracy    <       0.00000043 Ry

     total magnetization       =     7.44 Bohr mag/cell
     absolute magnetization    =    12.36 Bohr mag/cell

     iteration #101     ecut=    60.00 Ry     beta= 0.30
     Davidson diagonalization with overlap
     ethr =  6.79E-11,  avg # of iterations =  5.4

     total cpu time spent up to now is     4687.6 secs

     total energy              =   -4295.54913158 Ry
     estimated scf accuracy    <       0.00000047 Ry

     total magnetization       =     7.44 Bohr mag/cell
     absolute magnetization    =    12.36 Bohr mag/cell

     iteration #102     ecut=    60.00 Ry     beta= 0.30
     Davidson diagonalization with overlap
     ethr =  6.79E-11,  avg # of iterations =  3.7

     total cpu time spent up to now is     4730.1 secs

     total energy              =   -4295.54913149 Ry
     estimated scf accuracy    <       0.00000038 Ry

     total magnetization       =     7.44 Bohr mag/cell
     absolute magnetization    =    12.36 Bohr mag/cell

     iteration #103     ecut=    60.00 Ry     beta= 0.30
     Davidson diagonalization with overlap
     ethr =  6.79E-11,  avg # of iterations =  5.3

     total cpu time spent up to now is     4776.8 secs

     total energy              =   -4295.54913145 Ry
     estimated scf accuracy    <       0.00000016 Ry

     total magnetization       =     7.44 Bohr mag/cell
     absolute magnetization    =    12.36 Bohr mag/cell

     iteration #104     ecut=    60.00 Ry     beta= 0.30
     Davidson diagonalization with overlap
     ethr =  6.79E-11,  avg # of iterations =  5.4

     total cpu time spent up to now is     4825.7 secs

     total energy              =   -4295.54913159 Ry
     estimated scf accuracy    <       0.00000027 Ry

     total magnetization       =     7.44 Bohr mag/cell
     absolute magnetization    =    12.35 Bohr mag/cell

     iteration #105     ecut=    60.00 Ry     beta= 0.30
     Davidson diagonalization with overlap
     ethr =  6.79E-11,  avg # of iterations =  4.6

     total cpu time spent up to now is     4868.3 secs

     total energy              =   -4295.54913159 Ry
     estimated scf accuracy    <       0.00000019 Ry

     total magnetization       =     7.44 Bohr mag/cell
     absolute magnetization    =    12.36 Bohr mag/cell

     iteration #106     ecut=    60.00 Ry     beta= 0.30
     Davidson diagonalization with overlap
     ethr =  6.79E-11,  avg # of iterations =  4.7

     total cpu time spent up to now is     4911.2 secs

     total energy              =   -4295.54913163 Ry
     estimated scf accuracy    <       0.00000012 Ry

     total magnetization       =     7.44 Bohr mag/cell
     absolute magnetization    =    12.35 Bohr mag/cell

     iteration #107     ecut=    60.00 Ry     beta= 0.30
     Davidson diagonalization with overlap
     ethr =  5.30E-11,  avg # of iterations =  2.9
 
     Magnetic moment per site  (integrated on atomic sphere of radius R)
     atom   1 (R=0.178)  charge= 12.1630  magn=  0.5625
     atom   2 (R=0.178)  charge= 14.4860  magn=  1.2906
     atom   3 (R=0.178)  charge= 12.1629  magn=  0.5622
     atom   4 (R=0.178)  charge= 12.1972  magn= -0.5387
     atom   5 (R=0.178)  charge= 12.1624  magn=  0.5625
     atom   6 (R=0.178)  charge= 14.4860  magn=  1.2906
     atom   7 (R=0.178)  charge= 12.1629  magn=  0.5622
     atom   8 (R=0.178)  charge= 12.1972  magn= -0.5387
     atom   9 (R=0.178)  charge= 12.1627  magn=  0.5620
     atom  10 (R=0.178)  charge= 12.1972  magn= -0.5387
     atom  11 (R=0.178)  charge= 12.1631  magn=  0.5609
     atom  12 (R=0.178)  charge= 14.4860  magn=  1.2906
     atom  13 (R=0.178)  charge= 12.1626  magn=  0.5622
     atom  14 (R=0.178)  charge= 12.1972  magn= -0.5387
     atom  15 (R=0.178)  charge= 12.1628  magn=  0.5616
     atom  16 (R=0.178)  charge= 14.4860  magn=  1.2906

     total cpu time spent up to now is     4950.1 secs

     End of self-consistent calculation

     Number of k-points >= 100: set verbosity='high' to print the bands.

     the Fermi energy is    19.7328 ev

!    total energy              =   -4295.54913159 Ry
     total all-electron energy =    -35403.127406 Ry
     estimated scf accuracy    <       0.00000009 Ry
     smearing contrib. (-TS)   =      -0.00174588 Ry
     internal energy E=F+TS    =   -4295.54738571 Ry

     The total energy is F=E-TS. E is the sum of the following terms:
     one-electron contribution =   -1091.08428788 Ry
     hartree contribution      =     692.95703055 Ry
     xc contribution           =    -378.45626031 Ry
     ewald contribution        =   -2296.82119759 Ry
     one-center paw contrib.   =   -1222.14267048 Ry

     total magnetization       =     7.44 Bohr mag/cell
     absolute magnetization    =    12.35 Bohr mag/cell

     convergence has been achieved in 107 iterations


     Computing stress (Cartesian axis) and pressure

          total   stress  (Ry/bohr**3)                   (kbar)     P=       26.14
   0.00005451   0.00000000  -0.00000000            8.02        0.00       -0.00
   0.00000000   0.00020111   0.00000000            0.00       29.58        0.00
  -0.00000000   0.00000000   0.00027745           -0.00        0.00       40.81


     Writing all to output data dir ./tmp/fecr_fe04cr12_t-0.01.save/ :
     XML data file, charge density, pseudopotentials, collected wavefunctions
 
     init_run     :     39.29s CPU     28.18s WALL (       1 calls)
     electrons    :   6233.69s CPU   4921.51s WALL (       1 calls)
     stress       :     23.40s CPU     22.93s WALL (       1 calls)

     Called by init_run:
     wfcinit      :      7.34s CPU      8.95s WALL (       1 calls)
     potinit      :     31.11s CPU     18.24s WALL (       1 calls)
     hinit0       :      0.56s CPU      0.60s WALL (       1 calls)

     Called by electrons:
     c_bands      :   2770.36s CPU   2777.84s WALL (     107 calls)
     sum_band     :    236.63s CPU    236.51s WALL (     107 calls)
     v_of_rho     :      5.94s CPU      5.03s WALL (     108 calls)
     newd         :      4.34s CPU      4.39s WALL (     108 calls)
                                        4.39s GPU  (     108 calls)
     PAW_pot      :   3241.10s CPU   1909.43s WALL (     108 calls)
     mix_rho      :      3.58s CPU      3.73s WALL (     107 calls)

     Called by c_bands:
     init_us_2    :     20.23s CPU     19.17s WALL (   34560 calls)
     cegterg      :   2521.27s CPU   2529.57s WALL (   17121 calls)

     Called by *egterg:
     cdiaghg      :    899.12s CPU    905.24s WALL (  101821 calls)
                                      905.49s GPU  (  101821 calls)
     h_psi        :    744.84s CPU    749.51s WALL (  101981 calls)
                                      748.07s GPU  (  101981 calls)
     s_psi        :     51.36s CPU     52.16s WALL (  101981 calls)
     g_psi        :      0.46s CPU      4.23s WALL (   84700 calls)
                                        3.98s GPU  (   84700 calls)

     Called by h_psi:
     h_psi:calbec :      3.63s CPU    158.75s WALL (  101981 calls)
                                      158.33s GPU  (  101981 calls)
     vloc_psi     :    387.59s CPU    386.11s WALL (  101981 calls)
                                      386.18s GPU  (  101981 calls)
     add_vuspsi   :     50.12s CPU    199.23s WALL (  101981 calls)
                                      197.78s GPU  (  101981 calls)

     General routines
     calbec       :      4.34s CPU      4.52s WALL (  119261 calls)
     fft          :      1.23s CPU      1.50s WALL (    2719 calls)
                                        0.33s GPU  (    2503 calls)
     ffts         :      0.40s CPU      0.41s WALL (     430 calls)
                                        0.01s GPU  (     214 calls)
     fftw         :     21.65s CPU    358.54s WALL ( 1019348 calls)
                                      357.24s GPU  ( 1019348 calls)
     interpolate  :      1.72s CPU      1.73s WALL (     216 calls)
 
     Parallel routines
 
     PWSCF        :      1h45m CPU      1h23m WALL

 
   This run was terminated on:  14:54: 4  21May2026            

=------------------------------------------------------------------------------=
   JOB DONE.
=------------------------------------------------------------------------------=
Warning: ieee_divide_by_zero is signaling
Warning: ieee_inexact is signaling
FORTRAN STOP
