--------------------------------------------------------------------------
WARNING: Open MPI tried to bind a process but failed.  This is a
warning only; your job will continue, though performance may
be degraded.

  Local host:        4b82db919bf5
  Application name:  /root/q-e-qe-7.3.1/bin/pw.x
  Error message:     failed to bind memory
  Location:          ../../../../../orte/mca/rtc/hwloc/rtc_hwloc.c:447

--------------------------------------------------------------------------

     Program PWSCF v.7.3.1 starts on 24May2026 at 18: 3:13 

     This program is part of the open-source Quantum ESPRESSO suite
     for quantum simulation of materials; please cite
         "P. Giannozzi et al., J. Phys.:Condens. Matter 21 395502 (2009);
         "P. Giannozzi et al., J. Phys.:Condens. Matter 29 465901 (2017);
         "P. Giannozzi et al., J. Chem. Phys. 152 154105 (2020);
          URL http://www.quantum-espresso.org", 
     in publications or presentations arising from this work. More details at
     http://www.quantum-espresso.org/quote

     Parallel version (MPI & OpenMP), running on       8 processor cores
     Number of MPI processes:                 1
     Threads/MPI process:                     8

     MPI processes distributed on     1 nodes
     149532 MiB available memory on the printing compute node when the environment starts
 
     Reading input from inputs/fecr_fe01cr15_s-0.01.in

     Current dimensions of program PWSCF are:
     Max number of different atomic species (ntypx) = 10
     Max number of k-points (npk) =  40000
     Max angular momentum in pseudopotentials (lmaxx) =  4
     file Fe.pbe-spn-kjpaw_psl.1.0.0.UPF: wavefunction(s)  3P 3D renormalized
     file Cr.pbe-spn-kjpaw_psl.1.0.0.UPF: wavefunction(s)  3S 3P 3D renormalized
     file Cr.pbe-spn-kjpaw_psl.1.0.0.UPF: wavefunction(s)  3S 3P 3D renormalized
     Message from routine setup:
     using ibrav=0 with symmetry is DISCOURAGED, use correct ibrav instead
 
     Subspace diagonalization in iterative solution of the eigenvalue problem:
     a serial algorithm will be used

 
     G-vector sticks info
     --------------------
     sticks:   dense  smooth     PW     G-vecs:    dense   smooth      PW
     Sum        4449    2223    631               223283    78939   11915
 
     Using Slab Decomposition
 


     bravais-lattice index     =            0
     lattice parameter (alat)  =      10.7914  a.u.
     unit-cell volume          =    1256.4054 (a.u.)^3
     number of atoms/cell      =           16
     number of atomic types    =            3
     number of electrons       =       226.00
     number of Kohn-Sham states=          136
     kinetic-energy cutoff     =      60.0000  Ry
     charge density cutoff     =     480.0000  Ry
     scf convergence threshold =      1.0E-05
     mixing beta               =       0.1000
     number of iterations used =           16  local-TF  mixing
     Exchange-correlation= SLA  PW   PBX  PBC
                           (   1   4   3   4   0   0   0)

     GPU acceleration is ACTIVE.  1 visible GPUs per MPI rank


     celldm(1)=  10.791441  celldm(2)=   0.000000  celldm(3)=   0.000000
     celldm(4)=   0.000000  celldm(5)=   0.000000  celldm(6)=   0.000000

     crystal axes: (cart. coord. in units of alat)
               a(1) = (   0.999950  -0.010000   0.000000 )  
               a(2) = (  -0.010000   0.999950   0.000000 )  
               a(3) = (   0.000000   0.000000   0.999950 )  

     reciprocal axes: (cart. coord. in units 2 pi/alat)
               b(1) = (  1.000150  0.010002 -0.000000 )  
               b(2) = (  0.010002  1.000150 -0.000000 )  
               b(3) = ( -0.000000 -0.000000  1.000050 )  


     PseudoPot. # 1 for Fe read from file:
     ./pseudo/Fe.pbe-spn-kjpaw_psl.1.0.0.UPF
     MD5 check sum: fc81f059e5c5069939230b1155715ae8
     Pseudo is Projector augmented-wave + core cor, Zval = 16.0
     Generated using &quot;atomic&quot; code by A. Dal Corso  v.6.3
     Shape of augmentation charge: PSQ
     Using radial grid of 1191 points,  6 beta functions with: 
                l(1) =   0
                l(2) =   0
                l(3) =   1
                l(4) =   1
                l(5) =   2
                l(6) =   2
     Q(r) pseudized with 0 coefficients 


     PseudoPot. # 2 for Cr read from file:
     ./pseudo/Cr.pbe-spn-kjpaw_psl.1.0.0.UPF
     MD5 check sum: 198f1a2427a48552563eee314eba32ba
     Pseudo is Projector augmented-wave + core cor, Zval = 14.0
     Generated using &quot;atomic&quot; code by A. Dal Corso  v.6.3
     Shape of augmentation charge: PSQ
     Using radial grid of 1183 points,  6 beta functions with: 
                l(1) =   0
                l(2) =   0
                l(3) =   1
                l(4) =   1
                l(5) =   2
                l(6) =   2
     Q(r) pseudized with 0 coefficients 


     PseudoPot. # 3 for Cr read from file:
     ./pseudo/Cr.pbe-spn-kjpaw_psl.1.0.0.UPF
     MD5 check sum: 198f1a2427a48552563eee314eba32ba
     Pseudo is Projector augmented-wave + core cor, Zval = 14.0
     Generated using &quot;atomic&quot; code by A. Dal Corso  v.6.3
     Shape of augmentation charge: PSQ
     Using radial grid of 1183 points,  6 beta functions with: 
                l(1) =   0
                l(2) =   0
                l(3) =   1
                l(4) =   1
                l(5) =   2
                l(6) =   2
     Q(r) pseudized with 0 coefficients 


     atomic species   valence    mass     pseudopotential
     Fe               16.00    55.84500     Fe( 1.00)
     CrA              14.00    51.99600     Cr( 1.00)
     CrB              14.00    51.99600     Cr( 1.00)

     Starting magnetic structure 
     atomic species   magnetization
     Fe              0.500
     CrA             0.500
     CrB            -0.500

      8 Sym. Ops., with inversion, found ( 6 have fractional translation)



   Cartesian axes

     site n.     atom                  positions (alat units)
         1        CrA    tau(   1) = (   0.0000000   0.0000000   0.0000000  )
         2        CrB    tau(   2) = (   0.2474876   0.2474876   0.2499875  )
         3        CrA    tau(   3) = (   0.0000000   0.0000000   0.4999750  )
         4        CrB    tau(   4) = (   0.2474876   0.2474876   0.7499625  )
         5        CrA    tau(   5) = (  -0.0049998   0.4999750   0.0000000  )
         6        CrB    tau(   6) = (   0.2424879   0.7474626   0.2499875  )
         7        CrA    tau(   7) = (  -0.0049998   0.4999750   0.4999750  )
         8        CrB    tau(   8) = (   0.2424879   0.7474626   0.7499625  )
         9        CrA    tau(   9) = (   0.4999750  -0.0049998   0.0000000  )
        10        CrB    tau(  10) = (   0.7474626   0.2424879   0.2499875  )
        11        CrA    tau(  11) = (   0.4999750  -0.0049998   0.4999750  )
        12        CrB    tau(  12) = (   0.7474626   0.2424879   0.7499625  )
        13        CrA    tau(  13) = (   0.4949753   0.4949753   0.0000000  )
        14        CrB    tau(  14) = (   0.7424629   0.7424629   0.2499875  )
        15        CrA    tau(  15) = (   0.4949753   0.4949753   0.4999750  )
        16        Fe     tau(  16) = (   0.7424629   0.7424629   0.7499625  )

     number of k points=    52  Marzari-Vanderbilt smearing, width (Ry)=  0.0200
                       cart. coord. in units 2pi/alat
        k(    1) = (   0.0000000   0.0000000   0.0000000), wk =   0.0046296
        k(    2) = (   0.0000000   0.0000000   0.1666750), wk =   0.0092593
        k(    3) = (   0.0000000   0.0000000   0.3333500), wk =   0.0092593
        k(    4) = (   0.0000000   0.0000000  -0.5000250), wk =   0.0046296
        k(    5) = (   0.0016669   0.1666917   0.0000000), wk =   0.0185185
        k(    6) = (   0.0016669   0.1666917   0.1666750), wk =   0.0370370
        k(    7) = (   0.0016669   0.1666917   0.3333500), wk =   0.0370370
        k(    8) = (   0.0016669   0.1666917  -0.5000250), wk =   0.0185185
        k(    9) = (   0.0033338   0.3333833   0.0000000), wk =   0.0185185
        k(   10) = (   0.0033338   0.3333833   0.1666750), wk =   0.0370370
        k(   11) = (   0.0033338   0.3333833   0.3333500), wk =   0.0370370
        k(   12) = (   0.0033338   0.3333833  -0.5000250), wk =   0.0185185
        k(   13) = (  -0.0050008  -0.5000750   0.0000000), wk =   0.0092593
        k(   14) = (  -0.0050008  -0.5000750   0.1666750), wk =   0.0185185
        k(   15) = (  -0.0050008  -0.5000750   0.3333500), wk =   0.0185185
        k(   16) = (  -0.0050008  -0.5000750  -0.5000250), wk =   0.0092593
        k(   17) = (   0.1683586   0.1683586   0.0000000), wk =   0.0092593
        k(   18) = (   0.1683586   0.1683586   0.1666750), wk =   0.0185185
        k(   19) = (   0.1683586   0.1683586   0.3333500), wk =   0.0185185
        k(   20) = (   0.1683586   0.1683586  -0.5000250), wk =   0.0092593
        k(   21) = (   0.1700255   0.3350503   0.0000000), wk =   0.0185185
        k(   22) = (   0.1700255   0.3350503   0.1666750), wk =   0.0370370
        k(   23) = (   0.1700255   0.3350503   0.3333500), wk =   0.0370370
        k(   24) = (   0.1700255   0.3350503  -0.5000250), wk =   0.0185185
        k(   25) = (   0.1616909  -0.4984081   0.0000000), wk =   0.0185185
        k(   26) = (   0.1616909  -0.4984081   0.1666750), wk =   0.0370370
        k(   27) = (   0.1616909  -0.4984081   0.3333500), wk =   0.0370370
        k(   28) = (   0.1616909  -0.4984081  -0.5000250), wk =   0.0185185
        k(   29) = (   0.1633578  -0.3317164   0.0000000), wk =   0.0185185
        k(   30) = (   0.1633578  -0.3317164   0.1666750), wk =   0.0370370
        k(   31) = (   0.1633578  -0.3317164   0.3333500), wk =   0.0370370
        k(   32) = (   0.1633578  -0.3317164  -0.5000250), wk =   0.0185185
        k(   33) = (   0.1650248  -0.1650248   0.0000000), wk =   0.0092593
        k(   34) = (   0.1650248  -0.1650248   0.1666750), wk =   0.0185185
        k(   35) = (   0.1650248  -0.1650248   0.3333500), wk =   0.0185185
        k(   36) = (   0.1650248  -0.1650248  -0.5000250), wk =   0.0092593
        k(   37) = (   0.3367172   0.3367172   0.0000000), wk =   0.0092593
        k(   38) = (   0.3367172   0.3367172   0.1666750), wk =   0.0185185
        k(   39) = (   0.3367172   0.3367172   0.3333500), wk =   0.0185185
        k(   40) = (   0.3367172   0.3367172  -0.5000250), wk =   0.0092593
        k(   41) = (   0.3283826  -0.4967412   0.0000000), wk =   0.0185185
        k(   42) = (   0.3283826  -0.4967412   0.1666750), wk =   0.0370370
        k(   43) = (   0.3283826  -0.4967412   0.3333500), wk =   0.0370370
        k(   44) = (   0.3283826  -0.4967412  -0.5000250), wk =   0.0185185
        k(   45) = (   0.3300495  -0.3300495   0.0000000), wk =   0.0092593
        k(   46) = (   0.3300495  -0.3300495   0.1666750), wk =   0.0185185
        k(   47) = (   0.3300495  -0.3300495   0.3333500), wk =   0.0185185
        k(   48) = (   0.3300495  -0.3300495  -0.5000250), wk =   0.0092593
        k(   49) = (  -0.5050758  -0.5050758   0.0000000), wk =   0.0046296
        k(   50) = (  -0.5050758  -0.5050758   0.1666750), wk =   0.0092593
        k(   51) = (  -0.5050758  -0.5050758   0.3333500), wk =   0.0092593
        k(   52) = (  -0.5050758  -0.5050758  -0.5000250), wk =   0.0046296

     Dense  grid:   223283 G-vectors     FFT dimensions: (  80,  80,  80)

     Smooth grid:    78939 G-vectors     FFT dimensions: (  54,  54,  54)

     Estimated max dynamical RAM per process >       3.15 GB

     Check: negative core charge=   -0.000003
     Generating pointlists ...
     new r_m :   0.1774 (alat units)  1.9146 (a.u.) for type    1
     new r_m :   0.1774 (alat units)  1.9146 (a.u.) for type    2
     new r_m :   0.1774 (alat units)  1.9146 (a.u.) for type    3

     Initial potential from superposition of free atoms

     starting charge     225.9880, renormalised to     226.0000
     Starting wfcs are  160 randomized atomic wfcs
     Checking if some PAW data can be deallocated... 

     total cpu time spent up to now is       25.2 secs

     Self-consistent Calculation

     iteration #  1     ecut=    60.00 Ry     beta= 0.10
     Davidson diagonalization with overlap
     ethr =  1.00E-02,  avg # of iterations =  3.7

     total cpu time spent up to now is       59.1 secs

     total energy              =   -4048.52215638 Ry
     estimated scf accuracy    <       6.24615110 Ry

     total magnetization       =     7.85 Bohr mag/cell
     absolute magnetization    =    55.22 Bohr mag/cell

     iteration #  2     ecut=    60.00 Ry     beta= 0.10
     Davidson diagonalization with overlap
     ethr =  2.76E-03,  avg # of iterations =  1.6

     negative rho (up, down):  0.000E+00 1.696E-04

     total cpu time spent up to now is       88.7 secs

     total energy              =   -4050.29976726 Ry
     estimated scf accuracy    <       5.06964244 Ry

     total magnetization       =     7.86 Bohr mag/cell
     absolute magnetization    =    53.96 Bohr mag/cell

     iteration #  3     ecut=    60.00 Ry     beta= 0.10
     Davidson diagonalization with overlap
     ethr =  2.24E-03,  avg # of iterations =  3.0

     negative rho (up, down):  0.000E+00 1.725E-04

     total cpu time spent up to now is      120.1 secs

     total energy              =   -4050.86394059 Ry
     estimated scf accuracy    <       2.76046966 Ry

     total magnetization       =     5.05 Bohr mag/cell
     absolute magnetization    =    46.35 Bohr mag/cell

     iteration #  4     ecut=    60.00 Ry     beta= 0.10
     Davidson diagonalization with overlap
     ethr =  1.22E-03,  avg # of iterations =  2.1

     total cpu time spent up to now is      150.2 secs

     total energy              =   -4050.95737143 Ry
     estimated scf accuracy    <       2.90621897 Ry

     total magnetization       =     4.85 Bohr mag/cell
     absolute magnetization    =    45.54 Bohr mag/cell

     iteration #  5     ecut=    60.00 Ry     beta= 0.10
     Davidson diagonalization with overlap
     ethr =  1.22E-03,  avg # of iterations =  2.9

     total cpu time spent up to now is      182.0 secs

     total energy              =   -4051.97214098 Ry
     estimated scf accuracy    <       1.56285132 Ry

     total magnetization       =     7.14 Bohr mag/cell
     absolute magnetization    =    47.11 Bohr mag/cell

     iteration #  6     ecut=    60.00 Ry     beta= 0.10
     Davidson diagonalization with overlap
     ethr =  6.92E-04,  avg # of iterations =  6.8

     total cpu time spent up to now is      222.2 secs

     total energy              =   -4053.05533638 Ry
     estimated scf accuracy    <      15.03979788 Ry

     total magnetization       =     1.10 Bohr mag/cell
     absolute magnetization    =    32.14 Bohr mag/cell

     iteration #  7     ecut=    60.00 Ry     beta= 0.10
     Davidson diagonalization with overlap
     ethr =  6.92E-04,  avg # of iterations =  1.6

     total cpu time spent up to now is      252.5 secs

     total energy              =   -4053.10413597 Ry
     estimated scf accuracy    <      16.39792278 Ry

     total magnetization       =     1.19 Bohr mag/cell
     absolute magnetization    =    32.54 Bohr mag/cell

     iteration #  8     ecut=    60.00 Ry     beta= 0.10
     Davidson diagonalization with overlap
     ethr =  6.92E-04,  avg # of iterations =  1.0

     total cpu time spent up to now is      280.8 secs

     total energy              =   -4053.40428147 Ry
     estimated scf accuracy    <      16.80360543 Ry

     total magnetization       =     1.22 Bohr mag/cell
     absolute magnetization    =    32.53 Bohr mag/cell

     iteration #  9     ecut=    60.00 Ry     beta= 0.10
     Davidson diagonalization with overlap
     ethr =  6.92E-04,  avg # of iterations =  1.2

     total cpu time spent up to now is      309.9 secs

     total energy              =   -4051.80841706 Ry
     estimated scf accuracy    <      19.21710426 Ry

     total magnetization       =     1.41 Bohr mag/cell
     absolute magnetization    =    32.74 Bohr mag/cell

     iteration # 10     ecut=    60.00 Ry     beta= 0.10
     Davidson diagonalization with overlap
     ethr =  6.92E-04,  avg # of iterations =  7.1

     total cpu time spent up to now is      348.9 secs

     total energy              =   -4052.38744103 Ry
     estimated scf accuracy    <       0.31143073 Ry

     total magnetization       =     1.60 Bohr mag/cell
     absolute magnetization    =    29.98 Bohr mag/cell

     iteration # 11     ecut=    60.00 Ry     beta= 0.10
     Davidson diagonalization with overlap
     ethr =  1.38E-04,  avg # of iterations =  5.7

     total cpu time spent up to now is      384.8 secs

     total energy              =   -4052.55557067 Ry
     estimated scf accuracy    <       0.45334793 Ry

     total magnetization       =     1.93 Bohr mag/cell
     absolute magnetization    =    28.64 Bohr mag/cell

     iteration # 12     ecut=    60.00 Ry     beta= 0.10
     Davidson diagonalization with overlap
     ethr =  1.38E-04,  avg # of iterations =  6.0

     total cpu time spent up to now is      421.4 secs

     total energy              =   -4052.65931357 Ry
     estimated scf accuracy    <       3.91354511 Ry

     total magnetization       =     1.89 Bohr mag/cell
     absolute magnetization    =    26.44 Bohr mag/cell

     iteration # 13     ecut=    60.00 Ry     beta= 0.10
     Davidson diagonalization with overlap
     ethr =  1.38E-04,  avg # of iterations =  1.2

     negative rho (up, down):  0.000E+00 1.586E-04

     total cpu time spent up to now is      450.3 secs

     total energy              =   -4052.99770262 Ry
     estimated scf accuracy    <       3.77973778 Ry

     total magnetization       =     1.91 Bohr mag/cell
     absolute magnetization    =    26.42 Bohr mag/cell

     iteration # 14     ecut=    60.00 Ry     beta= 0.10
     Davidson diagonalization with overlap
     ethr =  1.38E-04,  avg # of iterations =  4.9

     negative rho (up, down):  0.000E+00 7.360E-06

     total cpu time spent up to now is      483.9 secs

     total energy              =   -4052.68003997 Ry
     estimated scf accuracy    <       8.62303034 Ry

     total magnetization       =     1.93 Bohr mag/cell
     absolute magnetization    =    27.66 Bohr mag/cell

     iteration # 15     ecut=    60.00 Ry     beta= 0.10
     Davidson diagonalization with overlap
     ethr =  1.38E-04,  avg # of iterations =  3.2

     total cpu time spent up to now is      516.4 secs

     total energy              =   -4052.29605420 Ry
     estimated scf accuracy    <       4.85519440 Ry

     total magnetization       =     2.07 Bohr mag/cell
     absolute magnetization    =    27.39 Bohr mag/cell

     iteration # 16     ecut=    60.00 Ry     beta= 0.10
     Davidson diagonalization with overlap
     ethr =  1.38E-04,  avg # of iterations =  5.7

     total cpu time spent up to now is      554.0 secs

     total energy              =   -4052.48697415 Ry
     estimated scf accuracy    <       0.15732932 Ry

     total magnetization       =     1.66 Bohr mag/cell
     absolute magnetization    =    25.74 Bohr mag/cell

     iteration # 17     ecut=    60.00 Ry     beta= 0.10
     Davidson diagonalization with overlap
     ethr =  6.96E-05,  avg # of iterations =  1.9

     total cpu time spent up to now is      585.0 secs

     total energy              =   -4052.47098446 Ry
     estimated scf accuracy    <       0.55999646 Ry

     total magnetization       =     1.83 Bohr mag/cell
     absolute magnetization    =    25.77 Bohr mag/cell

     iteration # 18     ecut=    60.00 Ry     beta= 0.10
     Davidson diagonalization with overlap
     ethr =  6.96E-05,  avg # of iterations =  2.6

     total cpu time spent up to now is      615.7 secs

     total energy              =   -4052.49728184 Ry
     estimated scf accuracy    <       0.11097419 Ry

     total magnetization       =     1.58 Bohr mag/cell
     absolute magnetization    =    24.32 Bohr mag/cell

     iteration # 19     ecut=    60.00 Ry     beta= 0.10
     Davidson diagonalization with overlap
     ethr =  4.91E-05,  avg # of iterations =  3.0

     total cpu time spent up to now is      647.8 secs

     total energy              =   -4052.50132633 Ry
     estimated scf accuracy    <       0.24619828 Ry

     total magnetization       =     1.71 Bohr mag/cell
     absolute magnetization    =    23.62 Bohr mag/cell

     iteration # 20     ecut=    60.00 Ry     beta= 0.10
     Davidson diagonalization with overlap
     ethr =  4.91E-05,  avg # of iterations =  1.1

     total cpu time spent up to now is      676.3 secs

     total energy              =   -4052.49283556 Ry
     estimated scf accuracy    <       0.18196121 Ry

     total magnetization       =     1.73 Bohr mag/cell
     absolute magnetization    =    23.32 Bohr mag/cell

     iteration # 21     ecut=    60.00 Ry     beta= 0.10
     Davidson diagonalization with overlap
     ethr =  4.91E-05,  avg # of iterations =  2.8

     total cpu time spent up to now is      708.1 secs

     total energy              =   -4052.49960305 Ry
     estimated scf accuracy    <       0.00839284 Ry

     total magnetization       =     1.60 Bohr mag/cell
     absolute magnetization    =    22.71 Bohr mag/cell

     iteration # 22     ecut=    60.00 Ry     beta= 0.10
     Davidson diagonalization with overlap
     c_bands:  1 eigenvalues not converged
     c_bands:  2 eigenvalues not converged
     c_bands:  1 eigenvalues not converged
     c_bands:  4 eigenvalues not converged
     c_bands:  4 eigenvalues not converged
     c_bands:  2 eigenvalues not converged
     c_bands:  1 eigenvalues not converged
     c_bands:  1 eigenvalues not converged
     c_bands:  1 eigenvalues not converged
     c_bands:  1 eigenvalues not converged
     c_bands:  1 eigenvalues not converged
     c_bands:  1 eigenvalues not converged
     c_bands:  1 eigenvalues not converged
     c_bands:  1 eigenvalues not converged
     c_bands:  1 eigenvalues not converged
     c_bands:  1 eigenvalues not converged
     c_bands:  2 eigenvalues not converged
     c_bands:  3 eigenvalues not converged
     c_bands:  1 eigenvalues not converged
     ethr =  3.71E-06,  avg # of iterations = 12.2

     total cpu time spent up to now is      757.7 secs

     total energy              =   -4052.50411801 Ry
     estimated scf accuracy    <       0.02113206 Ry

     total magnetization       =     1.53 Bohr mag/cell
     absolute magnetization    =    21.79 Bohr mag/cell

     iteration # 23     ecut=    60.00 Ry     beta= 0.10
     Davidson diagonalization with overlap
     c_bands:  1 eigenvalues not converged
     c_bands:  1 eigenvalues not converged
     ethr =  3.71E-06,  avg # of iterations =  1.8

     total cpu time spent up to now is      789.0 secs

     total energy              =   -4052.50639165 Ry
     estimated scf accuracy    <       0.02480463 Ry

     total magnetization       =     1.53 Bohr mag/cell
     absolute magnetization    =    21.95 Bohr mag/cell

     iteration # 24     ecut=    60.00 Ry     beta= 0.10
     Davidson diagonalization with overlap
     ethr =  3.71E-06,  avg # of iterations =  2.2

     total cpu time spent up to now is      819.4 secs

     total energy              =   -4052.50681177 Ry
     estimated scf accuracy    <       0.06637495 Ry

     total magnetization       =     1.45 Bohr mag/cell
     absolute magnetization    =    21.70 Bohr mag/cell

     iteration # 25     ecut=    60.00 Ry     beta= 0.10
     Davidson diagonalization with overlap
     ethr =  3.71E-06,  avg # of iterations =  1.1

     total cpu time spent up to now is      848.8 secs

     total energy              =   -4052.50300688 Ry
     estimated scf accuracy    <       0.06522723 Ry

     total magnetization       =     1.44 Bohr mag/cell
     absolute magnetization    =    21.69 Bohr mag/cell

     iteration # 26     ecut=    60.00 Ry     beta= 0.10
     Davidson diagonalization with overlap
     c_bands:  1 eigenvalues not converged
     c_bands:  1 eigenvalues not converged
     c_bands:  2 eigenvalues not converged
     ethr =  3.71E-06,  avg # of iterations =  7.3

     total cpu time spent up to now is      888.8 secs

     total energy              =   -4052.50846552 Ry
     estimated scf accuracy    <       0.00688435 Ry

     total magnetization       =     1.54 Bohr mag/cell
     absolute magnetization    =    20.92 Bohr mag/cell

     iteration # 27     ecut=    60.00 Ry     beta= 0.10
     Davidson diagonalization with overlap
     c_bands:  1 eigenvalues not converged
     ethr =  3.05E-06,  avg # of iterations =  6.5

     total cpu time spent up to now is      926.4 secs

     total energy              =   -4052.51023625 Ry
     estimated scf accuracy    <       0.00108802 Ry

     total magnetization       =     1.44 Bohr mag/cell
     absolute magnetization    =    20.17 Bohr mag/cell

     iteration # 28     ecut=    60.00 Ry     beta= 0.10
     Davidson diagonalization with overlap
     c_bands:  1 eigenvalues not converged
     ethr =  4.81E-07,  avg # of iterations =  7.1

     total cpu time spent up to now is      965.0 secs

     total energy              =   -4052.51062756 Ry
     estimated scf accuracy    <       0.00089372 Ry

     total magnetization       =     1.44 Bohr mag/cell
     absolute magnetization    =    19.91 Bohr mag/cell

     iteration # 29     ecut=    60.00 Ry     beta= 0.10
     Davidson diagonalization with overlap
     ethr =  3.95E-07,  avg # of iterations =  1.2

     total cpu time spent up to now is      993.4 secs

     total energy              =   -4052.51119291 Ry
     estimated scf accuracy    <       0.00090622 Ry

     total magnetization       =     1.43 Bohr mag/cell
     absolute magnetization    =    19.86 Bohr mag/cell

     iteration # 30     ecut=    60.00 Ry     beta= 0.10
     Davidson diagonalization with overlap
     ethr =  3.95E-07,  avg # of iterations =  6.1

     total cpu time spent up to now is     1031.3 secs

     total energy              =   -4052.51204163 Ry
     estimated scf accuracy    <       0.00083007 Ry

     total magnetization       =     1.41 Bohr mag/cell
     absolute magnetization    =    19.35 Bohr mag/cell

     iteration # 31     ecut=    60.00 Ry     beta= 0.10
     Davidson diagonalization with overlap
     ethr =  3.67E-07,  avg # of iterations =  5.4

     total cpu time spent up to now is     1066.7 secs

     total energy              =   -4052.51207999 Ry
     estimated scf accuracy    <       0.00068541 Ry

     total magnetization       =     1.39 Bohr mag/cell
     absolute magnetization    =    18.96 Bohr mag/cell

     iteration # 32     ecut=    60.00 Ry     beta= 0.10
     Davidson diagonalization with overlap
     ethr =  3.03E-07,  avg # of iterations =  2.2

     total cpu time spent up to now is     1097.6 secs

     total energy              =   -4052.51036262 Ry
     estimated scf accuracy    <       0.00140633 Ry

     total magnetization       =     1.38 Bohr mag/cell
     absolute magnetization    =    19.04 Bohr mag/cell

     iteration # 33     ecut=    60.00 Ry     beta= 0.10
     Davidson diagonalization with overlap
     ethr =  3.03E-07,  avg # of iterations =  5.8

     total cpu time spent up to now is     1135.4 secs

     total energy              =   -4052.51093665 Ry
     estimated scf accuracy    <       0.00250920 Ry

     total magnetization       =     1.42 Bohr mag/cell
     absolute magnetization    =    19.68 Bohr mag/cell

     iteration # 34     ecut=    60.00 Ry     beta= 0.10
     Davidson diagonalization with overlap
     ethr =  3.03E-07,  avg # of iterations =  1.0

     total cpu time spent up to now is     1164.2 secs

     total energy              =   -4052.51100543 Ry
     estimated scf accuracy    <       0.00200569 Ry

     total magnetization       =     1.43 Bohr mag/cell
     absolute magnetization    =    19.72 Bohr mag/cell

     iteration # 35     ecut=    60.00 Ry     beta= 0.10
     Davidson diagonalization with overlap
     ethr =  3.03E-07,  avg # of iterations =  1.0

     total cpu time spent up to now is     1193.3 secs

     total energy              =   -4052.51111144 Ry
     estimated scf accuracy    <       0.00164030 Ry

     total magnetization       =     1.44 Bohr mag/cell
     absolute magnetization    =    19.71 Bohr mag/cell

     iteration # 36     ecut=    60.00 Ry     beta= 0.10
     Davidson diagonalization with overlap
     ethr =  3.03E-07,  avg # of iterations =  1.0

     total cpu time spent up to now is     1222.5 secs

     total energy              =   -4052.51173058 Ry
     estimated scf accuracy    <       0.00198387 Ry

     total magnetization       =     1.44 Bohr mag/cell
     absolute magnetization    =    19.68 Bohr mag/cell

     iteration # 37     ecut=    60.00 Ry     beta= 0.10
     Davidson diagonalization with overlap
     ethr =  3.03E-07,  avg # of iterations =  5.1

     total cpu time spent up to now is     1259.3 secs

     total energy              =   -4052.51233950 Ry
     estimated scf accuracy    <       0.00200110 Ry

     total magnetization       =     1.42 Bohr mag/cell
     absolute magnetization    =    19.17 Bohr mag/cell

     iteration # 38     ecut=    60.00 Ry     beta= 0.10
     Davidson diagonalization with overlap
     ethr =  3.03E-07,  avg # of iterations =  2.0

     total cpu time spent up to now is     1288.8 secs

     total energy              =   -4052.51245076 Ry
     estimated scf accuracy    <       0.00115767 Ry

     total magnetization       =     1.43 Bohr mag/cell
     absolute magnetization    =    19.05 Bohr mag/cell

     iteration # 39     ecut=    60.00 Ry     beta= 0.10
     Davidson diagonalization with overlap
     ethr =  3.03E-07,  avg # of iterations =  2.8

     total cpu time spent up to now is     1319.2 secs

     total energy              =   -4052.51272114 Ry
     estimated scf accuracy    <       0.00123610 Ry

     total magnetization       =     1.43 Bohr mag/cell
     absolute magnetization    =    18.99 Bohr mag/cell

     iteration # 40     ecut=    60.00 Ry     beta= 0.10
     Davidson diagonalization with overlap
     ethr =  3.03E-07,  avg # of iterations =  5.1

     total cpu time spent up to now is     1354.0 secs

     total energy              =   -4052.51288438 Ry
     estimated scf accuracy    <       0.00157855 Ry

     total magnetization       =     1.42 Bohr mag/cell
     absolute magnetization    =    18.76 Bohr mag/cell

     iteration # 41     ecut=    60.00 Ry     beta= 0.10
     Davidson diagonalization with overlap
     ethr =  3.03E-07,  avg # of iterations =  1.0

     total cpu time spent up to now is     1382.9 secs

     total energy              =   -4052.51286286 Ry
     estimated scf accuracy    <       0.00168188 Ry

     total magnetization       =     1.41 Bohr mag/cell
     absolute magnetization    =    18.72 Bohr mag/cell

     iteration # 42     ecut=    60.00 Ry     beta= 0.10
     Davidson diagonalization with overlap
     ethr =  3.03E-07,  avg # of iterations =  1.0

     total cpu time spent up to now is     1411.8 secs

     total energy              =   -4052.51277493 Ry
     estimated scf accuracy    <       0.00139587 Ry

     total magnetization       =     1.41 Bohr mag/cell
     absolute magnetization    =    18.72 Bohr mag/cell

     iteration # 43     ecut=    60.00 Ry     beta= 0.10
     Davidson diagonalization with overlap
     ethr =  3.03E-07,  avg # of iterations =  1.0

     total cpu time spent up to now is     1441.2 secs

     total energy              =   -4052.51247785 Ry
     estimated scf accuracy    <       0.00138984 Ry

     total magnetization       =     1.42 Bohr mag/cell
     absolute magnetization    =    18.76 Bohr mag/cell

     iteration # 44     ecut=    60.00 Ry     beta= 0.10
     Davidson diagonalization with overlap
     ethr =  3.03E-07,  avg # of iterations =  1.9

     total cpu time spent up to now is     1470.7 secs

     total energy              =   -4052.51234774 Ry
     estimated scf accuracy    <       0.00157685 Ry

     total magnetization       =     1.43 Bohr mag/cell
     absolute magnetization    =    18.91 Bohr mag/cell

     iteration # 45     ecut=    60.00 Ry     beta= 0.10
     Davidson diagonalization with overlap
     ethr =  3.03E-07,  avg # of iterations =  2.5

     total cpu time spent up to now is     1502.7 secs

     total energy              =   -4052.51259231 Ry
     estimated scf accuracy    <       0.00086367 Ry

     total magnetization       =     1.41 Bohr mag/cell
     absolute magnetization    =    18.89 Bohr mag/cell

     iteration # 46     ecut=    60.00 Ry     beta= 0.10
     Davidson diagonalization with overlap
     ethr =  3.03E-07,  avg # of iterations =  5.9

     total cpu time spent up to now is     1541.4 secs

     total energy              =   -4052.51235167 Ry
     estimated scf accuracy    <       0.00115345 Ry

     total magnetization       =     1.39 Bohr mag/cell
     absolute magnetization    =    18.14 Bohr mag/cell

     iteration # 47     ecut=    60.00 Ry     beta= 0.10
     Davidson diagonalization with overlap
     ethr =  3.03E-07,  avg # of iterations =  5.1

     total cpu time spent up to now is     1577.2 secs

     total energy              =   -4052.51298277 Ry
     estimated scf accuracy    <       0.00052877 Ry

     total magnetization       =     1.39 Bohr mag/cell
     absolute magnetization    =    18.64 Bohr mag/cell

     iteration # 48     ecut=    60.00 Ry     beta= 0.10
     Davidson diagonalization with overlap
     ethr =  2.34E-07,  avg # of iterations =  2.2

     total cpu time spent up to now is     1608.8 secs

     total energy              =   -4052.51315066 Ry
     estimated scf accuracy    <       0.00057044 Ry

     total magnetization       =     1.39 Bohr mag/cell
     absolute magnetization    =    18.50 Bohr mag/cell

     iteration # 49     ecut=    60.00 Ry     beta= 0.10
     Davidson diagonalization with overlap
     ethr =  2.34E-07,  avg # of iterations =  5.4

     total cpu time spent up to now is     1644.7 secs

     total energy              =   -4052.51345522 Ry
     estimated scf accuracy    <       0.00094623 Ry

     total magnetization       =     1.37 Bohr mag/cell
     absolute magnetization    =    18.11 Bohr mag/cell

     iteration # 50     ecut=    60.00 Ry     beta= 0.10
     Davidson diagonalization with overlap
     ethr =  2.34E-07,  avg # of iterations =  4.7

     total cpu time spent up to now is     1680.2 secs

     total energy              =   -4052.51371905 Ry
     estimated scf accuracy    <       0.00020410 Ry

     total magnetization       =     1.40 Bohr mag/cell
     absolute magnetization    =    17.85 Bohr mag/cell

     iteration # 51     ecut=    60.00 Ry     beta= 0.10
     Davidson diagonalization with overlap
     ethr =  9.03E-08,  avg # of iterations =  4.4

     total cpu time spent up to now is     1715.9 secs

     total energy              =   -4052.51381881 Ry
     estimated scf accuracy    <       0.00028028 Ry

     total magnetization       =     1.40 Bohr mag/cell
     absolute magnetization    =    17.72 Bohr mag/cell

     iteration # 52     ecut=    60.00 Ry     beta= 0.10
     Davidson diagonalization with overlap
     ethr =  9.03E-08,  avg # of iterations =  5.3

     total cpu time spent up to now is     1751.9 secs

     total energy              =   -4052.51307677 Ry
     estimated scf accuracy    <       0.00021110 Ry

     total magnetization       =     1.40 Bohr mag/cell
     absolute magnetization    =    17.49 Bohr mag/cell

     iteration # 53     ecut=    60.00 Ry     beta= 0.10
     Davidson diagonalization with overlap
     ethr =  9.03E-08,  avg # of iterations =  5.2

     total cpu time spent up to now is     1789.7 secs

     total energy              =   -4052.51349482 Ry
     estimated scf accuracy    <       0.00034825 Ry

     total magnetization       =     1.37 Bohr mag/cell
     absolute magnetization    =    17.89 Bohr mag/cell

     iteration # 54     ecut=    60.00 Ry     beta= 0.10
     Davidson diagonalization with overlap
     ethr =  9.03E-08,  avg # of iterations =  1.2

     total cpu time spent up to now is     1819.6 secs

     total energy              =   -4052.51361421 Ry
     estimated scf accuracy    <       0.00045196 Ry

     total magnetization       =     1.36 Bohr mag/cell
     absolute magnetization    =    17.87 Bohr mag/cell

     iteration # 55     ecut=    60.00 Ry     beta= 0.10
     Davidson diagonalization with overlap
     ethr =  9.03E-08,  avg # of iterations =  5.0

     total cpu time spent up to now is     1854.7 secs

     total energy              =   -4052.51368298 Ry
     estimated scf accuracy    <       0.00028460 Ry

     total magnetization       =     1.37 Bohr mag/cell
     absolute magnetization    =    17.68 Bohr mag/cell

     iteration # 56     ecut=    60.00 Ry     beta= 0.10
     Davidson diagonalization with overlap
     ethr =  9.03E-08,  avg # of iterations =  1.0

     total cpu time spent up to now is     1883.4 secs

     total energy              =   -4052.51359775 Ry
     estimated scf accuracy    <       0.00037183 Ry

     total magnetization       =     1.36 Bohr mag/cell
     absolute magnetization    =    17.68 Bohr mag/cell

     iteration # 57     ecut=    60.00 Ry     beta= 0.10
     Davidson diagonalization with overlap
     ethr =  9.03E-08,  avg # of iterations =  2.3

     total cpu time spent up to now is     1914.5 secs

     total energy              =   -4052.51363242 Ry
     estimated scf accuracy    <       0.00040008 Ry

     total magnetization       =     1.37 Bohr mag/cell
     absolute magnetization    =    17.76 Bohr mag/cell

     iteration # 58     ecut=    60.00 Ry     beta= 0.10
     Davidson diagonalization with overlap
     ethr =  9.03E-08,  avg # of iterations =  5.1

     total cpu time spent up to now is     1950.4 secs

     total energy              =   -4052.51382868 Ry
     estimated scf accuracy    <       0.00016371 Ry

     total magnetization       =     1.40 Bohr mag/cell
     absolute magnetization    =    17.68 Bohr mag/cell

     iteration # 59     ecut=    60.00 Ry     beta= 0.10
     Davidson diagonalization with overlap
     c_bands:  1 eigenvalues not converged
     ethr =  7.24E-08,  avg # of iterations =  5.5

     total cpu time spent up to now is     1988.4 secs

     total energy              =   -4052.51383417 Ry
     estimated scf accuracy    <       0.00007320 Ry

     total magnetization       =     1.41 Bohr mag/cell
     absolute magnetization    =    17.40 Bohr mag/cell

     iteration # 60     ecut=    60.00 Ry     beta= 0.10
     Davidson diagonalization with overlap
     ethr =  3.24E-08,  avg # of iterations =  5.0

     total cpu time spent up to now is     2023.5 secs

     total energy              =   -4052.51359955 Ry
     estimated scf accuracy    <       0.00008841 Ry

     total magnetization       =     1.40 Bohr mag/cell
     absolute magnetization    =    17.54 Bohr mag/cell

     iteration # 61     ecut=    60.00 Ry     beta= 0.10
     Davidson diagonalization with overlap
     ethr =  3.24E-08,  avg # of iterations =  7.7

     total cpu time spent up to now is     2067.4 secs

     total energy              =   -4052.51394189 Ry
     estimated scf accuracy    <       0.00002280 Ry

     total magnetization       =     1.43 Bohr mag/cell
     absolute magnetization    =    17.06 Bohr mag/cell

     iteration # 62     ecut=    60.00 Ry     beta= 0.10
     Davidson diagonalization with overlap
     ethr =  1.01E-08,  avg # of iterations =  8.9

     total cpu time spent up to now is     2113.9 secs

     total energy              =   -4052.51417921 Ry
     estimated scf accuracy    <       0.00001940 Ry

     total magnetization       =     1.44 Bohr mag/cell
     absolute magnetization    =    16.71 Bohr mag/cell

     iteration # 63     ecut=    60.00 Ry     beta= 0.10
     Davidson diagonalization with overlap
     ethr =  8.58E-09,  avg # of iterations =  5.7

     total cpu time spent up to now is     2152.8 secs

     total energy              =   -4052.51419354 Ry
     estimated scf accuracy    <       0.00001373 Ry

     total magnetization       =     1.43 Bohr mag/cell
     absolute magnetization    =    16.60 Bohr mag/cell

     iteration # 64     ecut=    60.00 Ry     beta= 0.10
     Davidson diagonalization with overlap
     ethr =  6.08E-09,  avg # of iterations =  5.0
 
     Magnetic moment per site  (integrated on atomic sphere of radius R)
     atom   1 (R=0.177)  charge= 12.1775  magn=  0.9866
     atom   2 (R=0.177)  charge= 12.1937  magn= -0.9765
     atom   3 (R=0.177)  charge= 12.1775  magn=  0.9866
     atom   4 (R=0.177)  charge= 12.1904  magn= -1.0093
     atom   5 (R=0.177)  charge= 12.1790  magn=  0.9961
     atom   6 (R=0.177)  charge= 12.1906  magn= -1.0101
     atom   7 (R=0.177)  charge= 12.1790  magn=  0.9961
     atom   8 (R=0.177)  charge= 12.1873  magn= -0.9751
     atom   9 (R=0.177)  charge= 12.1790  magn=  0.9961
     atom  10 (R=0.177)  charge= 12.1906  magn= -1.0101
     atom  11 (R=0.177)  charge= 12.1790  magn=  0.9961
     atom  12 (R=0.177)  charge= 12.1873  magn= -0.9751
     atom  13 (R=0.177)  charge= 12.1775  magn=  0.9866
     atom  14 (R=0.177)  charge= 12.1881  magn= -0.9755
     atom  15 (R=0.177)  charge= 12.1775  magn=  0.9866
     atom  16 (R=0.177)  charge= 14.4744  magn=  0.4037

     total cpu time spent up to now is     2187.4 secs

     End of self-consistent calculation

     Number of k-points >= 100: set verbosity='high' to print the bands.

     the Fermi energy is    19.3151 ev

!    total energy              =   -4052.51419123 Ry
     total all-electron energy =    -34071.800903 Ry
     estimated scf accuracy    <       0.00000945 Ry
     smearing contrib. (-TS)   =       0.00374116 Ry
     internal energy E=F+TS    =   -4052.51793239 Ry

     The total energy is F=E-TS. E is the sum of the following terms:
     one-electron contribution =    -954.91104596 Ry
     hartree contribution      =     615.11594393 Ry
     xc contribution           =    -362.20026912 Ry
     ewald contribution        =   -2154.04080177 Ry
     one-center paw contrib.   =   -1196.48175946 Ry

     total magnetization       =     1.43 Bohr mag/cell
     absolute magnetization    =    16.55 Bohr mag/cell

     convergence has been achieved in  64 iterations


     Computing stress (Cartesian axis) and pressure

          total   stress  (Ry/bohr**3)                   (kbar)     P=        0.03
  -0.00000002   0.00013677   0.00000000           -0.00       20.12        0.00
   0.00013677  -0.00000002   0.00000000           20.12       -0.00        0.00
   0.00000000   0.00000000   0.00000069            0.00        0.00        0.10


     Writing all to output data dir ./tmp/fecr_fe01cr15_s-0.01.save/ :
     XML data file, charge density, pseudopotentials, collected wavefunctions
 
     init_run     :     35.50s CPU     24.54s WALL (       1 calls)
     electrons    :   2960.05s CPU   2162.19s WALL (       1 calls)
     stress       :     15.33s CPU     15.02s WALL (       1 calls)

     Called by init_run:
     wfcinit      :      4.96s CPU      5.92s WALL (       1 calls)
     potinit      :     29.48s CPU     17.45s WALL (       1 calls)
     hinit0       :      0.81s CPU      0.80s WALL (       1 calls)

     Called by electrons:
     c_bands      :    913.03s CPU    915.51s WALL (      64 calls)
     sum_band     :     99.37s CPU     99.63s WALL (      64 calls)
     v_of_rho     :      3.48s CPU      2.99s WALL (      65 calls)
     newd         :      3.23s CPU      3.27s WALL (      65 calls)
                                        3.27s GPU  (      65 calls)
     PAW_pot      :   1963.24s CPU   1150.96s WALL (      65 calls)
     mix_rho      :      4.42s CPU      4.51s WALL (      64 calls)

     Called by c_bands:
     init_us_2    :      8.43s CPU      8.02s WALL (   13520 calls)
     cegterg      :    815.52s CPU    818.19s WALL (    6657 calls)

     Called by *egterg:
     cdiaghg      :    274.77s CPU    276.84s WALL (   32068 calls)
                                      276.70s GPU  (   32068 calls)
     h_psi        :    262.31s CPU    263.80s WALL (   32172 calls)
                                      263.53s GPU  (   32172 calls)
     s_psi        :     16.28s CPU     16.52s WALL (   32172 calls)
     g_psi        :      0.14s CPU      1.40s WALL (   25411 calls)
                                        1.32s GPU  (   25411 calls)

     Called by h_psi:
     h_psi:calbec :      1.22s CPU     56.92s WALL (   32172 calls)
                                       56.80s GPU  (   32172 calls)
     vloc_psi     :    134.71s CPU    134.55s WALL (   32172 calls)
                                      134.44s GPU  (   32172 calls)
     add_vuspsi   :     15.88s CPU     70.52s WALL (   32172 calls)
                                       70.40s GPU  (   32172 calls)

     General routines
     calbec       :      1.51s CPU      1.58s WALL (   38932 calls)
     fft          :      1.62s CPU      1.75s WALL (    1644 calls)
                                        0.16s GPU  (    1514 calls)
     ffts         :      0.26s CPU      0.31s WALL (    1535 calls)
                                        0.07s GPU  (    1405 calls)
     fftw         :      7.70s CPU    127.25s WALL (  362740 calls)
                                      126.34s GPU  (  362740 calls)
     interpolate  :      1.94s CPU      1.94s WALL (     130 calls)
 
     Parallel routines
 
     PWSCF        :  50m15.18s CPU  36m46.49s WALL

 
   This run was terminated on:  18:39:59  24May2026            

=------------------------------------------------------------------------------=
   JOB DONE.
=------------------------------------------------------------------------------=
Warning: ieee_invalid is signaling
Warning: ieee_divide_by_zero is signaling
Warning: ieee_inexact is signaling
FORTRAN STOP
