--------------------------------------------------------------------------
WARNING: Open MPI tried to bind a process but failed.  This is a
warning only; your job will continue, though performance may
be degraded.

  Local host:        4b82db919bf5
  Application name:  /root/q-e-qe-7.3.1/bin/pw.x
  Error message:     failed to bind memory
  Location:          ../../../../../orte/mca/rtc/hwloc/rtc_hwloc.c:447

--------------------------------------------------------------------------

     Program PWSCF v.7.3.1 starts on 24May2026 at 16:12:13 

     This program is part of the open-source Quantum ESPRESSO suite
     for quantum simulation of materials; please cite
         "P. Giannozzi et al., J. Phys.:Condens. Matter 21 395502 (2009);
         "P. Giannozzi et al., J. Phys.:Condens. Matter 29 465901 (2017);
         "P. Giannozzi et al., J. Chem. Phys. 152 154105 (2020);
          URL http://www.quantum-espresso.org", 
     in publications or presentations arising from this work. More details at
     http://www.quantum-espresso.org/quote

     Parallel version (MPI & OpenMP), running on       8 processor cores
     Number of MPI processes:                 1
     Threads/MPI process:                     8

     MPI processes distributed on     1 nodes
     154113 MiB available memory on the printing compute node when the environment starts
 
     Reading input from inputs/fecr_fe01cr15_h0.01.in

     Current dimensions of program PWSCF are:
     Max number of different atomic species (ntypx) = 10
     Max number of k-points (npk) =  40000
     Max angular momentum in pseudopotentials (lmaxx) =  4
     file Fe.pbe-spn-kjpaw_psl.1.0.0.UPF: wavefunction(s)  3P 3D renormalized
     file Cr.pbe-spn-kjpaw_psl.1.0.0.UPF: wavefunction(s)  3S 3P 3D renormalized
     file Cr.pbe-spn-kjpaw_psl.1.0.0.UPF: wavefunction(s)  3S 3P 3D renormalized
     Message from routine setup:
     using ibrav=0 with symmetry is DISCOURAGED, use correct ibrav instead
 
     Subspace diagonalization in iterative solution of the eigenvalue problem:
     a serial algorithm will be used

 
     G-vector sticks info
     --------------------
     sticks:   dense  smooth     PW     G-vecs:    dense   smooth      PW
     Sum        4513    2253    641               229549    81217   12197
 
     Using Slab Decomposition
 


     bravais-lattice index     =            0
     lattice parameter (alat)  =      10.8988  a.u.
     unit-cell volume          =    1294.6050 (a.u.)^3
     number of atoms/cell      =           16
     number of atomic types    =            3
     number of electrons       =       226.00
     number of Kohn-Sham states=          136
     kinetic-energy cutoff     =      60.0000  Ry
     charge density cutoff     =     480.0000  Ry
     scf convergence threshold =      1.0E-05
     mixing beta               =       0.1000
     number of iterations used =           16  local-TF  mixing
     Exchange-correlation= SLA  PW   PBX  PBC
                           (   1   4   3   4   0   0   0)

     GPU acceleration is ACTIVE.  1 visible GPUs per MPI rank


     celldm(1)=  10.898810  celldm(2)=   0.000000  celldm(3)=   0.000000
     celldm(4)=   0.000000  celldm(5)=   0.000000  celldm(6)=   0.000000

     crystal axes: (cart. coord. in units of alat)
               a(1) = (   1.000000   0.000000   0.000000 )  
               a(2) = (   0.000000   1.000000   0.000000 )  
               a(3) = (   0.000000   0.000000   1.000000 )  

     reciprocal axes: (cart. coord. in units 2 pi/alat)
               b(1) = (  1.000000  0.000000  0.000000 )  
               b(2) = (  0.000000  1.000000  0.000000 )  
               b(3) = (  0.000000  0.000000  1.000000 )  


     PseudoPot. # 1 for Fe read from file:
     ./pseudo/Fe.pbe-spn-kjpaw_psl.1.0.0.UPF
     MD5 check sum: fc81f059e5c5069939230b1155715ae8
     Pseudo is Projector augmented-wave + core cor, Zval = 16.0
     Generated using &quot;atomic&quot; code by A. Dal Corso  v.6.3
     Shape of augmentation charge: PSQ
     Using radial grid of 1191 points,  6 beta functions with: 
                l(1) =   0
                l(2) =   0
                l(3) =   1
                l(4) =   1
                l(5) =   2
                l(6) =   2
     Q(r) pseudized with 0 coefficients 


     PseudoPot. # 2 for Cr read from file:
     ./pseudo/Cr.pbe-spn-kjpaw_psl.1.0.0.UPF
     MD5 check sum: 198f1a2427a48552563eee314eba32ba
     Pseudo is Projector augmented-wave + core cor, Zval = 14.0
     Generated using &quot;atomic&quot; code by A. Dal Corso  v.6.3
     Shape of augmentation charge: PSQ
     Using radial grid of 1183 points,  6 beta functions with: 
                l(1) =   0
                l(2) =   0
                l(3) =   1
                l(4) =   1
                l(5) =   2
                l(6) =   2
     Q(r) pseudized with 0 coefficients 


     PseudoPot. # 3 for Cr read from file:
     ./pseudo/Cr.pbe-spn-kjpaw_psl.1.0.0.UPF
     MD5 check sum: 198f1a2427a48552563eee314eba32ba
     Pseudo is Projector augmented-wave + core cor, Zval = 14.0
     Generated using &quot;atomic&quot; code by A. Dal Corso  v.6.3
     Shape of augmentation charge: PSQ
     Using radial grid of 1183 points,  6 beta functions with: 
                l(1) =   0
                l(2) =   0
                l(3) =   1
                l(4) =   1
                l(5) =   2
                l(6) =   2
     Q(r) pseudized with 0 coefficients 


     atomic species   valence    mass     pseudopotential
     Fe               16.00    55.84500     Fe( 1.00)
     CrA              14.00    51.99600     Cr( 1.00)
     CrB              14.00    51.99600     Cr( 1.00)

     Starting magnetic structure 
     atomic species   magnetization
     Fe              0.500
     CrA             0.500
     CrB            -0.500

     48 Sym. Ops., with inversion, found (42 have fractional translation)



   Cartesian axes

     site n.     atom                  positions (alat units)
         1        CrA    tau(   1) = (   0.0000000   0.0000000   0.0000000  )
         2        CrB    tau(   2) = (   0.2500000   0.2500000   0.2500000  )
         3        CrA    tau(   3) = (   0.0000000   0.0000000   0.5000000  )
         4        CrB    tau(   4) = (   0.2500000   0.2500000   0.7500000  )
         5        CrA    tau(   5) = (   0.0000000   0.5000000   0.0000000  )
         6        CrB    tau(   6) = (   0.2500000   0.7500000   0.2500000  )
         7        CrA    tau(   7) = (   0.0000000   0.5000000   0.5000000  )
         8        CrB    tau(   8) = (   0.2500000   0.7500000   0.7500000  )
         9        CrA    tau(   9) = (   0.5000000   0.0000000   0.0000000  )
        10        CrB    tau(  10) = (   0.7500000   0.2500000   0.2500000  )
        11        CrA    tau(  11) = (   0.5000000   0.0000000   0.5000000  )
        12        CrB    tau(  12) = (   0.7500000   0.2500000   0.7500000  )
        13        CrA    tau(  13) = (   0.5000000   0.5000000   0.0000000  )
        14        CrB    tau(  14) = (   0.7500000   0.7500000   0.2500000  )
        15        CrA    tau(  15) = (   0.5000000   0.5000000   0.5000000  )
        16        Fe     tau(  16) = (   0.7500000   0.7500000   0.7500000  )

     number of k points=    20  Marzari-Vanderbilt smearing, width (Ry)=  0.0200
                       cart. coord. in units 2pi/alat
        k(    1) = (   0.0000000   0.0000000   0.0000000), wk =   0.0046296
        k(    2) = (   0.0000000   0.0000000   0.1666667), wk =   0.0277778
        k(    3) = (   0.0000000   0.0000000   0.3333333), wk =   0.0277778
        k(    4) = (   0.0000000   0.0000000  -0.5000000), wk =   0.0138889
        k(    5) = (   0.0000000   0.1666667   0.1666667), wk =   0.0555556
        k(    6) = (   0.0000000   0.1666667   0.3333333), wk =   0.1111111
        k(    7) = (   0.0000000   0.1666667  -0.5000000), wk =   0.0555556
        k(    8) = (   0.0000000   0.3333333   0.3333333), wk =   0.0555556
        k(    9) = (   0.0000000   0.3333333  -0.5000000), wk =   0.0555556
        k(   10) = (   0.0000000  -0.5000000  -0.5000000), wk =   0.0138889
        k(   11) = (   0.1666667   0.1666667   0.1666667), wk =   0.0370370
        k(   12) = (   0.1666667   0.1666667   0.3333333), wk =   0.1111111
        k(   13) = (   0.1666667   0.1666667  -0.5000000), wk =   0.0555556
        k(   14) = (   0.1666667   0.3333333   0.3333333), wk =   0.1111111
        k(   15) = (   0.1666667   0.3333333  -0.5000000), wk =   0.1111111
        k(   16) = (   0.1666667  -0.5000000  -0.5000000), wk =   0.0277778
        k(   17) = (   0.3333333   0.3333333   0.3333333), wk =   0.0370370
        k(   18) = (   0.3333333   0.3333333  -0.5000000), wk =   0.0555556
        k(   19) = (   0.3333333  -0.5000000  -0.5000000), wk =   0.0277778
        k(   20) = (  -0.5000000  -0.5000000  -0.5000000), wk =   0.0046296

     Dense  grid:   229549 G-vectors     FFT dimensions: (  80,  80,  80)

     Smooth grid:    81217 G-vectors     FFT dimensions: (  54,  54,  54)

     Estimated max dynamical RAM per process >       1.92 GB

     Check: negative core charge=   -0.000003
     Generating pointlists ...
     new r_m :   0.1786 (alat units)  1.9467 (a.u.) for type    1
     new r_m :   0.1786 (alat units)  1.9467 (a.u.) for type    2
     new r_m :   0.1786 (alat units)  1.9467 (a.u.) for type    3

     Initial potential from superposition of free atoms

     starting charge     225.9880, renormalised to     226.0000
     Starting wfcs are  160 randomized atomic wfcs
     Checking if some PAW data can be deallocated... 

     total cpu time spent up to now is       22.5 secs

     Self-consistent Calculation

     iteration #  1     ecut=    60.00 Ry     beta= 0.10
     Davidson diagonalization with overlap
     ethr =  1.00E-02,  avg # of iterations =  3.7

     total cpu time spent up to now is       46.2 secs

     total energy              =   -4048.31931738 Ry
     estimated scf accuracy    <       5.62538136 Ry

     total magnetization       =     7.88 Bohr mag/cell
     absolute magnetization    =    56.21 Bohr mag/cell

     iteration #  2     ecut=    60.00 Ry     beta= 0.10
     Davidson diagonalization with overlap
     ethr =  2.49E-03,  avg # of iterations =  1.7

     negative rho (up, down):  0.000E+00 2.982E-04

     total cpu time spent up to now is       67.9 secs

     total energy              =   -4050.89789134 Ry
     estimated scf accuracy    <       4.71477357 Ry

     total magnetization       =     7.85 Bohr mag/cell
     absolute magnetization    =    54.96 Bohr mag/cell

     iteration #  3     ecut=    60.00 Ry     beta= 0.10
     Davidson diagonalization with overlap
     ethr =  2.09E-03,  avg # of iterations =  3.5

     negative rho (up, down):  0.000E+00 2.644E-04

     total cpu time spent up to now is       91.8 secs

     total energy              =   -4051.39128844 Ry
     estimated scf accuracy    <       4.42881780 Ry

     total magnetization       =     3.57 Bohr mag/cell
     absolute magnetization    =    44.49 Bohr mag/cell

     iteration #  4     ecut=    60.00 Ry     beta= 0.10
     Davidson diagonalization with overlap
     ethr =  1.96E-03,  avg # of iterations =  1.6

     negative rho (up, down):  0.000E+00 2.141E-04

     total cpu time spent up to now is      114.3 secs

     total energy              =   -4051.35249585 Ry
     estimated scf accuracy    <       4.33720893 Ry

     total magnetization       =     3.76 Bohr mag/cell
     absolute magnetization    =    44.49 Bohr mag/cell

     iteration #  5     ecut=    60.00 Ry     beta= 0.10
     Davidson diagonalization with overlap
     ethr =  1.92E-03,  avg # of iterations =  1.0

     negative rho (up, down):  0.000E+00 5.893E-05

     total cpu time spent up to now is      136.8 secs

     total energy              =   -4051.57190205 Ry
     estimated scf accuracy    <       3.14116612 Ry

     total magnetization       =     4.37 Bohr mag/cell
     absolute magnetization    =    44.60 Bohr mag/cell

     iteration #  6     ecut=    60.00 Ry     beta= 0.10
     Davidson diagonalization with overlap
     ethr =  1.39E-03,  avg # of iterations =  5.0

     negative rho (up, down):  0.000E+00 1.362E-04

     total cpu time spent up to now is      162.3 secs

     total energy              =   -4052.47710955 Ry
     estimated scf accuracy    <      14.50344384 Ry

     total magnetization       =     1.30 Bohr mag/cell
     absolute magnetization    =    34.80 Bohr mag/cell

     iteration #  7     ecut=    60.00 Ry     beta= 0.10
     Davidson diagonalization with overlap
     ethr =  1.39E-03,  avg # of iterations =  3.0

     negative rho (up, down):  0.000E+00 1.603E-04

     total cpu time spent up to now is      186.0 secs

     total energy              =   -4052.27693103 Ry
     estimated scf accuracy    <       7.68161743 Ry

     total magnetization       =     1.03 Bohr mag/cell
     absolute magnetization    =    32.22 Bohr mag/cell

     iteration #  8     ecut=    60.00 Ry     beta= 0.10
     Davidson diagonalization with overlap
     ethr =  1.39E-03,  avg # of iterations =  2.8

     negative rho (up, down):  0.000E+00 1.299E-05

     total cpu time spent up to now is      210.0 secs

     total energy              =   -4052.29580832 Ry
     estimated scf accuracy    <       1.76551026 Ry

     total magnetization       =     1.54 Bohr mag/cell
     absolute magnetization    =    32.21 Bohr mag/cell

     iteration #  9     ecut=    60.00 Ry     beta= 0.10
     Davidson diagonalization with overlap
     ethr =  7.81E-04,  avg # of iterations =  2.7

     total cpu time spent up to now is      233.2 secs

     total energy              =   -4052.33616218 Ry
     estimated scf accuracy    <       0.25049085 Ry

     total magnetization       =     1.93 Bohr mag/cell
     absolute magnetization    =    32.82 Bohr mag/cell

     iteration # 10     ecut=    60.00 Ry     beta= 0.10
     Davidson diagonalization with overlap
     ethr =  1.11E-04,  avg # of iterations =  7.6

     total cpu time spent up to now is      261.0 secs

     total energy              =   -4052.46786177 Ry
     estimated scf accuracy    <       0.52302578 Ry

     total magnetization       =     2.19 Bohr mag/cell
     absolute magnetization    =    29.65 Bohr mag/cell

     iteration # 11     ecut=    60.00 Ry     beta= 0.10
     Davidson diagonalization with overlap
     ethr =  1.11E-04,  avg # of iterations =  1.1

     total cpu time spent up to now is      282.4 secs

     total energy              =   -4052.45139244 Ry
     estimated scf accuracy    <       0.45270324 Ry

     total magnetization       =     2.11 Bohr mag/cell
     absolute magnetization    =    29.06 Bohr mag/cell

     iteration # 12     ecut=    60.00 Ry     beta= 0.10
     Davidson diagonalization with overlap
     ethr =  1.11E-04,  avg # of iterations =  1.6

     total cpu time spent up to now is      305.9 secs

     total energy              =   -4052.47767426 Ry
     estimated scf accuracy    <       0.05369101 Ry

     total magnetization       =     1.86 Bohr mag/cell
     absolute magnetization    =    28.05 Bohr mag/cell

     iteration # 13     ecut=    60.00 Ry     beta= 0.10
     Davidson diagonalization with overlap
     c_bands:  1 eigenvalues not converged
     ethr =  2.38E-05,  avg # of iterations =  8.6

     total cpu time spent up to now is      333.8 secs

     total energy              =   -4052.49554109 Ry
     estimated scf accuracy    <       0.02141417 Ry

     total magnetization       =     1.66 Bohr mag/cell
     absolute magnetization    =    25.25 Bohr mag/cell

     iteration # 14     ecut=    60.00 Ry     beta= 0.10
     Davidson diagonalization with overlap
     c_bands:  2 eigenvalues not converged
     c_bands:  1 eigenvalues not converged
     ethr =  9.48E-06,  avg # of iterations =  3.5

     total cpu time spent up to now is      358.2 secs

     total energy              =   -4052.50109822 Ry
     estimated scf accuracy    <       0.01244683 Ry

     total magnetization       =     1.67 Bohr mag/cell
     absolute magnetization    =    25.55 Bohr mag/cell

     iteration # 15     ecut=    60.00 Ry     beta= 0.10
     Davidson diagonalization with overlap
     c_bands:  1 eigenvalues not converged
     ethr =  5.51E-06,  avg # of iterations =  8.0

     total cpu time spent up to now is      384.9 secs

     total energy              =   -4052.50421460 Ry
     estimated scf accuracy    <       0.02434813 Ry

     total magnetization       =     1.62 Bohr mag/cell
     absolute magnetization    =    24.48 Bohr mag/cell

     iteration # 16     ecut=    60.00 Ry     beta= 0.10
     Davidson diagonalization with overlap
     ethr =  5.51E-06,  avg # of iterations =  2.0

     total cpu time spent up to now is      408.0 secs

     total energy              =   -4052.50740367 Ry
     estimated scf accuracy    <       0.01730262 Ry

     total magnetization       =     1.65 Bohr mag/cell
     absolute magnetization    =    24.37 Bohr mag/cell

     iteration # 17     ecut=    60.00 Ry     beta= 0.10
     Davidson diagonalization with overlap
     ethr =  5.51E-06,  avg # of iterations =  4.8

     total cpu time spent up to now is      432.5 secs

     total energy              =   -4052.50860499 Ry
     estimated scf accuracy    <       0.05038895 Ry

     total magnetization       =     1.57 Bohr mag/cell
     absolute magnetization    =    23.80 Bohr mag/cell

     iteration # 18     ecut=    60.00 Ry     beta= 0.10
     Davidson diagonalization with overlap
     ethr =  5.51E-06,  avg # of iterations =  4.3

     total cpu time spent up to now is      457.4 secs

     total energy              =   -4052.50669256 Ry
     estimated scf accuracy    <       0.02340924 Ry

     total magnetization       =     1.57 Bohr mag/cell
     absolute magnetization    =    23.18 Bohr mag/cell

     iteration # 19     ecut=    60.00 Ry     beta= 0.10
     Davidson diagonalization with overlap
     ethr =  5.51E-06,  avg # of iterations =  8.3

     total cpu time spent up to now is      485.4 secs

     total energy              =   -4052.51182805 Ry
     estimated scf accuracy    <       0.00456235 Ry

     total magnetization       =     1.58 Bohr mag/cell
     absolute magnetization    =    21.77 Bohr mag/cell

     iteration # 20     ecut=    60.00 Ry     beta= 0.10
     Davidson diagonalization with overlap
     c_bands:  4 eigenvalues not converged
     ethr =  2.02E-06,  avg # of iterations =  5.7

     total cpu time spent up to now is      510.6 secs

     total energy              =   -4052.51184120 Ry
     estimated scf accuracy    <       0.00155910 Ry

     total magnetization       =     1.52 Bohr mag/cell
     absolute magnetization    =    21.29 Bohr mag/cell

     iteration # 21     ecut=    60.00 Ry     beta= 0.10
     Davidson diagonalization with overlap
     ethr =  6.90E-07,  avg # of iterations =  4.2

     total cpu time spent up to now is      534.9 secs

     total energy              =   -4052.50990463 Ry
     estimated scf accuracy    <       0.00458372 Ry

     total magnetization       =     1.58 Bohr mag/cell
     absolute magnetization    =    21.72 Bohr mag/cell

     iteration # 22     ecut=    60.00 Ry     beta= 0.10
     Davidson diagonalization with overlap
     ethr =  6.90E-07,  avg # of iterations =  6.3

     total cpu time spent up to now is      561.4 secs

     total energy              =   -4052.51162483 Ry
     estimated scf accuracy    <       0.00197239 Ry

     total magnetization       =     1.60 Bohr mag/cell
     absolute magnetization    =    22.52 Bohr mag/cell

     iteration # 23     ecut=    60.00 Ry     beta= 0.10
     Davidson diagonalization with overlap
     ethr =  6.90E-07,  avg # of iterations =  5.2

     total cpu time spent up to now is      586.1 secs

     total energy              =   -4052.51240774 Ry
     estimated scf accuracy    <       0.00076949 Ry

     total magnetization       =     1.55 Bohr mag/cell
     absolute magnetization    =    22.02 Bohr mag/cell

     iteration # 24     ecut=    60.00 Ry     beta= 0.10
     Davidson diagonalization with overlap
     ethr =  3.40E-07,  avg # of iterations =  5.5

     total cpu time spent up to now is      612.5 secs

     total energy              =   -4052.51229876 Ry
     estimated scf accuracy    <       0.00108568 Ry

     total magnetization       =     1.52 Bohr mag/cell
     absolute magnetization    =    21.40 Bohr mag/cell

     iteration # 25     ecut=    60.00 Ry     beta= 0.10
     Davidson diagonalization with overlap
     ethr =  3.40E-07,  avg # of iterations =  5.0

     total cpu time spent up to now is      636.8 secs

     total energy              =   -4052.51285052 Ry
     estimated scf accuracy    <       0.00048777 Ry

     total magnetization       =     1.55 Bohr mag/cell
     absolute magnetization    =    21.74 Bohr mag/cell

     iteration # 26     ecut=    60.00 Ry     beta= 0.10
     Davidson diagonalization with overlap
     ethr =  2.16E-07,  avg # of iterations =  5.0

     total cpu time spent up to now is      661.2 secs

     total energy              =   -4052.51332524 Ry
     estimated scf accuracy    <       0.00053822 Ry

     total magnetization       =     1.52 Bohr mag/cell
     absolute magnetization    =    21.27 Bohr mag/cell

     iteration # 27     ecut=    60.00 Ry     beta= 0.10
     Davidson diagonalization with overlap
     ethr =  2.16E-07,  avg # of iterations =  5.6

     total cpu time spent up to now is      687.2 secs

     total energy              =   -4052.51345783 Ry
     estimated scf accuracy    <       0.00080634 Ry

     total magnetization       =     1.51 Bohr mag/cell
     absolute magnetization    =    20.85 Bohr mag/cell

     iteration # 28     ecut=    60.00 Ry     beta= 0.10
     Davidson diagonalization with overlap
     ethr =  2.16E-07,  avg # of iterations =  1.3

     total cpu time spent up to now is      709.9 secs

     total energy              =   -4052.51343149 Ry
     estimated scf accuracy    <       0.00131032 Ry

     total magnetization       =     1.50 Bohr mag/cell
     absolute magnetization    =    20.95 Bohr mag/cell

     iteration # 29     ecut=    60.00 Ry     beta= 0.10
     Davidson diagonalization with overlap
     ethr =  2.16E-07,  avg # of iterations =  5.2

     total cpu time spent up to now is      734.8 secs

     total energy              =   -4052.51374553 Ry
     estimated scf accuracy    <       0.00014406 Ry

     total magnetization       =     1.49 Bohr mag/cell
     absolute magnetization    =    20.52 Bohr mag/cell

     iteration # 30     ecut=    60.00 Ry     beta= 0.10
     Davidson diagonalization with overlap
     ethr =  6.37E-08,  avg # of iterations =  3.5

     total cpu time spent up to now is      758.7 secs

     total energy              =   -4052.51378205 Ry
     estimated scf accuracy    <       0.00012944 Ry

     total magnetization       =     1.49 Bohr mag/cell
     absolute magnetization    =    20.53 Bohr mag/cell

     iteration # 31     ecut=    60.00 Ry     beta= 0.10
     Davidson diagonalization with overlap
     ethr =  5.73E-08,  avg # of iterations =  5.0

     total cpu time spent up to now is      783.0 secs

     total energy              =   -4052.51382550 Ry
     estimated scf accuracy    <       0.00011599 Ry

     total magnetization       =     1.49 Bohr mag/cell
     absolute magnetization    =    20.37 Bohr mag/cell

     iteration # 32     ecut=    60.00 Ry     beta= 0.10
     Davidson diagonalization with overlap
     ethr =  5.13E-08,  avg # of iterations =  1.1

     total cpu time spent up to now is      805.5 secs

     total energy              =   -4052.51383290 Ry
     estimated scf accuracy    <       0.00007789 Ry

     total magnetization       =     1.49 Bohr mag/cell
     absolute magnetization    =    20.37 Bohr mag/cell

     iteration # 33     ecut=    60.00 Ry     beta= 0.10
     Davidson diagonalization with overlap
     ethr =  3.45E-08,  avg # of iterations =  2.7

     total cpu time spent up to now is      829.4 secs

     total energy              =   -4052.51384792 Ry
     estimated scf accuracy    <       0.00004751 Ry

     total magnetization       =     1.50 Bohr mag/cell
     absolute magnetization    =    20.36 Bohr mag/cell

     iteration # 34     ecut=    60.00 Ry     beta= 0.10
     Davidson diagonalization with overlap
     ethr =  2.10E-08,  avg # of iterations =  5.8

     total cpu time spent up to now is      855.7 secs

     total energy              =   -4052.51388066 Ry
     estimated scf accuracy    <       0.00006345 Ry

     total magnetization       =     1.49 Bohr mag/cell
     absolute magnetization    =    20.22 Bohr mag/cell

     iteration # 35     ecut=    60.00 Ry     beta= 0.10
     Davidson diagonalization with overlap
     ethr =  2.10E-08,  avg # of iterations =  2.3

     total cpu time spent up to now is      879.5 secs

     total energy              =   -4052.51389007 Ry
     estimated scf accuracy    <       0.00003308 Ry

     total magnetization       =     1.50 Bohr mag/cell
     absolute magnetization    =    20.22 Bohr mag/cell

     iteration # 36     ecut=    60.00 Ry     beta= 0.10
     Davidson diagonalization with overlap
     ethr =  1.46E-08,  avg # of iterations =  3.4

     total cpu time spent up to now is      902.3 secs

     total energy              =   -4052.51389214 Ry
     estimated scf accuracy    <       0.00001547 Ry

     total magnetization       =     1.50 Bohr mag/cell
     absolute magnetization    =    20.17 Bohr mag/cell

     iteration # 37     ecut=    60.00 Ry     beta= 0.10
     Davidson diagonalization with overlap
     ethr =  6.85E-09,  avg # of iterations =  4.8

     total cpu time spent up to now is      926.6 secs

     total energy              =   -4052.51390194 Ry
     estimated scf accuracy    <       0.00001939 Ry

     total magnetization       =     1.50 Bohr mag/cell
     absolute magnetization    =    20.18 Bohr mag/cell

     iteration # 38     ecut=    60.00 Ry     beta= 0.10
     Davidson diagonalization with overlap
     ethr =  6.85E-09,  avg # of iterations =  5.3

     total cpu time spent up to now is      952.2 secs

     total energy              =   -4052.51389883 Ry
     estimated scf accuracy    <       0.00001506 Ry

     total magnetization       =     1.50 Bohr mag/cell
     absolute magnetization    =    20.12 Bohr mag/cell

     iteration # 39     ecut=    60.00 Ry     beta= 0.10
     Davidson diagonalization with overlap
     ethr =  6.66E-09,  avg # of iterations =  5.5
 
     Magnetic moment per site  (integrated on atomic sphere of radius R)
     atom   1 (R=0.179)  charge= 12.2447  magn=  1.2051
     atom   2 (R=0.179)  charge= 12.2573  magn= -1.2015
     atom   3 (R=0.179)  charge= 12.2447  magn=  1.2051
     atom   4 (R=0.179)  charge= 12.2545  magn= -1.2217
     atom   5 (R=0.179)  charge= 12.2447  magn=  1.2051
     atom   6 (R=0.179)  charge= 12.2545  magn= -1.2217
     atom   7 (R=0.179)  charge= 12.2447  magn=  1.2051
     atom   8 (R=0.179)  charge= 12.2498  magn= -1.1956
     atom   9 (R=0.179)  charge= 12.2447  magn=  1.2051
     atom  10 (R=0.179)  charge= 12.2545  magn= -1.2217
     atom  11 (R=0.179)  charge= 12.2447  magn=  1.2051
     atom  12 (R=0.179)  charge= 12.2498  magn= -1.1956
     atom  13 (R=0.179)  charge= 12.2447  magn=  1.2051
     atom  14 (R=0.179)  charge= 12.2498  magn= -1.1956
     atom  15 (R=0.179)  charge= 12.2447  magn=  1.2051
     atom  16 (R=0.179)  charge= 14.5415  magn=  0.2731

     total cpu time spent up to now is      977.7 secs

     End of self-consistent calculation

 ------ SPIN UP ------------


          k = 0.0000 0.0000 0.0000 ( 10131 PWs)   bands (ev):

   -68.5860 -53.6529 -53.6247 -53.6247 -53.6247 -53.6106 -53.6106 -53.6106
   -53.5970 -52.3184 -52.3184 -52.3113 -52.3105 -52.2987 -52.2987 -52.2871
   -34.6444 -34.6444 -34.6444 -25.1394 -25.1394 -25.1394 -25.1184 -25.1184
   -25.1184 -25.0545 -25.0386 -25.0386 -25.0182 -25.0182 -25.0182 -24.9504
   -24.9504 -24.9504 -24.8928 -24.8928 -24.8928 -24.8848 -24.8832 -24.8832
   -24.8832 -24.8696 -24.8696 -23.7505 -23.7505 -23.7505 -23.7098 -23.7098
   -23.7098 -23.6213 -23.6213 -23.6213 -23.6194 -23.6194 -23.6194 -23.5947
   -23.5947 -23.5947 -23.5861 -23.5861 -23.5861 -23.5536 -23.5536 -23.5536
    10.8045  14.1603  14.2532  14.2532  14.4365  14.4365  14.4365  14.5025
    14.5025  14.5523  14.5523  14.5523  14.7321  14.8476  14.8476  16.0195
    16.0195  16.0195  16.1790  16.1790  16.1790  16.3022  16.3022  16.3022
    16.5844  16.5844  16.5844  16.7420  16.7420  16.7420  16.9934  16.9934
    17.4377  17.6652  17.6652  17.6652  17.7563  17.7563  17.7563  17.7607
    17.7607  17.7607  18.4727  18.4727  18.4727  18.7321  18.7321  18.7820
    18.9383  18.9383  18.9383  19.0547  19.0547  19.5384  19.5384  19.5384
    19.6155  19.6155  19.6155  19.6461  19.6461  19.6461  19.6869  19.6869
    19.6869  19.7011  19.7011  19.9107  19.9107  19.9107  19.9220  19.9220

          k = 0.0000 0.0000 0.1667 ( 10143 PWs)   bands (ev):

   -68.5861 -53.6510 -53.6266 -53.6238 -53.6238 -53.6115 -53.6115 -53.6097
   -53.5979 -52.3179 -52.3177 -52.3116 -52.3103 -52.2994 -52.2984 -52.2878
   -34.6444 -34.6444 -34.6443 -25.1327 -25.1286 -25.1286 -25.1150 -25.1083
   -25.1083 -25.0551 -25.0454 -25.0356 -25.0254 -25.0254 -25.0080 -24.9562
   -24.9462 -24.9462 -24.9065 -24.9065 -24.8921 -24.8913 -24.8913 -24.8898
   -24.8825 -24.8752 -24.8707 -23.7403 -23.7403 -23.7375 -23.7036 -23.7036
   -23.7019 -23.6269 -23.6269 -23.6255 -23.6255 -23.6218 -23.6183 -23.5966
   -23.5937 -23.5929 -23.5929 -23.5862 -23.5862 -23.5666 -23.5562 -23.5562
    10.9521  13.8370  14.2531  14.3102  14.3472  14.4797  14.4797  14.5631
    14.5757  14.5841  14.6124  14.6124  14.8011  14.8672  15.1704  15.8869
    16.0120  16.0120  16.1689  16.1921  16.1921  16.2399  16.3399  16.3399
    16.3854  16.5624  16.5624  16.5709  16.8353  16.8686  16.8686  17.0843
    17.5307  17.5779  17.5779  17.6643  17.6643  17.6867  17.7321  17.7321
    18.0015  18.0220  18.1023  18.1553  18.5921  18.5921  18.6083  18.7048
    18.7048  18.7772  19.0237  19.0552  19.0552  19.1744  19.1824  19.1941
    19.1941  19.3575  19.5263  19.6072  19.6072  19.6496  19.6814  19.6980
    19.7272  19.8284  19.9210  19.9908  20.0437  20.0437  20.0446  20.3527

          k = 0.0000 0.0000 0.3333 ( 10175 PWs)   bands (ev):

   -68.5861 -53.6460 -53.6317 -53.6212 -53.6212 -53.6141 -53.6141 -53.6072
   -53.6004 -52.3166 -52.3160 -52.3126 -52.3097 -52.3011 -52.2973 -52.2898
   -34.6444 -34.6444 -34.6443 -25.1142 -25.1063 -25.1048 -25.1048 -25.0746
   -25.0746 -25.0637 -25.0625 -25.0439 -25.0439 -25.0209 -24.9823 -24.9732
   -24.9540 -24.9540 -24.9336 -24.9336 -24.9120 -24.9039 -24.9039 -24.8894
   -24.8815 -24.8799 -24.8732 -23.7136 -23.7136 -23.7026 -23.6883 -23.6883
   -23.6828 -23.6479 -23.6479 -23.6373 -23.6373 -23.6241 -23.6153 -23.6132
   -23.6006 -23.6003 -23.5894 -23.5894 -23.5839 -23.5839 -23.5635 -23.5635
    11.3832  12.9249  14.4060  14.4649  14.5906  14.5906  14.6271  14.7129
    14.7129  14.7720  14.7959  14.8208  14.8686  14.9222  15.2442  15.5380
    15.6291  16.0221  16.0221  16.0304  16.1566  16.1566  16.5174  16.5174
    16.5260  16.6308  16.6401  16.6401  16.7704  17.0997  17.1580  17.1580
    17.2794  17.2794  17.4003  17.5437  17.6242  17.6242  17.6978  17.6978
    17.7826  17.7826  17.8758  17.8831  17.9095  18.2556  18.3457  18.4157
    18.4157  18.6100  18.6135  18.9258  18.9258  19.1329  19.3016  19.3508
    19.3508  19.4345  19.5428  19.5428  19.5608  19.6598  19.6872  19.7583
    19.7866  19.9186  20.0787  20.1718  20.2433  20.2745  20.2745  20.2919

          k = 0.0000 0.0000-0.5000 ( 10154 PWs)   bands (ev):

   -68.5861 -53.6400 -53.6377 -53.6177 -53.6177 -53.6176 -53.6176 -53.6038
   -53.6038 -52.3153 -52.3150 -52.3137 -52.3094 -52.3021 -52.2963 -52.2911
   -34.6444 -34.6444 -34.6442 -25.0997 -25.0890 -25.0886 -25.0839 -25.0839
   -25.0695 -25.0695 -25.0689 -25.0231 -25.0231 -25.0036 -25.0036 -25.0012
   -24.9927 -24.9470 -24.9465 -24.9235 -24.9235 -24.9155 -24.9155 -24.8857
   -24.8857 -24.8765 -24.8765 -23.6836 -23.6836 -23.6785 -23.6785 -23.6732
   -23.6732 -23.6663 -23.6594 -23.6497 -23.6475 -23.6475 -23.6301 -23.6173
   -23.6126 -23.6034 -23.5887 -23.5887 -23.5783 -23.5783 -23.5703 -23.5703
    12.0139  12.1150  14.5369  14.6223  14.7002  14.7002  14.7073  14.7073
    14.7304  14.7404  14.9708  15.0833  15.0965  15.1155  15.1268  15.2076
    15.4095  15.4973  16.0501  16.0501  16.1129  16.1129  16.7729  16.7756
    16.7756  16.8896  16.8896  16.9339  17.0225  17.0266  17.0354  17.0354
    17.0358  17.0416  17.0416  17.4356  17.4994  17.5157  17.5157  17.5162
    17.6838  17.6838  17.7897  17.7897  17.8273  17.8273  18.0223  18.0781
    18.1329  18.8224  19.0284  19.0636  19.0636  19.1369  19.2574  19.2658
    19.4106  19.4106  19.4850  19.6731  19.6735  19.6858  19.7596  19.7596
    19.7701  19.9993  19.9993  20.0877  20.1860  20.1945  20.2341  20.3222

          k = 0.0000 0.1667 0.1667 ( 10167 PWs)   bands (ev):

   -68.5861 -53.6492 -53.6258 -53.6255 -53.6228 -53.6125 -53.6106 -53.6106
   -53.5988 -52.3173 -52.3171 -52.3119 -52.3100 -52.2995 -52.2986 -52.2886
   -34.6444 -34.6444 -34.6443 -25.1264 -25.1219 -25.1168 -25.1061 -25.1014
   -25.1000 -25.0557 -25.0443 -25.0398 -25.0312 -25.0214 -25.0092 -24.9614
   -24.9445 -24.9427 -24.9117 -24.9114 -24.9052 -24.8997 -24.8935 -24.8903
   -24.8889 -24.8805 -24.8739 -23.7314 -23.7305 -23.7296 -23.6985 -23.6983
   -23.6929 -23.6347 -23.6331 -23.6295 -23.6294 -23.6231 -23.6182 -23.5988
   -23.5930 -23.5919 -23.5910 -23.5905 -23.5862 -23.5774 -23.5588 -23.5586
    11.0974  13.8673  13.9577  14.2904  14.3804  14.4180  14.5576  14.6063
    14.6070  14.6510  14.6639  14.6836  14.8736  15.1931  15.2176  15.8093
    15.9927  16.0165  16.1528  16.1858  16.2300  16.2325  16.2742  16.3375
    16.3737  16.4711  16.5245  16.6866  16.7014  16.7920  16.9154  17.2290
    17.3201  17.4785  17.5551  17.5657  17.5880  17.6568  17.7979  17.9223
    17.9361  17.9771  18.1902  18.2267  18.2981  18.3153  18.4916  18.5528
    18.5897  18.7420  18.7423  18.7749  18.8556  19.1100  19.1858  19.2087
    19.2573  19.2891  19.4997  19.6079  19.6540  19.7058  19.7313  19.7324
    19.8133  19.9105  19.9402  19.9911  20.0764  20.0916  20.1644  20.1814

          k = 0.0000 0.1667 0.3333 ( 10191 PWs)   bands (ev):

   -68.5861 -53.6443 -53.6306 -53.6228 -53.6203 -53.6153 -53.6132 -53.6081
   -53.6013 -52.3161 -52.3156 -52.3127 -52.3094 -52.3008 -52.2977 -52.2906
   -34.6444 -34.6444 -34.6443 -25.1091 -25.1065 -25.0940 -25.0924 -25.0697
   -25.0693 -25.0649 -25.0583 -25.0447 -25.0356 -25.0249 -24.9860 -24.9782
   -24.9539 -24.9523 -24.9361 -24.9307 -24.9157 -24.9143 -24.9031 -24.8978
   -24.8892 -24.8865 -24.8777 -23.7099 -23.7084 -23.7029 -23.6858 -23.6820
   -23.6727 -23.6538 -23.6513 -23.6432 -23.6393 -23.6260 -23.6178 -23.6113
   -23.6048 -23.5999 -23.5895 -23.5879 -23.5854 -23.5839 -23.5658 -23.5652
    11.5210  13.0262  14.0776  14.2922  14.5428  14.6893  14.7181  14.7462
    14.8133  14.8491  14.8791  14.9192  14.9660  15.1904  15.2993  15.5455
    15.6680  15.9273  16.0323  16.1860  16.1919  16.2455  16.3209  16.4588
    16.4712  16.5424  16.5633  16.6811  16.7462  17.0108  17.0700  17.1517
    17.1991  17.3922  17.3984  17.4578  17.4713  17.5000  17.5144  17.6016
    17.6730  17.6893  17.8356  18.0348  18.0392  18.0813  18.1162  18.2859
    18.3591  18.5448  18.7300  18.8515  18.9130  19.1672  19.2378  19.3233
    19.3304  19.3551  19.4687  19.6002  19.6300  19.7181  19.7467  19.7964
    19.8117  19.8693  19.9681  20.0204  20.1202  20.1447  20.2182  20.2363

          k = 0.0000 0.1667-0.5000 ( 10158 PWs)   bands (ev):

   -68.5861 -53.6385 -53.6364 -53.6192 -53.6190 -53.6167 -53.6167 -53.6047
   -53.6047 -52.3151 -52.3148 -52.3136 -52.3092 -52.3017 -52.2967 -52.2920
   -34.6444 -34.6444 -34.6442 -25.0952 -25.0869 -25.0845 -25.0834 -25.0729
   -25.0688 -25.0661 -25.0588 -25.0201 -25.0153 -25.0094 -25.0009 -24.9985
   -24.9955 -24.9502 -24.9493 -24.9290 -24.9237 -24.9206 -24.9135 -24.8951
   -24.8939 -24.8822 -24.8820 -23.6832 -23.6827 -23.6824 -23.6779 -23.6760
   -23.6734 -23.6639 -23.6601 -23.6537 -23.6472 -23.6362 -23.6306 -23.6193
   -23.6153 -23.6011 -23.5889 -23.5876 -23.5789 -23.5784 -23.5725 -23.5714
    12.1368  12.2400  14.1832  14.2792  14.6810  14.8246  14.8286  14.8303
    14.9394  15.0350  15.0388  15.1363  15.1446  15.1796  15.1897  15.2742
    15.4450  15.5306  16.0809  16.1156  16.1195  16.1816  16.5944  16.6448
    16.6543  16.7399  16.7730  16.8166  16.8288  16.8460  17.0562  17.0882
    17.1761  17.1912  17.2101  17.2871  17.3790  17.4676  17.4943  17.5059
    17.5493  17.5505  17.5515  17.5815  17.6667  17.6847  18.2092  18.2192
    18.2761  18.6958  18.9684  19.0154  19.1373  19.1765  19.2631  19.2856
    19.3115  19.3996  19.4993  19.6074  19.6818  19.6970  19.7491  19.7526
    19.7596  19.7618  19.8592  20.0782  20.1177  20.1474  20.1951  20.3237

          k = 0.0000 0.3333 0.3333 ( 10155 PWs)   bands (ev):

   -68.5861 -53.6398 -53.6278 -53.6269 -53.6185 -53.6177 -53.6107 -53.6107
   -53.6038 -52.3153 -52.3146 -52.3130 -52.3089 -52.3003 -52.2983 -52.2927
   -34.6444 -34.6443 -34.6443 -25.1000 -25.0947 -25.0768 -25.0764 -25.0621
   -25.0592 -25.0545 -25.0448 -25.0426 -25.0243 -25.0214 -24.9932 -24.9857
   -24.9632 -24.9515 -24.9451 -24.9407 -24.9260 -24.9214 -24.9196 -24.9130
   -24.8980 -24.8955 -24.8836 -23.6972 -23.6958 -23.6946 -23.6798 -23.6702
   -23.6663 -23.6614 -23.6542 -23.6515 -23.6438 -23.6432 -23.6248 -23.6121
   -23.6018 -23.5999 -23.5924 -23.5854 -23.5845 -23.5829 -23.5724 -23.5699
    11.9202  13.2601  13.3480  14.0221  14.7883  14.8610  14.9380  15.0209
    15.0399  15.0552  15.0704  15.0797  15.1274  15.2876  15.3513  15.4941
    15.8346  15.8626  15.9307  16.0555  16.2692  16.3072  16.3188  16.3955
    16.4375  16.4580  16.5457  16.6108  16.6236  16.9476  16.9673  17.0409
    17.1473  17.1554  17.2066  17.2954  17.3276  17.3416  17.3492  17.4191
    17.4213  17.4540  17.6020  17.7380  17.7508  17.9942  18.0536  18.2750
    18.3727  18.4669  18.8814  18.9190  19.0169  19.1852  19.2378  19.2979
    19.3728  19.3849  19.4717  19.6395  19.6516  19.6749  19.7214  19.7498
    19.7878  19.8335  19.8937  19.8945  19.9794  19.9960  20.0153  20.0388

          k = 0.0000 0.3333-0.5000 ( 10156 PWs)   bands (ev):

   -68.5861 -53.6345 -53.6328 -53.6233 -53.6226 -53.6142 -53.6142 -53.6073
   -53.6072 -52.3146 -52.3144 -52.3131 -52.3087 -52.3003 -52.2976 -52.2944
   -34.6444 -34.6443 -34.6442 -25.0899 -25.0868 -25.0779 -25.0757 -25.0607
   -25.0570 -25.0448 -25.0317 -25.0186 -25.0147 -25.0132 -24.9946 -24.9937
   -24.9862 -24.9574 -24.9557 -24.9449 -24.9447 -24.9239 -24.9236 -24.9128
   -24.9064 -24.8914 -24.8891 -23.6837 -23.6811 -23.6794 -23.6765 -23.6748
   -23.6745 -23.6743 -23.6612 -23.6557 -23.6466 -23.6334 -23.6326 -23.6144
   -23.6090 -23.5948 -23.5915 -23.5841 -23.5832 -23.5789 -23.5787 -23.5748
    12.4859  12.5961  13.6270  13.7236  14.9153  15.0658  15.0662  15.1535
    15.1568  15.1882  15.2215  15.2351  15.2404  15.2643  15.4204  15.5246
    15.5430  15.5970  16.0678  16.1425  16.2778  16.2863  16.3579  16.3811
    16.4099  16.4385  16.4636  16.5529  16.7729  16.8034  16.9316  16.9520
    16.9985  17.0079  17.0443  17.1732  17.1739  17.2503  17.4015  17.4127
    17.4496  17.4628  17.4648  17.4956  17.5335  17.5591  18.3117  18.3190
    18.3748  18.5215  18.8610  18.9621  19.0240  19.2203  19.3067  19.3596
    19.4598  19.4928  19.5374  19.5431  19.5535  19.5842  19.6674  19.7032
    19.7167  19.8317  19.8514  19.9427  19.9750  20.0098  20.0456  20.0556

          k = 0.0000-0.5000-0.5000 ( 10192 PWs)   bands (ev):

   -68.5861 -53.6289 -53.6289 -53.6289 -53.6265 -53.6108 -53.6107 -53.6107
   -53.6107 -52.3143 -52.3143 -52.3127 -52.3085 -52.2981 -52.2981 -52.2970
   -34.6445 -34.6443 -34.6443 -25.0878 -25.0871 -25.0750 -25.0750 -25.0451
   -25.0450 -25.0295 -25.0295 -25.0217 -25.0116 -25.0116 -24.9866 -24.9748
   -24.9744 -24.9635 -24.9635 -24.9586 -24.9586 -24.9481 -24.9478 -24.9027
   -24.9022 -24.9022 -24.8944 -23.6841 -23.6776 -23.6768 -23.6758 -23.6758
   -23.6721 -23.6705 -23.6705 -23.6659 -23.6464 -23.6330 -23.6330 -23.6058
   -23.6026 -23.5914 -23.5914 -23.5892 -23.5860 -23.5801 -23.5790 -23.5790
    12.9234  13.1138  13.1138  13.1342  15.0478  15.1477  15.2496  15.2608
    15.2608  15.2928  15.2938  15.2938  15.4703  15.4703  15.5156  15.5540
    15.6247  15.9505  15.9505  15.9696  16.1406  16.1961  16.1961  16.2188
    16.3429  16.3429  16.4669  16.4883  16.6951  16.7638  16.7638  16.7791
    16.9009  16.9009  16.9165  16.9803  16.9852  17.1983  17.3517  17.3517
    17.3885  17.3893  17.4114  17.4114  17.9397  17.9397  18.0029  18.0199
    18.4379  18.4752  18.8275  19.0156  19.0156  19.2499  19.2499  19.3760
    19.4916  19.5850  19.5850  19.6374  19.6397  19.6779  19.6779  19.7324
    19.7409  19.7799  19.7839  19.7839  19.8907  19.9054  19.9054  19.9294

          k = 0.1667 0.1667 0.1667 ( 10161 PWs)   bands (ev):

   -68.5861 -53.6475 -53.6248 -53.6248 -53.6243 -53.6116 -53.6116 -53.6116
   -53.5997 -52.3167 -52.3167 -52.3121 -52.3097 -52.2992 -52.2992 -52.2894
   -34.6444 -34.6443 -34.6443 -25.1192 -25.1111 -25.1111 -25.0972 -25.0933
   -25.0933 -25.0524 -25.0453 -25.0453 -25.0299 -25.0163 -25.0163 -24.9575
   -24.9575 -24.9352 -24.9145 -24.9122 -24.9122 -24.9025 -24.9025 -24.8972
   -24.8966 -24.8820 -24.8820 -23.7233 -23.7225 -23.7225 -23.6935 -23.6935
   -23.6849 -23.6425 -23.6425 -23.6317 -23.6239 -23.6239 -23.6220 -23.6001
   -23.5948 -23.5948 -23.5904 -23.5878 -23.5878 -23.5855 -23.5618 -23.5618
    11.2407  13.9096  14.0362  14.0362  14.3852  14.4223  14.4223  14.6730
    14.6730  14.6800  14.7386  14.7386  15.2506  15.2648  15.2648  15.7555
    16.0195  16.0195  16.1289  16.1289  16.2111  16.2550  16.2550  16.3368
    16.3595  16.4533  16.4533  16.6783  16.7679  16.7679  17.0391  17.0391
    17.1638  17.4101  17.5196  17.5196  17.5464  17.5464  17.9084  17.9084
    17.9201  17.9852  17.9852  18.0404  18.2123  18.2824  18.2824  18.4087
    18.4758  18.5285  18.5285  18.8119  18.8119  19.1582  19.1582  19.1990
    19.3081  19.4974  19.4974  19.6510  19.6639  19.6639  19.7399  19.7399
    19.8452  19.8452  19.9095  20.0075  20.0075  20.0629  20.1013  20.3224

          k = 0.1667 0.1667 0.3333 ( 10184 PWs)   bands (ev):

   -68.5861 -53.6427 -53.6294 -53.6220 -53.6217 -53.6144 -53.6143 -53.6091
   -53.6023 -52.3157 -52.3153 -52.3128 -52.3091 -52.3007 -52.2982 -52.2914
   -34.6444 -34.6444 -34.6443 -25.1025 -25.0967 -25.0930 -25.0802 -25.0686
   -25.0604 -25.0594 -25.0586 -25.0410 -25.0343 -25.0270 -24.9910 -24.9781
   -24.9543 -24.9522 -24.9418 -24.9274 -24.9173 -24.9151 -24.9132 -24.9042
   -24.8971 -24.8935 -24.8864 -23.7056 -23.7022 -23.7001 -23.6816 -23.6782
   -23.6668 -23.6595 -23.6559 -23.6439 -23.6374 -23.6257 -23.6195 -23.6108
   -23.6078 -23.6026 -23.5918 -23.5901 -23.5858 -23.5826 -23.5695 -23.5677
    11.6578  13.1308  14.1373  14.2190  14.4039  14.4295  14.7208  14.8470
    14.8649  14.9458  14.9480  15.0267  15.2779  15.2977  15.3740  15.5646
    15.6868  15.9474  16.0586  16.1860  16.2179  16.2553  16.3018  16.3063
    16.4438  16.4715  16.6282  16.6904  16.8428  16.8890  16.8996  17.0478
    17.1888  17.2969  17.3186  17.3827  17.3961  17.4241  17.4310  17.5095
    17.5675  17.5849  17.7293  17.8112  17.9217  17.9291  18.1643  18.2035
    18.2707  18.4903  18.8502  18.8733  18.9924  19.2151  19.2269  19.2638
    19.3933  19.4022  19.5237  19.5956  19.6677  19.7459  19.7498  19.7672
    19.8159  19.8665  19.9454  19.9775  19.9877  20.0771  20.1387  20.2418

          k = 0.1667 0.1667-0.5000 ( 10170 PWs)   bands (ev):

   -68.5861 -53.6371 -53.6351 -53.6182 -53.6182 -53.6182 -53.6179 -53.6057
   -53.6056 -52.3148 -52.3144 -52.3135 -52.3088 -52.3015 -52.2971 -52.2928
   -34.6444 -34.6444 -34.6443 -25.0881 -25.0816 -25.0807 -25.0740 -25.0726
   -25.0615 -25.0589 -25.0580 -25.0138 -25.0133 -25.0118 -25.0013 -24.9966
   -24.9947 -24.9539 -24.9523 -24.9338 -24.9250 -24.9223 -24.9200 -24.9007
   -24.8985 -24.8920 -24.8920 -23.6836 -23.6818 -23.6815 -23.6776 -23.6756
   -23.6668 -23.6666 -23.6552 -23.6529 -23.6502 -23.6314 -23.6275 -23.6200
   -23.6195 -23.6027 -23.5923 -23.5866 -23.5821 -23.5780 -23.5773 -23.5721
    12.2604  12.3657  14.2533  14.3569  14.3957  14.3987  15.0281  15.0683
    15.0913  15.1394  15.1533  15.1843  15.2184  15.2472  15.2630  15.3124
    15.4846  15.5690  16.1049  16.1632  16.1702  16.1935  16.4984  16.6135
    16.6212  16.6467  16.6684  16.7407  16.7705  16.7736  17.0626  17.0698
    17.1166  17.1169  17.1722  17.2314  17.3145  17.3660  17.3982  17.4072
    17.4179  17.4298  17.4403  17.4583  17.4668  17.5055  18.2856  18.2904
    18.3139  18.6145  18.9008  19.0528  19.0979  19.2320  19.2484  19.3154
    19.3428  19.4413  19.4619  19.4911  19.6589  19.6998  19.7129  19.7493
    19.8037  19.8784  19.9697  20.0498  20.0760  20.1120  20.1599  20.2408

          k = 0.1667 0.3333 0.3333 ( 10137 PWs)   bands (ev):

   -68.5861 -53.6384 -53.6267 -53.6258 -53.6192 -53.6175 -53.6118 -53.6118
   -53.6048 -52.3148 -52.3144 -52.3130 -52.3085 -52.3002 -52.2987 -52.2934
   -34.6444 -34.6443 -34.6442 -25.0881 -25.0860 -25.0720 -25.0681 -25.0542
   -25.0522 -25.0519 -25.0425 -25.0424 -25.0244 -25.0199 -24.9947 -24.9865
   -24.9616 -24.9541 -24.9454 -24.9452 -24.9274 -24.9262 -24.9227 -24.9166
   -24.9098 -24.9089 -24.8954 -23.6919 -23.6908 -23.6882 -23.6752 -23.6676
   -23.6660 -23.6653 -23.6523 -23.6504 -23.6426 -23.6345 -23.6237 -23.6139
   -23.6063 -23.6021 -23.5998 -23.5919 -23.5851 -23.5828 -23.5760 -23.5752
    12.0535  13.3730  13.4630  14.1508  14.4286  14.7360  14.7698  15.0301
    15.1317  15.1378  15.1942  15.2175  15.3923  15.4618  15.4819  15.5410
    15.8239  15.9059  15.9277  16.0785  16.1620  16.2914  16.3308  16.3968
    16.4152  16.4898  16.5318  16.6131  16.6751  16.8699  16.9209  16.9293
    17.0100  17.0703  17.1119  17.1723  17.2236  17.2263  17.2612  17.2960
    17.3228  17.3745  17.4319  17.5231  17.5363  17.7550  17.7970  18.2912
    18.4214  18.4664  18.9860  19.0152  19.0971  19.1408  19.3278  19.3882
    19.4653  19.5013  19.5849  19.5882  19.6695  19.6833  19.7922  19.7944
    19.8097  19.8423  19.8687  19.9130  20.0085  20.0408  20.0647  20.1470

          k = 0.1667 0.3333-0.5000 ( 10158 PWs)   bands (ev):

   -68.5861 -53.6331 -53.6316 -53.6222 -53.6216 -53.6156 -53.6154 -53.6084
   -53.6083 -52.3142 -52.3140 -52.3130 -52.3082 -52.3004 -52.2980 -52.2951
   -34.6444 -34.6443 -34.6443 -25.0792 -25.0763 -25.0685 -25.0667 -25.0546
   -25.0533 -25.0421 -25.0307 -25.0161 -25.0121 -25.0089 -24.9958 -24.9956
   -24.9839 -24.9617 -24.9592 -24.9491 -24.9457 -24.9281 -24.9276 -24.9213
   -24.9169 -24.9039 -24.9019 -23.6804 -23.6776 -23.6762 -23.6741 -23.6733
   -23.6692 -23.6645 -23.6574 -23.6518 -23.6458 -23.6324 -23.6313 -23.6171
   -23.6129 -23.5998 -23.5965 -23.5880 -23.5878 -23.5846 -23.5818 -23.5783
    12.6112  12.7236  13.7516  13.8503  14.6231  14.7145  15.1389  15.1895
    15.2421  15.3364  15.3417  15.3525  15.3532  15.4312  15.4796  15.5707
    15.5911  15.6600  16.0897  16.1753  16.2706  16.2850  16.3567  16.3675
    16.3885  16.4152  16.4885  16.5783  16.7116  16.7586  16.8249  16.8415
    16.9165  16.9314  16.9607  17.1129  17.1252  17.1274  17.2372  17.2558
    17.2723  17.2933  17.3106  17.3168  17.3613  17.3663  18.0829  18.0899
    18.4402  18.5260  18.9455  19.0541  19.1091  19.3758  19.4198  19.4259
    19.5309  19.5325  19.5530  19.5555  19.6643  19.6785  19.7398  19.7451
    19.8563  19.8783  19.9106  19.9631  20.0202  20.0237  20.0548  20.0835

          k = 0.1667-0.5000-0.5000 ( 10192 PWs)   bands (ev):

   -68.5861 -53.6277 -53.6276 -53.6276 -53.6255 -53.6120 -53.6119 -53.6119
   -53.6117 -52.3139 -52.3139 -52.3127 -52.3080 -52.2985 -52.2985 -52.2976
   -34.6445 -34.6443 -34.6443 -25.0759 -25.0756 -25.0646 -25.0646 -25.0389
   -25.0388 -25.0261 -25.0261 -25.0182 -25.0077 -25.0077 -24.9907 -24.9773
   -24.9708 -24.9677 -24.9677 -24.9616 -24.9616 -24.9551 -24.9549 -24.9153
   -24.9133 -24.9133 -24.9079 -23.6790 -23.6721 -23.6711 -23.6704 -23.6704
   -23.6667 -23.6650 -23.6650 -23.6603 -23.6462 -23.6326 -23.6326 -23.6099
   -23.6068 -23.5960 -23.5960 -23.5939 -23.5909 -23.5866 -23.5855 -23.5855
    13.0485  13.2430  13.2430  13.2629  14.9308  15.0755  15.0755  15.0991
    15.1988  15.3851  15.4007  15.4007  15.6376  15.6646  15.6646  15.6693
    15.7245  15.9706  15.9706  15.9906  16.1413  16.1879  16.1879  16.2138
    16.3624  16.3624  16.4881  16.5059  16.5917  16.6283  16.6629  16.6629
    16.8488  16.8616  16.8616  16.9388  16.9419  17.0621  17.1961  17.1961
    17.2315  17.2355  17.2364  17.2364  17.6572  17.6572  17.6908  17.7032
    18.5046  18.5158  19.0457  19.1128  19.1128  19.4950  19.4950  19.5507
    19.5840  19.6487  19.6487  19.6895  19.6899  19.7809  19.7809  19.8217
    19.8300  19.8300  19.9008  19.9015  19.9124  19.9329  19.9659  19.9660

          k = 0.3333 0.3333 0.3333 ( 10117 PWs)   bands (ev):

   -68.5860 -53.6344 -53.6236 -53.6236 -53.6226 -53.6150 -53.6150 -53.6146
   -53.6075 -52.3138 -52.3138 -52.3129 -52.3076 -52.2997 -52.2997 -52.2953
   -34.6443 -34.6442 -34.6442 -25.0653 -25.0600 -25.0600 -25.0496 -25.0438
   -25.0438 -25.0427 -25.0303 -25.0303 -25.0217 -25.0094 -25.0094 -24.9769
   -24.9769 -24.9577 -24.9472 -24.9472 -24.9390 -24.9390 -24.9372 -24.9326
   -24.9303 -24.9255 -24.9255 -23.6805 -23.6746 -23.6746 -23.6673 -23.6673
   -23.6599 -23.6599 -23.6577 -23.6481 -23.6297 -23.6297 -23.6259 -23.6193
   -23.6112 -23.6095 -23.6095 -23.6036 -23.5890 -23.5890 -23.5851 -23.5851
    12.4372  13.6439  13.7775  13.7775  14.4782  14.5529  14.5529  15.2718
    15.2718  15.4133  15.4227  15.4227  15.5313  15.6706  15.6706  15.7286
    15.8504  15.8504  15.9140  15.9892  16.1632  16.1632  16.3562  16.3562
    16.4809  16.5897  16.5897  16.6088  16.6675  16.6675  16.8075  16.8342
    16.8342  16.8554  16.8554  16.8888  16.9573  17.0290  17.0290  17.0623
    17.1181  17.1181  17.1696  17.1696  17.3352  17.3352  17.3855  18.0235
    18.5053  18.5053  19.0489  19.1908  19.1908  19.3740  19.5185  19.5185
    19.5882  19.6664  19.6664  19.7223  19.7908  19.7908  19.8325  19.8325
    19.8375  19.9289  19.9289  20.0165  20.0410  20.0567  20.0567  20.1952

          k = 0.3333 0.3333-0.5000 ( 10138 PWs)   bands (ev):

   -68.5861 -53.6294 -53.6282 -53.6193 -53.6193 -53.6193 -53.6183 -53.6113
   -53.6111 -52.3135 -52.3133 -52.3130 -52.3072 -52.3003 -52.2988 -52.2969
   -34.6443 -34.6442 -34.6442 -25.0516 -25.0516 -25.0501 -25.0462 -25.0430
   -25.0318 -25.0313 -25.0296 -25.0113 -25.0080 -24.9979 -24.9968 -24.9965
   -24.9808 -24.9720 -24.9681 -24.9621 -24.9500 -24.9419 -24.9413 -24.9366
   -24.9357 -24.9356 -24.9355 -23.6714 -23.6674 -23.6663 -23.6658 -23.6634
   -23.6614 -23.6486 -23.6482 -23.6464 -23.6454 -23.6291 -23.6257 -23.6242
   -23.6225 -23.6095 -23.6061 -23.5985 -23.5983 -23.5963 -23.5917 -23.5893
    12.9659  13.0858  14.0412  14.1758  14.1999  14.2103  15.0294  15.1089
    15.3907  15.4736  15.6118  15.6457  15.6507  15.6537  15.6570  15.6604
    15.7751  15.8365  16.0771  16.2568  16.2577  16.2838  16.3256  16.3318
    16.3338  16.3347  16.5087  16.5429  16.5867  16.6909  16.6987  16.7310
    16.7541  16.7587  16.8233  16.8463  16.8781  16.8782  16.9889  16.9891
    17.0009  17.0152  17.0354  17.0404  17.0595  17.0632  17.5928  17.6015
    18.5319  18.5483  19.1425  19.2040  19.2691  19.6015  19.6182  19.6497
    19.6540  19.7074  19.7478  19.7815  19.7908  19.8220  19.8222  19.8419
    19.8598  19.9706  19.9774  19.9969  20.0277  20.0584  20.0648  20.0726

          k = 0.3333-0.5000-0.5000 ( 10128 PWs)   bands (ev):

   -68.5861 -53.6244 -53.6243 -53.6243 -53.6227 -53.6153 -53.6153 -53.6153
   -53.6145 -52.3131 -52.3131 -52.3127 -52.3067 -52.2993 -52.2993 -52.2989
   -34.6443 -34.6442 -34.6442 -25.0446 -25.0414 -25.0357 -25.0357 -25.0218
   -25.0216 -25.0172 -25.0172 -25.0084 -24.9974 -24.9974 -24.9956 -24.9858
   -24.9782 -24.9782 -24.9735 -24.9732 -24.9713 -24.9713 -24.9659 -24.9489
   -24.9441 -24.9421 -24.9421 -23.6675 -23.6584 -23.6558 -23.6558 -23.6553
   -23.6524 -23.6502 -23.6502 -23.6448 -23.6446 -23.6309 -23.6309 -23.6206
   -23.6179 -23.6088 -23.6088 -23.6065 -23.6046 -23.6039 -23.6024 -23.6024
    13.3994  13.6088  13.6088  13.6276  14.5358  14.6837  14.6837  14.7073
    15.4582  15.6655  15.6875  15.7100  15.7100  15.9538  15.9772  15.9772
    16.0345  16.0345  16.0458  16.0469  16.1356  16.1556  16.1556  16.1831
    16.3939  16.3939  16.4720  16.4749  16.5558  16.5558  16.5633  16.5721
    16.5950  16.7661  16.7661  16.7722  16.8246  16.8246  16.8292  16.8299
    16.9087  16.9129  16.9183  16.9183  17.1343  17.1343  17.1560  17.1625
    18.5640  18.5741  19.2804  19.2804  19.2848  19.7221  19.7221  19.7430
    19.8037  19.8325  19.8704  19.8704  19.8874  19.9501  19.9501  19.9511
    19.9560  19.9742  19.9742  19.9762  19.9911  19.9999  19.9999  20.0127

          k =-0.5000-0.5000-0.5000 ( 10048 PWs)   bands (ev):

   -68.5860 -53.6199 -53.6198 -53.6198 -53.6198 -53.6198 -53.6198 -53.6198
   -53.6175 -52.3127 -52.3127 -52.3127 -52.3058 -52.2997 -52.2997 -52.2997
   -34.6441 -34.6441 -34.6441 -25.0111 -25.0111 -25.0111 -24.9980 -24.9980
   -24.9980 -24.9979 -24.9979 -24.9978 -24.9978 -24.9974 -24.9974 -24.9974
   -24.9973 -24.9963 -24.9895 -24.9895 -24.9895 -24.9826 -24.9826 -24.9826
   -24.9631 -24.9631 -24.9631 -23.6605 -23.6459 -23.6459 -23.6459 -23.6415
   -23.6402 -23.6402 -23.6307 -23.6307 -23.6307 -23.6269 -23.6269 -23.6269
   -23.6258 -23.6258 -23.6258 -23.6214 -23.6214 -23.6176 -23.6176 -23.6176
    13.7842  14.1215  14.1215  14.1215  14.1545  14.1545  14.1545  14.1592
    15.6808  15.6808  16.0571  16.0571  16.0571  16.0852  16.0852  16.0852
    16.1151  16.1151  16.1249  16.1249  16.1249  16.1291  16.1291  16.1291
    16.3406  16.3406  16.3406  16.6464  16.6734  16.6734  16.6734  16.6803
    16.6803  16.6803  16.6833  16.6833  16.6836  16.6836  16.6836  16.6861
    16.6921  16.6921  16.6921  16.6942  16.6942  16.6982  16.6982  16.6982
    18.5940  18.5940  19.3665  19.3665  19.3665  19.8839  19.8839  19.8839
    19.8857  19.8857  19.8857  19.8931  19.8931  19.8962  19.8962  19.8962
    19.9998  19.9998  19.9998  20.2039  20.2039  20.2842  20.2842  20.2843

 ------ SPIN DOWN ----------


          k = 0.0000 0.0000 0.0000 ( 10131 PWs)   bands (ev):

   -68.2545 -53.6390 -53.6158 -53.6158 -53.5971 -53.5933 -53.5933 -53.5857
   -52.3270 -52.3270 -52.3270 -52.3241 -52.3121 -52.3121 -52.3121 -52.2980
   -34.3235 -34.3235 -34.3235 -25.1267 -25.1267 -25.1267 -25.1074 -25.1074
   -25.1074 -25.0143 -25.0143 -25.0143 -24.9778 -24.9778 -24.9778 -24.9237
   -24.9237 -24.9237 -24.8679 -24.8679 -24.8679 -24.8678 -24.8678 -24.8678
   -23.7815 -23.7689 -23.7689 -23.7448 -23.7448 -23.7448 -23.6636 -23.6636
   -23.6636 -23.6251 -23.6251 -23.6251 -23.6121 -23.6121 -23.6121 -23.6044
   -23.6044 -23.6044 -23.6020 -23.5899 -23.5899 -23.5608 -23.5608 -23.5608
    10.8257  14.3246  14.3246  14.3246  14.3274  14.4757  14.4757  14.5152
    14.5638  14.5638  14.6869  14.6869  14.8561  14.8561  14.8561  16.0460
    16.0460  16.0460  16.2856  16.2856  16.2856  16.3066  16.3066  16.3066
    16.5885  16.6443  16.6443  16.8231  16.8231  16.8231  17.4493  17.4493
    17.4493  17.5926  17.5926  17.5926  17.7534  17.7534  17.7534  17.7609
    17.7609  17.7609  18.6638  18.6638  18.6638  18.9085  18.9085  18.9085
    18.9470  18.9470  18.9470  19.4879  19.4879  19.5792  19.5793  19.5793
    19.6708  19.6773  19.6788  19.6788  19.6804  19.6804  19.6804  19.7146
    19.7146  19.8699  19.8699  19.9608  19.9608  19.9608  20.0675  20.6189

          k = 0.0000 0.0000 0.1667 ( 10143 PWs)   bands (ev):

   -68.2545 -53.6373 -53.6167 -53.6152 -53.5972 -53.5938 -53.5932 -53.5864
   -52.3269 -52.3260 -52.3260 -52.3242 -52.3131 -52.3131 -52.3112 -52.2990
   -34.3236 -34.3236 -34.3235 -25.1194 -25.1194 -25.1112 -25.1038 -25.1038
   -25.0954 -25.0213 -25.0213 -25.0086 -24.9813 -24.9813 -24.9757 -24.9346
   -24.9220 -24.9220 -24.8876 -24.8786 -24.8707 -24.8707 -24.8682 -24.8682
   -23.7731 -23.7574 -23.7554 -23.7377 -23.7377 -23.7341 -23.6698 -23.6656
   -23.6656 -23.6333 -23.6277 -23.6277 -23.6127 -23.6127 -23.6113 -23.6077
   -23.6036 -23.6027 -23.6027 -23.5954 -23.5910 -23.5749 -23.5636 -23.5636
    10.9735  13.8708  14.3814  14.3814  14.4113  14.4305  14.5239  14.5825
    14.6034  14.6313  14.7006  14.7541  14.8817  14.8817  15.2373  15.9216
    16.0457  16.0457  16.2626  16.2693  16.2693  16.3524  16.3769  16.3785
    16.3785  16.5874  16.5966  16.6450  16.9519  16.9519  17.1628  17.1628
    17.4917  17.6097  17.6231  17.6231  17.7365  17.7365  17.7637  17.8376
    18.0920  18.0920  18.1745  18.1745  18.5571  18.6638  18.7441  18.9990
    19.0246  19.0551  19.0551  19.0859  19.0859  19.2209  19.2209  19.4805
    19.4805  19.4945  19.6219  19.6502  19.6718  19.6919  19.7270  19.7742
    19.8781  19.8781  19.9031  19.9909  20.1696  20.2194  20.2331  20.2864

          k = 0.0000 0.0000 0.3333 ( 10175 PWs)   bands (ev):

   -68.2546 -53.6330 -53.6196 -53.6139 -53.5971 -53.5951 -53.5930 -53.5881
   -52.3267 -52.3243 -52.3233 -52.3233 -52.3158 -52.3158 -52.3086 -52.3016
   -34.3236 -34.3236 -34.3235 -25.0996 -25.0996 -25.0950 -25.0950 -25.0676
   -25.0624 -25.0414 -25.0414 -24.9997 -24.9893 -24.9893 -24.9704 -24.9606
   -24.9386 -24.9180 -24.9180 -24.9055 -24.8772 -24.8772 -24.8685 -24.8685
   -23.7530 -23.7275 -23.7204 -23.7204 -23.7178 -23.7070 -23.6859 -23.6736
   -23.6736 -23.6564 -23.6324 -23.6309 -23.6309 -23.6169 -23.6169 -23.6130
   -23.6086 -23.6009 -23.6007 -23.5950 -23.5950 -23.5937 -23.5719 -23.5719
    11.4056  12.9493  14.5317  14.5364  14.5364  14.6420  14.6959  14.7264
    14.7788  14.8702  14.8767  14.8767  14.9293  14.9665  15.3319  15.5878
    15.7311  16.0670  16.0670  16.1026  16.2042  16.2042  16.5447  16.5805
    16.6167  16.6167  16.6572  16.6957  17.0999  17.0999  17.1954  17.2674
    17.3064  17.3064  17.4861  17.4861  17.6371  17.6371  17.7047  17.7047
    17.7742  17.8104  17.8747  18.2154  18.2154  18.3275  18.4457  18.4983
    18.4983  18.6976  18.6976  19.1904  19.1917  19.4305  19.4461  19.4461
    19.5205  19.5535  19.6180  19.6180  19.6372  19.6561  19.6823  19.7584
    20.0063  20.0962  20.1197  20.1197  20.3354  20.3986  20.5059  20.5369

          k = 0.0000 0.0000-0.5000 ( 10154 PWs)   bands (ev):

   -68.2545 -53.6293 -53.6228 -53.6132 -53.5968 -53.5958 -53.5928 -53.5892
   -52.3266 -52.3244 -52.3196 -52.3196 -52.3195 -52.3195 -52.3051 -52.3051
   -34.3236 -34.3236 -34.3233 -25.0921 -25.0921 -25.0705 -25.0705 -25.0692
   -25.0692 -25.0218 -25.0137 -25.0112 -24.9983 -24.9937 -24.9937 -24.9889
   -24.9426 -24.9333 -24.9151 -24.9151 -24.8810 -24.8810 -24.8686 -24.8686
   -23.7377 -23.7059 -23.7059 -23.6996 -23.6905 -23.6899 -23.6844 -23.6844
   -23.6696 -23.6692 -23.6660 -23.6643 -23.6308 -23.6308 -23.6200 -23.6200
   -23.6048 -23.6047 -23.5972 -23.5972 -23.5852 -23.5852 -23.5818 -23.5818
    12.0602  12.1136  14.6121  14.7136  14.7136  14.7215  14.7292  14.7621
    14.7621  14.8228  15.1045  15.1277  15.1672  15.1808  15.2006  15.3248
    15.4792  15.5212  16.1218  16.1218  16.1300  16.1300  16.7924  16.8872
    16.8970  16.8997  16.9744  16.9744  17.0155  17.0266  17.0266  17.0522
    17.0681  17.1203  17.4774  17.4774  17.4817  17.4817  17.6094  17.6094
    17.6887  17.6887  17.8239  17.8239  17.8544  17.8544  18.0246  18.1302
    18.9924  19.0262  19.1616  19.1616  19.2569  19.2569  19.3272  19.3917
    19.3968  19.4288  19.6129  19.6714  19.6793  19.7726  19.9439  19.9439
    19.9982  19.9982  20.1353  20.1837  20.2330  20.3095  20.6316  20.6316

          k = 0.0000 0.1667 0.1667 ( 10167 PWs)   bands (ev):

   -68.2546 -53.6357 -53.6166 -53.6154 -53.5974 -53.5942 -53.5935 -53.5871
   -52.3263 -52.3257 -52.3250 -52.3241 -52.3140 -52.3122 -52.3122 -52.2999
   -34.3236 -34.3236 -34.3235 -25.1128 -25.1105 -25.1014 -25.1009 -25.0920
   -25.0894 -25.0275 -25.0160 -25.0158 -24.9841 -24.9807 -24.9780 -24.9374
   -24.9285 -24.9201 -24.8926 -24.8838 -24.8805 -24.8780 -24.8719 -24.8701
   -23.7654 -23.7466 -23.7455 -23.7354 -23.7316 -23.7212 -23.6722 -23.6712
   -23.6663 -23.6407 -23.6326 -23.6280 -23.6187 -23.6121 -23.6111 -23.6077
   -23.6031 -23.6027 -23.5993 -23.5986 -23.5935 -23.5874 -23.5662 -23.5662
    11.1190  13.9123  13.9789  14.3525  14.4834  14.4904  14.5388  14.6305
    14.6503  14.6922  14.7703  14.7857  14.9203  15.2619  15.2843  15.8486
    16.0337  16.0497  16.2517  16.2769  16.3296  16.3302  16.3348  16.3594
    16.3842  16.5094  16.5692  16.7441  16.7500  16.9479  17.0177  17.3422
    17.3971  17.4587  17.5219  17.6100  17.6113  17.6673  17.8792  17.8868
    18.1494  18.2415  18.2484  18.2819  18.2920  18.3416  18.5284  18.5526
    18.7862  18.7909  18.8595  19.0602  19.0962  19.1164  19.3913  19.4199
    19.5501  19.6172  19.6424  19.6989  19.7070  19.7171  19.7597  19.8479
    19.8735  19.8989  19.9230  20.0424  20.0526  20.1212  20.2947  20.3723

          k = 0.0000 0.1667 0.3333 ( 10191 PWs)   bands (ev):

   -68.2546 -53.6315 -53.6190 -53.6143 -53.5973 -53.5954 -53.5935 -53.5889
   -52.3261 -52.3242 -52.3232 -52.3223 -52.3165 -52.3149 -52.3096 -52.3025
   -34.3236 -34.3236 -34.3235 -25.0959 -25.0934 -25.0927 -25.0838 -25.0605
   -25.0561 -25.0449 -25.0353 -25.0083 -24.9899 -24.9870 -24.9697 -24.9634
   -24.9378 -24.9260 -24.9156 -24.9061 -24.8887 -24.8804 -24.8777 -24.8711
   -23.7473 -23.7224 -23.7201 -23.7157 -23.7138 -23.6968 -23.6874 -23.6785
   -23.6717 -23.6604 -23.6405 -23.6287 -23.6281 -23.6264 -23.6226 -23.6145
   -23.6065 -23.6020 -23.5986 -23.5965 -23.5950 -23.5938 -23.5741 -23.5737
    11.5437  13.0514  14.1143  14.3328  14.6395  14.7150  14.7802  14.7967
    14.8449  14.9426  14.9481  14.9761  15.0183  15.2622  15.3857  15.5939
    15.7680  15.9815  16.0739  16.2473  16.2674  16.2922  16.4114  16.4953
    16.5374  16.5665  16.5991  16.7842  16.7866  17.0800  17.1614  17.2385
    17.2667  17.4100  17.4172  17.4620  17.5174  17.5225  17.5525  17.6400
    17.6906  17.6930  18.0384  18.0516  18.0973  18.1185  18.2767  18.3035
    18.6428  18.7530  18.7794  19.2128  19.2294  19.3826  19.4002  19.4256
    19.4875  19.5630  19.6376  19.6518  19.6807  19.7100  19.7464  19.8211
    19.9194  19.9599  20.0274  20.0442  20.2362  20.2447  20.3057  20.3196

          k = 0.0000 0.1667-0.5000 ( 10158 PWs)   bands (ev):

   -68.2545 -53.6279 -53.6220 -53.6136 -53.5970 -53.5961 -53.5933 -53.5900
   -52.3262 -52.3241 -52.3200 -52.3199 -52.3186 -52.3186 -52.3061 -52.3060
   -34.3236 -34.3235 -34.3234 -25.0914 -25.0834 -25.0700 -25.0690 -25.0635
   -25.0604 -25.0210 -25.0143 -25.0097 -24.9982 -24.9930 -24.9929 -24.9791
   -24.9492 -24.9362 -24.9204 -24.9125 -24.8907 -24.8815 -24.8809 -24.8714
   -23.7328 -23.7075 -23.7030 -23.6993 -23.6903 -23.6901 -23.6891 -23.6851
   -23.6689 -23.6681 -23.6656 -23.6553 -23.6368 -23.6328 -23.6269 -23.6183
   -23.6066 -23.6020 -23.5969 -23.5956 -23.5861 -23.5851 -23.5843 -23.5829
    12.1835  12.2390  14.2395  14.2951  14.8103  14.8251  14.8506  14.8560
    15.0618  15.0702  15.1661  15.1726  15.2075  15.2491  15.2685  15.3860
    15.5174  15.5537  16.1428  16.1528  16.1863  16.2014  16.6753  16.7193
    16.7877  16.8139  16.8145  16.8225  16.8407  16.9071  17.0699  17.1391
    17.1763  17.1983  17.4394  17.4495  17.4673  17.4805  17.5022  17.5334
    17.5442  17.5604  17.5887  17.6148  17.6984  17.7304  18.1900  18.2408
    19.0788  19.0951  19.1419  19.1595  19.2211  19.2960  19.3866  19.4275
    19.4396  19.4594  19.6611  19.6842  19.7418  19.7492  19.7566  19.7608
    19.8232  19.8581  20.0965  20.1435  20.1886  20.2512  20.2700  20.2796

          k = 0.0000 0.3333 0.3333 ( 10155 PWs)   bands (ev):

   -68.2545 -53.6277 -53.6184 -53.6155 -53.5972 -53.5965 -53.5939 -53.5908
   -52.3253 -52.3232 -52.3232 -52.3196 -52.3184 -52.3123 -52.3123 -52.3051
   -34.3236 -34.3234 -34.3234 -25.0916 -25.0837 -25.0766 -25.0557 -25.0548
   -25.0496 -25.0301 -25.0242 -25.0206 -24.9912 -24.9873 -24.9755 -24.9627
   -24.9477 -24.9380 -24.9142 -24.9099 -24.9087 -24.9077 -24.8793 -24.8766
   -23.7330 -23.7105 -23.7077 -23.7048 -23.7027 -23.6935 -23.6872 -23.6822
   -23.6710 -23.6628 -23.6572 -23.6464 -23.6428 -23.6280 -23.6225 -23.6126
   -23.6067 -23.6025 -23.5967 -23.5959 -23.5952 -23.5920 -23.5806 -23.5791
    11.9443  13.3068  13.3532  14.0546  14.9080  14.9340  14.9895  15.0462
    15.0804  15.0848  15.1240  15.1356  15.2253  15.3746  15.4418  15.5407
    15.9141  15.9690  16.0136  16.0872  16.3424  16.3504  16.4313  16.4595
    16.4809  16.4957  16.6060  16.6239  16.6263  17.0340  17.0618  17.1453
    17.1626  17.1746  17.2726  17.3200  17.3257  17.3728  17.3883  17.4209
    17.4453  17.5430  17.6879  17.7752  17.8205  17.9462  18.0568  18.2315
    18.9321  19.0012  19.0571  19.2387  19.3087  19.3296  19.3571  19.5144
    19.5967  19.6121  19.6426  19.6469  19.6788  19.7280  19.7422  19.7475
    19.8258  19.8317  19.9010  19.9313  19.9658  20.0112  20.0237  20.0561

          k = 0.0000 0.3333-0.5000 ( 10156 PWs)   bands (ev):

   -68.2545 -53.6242 -53.6203 -53.6155 -53.5972 -53.5968 -53.5939 -53.5921
   -52.3251 -52.3232 -52.3211 -52.3208 -52.3160 -52.3159 -52.3087 -52.3087
   -34.3236 -34.3234 -34.3234 -25.0900 -25.0690 -25.0687 -25.0636 -25.0489
   -25.0376 -25.0196 -25.0192 -25.0069 -24.9918 -24.9889 -24.9795 -24.9687
   -24.9630 -24.9427 -24.9348 -24.9160 -24.9117 -24.9061 -24.8825 -24.8780
   -23.7203 -23.7095 -23.6980 -23.6935 -23.6916 -23.6897 -23.6864 -23.6859
   -23.6769 -23.6767 -23.6614 -23.6552 -23.6502 -23.6335 -23.6184 -23.6149
   -23.6083 -23.6011 -23.5949 -23.5947 -23.5897 -23.5894 -23.5874 -23.5862
    12.5352  12.5963  13.6714  13.7320  15.0538  15.0890  15.1306  15.1877
    15.2419  15.2440  15.2477  15.2741  15.2940  15.3907  15.5406  15.6001
    15.6025  15.6326  16.1739  16.1849  16.3556  16.3833  16.4068  16.4175
    16.4313  16.4701  16.5485  16.6205  16.8266  16.8290  16.9286  16.9997
    17.0097  17.0155  17.1764  17.1931  17.3479  17.4098  17.4100  17.4371
    17.4682  17.4715  17.4789  17.4950  17.5483  17.5541  18.2412  18.2520
    19.0740  19.1250  19.3006  19.3050  19.4253  19.4621  19.4743  19.4837
    19.5056  19.5293  19.5491  19.5595  19.5766  19.5825  19.6473  19.7199
    19.7613  19.8519  19.9859  20.0003  20.0206  20.0236  20.0308  20.0421

          k = 0.0000-0.5000-0.5000 ( 10192 PWs)   bands (ev):

   -68.2546 -53.6196 -53.6193 -53.6193 -53.5980 -53.5956 -53.5941 -53.5941
   -52.3242 -52.3220 -52.3219 -52.3219 -52.3124 -52.3123 -52.3123 -52.3123
   -34.3236 -34.3234 -34.3234 -25.0893 -25.0686 -25.0686 -25.0506 -25.0414
   -25.0213 -25.0195 -25.0195 -25.0084 -24.9912 -24.9776 -24.9776 -24.9603
   -24.9570 -24.9440 -24.9435 -24.9403 -24.9403 -24.9014 -24.8831 -24.8831
   -23.7101 -23.7101 -23.6965 -23.6957 -23.6842 -23.6842 -23.6837 -23.6836
   -23.6805 -23.6805 -23.6726 -23.6725 -23.6518 -23.6178 -23.6135 -23.6135
   -23.6083 -23.6083 -23.5925 -23.5921 -23.5920 -23.5913 -23.5913 -23.5909
    13.0124  13.1151  13.1151  13.1390  15.2545  15.2736  15.2878  15.2878
    15.2932  15.3046  15.3046  15.3471  15.5451  15.5485  15.5485  15.5768
    15.9553  15.9553  15.9683  16.0742  16.2100  16.2100  16.2214  16.2315
    16.4389  16.4389  16.4704  16.5936  16.6957  16.7755  16.7755  16.7868
    16.9308  16.9308  16.9890  16.9958  17.2869  17.3290  17.3759  17.3759
    17.3853  17.3932  17.3932  17.4107  17.8937  17.8937  18.0031  18.0070
    19.1345  19.2230  19.2491  19.2491  19.4859  19.5269  19.5659  19.5781
    19.5781  19.6292  19.6292  19.6458  19.6632  19.6632  19.7101  19.7241
    19.7407  19.7407  19.7697  19.7757  19.7785  19.8943  19.9441  19.9441

          k = 0.1667 0.1667 0.1667 ( 10161 PWs)   bands (ev):

   -68.2546 -53.6342 -53.6160 -53.6160 -53.5976 -53.5941 -53.5941 -53.5879
   -52.3257 -52.3248 -52.3248 -52.3239 -52.3131 -52.3131 -52.3131 -52.3009
   -34.3236 -34.3235 -34.3235 -25.1063 -25.0993 -25.0993 -25.0870 -25.0856
   -25.0856 -25.0243 -25.0205 -25.0205 -24.9823 -24.9823 -24.9818 -24.9355
   -24.9355 -24.9230 -24.8918 -24.8918 -24.8820 -24.8817 -24.8801 -24.8801
   -23.7580 -23.7375 -23.7375 -23.7287 -23.7287 -23.7110 -23.6731 -23.6726
   -23.6726 -23.6405 -23.6405 -23.6277 -23.6166 -23.6166 -23.6138 -23.6099
   -23.6061 -23.5990 -23.5990 -23.5974 -23.5971 -23.5971 -23.5694 -23.5694
    11.2626  13.9624  14.0590  14.0590  14.4518  14.4840  14.4840  14.6604
    14.7339  14.7339  14.8398  14.8398  15.2863  15.3456  15.3456  15.7976
    16.0598  16.0598  16.2117  16.2616  16.2616  16.3451  16.3451  16.3649
    16.4458  16.4704  16.4704  16.7193  16.8479  16.8479  17.1403  17.1403
    17.1789  17.4171  17.5305  17.5305  17.5760  17.5760  17.9634  17.9634
    17.9862  18.0230  18.1707  18.1707  18.2118  18.4416  18.4416  18.4593
    18.4780  18.5474  18.5474  19.1731  19.1731  19.2107  19.5550  19.5550
    19.6042  19.6279  19.6279  19.6348  19.7085  19.7085  19.7998  19.7998
    19.8532  19.8790  19.8790  20.0203  20.0203  20.0774  20.3163  20.4005

          k = 0.1667 0.1667 0.3333 ( 10184 PWs)   bands (ev):

   -68.2546 -53.6301 -53.6184 -53.6146 -53.5976 -53.5956 -53.5940 -53.5897
   -52.3256 -52.3238 -52.3224 -52.3223 -52.3156 -52.3156 -52.3105 -52.3034
   -34.3236 -34.3235 -34.3235 -25.0892 -25.0872 -25.0850 -25.0785 -25.0543
   -25.0530 -25.0397 -25.0353 -25.0125 -24.9910 -24.9847 -24.9730 -24.9627
   -24.9379 -24.9266 -24.9235 -24.9063 -24.8904 -24.8894 -24.8828 -24.8828
   -23.7409 -23.7181 -23.7162 -23.7113 -23.7099 -23.6917 -23.6882 -23.6772
   -23.6761 -23.6588 -23.6401 -23.6310 -23.6305 -23.6260 -23.6242 -23.6220
   -23.6066 -23.6044 -23.6026 -23.5986 -23.5944 -23.5916 -23.5780 -23.5760
    11.6808  13.1567  14.1805  14.2480  14.4452  14.4767  14.7947  14.8875
    14.9369  15.0162  15.0368  15.0844  15.3200  15.3835  15.4613  15.6114
    15.7840  16.0033  16.1018  16.2748  16.3102  16.3135  16.3457  16.3811
    16.4824  16.5018  16.6919  16.7062  16.9227  16.9490  16.9805  17.1181
    17.2510  17.3129  17.3272  17.4090  17.4503  17.4869  17.4996  17.5142
    17.5845  17.5985  17.8611  17.8826  17.9243  17.9725  18.1466  18.1593
    18.7882  18.8464  18.8740  19.2835  19.2921  19.4376  19.4560  19.4681
    19.5140  19.5557  19.6294  19.6948  19.6989  19.7369  19.7473  19.8575
    19.9027  19.9161  19.9790  19.9888  20.0116  20.1509  20.1729  20.2890

          k = 0.1667 0.1667-0.5000 ( 10170 PWs)   bands (ev):

   -68.2546 -53.6266 -53.6212 -53.6138 -53.5973 -53.5963 -53.5938 -53.5909
   -52.3257 -52.3237 -52.3191 -52.3190 -52.3190 -52.3189 -52.3070 -52.3070
   -34.3236 -34.3235 -34.3234 -25.0833 -25.0809 -25.0620 -25.0619 -25.0601
   -25.0590 -25.0199 -25.0124 -25.0110 -25.0006 -24.9889 -24.9846 -24.9798
   -24.9526 -24.9399 -24.9255 -24.9155 -24.8938 -24.8902 -24.8838 -24.8838
   -23.7281 -23.7052 -23.7029 -23.6981 -23.6942 -23.6888 -23.6857 -23.6777
   -23.6699 -23.6696 -23.6633 -23.6513 -23.6331 -23.6326 -23.6321 -23.6261
   -23.6083 -23.6015 -23.5997 -23.5957 -23.5902 -23.5885 -23.5841 -23.5839
    12.3075  12.3650  14.3133  14.4116  14.4133  14.4162  15.1182  15.1673
    15.1757  15.2005  15.2111  15.2409  15.2589  15.3068  15.3292  15.4383
    15.5596  15.5921  16.1748  16.1864  16.2241  16.2430  16.6456  16.6812
    16.6820  16.6934  16.7546  16.7580  16.7780  16.8256  17.0794  17.1250
    17.1463  17.1574  17.3455  17.3660  17.3789  17.3915  17.4222  17.4369
    17.4390  17.4448  17.4587  17.4713  17.5000  17.5118  18.2294  18.2508
    19.1803  19.1833  19.1941  19.2457  19.2503  19.2657  19.4391  19.4491
    19.4565  19.4846  19.4888  19.4981  19.6668  19.7454  19.7562  19.8161
    19.9762  20.0410  20.0608  20.1084  20.1566  20.2000  20.2034  20.2107

          k = 0.1667 0.3333 0.3333 ( 10137 PWs)   bands (ev):

   -68.2545 -53.6264 -53.6176 -53.6154 -53.5978 -53.5965 -53.5947 -53.5916
   -52.3248 -52.3226 -52.3225 -52.3199 -52.3175 -52.3131 -52.3130 -52.3060
   -34.3235 -34.3234 -34.3234 -25.0814 -25.0736 -25.0707 -25.0528 -25.0462
   -25.0461 -25.0297 -25.0216 -25.0205 -24.9921 -24.9841 -24.9765 -24.9653
   -24.9491 -24.9370 -24.9236 -24.9175 -24.9118 -24.9077 -24.8926 -24.8881
   -23.7261 -23.7078 -23.7057 -23.6987 -23.6975 -23.6904 -23.6861 -23.6831
   -23.6681 -23.6589 -23.6522 -23.6471 -23.6386 -23.6294 -23.6261 -23.6175
   -23.6101 -23.6081 -23.6044 -23.6020 -23.5931 -23.5918 -23.5843 -23.5843
    12.0780  13.4201  13.4689  14.1848  14.4653  14.7879  14.8222  15.1339
    15.1688  15.2392  15.2414  15.2905  15.4907  15.4926  15.5794  15.5855
    15.9470  15.9823  15.9895  16.1179  16.2306  16.3704  16.3828  16.4459
    16.4972  16.5228  16.5784  16.6270  16.7113  16.9536  17.0143  17.0396
    17.0835  17.0911  17.1008  17.2180  17.2501  17.2647  17.2855  17.2963
    17.3783  17.4261  17.4933  17.5367  17.5652  17.7476  17.8043  18.2261
    19.0724  19.0989  19.1532  19.3619  19.4273  19.4566  19.4997  19.5056
    19.5763  19.5934  19.6122  19.6994  19.7384  19.7652  19.7823  19.7876
    19.8125  19.8312  19.8703  19.9873  20.0347  20.0485  20.0688  20.2323

          k = 0.1667 0.3333-0.5000 ( 10158 PWs)   bands (ev):

   -68.2545 -53.6231 -53.6194 -53.6151 -53.5974 -53.5973 -53.5947 -53.5930
   -52.3245 -52.3227 -52.3203 -52.3199 -52.3165 -52.3164 -52.3095 -52.3095
   -34.3236 -34.3234 -34.3234 -25.0796 -25.0598 -25.0587 -25.0579 -25.0441
   -25.0355 -25.0171 -25.0161 -25.0071 -24.9897 -24.9868 -24.9778 -24.9715
   -24.9643 -24.9480 -24.9397 -24.9194 -24.9189 -24.9133 -24.8943 -24.8909
   -23.7157 -23.7055 -23.6966 -23.6912 -23.6910 -23.6851 -23.6800 -23.6762
   -23.6740 -23.6732 -23.6586 -23.6512 -23.6479 -23.6365 -23.6226 -23.6209
   -23.6116 -23.6045 -23.6021 -23.5989 -23.5950 -23.5948 -23.5900 -23.5885
    12.6609  12.7240  13.7969  13.8590  14.6845  14.7326  15.2609  15.2702
    15.3454  15.3503  15.3586  15.3976  15.4650  15.5226  15.5700  15.6452
    15.6666  15.6914  16.2122  16.2252  16.3511  16.3738  16.3948  16.3979
    16.4087  16.4584  16.5853  16.6282  16.7865  16.7867  16.8674  16.8940
    16.9146  16.9519  17.1276  17.1474  17.2089  17.2330  17.2508  17.2729
    17.2812  17.2976  17.3203  17.3325  17.3715  17.3810  18.0483  18.0492
    19.2606  19.3063  19.3771  19.3781  19.4696  19.4701  19.5091  19.5200
    19.5275  19.5378  19.5505  19.5726  19.6723  19.7417  19.8208  19.8498
    19.9009  19.9189  19.9724  20.0195  20.0264  20.0586  20.0624  20.0719

          k = 0.1667-0.5000-0.5000 ( 10192 PWs)   bands (ev):

   -68.2546 -53.6187 -53.6185 -53.6185 -53.5980 -53.5965 -53.5949 -53.5949
   -52.3234 -52.3213 -52.3213 -52.3213 -52.3131 -52.3130 -52.3130 -52.3130
   -34.3236 -34.3234 -34.3234 -25.0782 -25.0572 -25.0572 -25.0451 -25.0352
   -25.0186 -25.0145 -25.0145 -25.0057 -24.9910 -24.9773 -24.9773 -24.9628
   -24.9591 -24.9505 -24.9504 -24.9456 -24.9456 -24.9138 -24.8959 -24.8959
   -23.7056 -23.7056 -23.6943 -23.6901 -23.6787 -23.6787 -23.6786 -23.6781
   -23.6752 -23.6752 -23.6669 -23.6668 -23.6534 -23.6221 -23.6172 -23.6172
   -23.6126 -23.6126 -23.5981 -23.5978 -23.5978 -23.5974 -23.5972 -23.5970
    13.1380  13.2447  13.2447  13.2676  15.0336  15.0956  15.1121  15.1121
    15.3996  15.3996  15.4040  15.4971  15.7274  15.7393  15.7393  15.7434
    15.9763  15.9763  15.9895  16.0873  16.2033  16.2033  16.2159  16.2474
    16.4600  16.4600  16.4920  16.6004  16.6086  16.6774  16.6774  16.6817
    16.8918  16.8918  16.9471  16.9562  17.1567  17.1689  17.2126  17.2126
    17.2260  17.2291  17.2291  17.2532  17.6438  17.6438  17.6991  17.7080
    19.3778  19.4558  19.4558  19.4746  19.5493  19.5695  19.6325  19.6325
    19.6460  19.6815  19.6815  19.6950  19.7412  19.7412  19.8124  19.8205
    19.8442  19.8666  19.8874  19.8874  19.8892  19.9121  19.9664  19.9735

          k = 0.3333 0.3333 0.3333 ( 10117 PWs)   bands (ev):

   -68.2545 -53.6231 -53.6159 -53.6159 -53.5986 -53.5964 -53.5964 -53.5937
   -52.3236 -52.3210 -52.3205 -52.3205 -52.3153 -52.3150 -52.3150 -52.3085
   -34.3234 -34.3234 -34.3234 -25.0582 -25.0582 -25.0521 -25.0430 -25.0310
   -25.0310 -25.0271 -25.0149 -25.0149 -24.9878 -24.9878 -24.9819 -24.9610
   -24.9610 -24.9437 -24.9316 -24.9316 -24.9222 -24.9211 -24.9211 -24.9106
   -23.7097 -23.7015 -23.7015 -23.6840 -23.6840 -23.6834 -23.6805 -23.6805
   -23.6650 -23.6527 -23.6495 -23.6495 -23.6332 -23.6316 -23.6282 -23.6282
   -23.6212 -23.6162 -23.6162 -23.6091 -23.5974 -23.5974 -23.5939 -23.5939
    12.4633  13.7079  13.7864  13.7864  14.5196  14.5842  14.5842  15.4087
    15.4087  15.4171  15.4931  15.4931  15.5692  15.7495  15.7948  15.7948
    15.9132  15.9656  15.9656  16.0439  16.2052  16.2052  16.4612  16.4612
    16.4894  16.6260  16.6629  16.6629  16.7280  16.7280  16.8661  16.8661
    16.9035  16.9529  16.9562  16.9562  16.9655  17.0366  17.0366  17.0591
    17.1291  17.1291  17.1871  17.1871  17.3685  17.3685  17.3737  17.9845
    19.3152  19.3152  19.3745  19.5046  19.5963  19.5987  19.5987  19.6580
    19.6580  19.7395  19.7395  19.7406  19.7776  19.8122  19.8122  19.8312
    19.8312  19.9934  19.9934  20.0397  20.0397  20.0507  20.0627  20.2907

          k = 0.3333 0.3333-0.5000 ( 10138 PWs)   bands (ev):

   -68.2545 -53.6200 -53.6176 -53.6149 -53.5986 -53.5975 -53.5964 -53.5952
   -52.3229 -52.3214 -52.3183 -52.3178 -52.3177 -52.3177 -52.3118 -52.3117
   -34.3234 -34.3234 -34.3234 -25.0538 -25.0498 -25.0332 -25.0321 -25.0303
   -25.0294 -25.0116 -25.0096 -25.0044 -24.9859 -24.9802 -24.9784 -24.9727
   -24.9685 -24.9608 -24.9542 -24.9397 -24.9307 -24.9257 -24.9222 -24.9219
   -23.7035 -23.6974 -23.6929 -23.6826 -23.6798 -23.6752 -23.6677 -23.6672
   -23.6668 -23.6599 -23.6579 -23.6448 -23.6417 -23.6358 -23.6347 -23.6314
   -23.6198 -23.6152 -23.6133 -23.6093 -23.6062 -23.6058 -23.6007 -23.5979
    13.0188  13.0872  14.1099  14.1970  14.2068  14.2213  15.0949  15.1149
    15.6215  15.6391  15.6491  15.6639  15.6748  15.6842  15.7213  15.7997
    15.8527  15.8743  16.3133  16.3196  16.3245  16.3292  16.3334  16.3410
    16.3438  16.3905  16.6518  16.6672  16.6858  16.6990  16.7310  16.7581
    16.8105  16.8456  16.8527  16.8883  16.8907  16.8913  16.9904  16.9921
    17.0298  17.0472  17.0530  17.0606  17.0631  17.0954  17.5917  17.5946
    19.5292  19.5405  19.5609  19.5610  19.6240  19.6377  19.6395  19.6804
    19.6867  19.7158  19.7385  19.8041  19.8141  19.8229  19.8933  19.9301
    19.9629  19.9668  20.0349  20.0369  20.0411  20.0467  20.0595  20.0713

          k = 0.3333-0.5000-0.5000 ( 10128 PWs)   bands (ev):

   -68.2545 -53.6167 -53.6165 -53.6165 -53.5986 -53.5980 -53.5969 -53.5969
   -52.3214 -52.3196 -52.3195 -52.3195 -52.3151 -52.3148 -52.3147 -52.3147
   -34.3234 -34.3234 -34.3234 -25.0476 -25.0309 -25.0252 -25.0252 -25.0181
   -25.0120 -25.0006 -25.0006 -24.9998 -24.9887 -24.9769 -24.9769 -24.9703
   -24.9689 -24.9659 -24.9655 -24.9594 -24.9594 -24.9456 -24.9300 -24.9300
   -23.6941 -23.6941 -23.6894 -23.6758 -23.6658 -23.6650 -23.6650 -23.6632
   -23.6605 -23.6605 -23.6553 -23.6513 -23.6511 -23.6334 -23.6270 -23.6270
   -23.6234 -23.6234 -23.6146 -23.6146 -23.6145 -23.6141 -23.6112 -23.6109
    13.4940  13.6121  13.6121  13.6316  14.6047  14.7023  14.7034  14.7034
    15.7102  15.7102  15.7118  15.7920  16.0317  16.0317  16.0463  16.0579
    16.0679  16.0679  16.0838  16.1168  16.1701  16.1701  16.1839  16.2761
    16.4955  16.5306  16.5306  16.5582  16.5592  16.5592  16.5685  16.6365
    16.7739  16.7739  16.8206  16.8243  16.8310  16.8310  16.8367  16.8544
    16.8869  16.9292  16.9292  16.9629  17.1497  17.1497  17.1563  17.1643
    19.6207  19.6519  19.6598  19.7049  19.7049  19.7889  19.7889  19.8035
    19.8239  19.8239  19.8937  19.9020  19.9046  19.9454  19.9454  19.9457
    19.9706  19.9726  19.9756  19.9937  19.9937  20.0075  20.0139  20.0139

          k =-0.5000-0.5000-0.5000 ( 10048 PWs)   bands (ev):

   -68.2544 -53.6154 -53.6154 -53.6154 -53.5998 -53.5980 -53.5980 -53.5980
   -52.3194 -52.3172 -52.3172 -52.3172 -52.3172 -52.3171 -52.3171 -52.3171
   -34.3233 -34.3233 -34.3233 -25.0203 -25.0203 -25.0044 -24.9974 -24.9974
   -24.9902 -24.9902 -24.9902 -24.9837 -24.9837 -24.9837 -24.9816 -24.9793
   -24.9793 -24.9793 -24.9770 -24.9770 -24.9770 -24.9625 -24.9625 -24.9625
   -23.6865 -23.6865 -23.6865 -23.6629 -23.6627 -23.6525 -23.6525 -23.6525
   -23.6448 -23.6448 -23.6448 -23.6388 -23.6388 -23.6388 -23.6315 -23.6315
   -23.6307 -23.6307 -23.6303 -23.6303 -23.6303 -23.6300 -23.6300 -23.6300
    13.9326  14.1289  14.1289  14.1289  14.1527  14.1630  14.1630  14.1630
    16.0894  16.0894  16.0894  16.1080  16.1080  16.1080  16.1193  16.1193
    16.1193  16.1205  16.1205  16.1338  16.1338  16.1338  16.2869  16.2869
    16.5750  16.5750  16.5750  16.6107  16.6698  16.6739  16.6739  16.6739
    16.6770  16.6770  16.6770  16.6882  16.6882  16.6882  16.6924  16.6924
    16.6924  16.6982  16.6982  16.7077  16.7077  16.7077  16.7512  16.7512
    19.7033  19.7033  19.8459  19.8459  19.8459  19.8861  19.8861  19.8861
    19.8889  19.8889  19.8889  19.8945  19.8945  19.8997  19.8997  19.8997
    20.0571  20.0571  20.0571  20.2716  20.2716  20.2716  20.2763  20.2763

     the Fermi energy is    18.6497 ev

!    total energy              =   -4052.51392440 Ry
     total all-electron energy =    -34071.800636 Ry
     estimated scf accuracy    <       0.00000808 Ry
     smearing contrib. (-TS)   =       0.00555766 Ry
     internal energy E=F+TS    =   -4052.51948205 Ry

     The total energy is F=E-TS. E is the sum of the following terms:
     one-electron contribution =    -987.50794376 Ry
     hartree contribution      =     626.14245539 Ry
     xc contribution           =    -361.96983692 Ry
     ewald contribution        =   -2132.72963193 Ry
     one-center paw contrib.   =   -1196.45452483 Ry

     total magnetization       =     1.50 Bohr mag/cell
     absolute magnetization    =    19.98 Bohr mag/cell

     convergence has been achieved in  39 iterations


     Computing stress (Cartesian axis) and pressure

          total   stress  (Ry/bohr**3)                   (kbar)     P=      -50.29
  -0.00034185   0.00000000   0.00000000          -50.29        0.00        0.00
   0.00000000  -0.00034185   0.00000000            0.00      -50.29        0.00
   0.00000000   0.00000000  -0.00034185            0.00        0.00      -50.29


     Writing all to output data dir ./tmp/fecr_fe01cr15_h0.01.save/ :
     XML data file, charge density, pseudopotentials, collected wavefunctions
 
     init_run     :     33.84s CPU     21.84s WALL (       1 calls)
     electrons    :   1440.93s CPU    955.23s WALL (       1 calls)
     stress       :      6.19s CPU      6.12s WALL (       1 calls)

     Called by init_run:
     wfcinit      :      1.99s CPU      2.41s WALL (       1 calls)
     potinit      :     30.78s CPU     18.27s WALL (       1 calls)
     hinit0       :      0.84s CPU      0.80s WALL (       1 calls)

     Called by electrons:
     c_bands      :    226.03s CPU    226.65s WALL (      39 calls)
     sum_band     :     26.56s CPU     26.66s WALL (      39 calls)
     v_of_rho     :      1.88s CPU      1.70s WALL (      40 calls)
     newd         :      2.05s CPU      2.07s WALL (      40 calls)
                                        2.07s GPU  (      40 calls)
     PAW_pot      :   1210.75s CPU    711.92s WALL (      40 calls)
     mix_rho      :      2.51s CPU      2.55s WALL (      39 calls)

     Called by c_bands:
     init_us_2    :      2.00s CPU      1.90s WALL (    3200 calls)
     cegterg      :    202.47s CPU    203.12s WALL (    1560 calls)

     Called by *egterg:
     cdiaghg      :     67.82s CPU     68.40s WALL (    8079 calls)
                                       68.32s GPU  (    8079 calls)
     h_psi        :     62.86s CPU     63.18s WALL (    8119 calls)
                                       63.08s GPU  (    8119 calls)
     s_psi        :      4.08s CPU      4.14s WALL (    8119 calls)
     g_psi        :      0.04s CPU      0.34s WALL (    6519 calls)
                                        0.32s GPU  (    6519 calls)

     Called by h_psi:
     h_psi:calbec :      0.31s CPU     14.00s WALL (    8119 calls)
                                       13.96s GPU  (    8119 calls)
     vloc_psi     :     31.83s CPU     31.71s WALL (    8119 calls)
                                       31.67s GPU  (    8119 calls)
     add_vuspsi   :      3.98s CPU     17.01s WALL (    8119 calls)
                                       16.97s GPU  (    8119 calls)

     General routines
     calbec       :      0.38s CPU      0.43s WALL (    9719 calls)
     fft          :      1.01s CPU      1.09s WALL (    1019 calls)
                                        0.10s GPU  (     939 calls)
     ffts         :      0.16s CPU      0.19s WALL (     926 calls)
                                        0.04s GPU  (     846 calls)
     fftw         :      1.83s CPU     29.93s WALL (   86110 calls)
                                       29.70s GPU  (   86110 calls)
     interpolate  :      1.20s CPU      1.21s WALL (      80 calls)
 
     Parallel routines
 
     PWSCF        :  24m42.91s CPU  16m25.50s WALL

 
   This run was terminated on:  16:28:38  24May2026            

=------------------------------------------------------------------------------=
   JOB DONE.
=------------------------------------------------------------------------------=
Warning: ieee_invalid is signaling
Warning: ieee_divide_by_zero is signaling
Warning: ieee_inexact is signaling
FORTRAN STOP
