--------------------------------------------------------------------------
WARNING: Open MPI tried to bind a process but failed.  This is a
warning only; your job will continue, though performance may
be degraded.

  Local host:        4b82db919bf5
  Application name:  /root/q-e-qe-7.3.1/bin/pw.x
  Error message:     failed to bind memory
  Location:          ../../../../../orte/mca/rtc/hwloc/rtc_hwloc.c:447

--------------------------------------------------------------------------

     Program PWSCF v.7.3.1 starts on 24May2026 at 17:16:29 

     This program is part of the open-source Quantum ESPRESSO suite
     for quantum simulation of materials; please cite
         "P. Giannozzi et al., J. Phys.:Condens. Matter 21 395502 (2009);
         "P. Giannozzi et al., J. Phys.:Condens. Matter 29 465901 (2017);
         "P. Giannozzi et al., J. Chem. Phys. 152 154105 (2020);
          URL http://www.quantum-espresso.org", 
     in publications or presentations arising from this work. More details at
     http://www.quantum-espresso.org/quote

     Parallel version (MPI & OpenMP), running on       8 processor cores
     Number of MPI processes:                 1
     Threads/MPI process:                     8

     MPI processes distributed on     1 nodes
     151197 MiB available memory on the printing compute node when the environment starts
 
     Reading input from inputs/fecr_fe01cr15_t0.01.in

     Current dimensions of program PWSCF are:
     Max number of different atomic species (ntypx) = 10
     Max number of k-points (npk) =  40000
     Max angular momentum in pseudopotentials (lmaxx) =  4
     file Fe.pbe-spn-kjpaw_psl.1.0.0.UPF: wavefunction(s)  3P 3D renormalized
     file Cr.pbe-spn-kjpaw_psl.1.0.0.UPF: wavefunction(s)  3S 3P 3D renormalized
     file Cr.pbe-spn-kjpaw_psl.1.0.0.UPF: wavefunction(s)  3S 3P 3D renormalized
     Message from routine setup:
     using ibrav=0 with symmetry is DISCOURAGED, use correct ibrav instead
 
     Subspace diagonalization in iterative solution of the eigenvalue problem:
     a serial algorithm will be used

 
     G-vector sticks info
     --------------------
     sticks:   dense  smooth     PW     G-vecs:    dense   smooth      PW
     Sum        4397    2209    621               223065    78869   11905
 
     Using Slab Decomposition
 


     bravais-lattice index     =            0
     lattice parameter (alat)  =      10.7373  a.u.
     unit-cell volume          =    1256.5309 (a.u.)^3
     number of atoms/cell      =           16
     number of atomic types    =            3
     number of electrons       =       226.00
     number of Kohn-Sham states=          136
     kinetic-energy cutoff     =      60.0000  Ry
     charge density cutoff     =     480.0000  Ry
     scf convergence threshold =      1.0E-05
     mixing beta               =       0.1000
     number of iterations used =           16  local-TF  mixing
     Exchange-correlation= SLA  PW   PBX  PBC
                           (   1   4   3   4   0   0   0)

     GPU acceleration is ACTIVE.  1 visible GPUs per MPI rank


     celldm(1)=  10.737348  celldm(2)=   0.000000  celldm(3)=   0.000000
     celldm(4)=   0.000000  celldm(5)=   0.000000  celldm(6)=   0.000000

     crystal axes: (cart. coord. in units of alat)
               a(1) = (   1.000000   0.000000   0.000000 )  
               a(2) = (   0.000000   1.000000   0.000000 )  
               a(3) = (   0.000000   0.000000   1.015037 )  

     reciprocal axes: (cart. coord. in units 2 pi/alat)
               b(1) = (  1.000000  0.000000  0.000000 )  
               b(2) = (  0.000000  1.000000  0.000000 )  
               b(3) = (  0.000000  0.000000  0.985185 )  


     PseudoPot. # 1 for Fe read from file:
     ./pseudo/Fe.pbe-spn-kjpaw_psl.1.0.0.UPF
     MD5 check sum: fc81f059e5c5069939230b1155715ae8
     Pseudo is Projector augmented-wave + core cor, Zval = 16.0
     Generated using &quot;atomic&quot; code by A. Dal Corso  v.6.3
     Shape of augmentation charge: PSQ
     Using radial grid of 1191 points,  6 beta functions with: 
                l(1) =   0
                l(2) =   0
                l(3) =   1
                l(4) =   1
                l(5) =   2
                l(6) =   2
     Q(r) pseudized with 0 coefficients 


     PseudoPot. # 2 for Cr read from file:
     ./pseudo/Cr.pbe-spn-kjpaw_psl.1.0.0.UPF
     MD5 check sum: 198f1a2427a48552563eee314eba32ba
     Pseudo is Projector augmented-wave + core cor, Zval = 14.0
     Generated using &quot;atomic&quot; code by A. Dal Corso  v.6.3
     Shape of augmentation charge: PSQ
     Using radial grid of 1183 points,  6 beta functions with: 
                l(1) =   0
                l(2) =   0
                l(3) =   1
                l(4) =   1
                l(5) =   2
                l(6) =   2
     Q(r) pseudized with 0 coefficients 


     PseudoPot. # 3 for Cr read from file:
     ./pseudo/Cr.pbe-spn-kjpaw_psl.1.0.0.UPF
     MD5 check sum: 198f1a2427a48552563eee314eba32ba
     Pseudo is Projector augmented-wave + core cor, Zval = 14.0
     Generated using &quot;atomic&quot; code by A. Dal Corso  v.6.3
     Shape of augmentation charge: PSQ
     Using radial grid of 1183 points,  6 beta functions with: 
                l(1) =   0
                l(2) =   0
                l(3) =   1
                l(4) =   1
                l(5) =   2
                l(6) =   2
     Q(r) pseudized with 0 coefficients 


     atomic species   valence    mass     pseudopotential
     Fe               16.00    55.84500     Fe( 1.00)
     CrA              14.00    51.99600     Cr( 1.00)
     CrB              14.00    51.99600     Cr( 1.00)

     Starting magnetic structure 
     atomic species   magnetization
     Fe              0.500
     CrA             0.500
     CrB            -0.500

     16 Sym. Ops., with inversion, found (14 have fractional translation)



   Cartesian axes

     site n.     atom                  positions (alat units)
         1        CrA    tau(   1) = (   0.0000000   0.0000000   0.0000000  )
         2        CrB    tau(   2) = (   0.2500000   0.2500000   0.2537594  )
         3        CrA    tau(   3) = (   0.0000000   0.0000000   0.5075187  )
         4        CrB    tau(   4) = (   0.2500000   0.2500000   0.7612781  )
         5        CrA    tau(   5) = (   0.0000000   0.5000000   0.0000000  )
         6        CrB    tau(   6) = (   0.2500000   0.7500000   0.2537594  )
         7        CrA    tau(   7) = (   0.0000000   0.5000000   0.5075187  )
         8        CrB    tau(   8) = (   0.2500000   0.7500000   0.7612781  )
         9        CrA    tau(   9) = (   0.5000000   0.0000000   0.0000000  )
        10        CrB    tau(  10) = (   0.7500000   0.2500000   0.2537594  )
        11        CrA    tau(  11) = (   0.5000000   0.0000000   0.5075187  )
        12        CrB    tau(  12) = (   0.7500000   0.2500000   0.7612781  )
        13        CrA    tau(  13) = (   0.5000000   0.5000000   0.0000000  )
        14        CrB    tau(  14) = (   0.7500000   0.7500000   0.2537594  )
        15        CrA    tau(  15) = (   0.5000000   0.5000000   0.5075187  )
        16        Fe     tau(  16) = (   0.7500000   0.7500000   0.7612781  )

     number of k points=    40  Marzari-Vanderbilt smearing, width (Ry)=  0.0200
                       cart. coord. in units 2pi/alat
        k(    1) = (   0.0000000   0.0000000   0.0000000), wk =   0.0046296
        k(    2) = (   0.0000000   0.0000000   0.1641976), wk =   0.0092593
        k(    3) = (   0.0000000   0.0000000   0.3283951), wk =   0.0092593
        k(    4) = (   0.0000000   0.0000000  -0.4925927), wk =   0.0046296
        k(    5) = (   0.0000000   0.1666667   0.0000000), wk =   0.0185185
        k(    6) = (   0.0000000   0.1666667   0.1641976), wk =   0.0370370
        k(    7) = (   0.0000000   0.1666667   0.3283951), wk =   0.0370370
        k(    8) = (   0.0000000   0.1666667  -0.4925927), wk =   0.0185185
        k(    9) = (   0.0000000   0.3333333   0.0000000), wk =   0.0185185
        k(   10) = (   0.0000000   0.3333333   0.1641976), wk =   0.0370370
        k(   11) = (   0.0000000   0.3333333   0.3283951), wk =   0.0370370
        k(   12) = (   0.0000000   0.3333333  -0.4925927), wk =   0.0185185
        k(   13) = (   0.0000000  -0.5000000   0.0000000), wk =   0.0092593
        k(   14) = (   0.0000000  -0.5000000   0.1641976), wk =   0.0185185
        k(   15) = (   0.0000000  -0.5000000   0.3283951), wk =   0.0185185
        k(   16) = (   0.0000000  -0.5000000  -0.4925927), wk =   0.0092593
        k(   17) = (   0.1666667   0.1666667   0.0000000), wk =   0.0185185
        k(   18) = (   0.1666667   0.1666667   0.1641976), wk =   0.0370370
        k(   19) = (   0.1666667   0.1666667   0.3283951), wk =   0.0370370
        k(   20) = (   0.1666667   0.1666667  -0.4925927), wk =   0.0185185
        k(   21) = (   0.1666667   0.3333333   0.0000000), wk =   0.0370370
        k(   22) = (   0.1666667   0.3333333   0.1641976), wk =   0.0740741
        k(   23) = (   0.1666667   0.3333333   0.3283951), wk =   0.0740741
        k(   24) = (   0.1666667   0.3333333  -0.4925927), wk =   0.0370370
        k(   25) = (   0.1666667  -0.5000000   0.0000000), wk =   0.0185185
        k(   26) = (   0.1666667  -0.5000000   0.1641976), wk =   0.0370370
        k(   27) = (   0.1666667  -0.5000000   0.3283951), wk =   0.0370370
        k(   28) = (   0.1666667  -0.5000000  -0.4925927), wk =   0.0185185
        k(   29) = (   0.3333333   0.3333333   0.0000000), wk =   0.0185185
        k(   30) = (   0.3333333   0.3333333   0.1641976), wk =   0.0370370
        k(   31) = (   0.3333333   0.3333333   0.3283951), wk =   0.0370370
        k(   32) = (   0.3333333   0.3333333  -0.4925927), wk =   0.0185185
        k(   33) = (   0.3333333  -0.5000000   0.0000000), wk =   0.0185185
        k(   34) = (   0.3333333  -0.5000000   0.1641976), wk =   0.0370370
        k(   35) = (   0.3333333  -0.5000000   0.3283951), wk =   0.0370370
        k(   36) = (   0.3333333  -0.5000000  -0.4925927), wk =   0.0185185
        k(   37) = (  -0.5000000  -0.5000000   0.0000000), wk =   0.0046296
        k(   38) = (  -0.5000000  -0.5000000   0.1641976), wk =   0.0092593
        k(   39) = (  -0.5000000  -0.5000000   0.3283951), wk =   0.0092593
        k(   40) = (  -0.5000000  -0.5000000  -0.4925927), wk =   0.0046296

     Dense  grid:   223065 G-vectors     FFT dimensions: (  80,  80,  80)

     Smooth grid:    78869 G-vectors     FFT dimensions: (  54,  54,  54)

     Estimated max dynamical RAM per process >       2.67 GB

     Check: negative core charge=   -0.000003
     Generating pointlists ...
     new r_m :   0.1795 (alat units)  1.9275 (a.u.) for type    1
     new r_m :   0.1795 (alat units)  1.9275 (a.u.) for type    2
     new r_m :   0.1795 (alat units)  1.9275 (a.u.) for type    3

     Initial potential from superposition of free atoms

     starting charge     225.9880, renormalised to     226.0000
     Starting wfcs are  160 randomized atomic wfcs
     Checking if some PAW data can be deallocated... 

     total cpu time spent up to now is       24.9 secs

     Self-consistent Calculation

     iteration #  1     ecut=    60.00 Ry     beta= 0.10
     Davidson diagonalization with overlap
     ethr =  1.00E-02,  avg # of iterations =  3.7

     total cpu time spent up to now is       54.6 secs

     total energy              =   -4048.21818611 Ry
     estimated scf accuracy    <       5.72070462 Ry

     total magnetization       =     7.89 Bohr mag/cell
     absolute magnetization    =    55.31 Bohr mag/cell

     iteration #  2     ecut=    60.00 Ry     beta= 0.10
     Davidson diagonalization with overlap
     ethr =  2.53E-03,  avg # of iterations =  1.9

     negative rho (up, down):  0.000E+00 2.937E-04

     total cpu time spent up to now is       81.1 secs

     total energy              =   -4050.83750979 Ry
     estimated scf accuracy    <       4.80814281 Ry

     total magnetization       =     7.87 Bohr mag/cell
     absolute magnetization    =    54.06 Bohr mag/cell

     iteration #  3     ecut=    60.00 Ry     beta= 0.10
     Davidson diagonalization with overlap
     ethr =  2.13E-03,  avg # of iterations =  3.5

     negative rho (up, down):  0.000E+00 2.599E-04

     total cpu time spent up to now is      109.8 secs

     total energy              =   -4051.35644193 Ry
     estimated scf accuracy    <       4.26363648 Ry

     total magnetization       =     3.53 Bohr mag/cell
     absolute magnetization    =    43.51 Bohr mag/cell

     iteration #  4     ecut=    60.00 Ry     beta= 0.10
     Davidson diagonalization with overlap
     ethr =  1.89E-03,  avg # of iterations =  1.4

     negative rho (up, down):  0.000E+00 2.045E-04

     total cpu time spent up to now is      136.4 secs

     total energy              =   -4051.31875371 Ry
     estimated scf accuracy    <       4.16410299 Ry

     total magnetization       =     3.69 Bohr mag/cell
     absolute magnetization    =    43.47 Bohr mag/cell

     iteration #  5     ecut=    60.00 Ry     beta= 0.10
     Davidson diagonalization with overlap
     ethr =  1.84E-03,  avg # of iterations =  1.0

     negative rho (up, down):  0.000E+00 7.070E-05

     total cpu time spent up to now is      162.8 secs

     total energy              =   -4051.58001050 Ry
     estimated scf accuracy    <       2.96808208 Ry

     total magnetization       =     4.25 Bohr mag/cell
     absolute magnetization    =    43.48 Bohr mag/cell

     iteration #  6     ecut=    60.00 Ry     beta= 0.10
     Davidson diagonalization with overlap
     ethr =  1.31E-03,  avg # of iterations =  5.5

     negative rho (up, down):  0.000E+00 1.452E-04

     total cpu time spent up to now is      194.7 secs

     total energy              =   -4052.42395615 Ry
     estimated scf accuracy    <      12.68932301 Ry

     total magnetization       =     1.17 Bohr mag/cell
     absolute magnetization    =    32.84 Bohr mag/cell

     iteration #  7     ecut=    60.00 Ry     beta= 0.10
     Davidson diagonalization with overlap
     ethr =  1.31E-03,  avg # of iterations =  2.5

     negative rho (up, down):  0.000E+00 2.013E-04

     total cpu time spent up to now is      222.1 secs

     total energy              =   -4052.01600954 Ry
     estimated scf accuracy    <       6.27843696 Ry

     total magnetization       =     1.10 Bohr mag/cell
     absolute magnetization    =    30.91 Bohr mag/cell

     iteration #  8     ecut=    60.00 Ry     beta= 0.10
     Davidson diagonalization with overlap
     ethr =  1.31E-03,  avg # of iterations =  4.1

     negative rho (up, down):  0.000E+00 9.699E-06

     total cpu time spent up to now is      252.0 secs

     total energy              =   -4052.33856119 Ry
     estimated scf accuracy    <       0.19493423 Ry

     total magnetization       =     2.07 Bohr mag/cell
     absolute magnetization    =    30.83 Bohr mag/cell

     iteration #  9     ecut=    60.00 Ry     beta= 0.10
     Davidson diagonalization with overlap
     ethr =  8.63E-05,  avg # of iterations =  7.6

     total cpu time spent up to now is      287.7 secs

     total energy              =   -4052.41886920 Ry
     estimated scf accuracy    <       0.13655717 Ry

     total magnetization       =     1.76 Bohr mag/cell
     absolute magnetization    =    28.02 Bohr mag/cell

     iteration # 10     ecut=    60.00 Ry     beta= 0.10
     Davidson diagonalization with overlap
     ethr =  6.04E-05,  avg # of iterations =  6.1

     total cpu time spent up to now is      320.9 secs

     total energy              =   -4052.42895386 Ry
     estimated scf accuracy    <       0.27083030 Ry

     total magnetization       =     1.97 Bohr mag/cell
     absolute magnetization    =    26.86 Bohr mag/cell

     iteration # 11     ecut=    60.00 Ry     beta= 0.10
     Davidson diagonalization with overlap
     ethr =  6.04E-05,  avg # of iterations =  2.3

     total cpu time spent up to now is      348.9 secs

     total energy              =   -4052.45557583 Ry
     estimated scf accuracy    <       0.03384234 Ry

     total magnetization       =     1.72 Bohr mag/cell
     absolute magnetization    =    26.58 Bohr mag/cell

     iteration # 12     ecut=    60.00 Ry     beta= 0.10
     Davidson diagonalization with overlap
     c_bands:  2 eigenvalues not converged
     c_bands:  2 eigenvalues not converged
     c_bands:  1 eigenvalues not converged
     c_bands:  2 eigenvalues not converged
     c_bands:  2 eigenvalues not converged
     c_bands:  2 eigenvalues not converged
     c_bands:  3 eigenvalues not converged
     c_bands:  1 eigenvalues not converged
     c_bands:  1 eigenvalues not converged
     ethr =  1.50E-05,  avg # of iterations = 10.5

     total cpu time spent up to now is      389.3 secs

     total energy              =   -4052.47824135 Ry
     estimated scf accuracy    <       0.28700286 Ry

     total magnetization       =     1.23 Bohr mag/cell
     absolute magnetization    =    22.53 Bohr mag/cell

     iteration # 13     ecut=    60.00 Ry     beta= 0.10
     Davidson diagonalization with overlap
     ethr =  1.50E-05,  avg # of iterations =  7.0

     total cpu time spent up to now is      422.8 secs

     total energy              =   -4052.49240197 Ry
     estimated scf accuracy    <       0.04254465 Ry

     total magnetization       =     1.57 Bohr mag/cell
     absolute magnetization    =    22.48 Bohr mag/cell

     iteration # 14     ecut=    60.00 Ry     beta= 0.10
     Davidson diagonalization with overlap
     ethr =  1.50E-05,  avg # of iterations =  6.1

     total cpu time spent up to now is      455.0 secs

     total energy              =   -4052.49695309 Ry
     estimated scf accuracy    <       0.23866908 Ry

     total magnetization       =     1.27 Bohr mag/cell
     absolute magnetization    =    21.69 Bohr mag/cell

     iteration # 15     ecut=    60.00 Ry     beta= 0.10
     Davidson diagonalization with overlap
     ethr =  1.50E-05,  avg # of iterations =  4.2

     total cpu time spent up to now is      485.6 secs

     total energy              =   -4052.50614951 Ry
     estimated scf accuracy    <       0.01421261 Ry

     total magnetization       =     1.54 Bohr mag/cell
     absolute magnetization    =    21.38 Bohr mag/cell

     iteration # 16     ecut=    60.00 Ry     beta= 0.10
     Davidson diagonalization with overlap
     ethr =  6.29E-06,  avg # of iterations =  7.4

     total cpu time spent up to now is      520.6 secs

     total energy              =   -4052.51191401 Ry
     estimated scf accuracy    <       0.06132276 Ry

     total magnetization       =     1.36 Bohr mag/cell
     absolute magnetization    =    20.05 Bohr mag/cell

     iteration # 17     ecut=    60.00 Ry     beta= 0.10
     Davidson diagonalization with overlap
     ethr =  6.29E-06,  avg # of iterations =  1.8

     total cpu time spent up to now is      548.4 secs

     total energy              =   -4052.51114859 Ry
     estimated scf accuracy    <       0.05933829 Ry

     total magnetization       =     1.35 Bohr mag/cell
     absolute magnetization    =    19.80 Bohr mag/cell

     iteration # 18     ecut=    60.00 Ry     beta= 0.10
     Davidson diagonalization with overlap
     c_bands:  2 eigenvalues not converged
     c_bands:  1 eigenvalues not converged
     ethr =  6.29E-06,  avg # of iterations =  6.3

     total cpu time spent up to now is      580.9 secs

     total energy              =   -4052.51136721 Ry
     estimated scf accuracy    <       0.04921037 Ry

     total magnetization       =     1.30 Bohr mag/cell
     absolute magnetization    =    18.75 Bohr mag/cell

     iteration # 19     ecut=    60.00 Ry     beta= 0.10
     Davidson diagonalization with overlap
     ethr =  6.29E-06,  avg # of iterations =  2.3

     total cpu time spent up to now is      608.2 secs

     total energy              =   -4052.51148448 Ry
     estimated scf accuracy    <       0.01173117 Ry

     total magnetization       =     1.34 Bohr mag/cell
     absolute magnetization    =    18.61 Bohr mag/cell

     iteration # 20     ecut=    60.00 Ry     beta= 0.10
     Davidson diagonalization with overlap
     c_bands:  1 eigenvalues not converged
     c_bands:  1 eigenvalues not converged
     ethr =  5.19E-06,  avg # of iterations =  3.3

     total cpu time spent up to now is      636.7 secs

     total energy              =   -4052.51228598 Ry
     estimated scf accuracy    <       0.00037326 Ry

     total magnetization       =     1.40 Bohr mag/cell
     absolute magnetization    =    18.49 Bohr mag/cell

     iteration # 21     ecut=    60.00 Ry     beta= 0.10
     Davidson diagonalization with overlap
     c_bands:  1 eigenvalues not converged
     c_bands:  2 eigenvalues not converged
     c_bands:  5 eigenvalues not converged
     c_bands:  1 eigenvalues not converged
     ethr =  1.65E-07,  avg # of iterations =  9.7

     total cpu time spent up to now is      676.6 secs

     total energy              =   -4052.51193410 Ry
     estimated scf accuracy    <       0.00164953 Ry

     total magnetization       =     1.40 Bohr mag/cell
     absolute magnetization    =    18.23 Bohr mag/cell

     iteration # 22     ecut=    60.00 Ry     beta= 0.10
     Davidson diagonalization with overlap
     c_bands:  1 eigenvalues not converged
     c_bands:  1 eigenvalues not converged
     ethr =  1.65E-07,  avg # of iterations =  6.1

     total cpu time spent up to now is      710.8 secs

     total energy              =   -4052.51165689 Ry
     estimated scf accuracy    <       0.00256898 Ry

     total magnetization       =     1.41 Bohr mag/cell
     absolute magnetization    =    18.71 Bohr mag/cell

     iteration # 23     ecut=    60.00 Ry     beta= 0.10
     Davidson diagonalization with overlap
     ethr =  1.65E-07,  avg # of iterations =  5.6

     total cpu time spent up to now is      743.0 secs

     total energy              =   -4052.51186548 Ry
     estimated scf accuracy    <       0.00127674 Ry

     total magnetization       =     1.42 Bohr mag/cell
     absolute magnetization    =    19.05 Bohr mag/cell

     iteration # 24     ecut=    60.00 Ry     beta= 0.10
     Davidson diagonalization with overlap
     ethr =  1.65E-07,  avg # of iterations =  1.0

     total cpu time spent up to now is      769.8 secs

     total energy              =   -4052.51192563 Ry
     estimated scf accuracy    <       0.00112136 Ry

     total magnetization       =     1.43 Bohr mag/cell
     absolute magnetization    =    19.04 Bohr mag/cell

     iteration # 25     ecut=    60.00 Ry     beta= 0.10
     Davidson diagonalization with overlap
     ethr =  1.65E-07,  avg # of iterations =  1.5

     total cpu time spent up to now is      795.9 secs

     total energy              =   -4052.51158335 Ry
     estimated scf accuracy    <       0.00223154 Ry

     total magnetization       =     1.43 Bohr mag/cell
     absolute magnetization    =    19.05 Bohr mag/cell

     iteration # 26     ecut=    60.00 Ry     beta= 0.10
     Davidson diagonalization with overlap
     ethr =  1.65E-07,  avg # of iterations =  5.3

     total cpu time spent up to now is      828.0 secs

     total energy              =   -4052.51061228 Ry
     estimated scf accuracy    <       0.00434530 Ry

     total magnetization       =     1.47 Bohr mag/cell
     absolute magnetization    =    19.21 Bohr mag/cell

     iteration # 27     ecut=    60.00 Ry     beta= 0.10
     Davidson diagonalization with overlap
     ethr =  1.65E-07,  avg # of iterations =  5.8

     total cpu time spent up to now is      861.4 secs

     total energy              =   -4052.51067332 Ry
     estimated scf accuracy    <       0.01173417 Ry

     total magnetization       =     1.51 Bohr mag/cell
     absolute magnetization    =    19.68 Bohr mag/cell

     iteration # 28     ecut=    60.00 Ry     beta= 0.10
     Davidson diagonalization with overlap
     ethr =  1.65E-07,  avg # of iterations =  3.0

     total cpu time spent up to now is      890.2 secs

     total energy              =   -4052.51034394 Ry
     estimated scf accuracy    <       0.01095448 Ry

     total magnetization       =     1.51 Bohr mag/cell
     absolute magnetization    =    19.80 Bohr mag/cell

     iteration # 29     ecut=    60.00 Ry     beta= 0.10
     Davidson diagonalization with overlap
     ethr =  1.65E-07,  avg # of iterations =  3.9

     total cpu time spent up to now is      919.5 secs

     total energy              =   -4052.50999591 Ry
     estimated scf accuracy    <       0.01132531 Ry

     total magnetization       =     1.53 Bohr mag/cell
     absolute magnetization    =    19.93 Bohr mag/cell

     iteration # 30     ecut=    60.00 Ry     beta= 0.10
     Davidson diagonalization with overlap
     ethr =  1.65E-07,  avg # of iterations =  4.9

     total cpu time spent up to now is      949.9 secs

     total energy              =   -4052.50821026 Ry
     estimated scf accuracy    <       0.01290019 Ry

     total magnetization       =     1.54 Bohr mag/cell
     absolute magnetization    =    20.09 Bohr mag/cell

     iteration # 31     ecut=    60.00 Ry     beta= 0.10
     Davidson diagonalization with overlap
     ethr =  1.65E-07,  avg # of iterations =  5.7

     total cpu time spent up to now is      983.9 secs

     total energy              =   -4052.50758798 Ry
     estimated scf accuracy    <       0.01660668 Ry

     total magnetization       =     1.58 Bohr mag/cell
     absolute magnetization    =    20.62 Bohr mag/cell

     iteration # 32     ecut=    60.00 Ry     beta= 0.10
     Davidson diagonalization with overlap
     ethr =  1.65E-07,  avg # of iterations =  5.4

     total cpu time spent up to now is     1015.8 secs

     total energy              =   -4052.50819812 Ry
     estimated scf accuracy    <       0.01820819 Ry

     total magnetization       =     1.59 Bohr mag/cell
     absolute magnetization    =    20.91 Bohr mag/cell

     iteration # 33     ecut=    60.00 Ry     beta= 0.10
     Davidson diagonalization with overlap
     ethr =  1.65E-07,  avg # of iterations =  2.6

     total cpu time spent up to now is     1043.7 secs

     total energy              =   -4052.50790826 Ry
     estimated scf accuracy    <       0.01533680 Ry

     total magnetization       =     1.58 Bohr mag/cell
     absolute magnetization    =    20.78 Bohr mag/cell

     iteration # 34     ecut=    60.00 Ry     beta= 0.10
     Davidson diagonalization with overlap
     ethr =  1.65E-07,  avg # of iterations =  1.3

     total cpu time spent up to now is     1070.1 secs

     total energy              =   -4052.50887282 Ry
     estimated scf accuracy    <       0.01902702 Ry

     total magnetization       =     1.59 Bohr mag/cell
     absolute magnetization    =    20.88 Bohr mag/cell

     iteration # 35     ecut=    60.00 Ry     beta= 0.10
     Davidson diagonalization with overlap
     ethr =  1.65E-07,  avg # of iterations =  5.6

     total cpu time spent up to now is     1102.7 secs

     total energy              =   -4052.50966740 Ry
     estimated scf accuracy    <       0.01087143 Ry

     total magnetization       =     1.55 Bohr mag/cell
     absolute magnetization    =    20.37 Bohr mag/cell

     iteration # 36     ecut=    60.00 Ry     beta= 0.10
     Davidson diagonalization with overlap
     ethr =  1.65E-07,  avg # of iterations =  1.8

     total cpu time spent up to now is     1129.9 secs

     total energy              =   -4052.50778624 Ry
     estimated scf accuracy    <       0.01029582 Ry

     total magnetization       =     1.54 Bohr mag/cell
     absolute magnetization    =    20.26 Bohr mag/cell

     iteration # 37     ecut=    60.00 Ry     beta= 0.10
     Davidson diagonalization with overlap
     ethr =  1.65E-07,  avg # of iterations =  5.0

     total cpu time spent up to now is     1161.6 secs

     total energy              =   -4052.50733690 Ry
     estimated scf accuracy    <       0.01342778 Ry

     total magnetization       =     1.58 Bohr mag/cell
     absolute magnetization    =    20.75 Bohr mag/cell

     iteration # 38     ecut=    60.00 Ry     beta= 0.10
     Davidson diagonalization with overlap
     ethr =  1.65E-07,  avg # of iterations =  9.8

     total cpu time spent up to now is     1203.4 secs

     total energy              =   -4052.51179905 Ry
     estimated scf accuracy    <       0.00278237 Ry

     total magnetization       =     1.45 Bohr mag/cell
     absolute magnetization    =    19.09 Bohr mag/cell

     iteration # 39     ecut=    60.00 Ry     beta= 0.10
     Davidson diagonalization with overlap
     ethr =  1.65E-07,  avg # of iterations =  3.0

     total cpu time spent up to now is     1231.5 secs

     total energy              =   -4052.51199360 Ry
     estimated scf accuracy    <       0.00186868 Ry

     total magnetization       =     1.45 Bohr mag/cell
     absolute magnetization    =    19.10 Bohr mag/cell

     iteration # 40     ecut=    60.00 Ry     beta= 0.10
     Davidson diagonalization with overlap
     ethr =  1.65E-07,  avg # of iterations =  1.8

     total cpu time spent up to now is     1258.6 secs

     total energy              =   -4052.51101104 Ry
     estimated scf accuracy    <       0.00194710 Ry

     total magnetization       =     1.45 Bohr mag/cell
     absolute magnetization    =    19.04 Bohr mag/cell

     iteration # 41     ecut=    60.00 Ry     beta= 0.10
     Davidson diagonalization with overlap
     ethr =  1.65E-07,  avg # of iterations =  5.0

     total cpu time spent up to now is     1289.9 secs

     total energy              =   -4052.51131142 Ry
     estimated scf accuracy    <       0.00232082 Ry

     total magnetization       =     1.47 Bohr mag/cell
     absolute magnetization    =    19.42 Bohr mag/cell

     iteration # 42     ecut=    60.00 Ry     beta= 0.10
     Davidson diagonalization with overlap
     ethr =  1.65E-07,  avg # of iterations =  1.0

     total cpu time spent up to now is     1316.2 secs

     total energy              =   -4052.51158334 Ry
     estimated scf accuracy    <       0.00239109 Ry

     total magnetization       =     1.46 Bohr mag/cell
     absolute magnetization    =    19.40 Bohr mag/cell

     iteration # 43     ecut=    60.00 Ry     beta= 0.10
     Davidson diagonalization with overlap
     ethr =  1.65E-07,  avg # of iterations =  3.4

     total cpu time spent up to now is     1344.7 secs

     total energy              =   -4052.51072625 Ry
     estimated scf accuracy    <       0.00194539 Ry

     total magnetization       =     1.46 Bohr mag/cell
     absolute magnetization    =    19.28 Bohr mag/cell

     iteration # 44     ecut=    60.00 Ry     beta= 0.10
     Davidson diagonalization with overlap
     ethr =  1.65E-07,  avg # of iterations =  5.0

     total cpu time spent up to now is     1375.6 secs

     total energy              =   -4052.51148767 Ry
     estimated scf accuracy    <       0.00246533 Ry

     total magnetization       =     1.48 Bohr mag/cell
     absolute magnetization    =    19.59 Bohr mag/cell

     iteration # 45     ecut=    60.00 Ry     beta= 0.10
     Davidson diagonalization with overlap
     ethr =  1.65E-07,  avg # of iterations =  5.2

     total cpu time spent up to now is     1407.5 secs

     total energy              =   -4052.51172760 Ry
     estimated scf accuracy    <       0.00215523 Ry

     total magnetization       =     1.46 Bohr mag/cell
     absolute magnetization    =    19.12 Bohr mag/cell

     iteration # 46     ecut=    60.00 Ry     beta= 0.10
     Davidson diagonalization with overlap
     ethr =  1.65E-07,  avg # of iterations =  1.0

     total cpu time spent up to now is     1434.1 secs

     total energy              =   -4052.51211190 Ry
     estimated scf accuracy    <       0.00208527 Ry

     total magnetization       =     1.46 Bohr mag/cell
     absolute magnetization    =    19.17 Bohr mag/cell

     iteration # 47     ecut=    60.00 Ry     beta= 0.10
     Davidson diagonalization with overlap
     ethr =  1.65E-07,  avg # of iterations =  5.6

     total cpu time spent up to now is     1467.9 secs

     total energy              =   -4052.51010219 Ry
     estimated scf accuracy    <       0.00189795 Ry

     total magnetization       =     1.42 Bohr mag/cell
     absolute magnetization    =    18.59 Bohr mag/cell

     iteration # 48     ecut=    60.00 Ry     beta= 0.10
     Davidson diagonalization with overlap
     ethr =  1.65E-07,  avg # of iterations =  5.4

     total cpu time spent up to now is     1501.5 secs

     total energy              =   -4052.51162088 Ry
     estimated scf accuracy    <       0.00214369 Ry

     total magnetization       =     1.47 Bohr mag/cell
     absolute magnetization    =    19.46 Bohr mag/cell

     iteration # 49     ecut=    60.00 Ry     beta= 0.10
     Davidson diagonalization with overlap
     ethr =  1.65E-07,  avg # of iterations =  5.0

     total cpu time spent up to now is     1532.7 secs

     total energy              =   -4052.51176224 Ry
     estimated scf accuracy    <       0.00211114 Ry

     total magnetization       =     1.46 Bohr mag/cell
     absolute magnetization    =    19.21 Bohr mag/cell

     iteration # 50     ecut=    60.00 Ry     beta= 0.10
     Davidson diagonalization with overlap
     ethr =  1.65E-07,  avg # of iterations =  1.0

     total cpu time spent up to now is     1559.3 secs

     total energy              =   -4052.51217652 Ry
     estimated scf accuracy    <       0.00215536 Ry

     total magnetization       =     1.46 Bohr mag/cell
     absolute magnetization    =    19.19 Bohr mag/cell

     iteration # 51     ecut=    60.00 Ry     beta= 0.10
     Davidson diagonalization with overlap
     c_bands:  1 eigenvalues not converged
     ethr =  1.65E-07,  avg # of iterations =  5.7

     total cpu time spent up to now is     1592.1 secs

     total energy              =   -4052.51183505 Ry
     estimated scf accuracy    <       0.00311007 Ry

     total magnetization       =     1.44 Bohr mag/cell
     absolute magnetization    =    18.73 Bohr mag/cell

     iteration # 52     ecut=    60.00 Ry     beta= 0.10
     Davidson diagonalization with overlap
     ethr =  1.65E-07,  avg # of iterations =  5.0

     total cpu time spent up to now is     1623.3 secs

     total energy              =   -4052.51128748 Ry
     estimated scf accuracy    <       0.00428633 Ry

     total magnetization       =     1.45 Bohr mag/cell
     absolute magnetization    =    19.07 Bohr mag/cell

     iteration # 53     ecut=    60.00 Ry     beta= 0.10
     Davidson diagonalization with overlap
     ethr =  1.65E-07,  avg # of iterations =  4.8

     total cpu time spent up to now is     1655.7 secs

     total energy              =   -4052.51178296 Ry
     estimated scf accuracy    <       0.00255686 Ry

     total magnetization       =     1.47 Bohr mag/cell
     absolute magnetization    =    19.35 Bohr mag/cell

     iteration # 54     ecut=    60.00 Ry     beta= 0.10
     Davidson diagonalization with overlap
     ethr =  1.65E-07,  avg # of iterations =  4.5

     total cpu time spent up to now is     1685.1 secs

     total energy              =   -4052.51205464 Ry
     estimated scf accuracy    <       0.00278921 Ry

     total magnetization       =     1.46 Bohr mag/cell
     absolute magnetization    =    19.17 Bohr mag/cell

     iteration # 55     ecut=    60.00 Ry     beta= 0.10
     Davidson diagonalization with overlap
     ethr =  1.65E-07,  avg # of iterations =  5.1

     total cpu time spent up to now is     1717.0 secs

     total energy              =   -4052.51246352 Ry
     estimated scf accuracy    <       0.00089215 Ry

     total magnetization       =     1.46 Bohr mag/cell
     absolute magnetization    =    18.87 Bohr mag/cell

     iteration # 56     ecut=    60.00 Ry     beta= 0.10
     Davidson diagonalization with overlap
     ethr =  1.65E-07,  avg # of iterations =  5.0

     total cpu time spent up to now is     1748.4 secs

     total energy              =   -4052.51236946 Ry
     estimated scf accuracy    <       0.00045647 Ry

     total magnetization       =     1.45 Bohr mag/cell
     absolute magnetization    =    18.60 Bohr mag/cell

     iteration # 57     ecut=    60.00 Ry     beta= 0.10
     Davidson diagonalization with overlap
     ethr =  1.65E-07,  avg # of iterations =  1.4

     total cpu time spent up to now is     1775.1 secs

     total energy              =   -4052.51258156 Ry
     estimated scf accuracy    <       0.00052491 Ry

     total magnetization       =     1.46 Bohr mag/cell
     absolute magnetization    =    18.71 Bohr mag/cell

     iteration # 58     ecut=    60.00 Ry     beta= 0.10
     Davidson diagonalization with overlap
     ethr =  1.65E-07,  avg # of iterations =  1.5

     total cpu time spent up to now is     1802.5 secs

     total energy              =   -4052.51276357 Ry
     estimated scf accuracy    <       0.00041934 Ry

     total magnetization       =     1.45 Bohr mag/cell
     absolute magnetization    =    18.59 Bohr mag/cell

     iteration # 59     ecut=    60.00 Ry     beta= 0.10
     Davidson diagonalization with overlap
     ethr =  1.65E-07,  avg # of iterations =  4.8

     total cpu time spent up to now is     1832.9 secs

     total energy              =   -4052.51270465 Ry
     estimated scf accuracy    <       0.00027140 Ry

     total magnetization       =     1.45 Bohr mag/cell
     absolute magnetization    =    18.40 Bohr mag/cell

     iteration # 60     ecut=    60.00 Ry     beta= 0.10
     Davidson diagonalization with overlap
     ethr =  1.20E-07,  avg # of iterations =  1.1

     total cpu time spent up to now is     1858.8 secs

     total energy              =   -4052.51289172 Ry
     estimated scf accuracy    <       0.00039330 Ry

     total magnetization       =     1.45 Bohr mag/cell
     absolute magnetization    =    18.47 Bohr mag/cell

     iteration # 61     ecut=    60.00 Ry     beta= 0.10
     Davidson diagonalization with overlap
     ethr =  1.20E-07,  avg # of iterations =  5.1

     total cpu time spent up to now is     1890.6 secs

     total energy              =   -4052.51306548 Ry
     estimated scf accuracy    <       0.00018112 Ry

     total magnetization       =     1.44 Bohr mag/cell
     absolute magnetization    =    18.19 Bohr mag/cell

     iteration # 62     ecut=    60.00 Ry     beta= 0.10
     Davidson diagonalization with overlap
     ethr =  8.01E-08,  avg # of iterations =  3.0

     total cpu time spent up to now is     1918.7 secs

     total energy              =   -4052.51305796 Ry
     estimated scf accuracy    <       0.00014288 Ry

     total magnetization       =     1.44 Bohr mag/cell
     absolute magnetization    =    18.15 Bohr mag/cell

     iteration # 63     ecut=    60.00 Ry     beta= 0.10
     Davidson diagonalization with overlap
     ethr =  6.32E-08,  avg # of iterations =  6.2

     total cpu time spent up to now is     1954.2 secs

     total energy              =   -4052.51340240 Ry
     estimated scf accuracy    <       0.00008754 Ry

     total magnetization       =     1.43 Bohr mag/cell
     absolute magnetization    =    17.62 Bohr mag/cell

     iteration # 64     ecut=    60.00 Ry     beta= 0.10
     Davidson diagonalization with overlap
     ethr =  3.87E-08,  avg # of iterations =  5.6

     total cpu time spent up to now is     1988.8 secs

     total energy              =   -4052.51368067 Ry
     estimated scf accuracy    <       0.00010587 Ry

     total magnetization       =     1.44 Bohr mag/cell
     absolute magnetization    =    17.21 Bohr mag/cell

     iteration # 65     ecut=    60.00 Ry     beta= 0.10
     Davidson diagonalization with overlap
     ethr =  3.87E-08,  avg # of iterations =  1.0

     total cpu time spent up to now is     2015.3 secs

     total energy              =   -4052.51369441 Ry
     estimated scf accuracy    <       0.00009717 Ry

     total magnetization       =     1.44 Bohr mag/cell
     absolute magnetization    =    17.21 Bohr mag/cell

     iteration # 66     ecut=    60.00 Ry     beta= 0.10
     Davidson diagonalization with overlap
     ethr =  3.87E-08,  avg # of iterations =  1.8

     total cpu time spent up to now is     2041.8 secs

     total energy              =   -4052.51371391 Ry
     estimated scf accuracy    <       0.00005179 Ry

     total magnetization       =     1.44 Bohr mag/cell
     absolute magnetization    =    17.16 Bohr mag/cell

     iteration # 67     ecut=    60.00 Ry     beta= 0.10
     Davidson diagonalization with overlap
     ethr =  2.29E-08,  avg # of iterations =  3.4

     total cpu time spent up to now is     2070.3 secs

     total energy              =   -4052.51358171 Ry
     estimated scf accuracy    <       0.00035203 Ry

     total magnetization       =     1.44 Bohr mag/cell
     absolute magnetization    =    17.12 Bohr mag/cell

     iteration # 68     ecut=    60.00 Ry     beta= 0.10
     Davidson diagonalization with overlap
     ethr =  2.29E-08,  avg # of iterations =  5.5

     total cpu time spent up to now is     2103.4 secs

     total energy              =   -4052.51365790 Ry
     estimated scf accuracy    <       0.00016726 Ry

     total magnetization       =     1.44 Bohr mag/cell
     absolute magnetization    =    17.32 Bohr mag/cell

     iteration # 69     ecut=    60.00 Ry     beta= 0.10
     Davidson diagonalization with overlap
     ethr =  2.29E-08,  avg # of iterations =  1.3

     total cpu time spent up to now is     2129.5 secs

     total energy              =   -4052.51367051 Ry
     estimated scf accuracy    <       0.00016327 Ry

     total magnetization       =     1.44 Bohr mag/cell
     absolute magnetization    =    17.28 Bohr mag/cell

     iteration # 70     ecut=    60.00 Ry     beta= 0.10
     Davidson diagonalization with overlap
     ethr =  2.29E-08,  avg # of iterations =  2.9

     total cpu time spent up to now is     2157.6 secs

     total energy              =   -4052.51366821 Ry
     estimated scf accuracy    <       0.00017127 Ry

     total magnetization       =     1.44 Bohr mag/cell
     absolute magnetization    =    17.26 Bohr mag/cell

     iteration # 71     ecut=    60.00 Ry     beta= 0.10
     Davidson diagonalization with overlap
     ethr =  2.29E-08,  avg # of iterations =  1.1

     total cpu time spent up to now is     2183.6 secs

     total energy              =   -4052.51359158 Ry
     estimated scf accuracy    <       0.00015985 Ry

     total magnetization       =     1.44 Bohr mag/cell
     absolute magnetization    =    17.26 Bohr mag/cell

     iteration # 72     ecut=    60.00 Ry     beta= 0.10
     Davidson diagonalization with overlap
     ethr =  2.29E-08,  avg # of iterations =  4.8

     total cpu time spent up to now is     2213.9 secs

     total energy              =   -4052.51362692 Ry
     estimated scf accuracy    <       0.00037813 Ry

     total magnetization       =     1.45 Bohr mag/cell
     absolute magnetization    =    17.38 Bohr mag/cell

     iteration # 73     ecut=    60.00 Ry     beta= 0.10
     Davidson diagonalization with overlap
     ethr =  2.29E-08,  avg # of iterations =  1.5

     total cpu time spent up to now is     2240.1 secs

     total energy              =   -4052.51363505 Ry
     estimated scf accuracy    <       0.00026483 Ry

     total magnetization       =     1.45 Bohr mag/cell
     absolute magnetization    =    17.35 Bohr mag/cell

     iteration # 74     ecut=    60.00 Ry     beta= 0.10
     Davidson diagonalization with overlap
     ethr =  2.29E-08,  avg # of iterations =  1.0

     total cpu time spent up to now is     2265.3 secs

     total energy              =   -4052.51364950 Ry
     estimated scf accuracy    <       0.00030239 Ry

     total magnetization       =     1.45 Bohr mag/cell
     absolute magnetization    =    17.35 Bohr mag/cell

     iteration # 75     ecut=    60.00 Ry     beta= 0.10
     Davidson diagonalization with overlap
     ethr =  2.29E-08,  avg # of iterations =  3.9

     total cpu time spent up to now is     2294.8 secs

     total energy              =   -4052.51355163 Ry
     estimated scf accuracy    <       0.00012998 Ry

     total magnetization       =     1.45 Bohr mag/cell
     absolute magnetization    =    17.28 Bohr mag/cell

     iteration # 76     ecut=    60.00 Ry     beta= 0.10
     Davidson diagonalization with overlap
     ethr =  2.29E-08,  avg # of iterations =  6.6

     total cpu time spent up to now is     2330.7 secs

     total energy              =   -4052.51373487 Ry
     estimated scf accuracy    <       0.00004460 Ry

     total magnetization       =     1.43 Bohr mag/cell
     absolute magnetization    =    16.89 Bohr mag/cell

     iteration # 77     ecut=    60.00 Ry     beta= 0.10
     Davidson diagonalization with overlap
     c_bands:  1 eigenvalues not converged
     ethr =  1.97E-08,  avg # of iterations =  5.1

     total cpu time spent up to now is     2361.3 secs

     total energy              =   -4052.51375185 Ry
     estimated scf accuracy    <       0.00003170 Ry

     total magnetization       =     1.43 Bohr mag/cell
     absolute magnetization    =    16.96 Bohr mag/cell

     iteration # 78     ecut=    60.00 Ry     beta= 0.10
     Davidson diagonalization with overlap
     c_bands:  2 eigenvalues not converged
     ethr =  1.40E-08,  avg # of iterations =  1.9

     total cpu time spent up to now is     2388.4 secs

     total energy              =   -4052.51315077 Ry
     estimated scf accuracy    <       0.00006725 Ry

     total magnetization       =     1.44 Bohr mag/cell
     absolute magnetization    =    16.96 Bohr mag/cell

     iteration # 79     ecut=    60.00 Ry     beta= 0.10
     Davidson diagonalization with overlap
     ethr =  1.40E-08,  avg # of iterations =  8.8

     total cpu time spent up to now is     2428.6 secs

     total energy              =   -4052.51358929 Ry
     estimated scf accuracy    <       0.00014906 Ry

     total magnetization       =     1.43 Bohr mag/cell
     absolute magnetization    =    17.47 Bohr mag/cell

     iteration # 80     ecut=    60.00 Ry     beta= 0.10
     Davidson diagonalization with overlap
     ethr =  1.40E-08,  avg # of iterations =  2.7

     total cpu time spent up to now is     2456.5 secs

     total energy              =   -4052.51360702 Ry
     estimated scf accuracy    <       0.00018572 Ry

     total magnetization       =     1.44 Bohr mag/cell
     absolute magnetization    =    17.43 Bohr mag/cell

     iteration # 81     ecut=    60.00 Ry     beta= 0.10
     Davidson diagonalization with overlap
     ethr =  1.40E-08,  avg # of iterations =  5.8

     total cpu time spent up to now is     2490.3 secs

     total energy              =   -4052.51336898 Ry
     estimated scf accuracy    <       0.00021491 Ry

     total magnetization       =     1.44 Bohr mag/cell
     absolute magnetization    =    17.20 Bohr mag/cell

     iteration # 82     ecut=    60.00 Ry     beta= 0.10
     Davidson diagonalization with overlap
     ethr =  1.40E-08,  avg # of iterations =  6.2

     total cpu time spent up to now is     2525.9 secs

     total energy              =   -4052.51357718 Ry
     estimated scf accuracy    <       0.00021888 Ry

     total magnetization       =     1.44 Bohr mag/cell
     absolute magnetization    =    17.52 Bohr mag/cell

     iteration # 83     ecut=    60.00 Ry     beta= 0.10
     Davidson diagonalization with overlap
     ethr =  1.40E-08,  avg # of iterations =  5.0

     total cpu time spent up to now is     2557.0 secs

     total energy              =   -4052.51362432 Ry
     estimated scf accuracy    <       0.00025308 Ry

     total magnetization       =     1.44 Bohr mag/cell
     absolute magnetization    =    17.44 Bohr mag/cell

     iteration # 84     ecut=    60.00 Ry     beta= 0.10
     Davidson diagonalization with overlap
     ethr =  1.40E-08,  avg # of iterations =  5.2

     total cpu time spent up to now is     2589.6 secs

     total energy              =   -4052.51340845 Ry
     estimated scf accuracy    <       0.00032640 Ry

     total magnetization       =     1.44 Bohr mag/cell
     absolute magnetization    =    17.27 Bohr mag/cell

     iteration # 85     ecut=    60.00 Ry     beta= 0.10
     Davidson diagonalization with overlap
     ethr =  1.40E-08,  avg # of iterations =  5.3

     total cpu time spent up to now is     2623.6 secs

     total energy              =   -4052.51353554 Ry
     estimated scf accuracy    <       0.00008170 Ry

     total magnetization       =     1.43 Bohr mag/cell
     absolute magnetization    =    17.53 Bohr mag/cell

     iteration # 86     ecut=    60.00 Ry     beta= 0.10
     Davidson diagonalization with overlap
     ethr =  1.40E-08,  avg # of iterations =  1.0

     total cpu time spent up to now is     2649.3 secs

     total energy              =   -4052.51355250 Ry
     estimated scf accuracy    <       0.00007832 Ry

     total magnetization       =     1.44 Bohr mag/cell
     absolute magnetization    =    17.53 Bohr mag/cell

     iteration # 87     ecut=    60.00 Ry     beta= 0.10
     Davidson diagonalization with overlap
     ethr =  1.40E-08,  avg # of iterations =  2.1

     total cpu time spent up to now is     2677.0 secs

     total energy              =   -4052.51358799 Ry
     estimated scf accuracy    <       0.00006634 Ry

     total magnetization       =     1.43 Bohr mag/cell
     absolute magnetization    =    17.50 Bohr mag/cell

     iteration # 88     ecut=    60.00 Ry     beta= 0.10
     Davidson diagonalization with overlap
     ethr =  1.40E-08,  avg # of iterations =  5.4

     total cpu time spent up to now is     2710.5 secs

     total energy              =   -4052.51358063 Ry
     estimated scf accuracy    <       0.00003840 Ry

     total magnetization       =     1.43 Bohr mag/cell
     absolute magnetization    =    17.33 Bohr mag/cell

     iteration # 89     ecut=    60.00 Ry     beta= 0.10
     Davidson diagonalization with overlap
     ethr =  1.40E-08,  avg # of iterations =  6.5

     total cpu time spent up to now is     2745.9 secs

     total energy              =   -4052.51357221 Ry
     estimated scf accuracy    <       0.00001200 Ry

     total magnetization       =     1.43 Bohr mag/cell
     absolute magnetization    =    17.02 Bohr mag/cell

     iteration # 90     ecut=    60.00 Ry     beta= 0.10
     Davidson diagonalization with overlap
     ethr =  5.31E-09,  avg # of iterations = 10.1
 
     Magnetic moment per site  (integrated on atomic sphere of radius R)
     atom   1 (R=0.180)  charge= 12.2208  magn=  0.9999
     atom   2 (R=0.180)  charge= 12.2343  magn= -0.9867
     atom   3 (R=0.180)  charge= 12.2208  magn=  0.9999
     atom   4 (R=0.180)  charge= 12.2316  magn= -1.0145
     atom   5 (R=0.180)  charge= 12.2208  magn=  0.9999
     atom   6 (R=0.180)  charge= 12.2316  magn= -1.0201
     atom   7 (R=0.180)  charge= 12.2208  magn=  0.9999
     atom   8 (R=0.180)  charge= 12.2287  magn= -0.9807
     atom   9 (R=0.180)  charge= 12.2208  magn=  0.9999
     atom  10 (R=0.180)  charge= 12.2316  magn= -1.0201
     atom  11 (R=0.180)  charge= 12.2208  magn=  0.9999
     atom  12 (R=0.180)  charge= 12.2287  magn= -0.9807
     atom  13 (R=0.180)  charge= 12.2208  magn=  0.9999
     atom  14 (R=0.180)  charge= 12.2293  magn= -0.9888
     atom  15 (R=0.180)  charge= 12.2208  magn=  0.9999
     atom  16 (R=0.180)  charge= 14.5161  magn=  0.3975

     total cpu time spent up to now is     2787.8 secs

     End of self-consistent calculation

 ------ SPIN UP ------------


          k = 0.0000 0.0000 0.0000 (  9843 PWs)   bands (ev):

   -68.0466 -52.9229 -52.8874 -52.8845 -52.8845 -52.8701 -52.8701 -52.8672
   -52.8535 -51.7940 -51.7930 -51.7823 -51.7755 -51.7713 -51.7703 -51.7551
   -34.1163 -34.1019 -34.1019 -24.4614 -24.4539 -24.4539 -24.4297 -24.4244
   -24.4244 -24.3323 -24.3169 -24.3124 -24.2924 -24.2924 -24.2866 -24.2451
   -24.2200 -24.2200 -24.1598 -24.1598 -24.1462 -24.1434 -24.1396 -24.1396
   -24.1346 -24.1254 -24.1204 -23.2370 -23.2344 -23.2344 -23.1896 -23.1849
   -23.1849 -23.0825 -23.0747 -23.0684 -23.0684 -23.0667 -23.0624 -23.0624
   -23.0567 -23.0519 -23.0519 -23.0431 -23.0431 -23.0141 -22.9950 -22.9950
    11.3529  14.6781  14.7675  14.7821  14.9350  14.9381  14.9381  14.9624
    15.0088  15.1110  15.2051  15.2051  15.2871  15.4093  15.4507  16.6088
    16.6749  16.6749  16.6770  16.6770  16.7694  16.8629  16.8629  16.9186
    17.1838  17.2266  17.2273  17.2273  17.2734  17.2734  17.4893  17.5088
    17.9123  18.2493  18.2493  18.3597  18.4000  18.4003  18.4927  18.4927
    18.5170  18.5170  18.9968  18.9968  19.0500  19.4514  19.4514  19.4781
    19.4962  19.4983  19.5517  19.6775  19.6913  20.2162  20.2271  20.2271
    20.2627  20.2627  20.3402  20.3716  20.4026  20.4026  20.4501  20.4718
    20.4718  20.4720  20.4952  20.4952  20.5221  20.5255  20.5590  20.6014

          k = 0.0000 0.0000 0.1642 (  9879 PWs)   bands (ev):

   -68.0467 -52.9206 -52.8898 -52.8835 -52.8835 -52.8710 -52.8710 -52.8663
   -52.8544 -51.7931 -51.7923 -51.7827 -51.7756 -51.7720 -51.7699 -51.7558
   -34.1163 -34.1020 -34.1020 -24.4521 -24.4407 -24.4407 -24.4245 -24.4132
   -24.4132 -24.3350 -24.3267 -24.3109 -24.3029 -24.3029 -24.2770 -24.2501
   -24.2157 -24.2157 -24.1796 -24.1796 -24.1544 -24.1464 -24.1464 -24.1424
   -24.1336 -24.1277 -24.1214 -23.2224 -23.2197 -23.2197 -23.1819 -23.1760
   -23.1760 -23.0812 -23.0757 -23.0741 -23.0741 -23.0737 -23.0698 -23.0698
   -23.0582 -23.0511 -23.0511 -23.0430 -23.0430 -23.0283 -22.9991 -22.9991
    11.5013  14.3877  14.7803  14.8417  14.8613  14.9871  14.9871  15.0454
    15.0604  15.0831  15.2553  15.2553  15.3961  15.4644  15.6835  16.4663
    16.6174  16.6174  16.6887  16.6887  16.7142  16.8115  16.9283  16.9283
    17.0030  17.0770  17.1951  17.1951  17.3672  17.4356  17.4356  17.6170
    18.0819  18.2241  18.2241  18.3202  18.3202  18.3647  18.4504  18.4504
    18.6331  18.6662  18.7007  18.8036  19.1504  19.1504  19.3702  19.3764
    19.3896  19.3896  19.6033  19.6033  19.6671  19.7957  19.8856  19.9569
    19.9569  20.0365  20.1842  20.2854  20.2854  20.4255  20.4340  20.4755
    20.4836  20.5221  20.5573  20.6246  20.6246  20.6767  20.6986  21.0893

          k = 0.0000 0.0000 0.3284 (  9863 PWs)   bands (ev):

   -68.0467 -52.9143 -52.8963 -52.8809 -52.8809 -52.8737 -52.8737 -52.8638
   -52.8569 -51.7908 -51.7906 -51.7844 -51.7757 -51.7735 -51.7689 -51.7574
   -34.1162 -34.1020 -34.1020 -24.4257 -24.4105 -24.4094 -24.4094 -24.3770
   -24.3770 -24.3532 -24.3479 -24.3290 -24.3290 -24.3005 -24.2627 -24.2511
   -24.2369 -24.2369 -24.2000 -24.2000 -24.1795 -24.1615 -24.1615 -24.1396
   -24.1318 -24.1309 -24.1240 -23.1833 -23.1824 -23.1824 -23.1617 -23.1534
   -23.1534 -23.0961 -23.0961 -23.0959 -23.0908 -23.0908 -23.0777 -23.0755
   -23.0660 -23.0612 -23.0464 -23.0464 -23.0394 -23.0394 -23.0092 -23.0092
    11.9346  13.4805  14.9440  15.0046  15.1164  15.1164  15.1455  15.2684
    15.2936  15.3215  15.3215  15.3944  15.4159  15.4362  15.7370  16.0949
    16.1544  16.5133  16.5740  16.5740  16.6615  16.6615  17.1274  17.1280
    17.1280  17.2516  17.2726  17.2726  17.3232  17.6552  17.7911  17.7911
    17.9291  17.9291  18.0182  18.1786  18.2519  18.2519  18.3611  18.3611
    18.4547  18.4547  18.4837  18.5210  18.5886  18.8575  19.0827  19.1313
    19.1313  19.1907  19.2374  19.5201  19.5201  19.7315  19.9470  19.9650
    19.9650  20.1517  20.1754  20.1958  20.1958  20.4169  20.4855  20.5114
    20.5265  20.6499  20.7794  20.8477  20.8720  20.9300  20.9300  20.9661

          k = 0.0000 0.0000-0.4926 (  9858 PWs)   bands (ev):

   -68.0466 -52.9070 -52.9036 -52.8773 -52.8773 -52.8773 -52.8773 -52.8604
   -52.8603 -51.7899 -51.7879 -51.7867 -51.7756 -51.7743 -51.7682 -51.7584
   -34.1162 -34.1020 -34.1020 -24.3999 -24.3901 -24.3893 -24.3808 -24.3808
   -24.3633 -24.3633 -24.3592 -24.3208 -24.3208 -24.2925 -24.2925 -24.2887
   -24.2750 -24.2149 -24.2143 -24.1871 -24.1871 -24.1758 -24.1758 -24.1361
   -24.1360 -24.1277 -24.1276 -23.1443 -23.1391 -23.1391 -23.1390 -23.1368
   -23.1368 -23.1307 -23.1307 -23.1237 -23.1085 -23.1085 -23.1003 -23.0755
   -23.0748 -23.0636 -23.0458 -23.0458 -23.0321 -23.0321 -23.0179 -23.0179
    12.5643  12.6731  15.0875  15.1736  15.2625  15.2625  15.2662  15.2662
    15.2901  15.2991  15.4628  15.5714  15.6173  15.6325  15.6496  15.7222
    15.8940  15.9893  16.5656  16.5656  16.6418  16.6418  17.3676  17.3999
    17.3999  17.5054  17.5278  17.5278  17.6494  17.6523  17.6621  17.6840
    17.6840  17.6970  17.6970  18.0173  18.0811  18.0989  18.1549  18.1549
    18.3330  18.3330  18.4652  18.4652  18.4964  18.4964  18.7104  18.7346
    18.8637  19.4857  19.5880  19.6876  19.6876  19.7165  19.8582  19.8604
    20.0164  20.0164  20.2362  20.3268  20.4287  20.4287  20.4985  20.4989
    20.5421  20.6685  20.6685  20.8130  20.8275  20.8725  20.9105  20.9921

          k = 0.0000 0.1667 0.0000 (  9857 PWs)   bands (ev):

   -68.0466 -52.9204 -52.8871 -52.8863 -52.8833 -52.8712 -52.8689 -52.8684
   -52.8546 -51.7931 -51.7922 -51.7825 -51.7755 -51.7716 -51.7705 -51.7561
   -34.1163 -34.1019 -34.1019 -24.4474 -24.4445 -24.4401 -24.4193 -24.4172
   -24.4120 -24.3337 -24.3229 -24.3128 -24.3037 -24.2978 -24.2819 -24.2401
   -24.2271 -24.2153 -24.1682 -24.1620 -24.1601 -24.1587 -24.1490 -24.1441
   -24.1384 -24.1330 -24.1235 -23.2219 -23.2196 -23.2188 -23.1806 -23.1765
   -23.1759 -23.0814 -23.0791 -23.0744 -23.0692 -23.0691 -23.0670 -23.0649
   -23.0624 -23.0524 -23.0514 -23.0509 -23.0426 -23.0185 -23.0107 -22.9989
    11.5059  14.4623  14.7799  14.8320  14.8802  14.9857  14.9862  15.0427
    15.0685  15.0937  15.1722  15.2607  15.3454  15.4471  15.7746  16.5337
    16.5922  16.6426  16.7354  16.7365  16.7430  16.7954  16.8625  16.9410
    16.9577  17.1114  17.1572  17.1957  17.3621  17.3774  17.4106  17.6157
    18.1309  18.1746  18.2622  18.2677  18.2871  18.3531  18.3779  18.4544
    18.6025  18.7230  18.7782  18.7878  19.1515  19.1994  19.3137  19.4053
    19.4193  19.4876  19.5778  19.6358  19.6706  19.8482  19.8537  19.8630
    19.8820  20.0417  20.1815  20.2296  20.3090  20.3679  20.4400  20.4500
    20.4730  20.5279  20.5997  20.6135  20.6141  20.6309  20.6769  20.9444

          k = 0.0000 0.1667 0.1642 (  9863 PWs)   bands (ev):

   -68.0466 -52.9182 -52.8886 -52.8860 -52.8824 -52.8723 -52.8699 -52.8674
   -52.8555 -51.7923 -51.7916 -51.7830 -51.7755 -51.7719 -51.7703 -51.7568
   -34.1163 -34.1020 -34.1019 -24.4422 -24.4325 -24.4264 -24.4117 -24.4053
   -24.4023 -24.3374 -24.3251 -24.3186 -24.3108 -24.2987 -24.2800 -24.2507
   -24.2183 -24.2115 -24.1832 -24.1819 -24.1667 -24.1568 -24.1563 -24.1443
   -24.1425 -24.1364 -24.1252 -23.2121 -23.2091 -23.2070 -23.1732 -23.1683
   -23.1653 -23.0870 -23.0838 -23.0793 -23.0786 -23.0770 -23.0760 -23.0645
   -23.0577 -23.0498 -23.0491 -23.0489 -23.0426 -23.0378 -23.0065 -23.0024
    11.6519  14.4395  14.5603  14.8245  14.9055  14.9471  15.0702  15.1117
    15.1176  15.1275  15.1678  15.3239  15.4702  15.7224  15.8067  16.3982
    16.5788  16.6323  16.7008  16.7377  16.7452  16.7531  16.8473  16.9040
    16.9686  17.0806  17.1396  17.2038  17.2873  17.3413  17.4708  17.8127
    17.9146  18.1362  18.1986  18.2013  18.2551  18.2750  18.4345  18.5734
    18.5824  18.6463  18.8579  18.9186  18.9263  18.9631  19.1815  19.2067
    19.2713  19.3653  19.3701  19.4418  19.5243  19.6596  19.8280  19.8573
    19.8725  19.9916  20.1368  20.2312  20.3669  20.4271  20.4455  20.4710
    20.5311  20.5515  20.6282  20.7247  20.7463  20.7652  20.8212  20.9004

          k = 0.0000 0.1667 0.3284 (  9871 PWs)   bands (ev):

   -68.0467 -52.9121 -52.8948 -52.8831 -52.8797 -52.8752 -52.8725 -52.8649
   -52.8580 -51.7903 -51.7900 -51.7845 -51.7754 -51.7730 -51.7694 -51.7585
   -34.1163 -34.1020 -34.1019 -24.4201 -24.4116 -24.3948 -24.3946 -24.3702
   -24.3671 -24.3555 -24.3472 -24.3298 -24.3195 -24.3067 -24.2685 -24.2557
   -24.2366 -24.2332 -24.2027 -24.1963 -24.1818 -24.1756 -24.1602 -24.1511
   -24.1416 -24.1386 -24.1291 -23.1861 -23.1816 -23.1751 -23.1528 -23.1489
   -23.1399 -23.1138 -23.1049 -23.1004 -23.0936 -23.0849 -23.0830 -23.0734
   -23.0695 -23.0564 -23.0449 -23.0441 -23.0395 -23.0395 -23.0117 -23.0116
    12.0771  13.5848  14.6754  14.8410  15.0878  15.2123  15.2468  15.2706
    15.3496  15.3815  15.4230  15.4663  15.4920  15.7598  15.8038  16.1044
    16.1973  16.4388  16.6075  16.6923  16.6939  16.7796  16.8960  17.0633
    17.0688  17.1509  17.1777  17.2530  17.3687  17.6444  17.6695  17.7918
    17.8044  18.0205  18.0280  18.0922  18.0961  18.1485  18.1503  18.2118
    18.3348  18.3498  18.4581  18.7053  18.7419  18.7449  18.8022  18.9721
    19.1258  19.1888  19.3170  19.4490  19.5074  19.7691  19.8635  19.9159
    19.9195  20.0355  20.0836  20.2386  20.2944  20.4254  20.4787  20.5263
    20.5483  20.6105  20.6891  20.7162  20.7750  20.8569  20.8818  20.9059

          k = 0.0000 0.1667-0.4926 (  9874 PWs)   bands (ev):

   -68.0467 -52.9050 -52.9019 -52.8793 -52.8790 -52.8762 -52.8761 -52.8615
   -52.8615 -51.7895 -51.7876 -51.7867 -51.7754 -51.7737 -51.7686 -51.7595
   -34.1162 -34.1020 -34.1019 -24.3950 -24.3881 -24.3861 -24.3807 -24.3686
   -24.3614 -24.3585 -24.3516 -24.3169 -24.3070 -24.3006 -24.2887 -24.2830
   -24.2800 -24.2191 -24.2181 -24.1924 -24.1851 -24.1836 -24.1734 -24.1476
   -24.1461 -24.1342 -24.1337 -23.1551 -23.1509 -23.1445 -23.1375 -23.1373
   -23.1358 -23.1306 -23.1284 -23.1197 -23.1078 -23.1010 -23.0987 -23.0766
   -23.0753 -23.0571 -23.0438 -23.0437 -23.0323 -23.0303 -23.0197 -23.0194
    12.6911  12.8022  14.7519  14.8523  15.2377  15.3894  15.3895  15.3954
    15.4733  15.5474  15.5867  15.6398  15.6682  15.6996  15.7097  15.7901
    15.9337  16.0263  16.6064  16.6342  16.6598  16.7135  17.1837  17.2425
    17.2555  17.3579  17.3803  17.4247  17.4497  17.4603  17.7050  17.7430
    17.8225  17.8311  17.8362  17.8841  18.0293  18.1115  18.1161  18.1178
    18.1620  18.2124  18.2261  18.2267  18.3132  18.3385  18.8594  18.9479
    19.0188  19.3587  19.5786  19.6515  19.7166  19.7628  19.8872  19.9075
    19.9087  19.9915  20.1485  20.2376  20.3241  20.3349  20.4543  20.5081
    20.5081  20.5599  20.5637  20.7318  20.8309  20.8451  20.8670  20.9301

          k = 0.0000 0.3333 0.0000 (  9864 PWs)   bands (ev):

   -68.0467 -52.9136 -52.8941 -52.8831 -52.8802 -52.8744 -52.8715 -52.8659
   -52.8576 -51.7909 -51.7902 -51.7838 -51.7753 -51.7734 -51.7691 -51.7585
   -34.1164 -34.1020 -34.1018 -24.4187 -24.4148 -24.4083 -24.4062 -24.3776
   -24.3724 -24.3489 -24.3452 -24.3308 -24.3247 -24.2968 -24.2512 -24.2454
   -24.2335 -24.2239 -24.2164 -24.1985 -24.1803 -24.1695 -24.1596 -24.1555
   -24.1455 -24.1355 -24.1271 -23.1839 -23.1822 -23.1765 -23.1565 -23.1535
   -23.1528 -23.0995 -23.0967 -23.0949 -23.0900 -23.0809 -23.0711 -23.0659
   -23.0627 -23.0619 -23.0522 -23.0507 -23.0482 -23.0379 -23.0297 -23.0087
    11.9522  13.5392  14.9382  14.9968  15.1093  15.1217  15.1779  15.2670
    15.2683  15.3219  15.3357  15.3731  15.4278  15.4380  15.8214  16.1581
    16.1582  16.5623  16.5981  16.6290  16.7433  16.7655  17.0130  17.0379
    17.1453  17.2087  17.2355  17.2805  17.3215  17.6562  17.7173  17.7430
    17.8432  17.9315  17.9545  18.1506  18.2082  18.2988  18.3118  18.4095
    18.4461  18.4854  18.5150  18.5192  18.5613  18.8977  19.0045  19.0427
    19.0464  19.2552  19.3093  19.5218  19.5700  19.7858  19.9065  19.9706
    19.9812  20.1395  20.1479  20.2142  20.2755  20.3969  20.4389  20.4412
    20.5162  20.6302  20.7106  20.8520  20.8624  20.8996  20.9408  20.9522

          k = 0.0000 0.3333 0.1642 (  9844 PWs)   bands (ev):

   -68.0466 -52.9116 -52.8928 -52.8851 -52.8792 -52.8757 -52.8706 -52.8669
   -52.8586 -51.7903 -51.7898 -51.7841 -51.7753 -51.7729 -51.7695 -51.7593
   -34.1163 -34.1019 -34.1018 -24.4163 -24.4122 -24.3945 -24.3942 -24.3669
   -24.3661 -24.3536 -24.3453 -24.3298 -24.3169 -24.3041 -24.2604 -24.2554
   -24.2257 -24.2246 -24.2130 -24.1950 -24.1919 -24.1725 -24.1672 -24.1571
   -24.1551 -24.1404 -24.1298 -23.1849 -23.1791 -23.1749 -23.1505 -23.1485
   -23.1385 -23.1110 -23.1063 -23.1006 -23.0931 -23.0857 -23.0783 -23.0677
   -23.0607 -23.0561 -23.0533 -23.0476 -23.0457 -23.0379 -23.0226 -23.0112
    12.0901  13.6370  14.6331  14.8329  15.0752  15.2438  15.2470  15.2674
    15.3517  15.4002  15.4322  15.4859  15.4936  15.7209  15.8738  16.1488
    16.1984  16.4667  16.6234  16.7669  16.7750  16.8541  16.8829  16.9647
    17.0126  17.1124  17.1810  17.2442  17.3650  17.5794  17.6327  17.7772
    17.7967  17.9745  17.9784  18.0802  18.1120  18.1224  18.1483  18.1986
    18.3650  18.4043  18.4836  18.6827  18.6840  18.7394  18.7648  18.9176
    19.0799  19.2415  19.3585  19.4727  19.5118  19.7957  19.8590  19.9221
    19.9280  20.0564  20.0734  20.2753  20.3105  20.4286  20.4556  20.5038
    20.5523  20.5986  20.6538  20.6542  20.7799  20.8476  20.8537  20.8771

          k = 0.0000 0.3333 0.3284 (  9861 PWs)   bands (ev):

   -68.0467 -52.9061 -52.8910 -52.8890 -52.8793 -52.8766 -52.8695 -52.8681
   -52.8611 -51.7891 -51.7886 -51.7851 -51.7753 -51.7717 -51.7700 -51.7611
   -34.1162 -34.1020 -34.1018 -24.4037 -24.4001 -24.3751 -24.3689 -24.3580
   -24.3540 -24.3492 -24.3354 -24.3351 -24.3063 -24.3048 -24.2836 -24.2550
   -24.2446 -24.2264 -24.2132 -24.2087 -24.1917 -24.1841 -24.1827 -24.1733
   -24.1543 -24.1500 -24.1359 -23.1771 -23.1740 -23.1563 -23.1424 -23.1383
   -23.1327 -23.1247 -23.1170 -23.1133 -23.1099 -23.1005 -23.0874 -23.0683
   -23.0593 -23.0487 -23.0475 -23.0396 -23.0387 -23.0378 -23.0202 -23.0180
    12.4890  13.8362  13.9361  14.5792  15.3369  15.4118  15.4580  15.5485
    15.5937  15.6108  15.6270  15.6381  15.6410  15.8154  15.8925  16.0667
    16.3721  16.3790  16.4753  16.6507  16.8067  16.8452  16.8985  16.9395
    17.0044  17.0405  17.0945  17.2263  17.2874  17.5368  17.5910  17.6102
    17.7955  17.8004  17.8318  17.9231  17.9296  17.9594  18.0093  18.0138
    18.0610  18.1134  18.2227  18.3551  18.3926  18.6929  18.7727  18.9984
    19.0311  19.1444  19.4838  19.5582  19.6313  19.8253  19.8593  19.8898
    19.9844  19.9999  20.0755  20.2576  20.2804  20.3230  20.3879  20.4478
    20.4584  20.5172  20.5688  20.5814  20.6820  20.7589  20.7667  20.7742

          k = 0.0000 0.3333-0.4926 (  9850 PWs)   bands (ev):

   -68.0466 -52.8996 -52.8973 -52.8848 -52.8837 -52.8731 -52.8730 -52.8646
   -52.8646 -51.7886 -51.7871 -51.7866 -51.7754 -51.7714 -51.7697 -51.7624
   -34.1162 -34.1020 -34.1018 -24.3885 -24.3850 -24.3765 -24.3752 -24.3558
   -24.3535 -24.3374 -24.3224 -24.3115 -24.3078 -24.3050 -24.2781 -24.2736
   -24.2645 -24.2271 -24.2255 -24.2089 -24.2086 -24.1831 -24.1829 -24.1733
   -24.1643 -24.1456 -24.1419 -23.1609 -23.1561 -23.1529 -23.1526 -23.1349
   -23.1341 -23.1336 -23.1301 -23.1294 -23.1062 -23.0956 -23.0908 -23.0701
   -23.0635 -23.0451 -23.0434 -23.0385 -23.0328 -23.0312 -23.0245 -23.0242
    13.0495  13.1682  14.2049  14.3068  15.4803  15.5904  15.6423  15.7132
    15.7220  15.7335  15.7432  15.7669  15.7702  15.8088  15.9455  16.0278
    16.0641  16.1060  16.6309  16.6976  16.8029  16.8589  16.8912  16.9709
    16.9897  17.0148  17.0343  17.1298  17.3949  17.4223  17.5835  17.6153
    17.6240  17.6733  17.6841  17.8103  17.8105  17.8522  18.0302  18.0311
    18.0462  18.0717  18.0798  18.1041  18.2010  18.2296  19.0397  19.0788
    19.0854  19.1847  19.4666  19.5984  19.6446  19.8085  19.9222  19.9560
    20.0609  20.0964  20.1373  20.1375  20.1522  20.1911  20.3470  20.3495
    20.3975  20.5972  20.6097  20.6398  20.6677  20.6863  20.7218  20.7246

          k = 0.0000-0.5000 0.0000 (  9890 PWs)   bands (ev):

   -68.0467 -52.9056 -52.9022 -52.8788 -52.8787 -52.8759 -52.8758 -52.8618
   -52.8617 -51.7894 -51.7887 -51.7852 -51.7755 -51.7743 -51.7679 -51.7602
   -34.1163 -34.1020 -34.1018 -24.3961 -24.3845 -24.3839 -24.3832 -24.3789
   -24.3669 -24.3602 -24.3560 -24.3168 -24.3114 -24.2887 -24.2841 -24.2773
   -24.2647 -24.2102 -24.2096 -24.2088 -24.1960 -24.1860 -24.1745 -24.1511
   -24.1510 -24.1315 -24.1315 -23.1401 -23.1400 -23.1373 -23.1357 -23.1343
   -23.1305 -23.1300 -23.1270 -23.1181 -23.1135 -23.1083 -23.0889 -23.0706
   -23.0646 -23.0632 -23.0538 -23.0527 -23.0476 -23.0393 -23.0307 -23.0171
    12.6010  12.7104  15.0809  15.1664  15.2386  15.2444  15.2756  15.2786
    15.2790  15.2938  15.5260  15.6201  15.6380  15.6740  15.7034  15.7130
    15.9320  16.0301  16.6252  16.6450  16.7007  16.7270  17.2927  17.3036
    17.4107  17.4196  17.5144  17.5329  17.5498  17.6049  17.6578  17.6605
    17.6664  17.7153  17.7275  18.0134  18.0940  18.0949  18.1200  18.1700
    18.2797  18.3795  18.3893  18.4137  18.4182  18.4270  18.6412  18.7398
    18.7687  19.5404  19.6712  19.6808  19.7527  19.7873  19.8889  19.9689
    20.0179  20.1190  20.1940  20.3220  20.3520  20.3983  20.4212  20.4414
    20.5182  20.5706  20.6323  20.7970  20.8052  20.8698  20.8871  20.9236

          k = 0.0000-0.5000 0.1642 (  9886 PWs)   bands (ev):

   -68.0467 -52.9038 -52.9007 -52.8806 -52.8803 -52.8749 -52.8749 -52.8627
   -52.8627 -51.7890 -51.7885 -51.7853 -51.7755 -51.7736 -51.7682 -51.7610
   -34.1163 -34.1019 -34.1018 -24.3925 -24.3850 -24.3819 -24.3815 -24.3677
   -24.3636 -24.3563 -24.3496 -24.3083 -24.3025 -24.2941 -24.2810 -24.2767
   -24.2728 -24.2141 -24.2131 -24.2089 -24.2016 -24.1825 -24.1725 -24.1630
   -24.1616 -24.1356 -24.1348 -23.1504 -23.1472 -23.1421 -23.1385 -23.1369
   -23.1346 -23.1298 -23.1262 -23.1166 -23.1075 -23.1008 -23.0945 -23.0751
   -23.0681 -23.0520 -23.0502 -23.0452 -23.0441 -23.0360 -23.0309 -23.0190
    12.7226  12.8343  14.7321  14.8324  15.2350  15.3900  15.3970  15.3976
    15.4682  15.5712  15.5949  15.6815  15.6986  15.7299  15.7452  15.7819
    15.9670  16.0619  16.6608  16.7089  16.7097  16.7955  17.1536  17.1758
    17.1922  17.3404  17.3494  17.3904  17.4394  17.4450  17.7139  17.7304
    17.8049  17.8222  17.8375  17.8752  18.0241  18.0926  18.1099  18.1119
    18.1499  18.1514  18.1763  18.1843  18.2493  18.2767  18.8641  18.9089
    18.9663  19.4062  19.5787  19.6868  19.7761  19.8073  19.9107  19.9444
    20.0009  20.0187  20.1847  20.2505  20.2748  20.3314  20.3989  20.4214
    20.4345  20.5286  20.5497  20.7253  20.8288  20.8414  20.8442  20.8615

          k = 0.0000-0.5000 0.3284 (  9852 PWs)   bands (ev):

   -68.0466 -52.8989 -52.8965 -52.8855 -52.8844 -52.8724 -52.8723 -52.8653
   -52.8653 -51.7883 -51.7879 -51.7857 -51.7755 -51.7717 -51.7688 -51.7632
   -34.1162 -34.1020 -34.1018 -24.3874 -24.3848 -24.3761 -24.3752 -24.3556
   -24.3532 -24.3388 -24.3225 -24.3082 -24.3039 -24.3022 -24.2731 -24.2703
   -24.2599 -24.2222 -24.2206 -24.2164 -24.2163 -24.1922 -24.1919 -24.1730
   -24.1645 -24.1462 -24.1424 -23.1588 -23.1549 -23.1526 -23.1500 -23.1365
   -23.1350 -23.1325 -23.1298 -23.1297 -23.1061 -23.0954 -23.0884 -23.0659
   -23.0651 -23.0434 -23.0402 -23.0397 -23.0381 -23.0317 -23.0316 -23.0244
    13.0672  13.1863  14.1903  14.2921  15.4734  15.5955  15.6319  15.7109
    15.7200  15.7516  15.7518  15.7710  15.7796  15.8338  15.9511  16.0476
    16.0689  16.1264  16.6451  16.7323  16.8596  16.8599  16.9381  16.9425
    16.9716  17.0013  17.0205  17.1052  17.4006  17.4225  17.5479  17.5923
    17.6134  17.6451  17.6529  17.8059  17.8079  17.8380  18.0167  18.0196
    18.0351  18.0698  18.0718  18.0800  18.2110  18.2352  19.0280  19.0626
    19.0703  19.2154  19.4674  19.5891  19.6584  19.8196  19.9135  19.9805
    20.0830  20.1478  20.1568  20.1617  20.1669  20.1695  20.3212  20.3512
    20.3589  20.6011  20.6028  20.6454  20.6647  20.6731  20.6844  20.6972

          k = 0.0000-0.5000-0.4926 (  9832 PWs)   bands (ev):

   -68.0466 -52.8922 -52.8922 -52.8922 -52.8888 -52.8689 -52.8688 -52.8688
   -52.8688 -51.7881 -51.7868 -51.7864 -51.7755 -51.7702 -51.7691 -51.7648
   -34.1162 -34.1019 -34.1017 -24.3856 -24.3848 -24.3714 -24.3713 -24.3468
   -24.3467 -24.3210 -24.3201 -24.3148 -24.3037 -24.3037 -24.2672 -24.2455
   -24.2449 -24.2320 -24.2310 -24.2255 -24.2254 -24.2133 -24.2129 -24.1600
   -24.1595 -24.1595 -24.1479 -23.1634 -23.1571 -23.1509 -23.1492 -23.1476
   -23.1451 -23.1325 -23.1315 -23.1307 -23.1053 -23.0947 -23.0844 -23.0615
   -23.0583 -23.0401 -23.0390 -23.0342 -23.0330 -23.0319 -23.0311 -23.0306
    13.4919  13.6944  13.6945  13.7175  15.5876  15.7011  15.7904  15.8076
    15.8099  15.8449  15.8458  15.8484  16.0016  16.0030  16.0594  16.0976
    16.1657  16.4892  16.4935  16.5147  16.7137  16.7758  16.7775  16.8039
    16.8844  16.8955  17.0217  17.0404  17.3457  17.4198  17.4345  17.4468
    17.4710  17.5188  17.5284  17.6111  17.6159  17.7807  17.9523  17.9561
    17.9996  18.0026  18.0041  18.0054  18.6406  18.6431  18.7215  18.7392
    19.0987  19.1557  19.4379  19.6713  19.6838  19.8380  19.8383  19.9692
    20.1013  20.1909  20.1918  20.2892  20.2899  20.3101  20.3102  20.3360
    20.3446  20.4052  20.4055  20.4056  20.5480  20.6576  20.6590  20.7039

          k = 0.1667 0.1667 0.0000 (  9865 PWs)   bands (ev):

   -68.0466 -52.9180 -52.8861 -52.8856 -52.8851 -52.8701 -52.8701 -52.8696
   -52.8557 -51.7922 -51.7915 -51.7828 -51.7753 -51.7714 -51.7710 -51.7571
   -34.1163 -34.1019 -34.1019 -24.4367 -24.4328 -24.4301 -24.4082 -24.4065
   -24.4027 -24.3346 -24.3227 -24.3204 -24.3057 -24.3013 -24.2827 -24.2352
   -24.2343 -24.2117 -24.1739 -24.1668 -24.1658 -24.1627 -24.1614 -24.1518
   -24.1492 -24.1350 -24.1333 -23.2100 -23.2089 -23.2073 -23.1725 -23.1697
   -23.1635 -23.0850 -23.0835 -23.0815 -23.0796 -23.0694 -23.0683 -23.0668
   -23.0667 -23.0521 -23.0482 -23.0478 -23.0463 -23.0254 -23.0224 -23.0007
    11.6565  14.4863  14.5894  14.8188  14.9162  14.9566  15.0657  15.1163
    15.1170  15.1241  15.1798  15.2454  15.4057  15.7950  15.8208  16.4393
    16.5647  16.6639  16.7220  16.7480  16.7572  16.8285  16.8428  16.9211
    16.9575  16.9815  17.1117  17.2275  17.2577  17.3384  17.4258  17.8357
    17.9430  18.0501  18.1369  18.1538  18.2721  18.3587  18.4165  18.5649
    18.6372  18.6864  18.7770  18.8403  18.9645  19.0287  19.1663  19.2281
    19.2306  19.3674  19.3957  19.4092  19.6043  19.7044  19.8402  19.8413
    19.8599  19.9612  20.0985  20.2849  20.3374  20.3760  20.4502  20.5165
    20.5186  20.5271  20.5831  20.6693  20.7747  20.7965  20.8378  20.8582

          k = 0.1667 0.1667 0.1642 (  9854 PWs)   bands (ev):

   -68.0466 -52.9158 -52.8873 -52.8850 -52.8845 -52.8712 -52.8711 -52.8687
   -52.8566 -51.7915 -51.7909 -51.7832 -51.7752 -51.7716 -51.7710 -51.7578
   -34.1163 -34.1019 -34.1019 -24.4321 -24.4204 -24.4191 -24.3996 -24.3947
   -24.3943 -24.3341 -24.3286 -24.3257 -24.3098 -24.2927 -24.2902 -24.2471
   -24.2295 -24.2040 -24.1842 -24.1837 -24.1734 -24.1623 -24.1595 -24.1589
   -24.1553 -24.1396 -24.1351 -23.2016 -23.1990 -23.1988 -23.1664 -23.1632
   -23.1525 -23.0984 -23.0952 -23.0845 -23.0787 -23.0734 -23.0706 -23.0676
   -23.0619 -23.0535 -23.0496 -23.0464 -23.0444 -23.0431 -23.0139 -23.0049
    11.8003  14.4939  14.6258  14.6622  14.9229  14.9521  14.9610  15.1740
    15.1903  15.1947  15.2215  15.2562  15.7854  15.8573  15.8653  16.3413
    16.6151  16.6233  16.6906  16.6943  16.7600  16.7768  16.8292  16.8842
    16.9417  17.0107  17.0668  17.2396  17.2924  17.3331  17.6319  17.6344
    17.7666  18.0224  18.1232  18.1512  18.1853  18.2041  18.5464  18.5746
    18.5793  18.6132  18.6511  18.7048  18.8765  18.9381  18.9766  19.0838
    19.1043  19.1893  19.2621  19.4151  19.4307  19.7652  19.7980  19.8054
    20.0064  20.1202  20.1289  20.2954  20.2989  20.3752  20.4528  20.4695
    20.5133  20.5342  20.5772  20.6840  20.7096  20.7449  20.7911  20.9892

          k = 0.1667 0.1667 0.3284 (  9869 PWs)   bands (ev):

   -68.0467 -52.9100 -52.8933 -52.8821 -52.8817 -52.8741 -52.8740 -52.8661
   -52.8592 -51.7897 -51.7896 -51.7846 -51.7750 -51.7728 -51.7699 -51.7595
   -34.1162 -34.1019 -34.1019 -24.4123 -24.4006 -24.3943 -24.3774 -24.3668
   -24.3565 -24.3512 -24.3478 -24.3274 -24.3173 -24.3089 -24.2705 -24.2603
   -24.2341 -24.2338 -24.2112 -24.1912 -24.1845 -24.1757 -24.1726 -24.1585
   -24.1530 -24.1464 -24.1400 -23.1805 -23.1774 -23.1710 -23.1463 -23.1461
   -23.1307 -23.1225 -23.1146 -23.1047 -23.0892 -23.0812 -23.0801 -23.0774
   -23.0717 -23.0595 -23.0475 -23.0449 -23.0422 -23.0351 -23.0157 -23.0145
    12.2186  13.6927  14.7347  14.8247  14.9590  14.9800  15.2510  15.3769
    15.3864  15.4378  15.4692  15.5316  15.8574  15.8677  15.8915  16.1250
    16.2212  16.4721  16.6191  16.7264  16.7375  16.8033  16.8390  16.8798
    17.0428  17.0770  17.2315  17.3090  17.4453  17.4975  17.5046  17.6622
    17.8025  17.9078  17.9359  18.0048  18.0432  18.0490  18.0673  18.1221
    18.2148  18.2260  18.3700  18.4961  18.5562  18.6341  18.8803  18.9258
    18.9383  19.1481  19.4497  19.4825  19.6073  19.8237  19.8721  19.9085
    19.9816  20.0062  20.1475  20.2669  20.2833  20.4181  20.4529  20.4859
    20.5269  20.5856  20.6406  20.6733  20.7044  20.7662  20.8383  20.9237

          k = 0.1667 0.1667-0.4926 (  9860 PWs)   bands (ev):

   -68.0467 -52.9031 -52.9002 -52.8781 -52.8781 -52.8781 -52.8776 -52.8627
   -52.8626 -51.7891 -51.7873 -51.7867 -51.7749 -51.7734 -51.7691 -51.7605
   -34.1162 -34.1019 -34.1019 -24.3871 -24.3834 -24.3817 -24.3697 -24.3676
   -24.3543 -24.3506 -24.3492 -24.3054 -24.3052 -24.3043 -24.2867 -24.2819
   -24.2791 -24.2237 -24.2220 -24.1996 -24.1871 -24.1831 -24.1800 -24.1544
   -24.1513 -24.1466 -24.1466 -23.1562 -23.1530 -23.1428 -23.1421 -23.1409
   -23.1380 -23.1241 -23.1199 -23.1172 -23.1129 -23.0940 -23.0918 -23.0806
   -23.0765 -23.0586 -23.0476 -23.0404 -23.0356 -23.0284 -23.0259 -23.0188
    12.8186  12.9320  14.8260  14.9304  14.9724  14.9766  15.5745  15.5862
    15.6366  15.6924  15.7065  15.7170  15.7396  15.7618  15.7790  15.8364
    15.9777  16.0692  16.6247  16.6984  16.7060  16.7459  17.0716  17.2080
    17.2278  17.2525  17.2674  17.3410  17.3746  17.3836  17.7060  17.7099
    17.7357  17.7600  17.8226  17.8473  17.9455  18.0145  18.0270  18.0337
    18.0587  18.0610  18.0674  18.0846  18.1089  18.1552  18.9496  19.0392
    19.0757  19.2813  19.5188  19.6721  19.7104  19.8235  19.8427  19.9136
    19.9504  20.0315  20.0584  20.0761  20.3469  20.3732  20.3925  20.4924
    20.5640  20.6349  20.6785  20.7279  20.7936  20.8008  20.8363  20.8941

          k = 0.1667 0.3333 0.0000 (  9857 PWs)   bands (ev):

   -68.0466 -52.9114 -52.8926 -52.8824 -52.8819 -52.8733 -52.8730 -52.8671
   -52.8588 -51.7902 -51.7897 -51.7839 -51.7749 -51.7733 -51.7697 -51.7595
   -34.1163 -34.1019 -34.1018 -24.4132 -24.4088 -24.3998 -24.3916 -24.3707
   -24.3627 -24.3505 -24.3441 -24.3261 -24.3217 -24.3025 -24.2559 -24.2532
   -24.2321 -24.2200 -24.2143 -24.1996 -24.1786 -24.1738 -24.1719 -24.1609
   -24.1495 -24.1490 -24.1386 -23.1830 -23.1763 -23.1762 -23.1517 -23.1478
   -23.1367 -23.1090 -23.1022 -23.1010 -23.0991 -23.0777 -23.0720 -23.0689
   -23.0647 -23.0620 -23.0555 -23.0491 -23.0430 -23.0371 -23.0323 -23.0093
    12.0946  13.6415  14.6875  14.8464  15.0852  15.2411  15.2437  15.2663
    15.3462  15.3732  15.4120  15.4612  15.4864  15.7684  15.8738  16.1646
    16.2069  16.4794  16.6540  16.7508  16.7920  16.8293  16.9154  16.9832
    17.0843  17.1222  17.1474  17.2548  17.2573  17.5788  17.6459  17.6942
    17.7929  17.9993  18.0285  18.0317  18.0975  18.1390  18.1908  18.2529
    18.2835  18.3302  18.4812  18.6665  18.7045  18.7207  18.7940  18.9340
    19.0441  19.2454  19.3820  19.4437  19.5591  19.8271  19.8835  19.8870
    19.9676  20.0287  20.1590  20.2362  20.2979  20.4258  20.4540  20.4644
    20.5160  20.5493  20.6514  20.6535  20.7728  20.7929  20.8721  20.8992

          k = 0.1667 0.3333 0.1642 (  9869 PWs)   bands (ev):

   -68.0467 -52.9094 -52.8914 -52.8839 -52.8814 -52.8746 -52.8721 -52.8681
   -52.8597 -51.7897 -51.7893 -51.7842 -51.7748 -51.7729 -51.7700 -51.7602
   -34.1163 -34.1019 -34.1018 -24.4076 -24.3995 -24.3960 -24.3775 -24.3653
   -24.3540 -24.3475 -24.3468 -24.3261 -24.3166 -24.3061 -24.2639 -24.2558
   -24.2324 -24.2226 -24.2147 -24.1932 -24.1908 -24.1756 -24.1736 -24.1708
   -24.1587 -24.1558 -24.1426 -23.1782 -23.1746 -23.1708 -23.1478 -23.1434
   -23.1284 -23.1188 -23.1157 -23.1038 -23.0897 -23.0798 -23.0795 -23.0682
   -23.0648 -23.0638 -23.0569 -23.0482 -23.0420 -23.0366 -23.0286 -23.0128
    12.2314  13.7430  14.7133  14.8141  14.9555  14.9782  15.2791  15.3629
    15.3916  15.4431  15.4790  15.5537  15.8234  15.8716  15.9520  16.1685
    16.2197  16.5056  16.6491  16.7527  16.8116  16.8357  16.8837  16.9024
    16.9699  17.0714  17.1610  17.2846  17.4190  17.4575  17.4759  17.6150
    17.7877  17.9066  17.9307  17.9988  18.0126  18.0285  18.0906  18.1585
    18.1691  18.2353  18.3817  18.4343  18.5522  18.5996  18.8407  18.8870
    18.9404  19.1868  19.4885  19.4988  19.6269  19.8533  19.8933  19.9225
    19.9731  20.0153  20.1632  20.2626  20.3258  20.3824  20.4441  20.4800
    20.5095  20.5639  20.6069  20.6305  20.6786  20.7599  20.8048  20.9240

          k = 0.1667 0.3333 0.3284 (  9858 PWs)   bands (ev):

   -68.0467 -52.9041 -52.8895 -52.8876 -52.8786 -52.8780 -52.8709 -52.8695
   -52.8623 -51.7886 -51.7883 -51.7851 -51.7747 -51.7718 -51.7705 -51.7620
   -34.1162 -34.1019 -34.1018 -24.3919 -24.3876 -24.3704 -24.3602 -24.3476
   -24.3460 -24.3438 -24.3342 -24.3319 -24.3054 -24.3030 -24.2800 -24.2622
   -24.2417 -24.2293 -24.2180 -24.2126 -24.1940 -24.1902 -24.1855 -24.1781
   -24.1689 -24.1668 -24.1504 -23.1677 -23.1668 -23.1523 -23.1374 -23.1355
   -23.1318 -23.1307 -23.1201 -23.1111 -23.0990 -23.0922 -23.0859 -23.0709
   -23.0645 -23.0565 -23.0552 -23.0476 -23.0395 -23.0341 -23.0257 -23.0228
    12.6268  13.9532  14.0546  14.7144  15.0304  15.2966  15.3294  15.5518
    15.6472  15.6675  15.7204  15.7470  15.9292  16.0099  16.0645  16.1216
    16.3675  16.4390  16.4573  16.6669  16.7259  16.8217  16.8970  16.9743
    16.9907  17.0964  17.1086  17.2004  17.2614  17.4734  17.5111  17.5182
    17.6396  17.6963  17.7095  17.7899  17.8338  17.8504  17.8904  17.9351
    17.9632  17.9879  18.0435  18.1370  18.1784  18.4181  18.4666  19.0343
    19.0952  19.1466  19.6135  19.6571  19.7291  19.7668  19.9359  20.0225
    20.0766  20.1056  20.2082  20.2264  20.3046  20.3396  20.4388  20.4638
    20.4861  20.5460  20.5693  20.6188  20.6782  20.7841  20.7988  20.8296

          k = 0.1667 0.3333-0.4926 (  9852 PWs)   bands (ev):

   -68.0466 -52.8979 -52.8957 -52.8834 -52.8825 -52.8749 -52.8746 -52.8660
   -52.8658 -51.7882 -51.7867 -51.7865 -51.7747 -51.7716 -51.7701 -51.7632
   -34.1162 -34.1019 -34.1018 -24.3761 -24.3738 -24.3656 -24.3653 -24.3476
   -24.3469 -24.3340 -24.3199 -24.3081 -24.3027 -24.2993 -24.2804 -24.2758
   -24.2625 -24.2332 -24.2309 -24.2158 -24.2103 -24.1887 -24.1882 -24.1824
   -24.1766 -24.1612 -24.1578 -23.1554 -23.1505 -23.1482 -23.1478 -23.1374
   -23.1356 -23.1233 -23.1229 -23.1166 -23.1060 -23.0936 -23.0912 -23.0733
   -23.0684 -23.0522 -23.0505 -23.0408 -23.0402 -23.0334 -23.0318 -23.0258
    13.1792  13.3002  14.3346  14.4387  15.2055  15.3006  15.6722  15.7457
    15.8039  15.8667  15.8691  15.8846  15.9004  15.9924  16.0240  16.0948
    16.0996  16.1743  16.6527  16.7222  16.8249  16.8320  16.9066  16.9470
    16.9584  16.9868  17.0766  17.1682  17.3319  17.3736  17.4409  17.4764
    17.5586  17.5709  17.5826  17.7104  17.7506  17.7598  17.8553  17.8668
    17.8749  17.9021  17.9106  17.9337  18.0014  18.0099  18.7951  18.8070
    19.1190  19.1981  19.5883  19.6841  19.7545  19.9810  20.0284  20.0417
    20.1344  20.1433  20.1588  20.1599  20.3284  20.3434  20.3738  20.4406
    20.5272  20.5690  20.6601  20.7008  20.7054  20.7168  20.7386  20.7505

          k = 0.1667-0.5000 0.0000 (  9898 PWs)   bands (ev):

   -68.0467 -52.9036 -52.9005 -52.8779 -52.8776 -52.8776 -52.8776 -52.8629
   -52.8629 -51.7889 -51.7883 -51.7852 -51.7748 -51.7744 -51.7684 -51.7613
   -34.1164 -34.1019 -34.1019 -24.3909 -24.3819 -24.3799 -24.3782 -24.3720
   -24.3584 -24.3550 -24.3545 -24.3130 -24.2987 -24.2904 -24.2849 -24.2736
   -24.2710 -24.2144 -24.2138 -24.2050 -24.1929 -24.1909 -24.1835 -24.1567
   -24.1548 -24.1442 -24.1441 -23.1491 -23.1458 -23.1405 -23.1383 -23.1360
   -23.1306 -23.1303 -23.1227 -23.1174 -23.1135 -23.0961 -23.0903 -23.0684
   -23.0677 -23.0671 -23.0543 -23.0484 -23.0415 -23.0414 -23.0280 -23.0183
    12.7270  12.8386  14.7658  14.8665  15.2265  15.3683  15.3705  15.3849
    15.4805  15.5844  15.5959  15.6851  15.6861  15.7434  15.7472  15.8054
    15.9720  16.0682  16.6818  16.6900  16.7379  16.7707  17.1986  17.2076
    17.2547  17.2755  17.3786  17.4153  17.4201  17.4988  17.6465  17.6763
    17.7479  17.7647  17.8388  17.8791  17.9522  18.0383  18.1264  18.1460
    18.1513  18.1535  18.1590  18.2256  18.2802  18.3138  18.8783  18.8816
    18.9448  19.4114  19.6379  19.6410  19.7984  19.8401  19.9077  19.9402
    19.9842  20.0784  20.1152  20.1828  20.3415  20.3506  20.3718  20.4271
    20.4922  20.5020  20.5115  20.7137  20.7980  20.8267  20.8392  20.8805

          k = 0.1667-0.5000 0.1642 (  9892 PWs)   bands (ev):

   -68.0467 -52.9019 -52.8990 -52.8794 -52.8791 -52.8769 -52.8766 -52.8639
   -52.8639 -51.7885 -51.7882 -51.7853 -51.7747 -51.7737 -51.7686 -51.7620
   -34.1163 -34.1019 -34.1018 -24.3846 -24.3781 -24.3766 -24.3716 -24.3675
   -24.3527 -24.3519 -24.3477 -24.3010 -24.2975 -24.2964 -24.2794 -24.2746
   -24.2731 -24.2187 -24.2170 -24.2130 -24.2012 -24.1863 -24.1814 -24.1681
   -24.1657 -24.1499 -24.1492 -23.1512 -23.1483 -23.1422 -23.1396 -23.1386
   -23.1362 -23.1242 -23.1185 -23.1143 -23.1138 -23.0925 -23.0873 -23.0803
   -23.0679 -23.0590 -23.0570 -23.0437 -23.0416 -23.0398 -23.0291 -23.0206
    12.8495  12.9634  14.8204  14.9285  14.9570  14.9846  15.5617  15.6118
    15.6624  15.6820  15.6970  15.7633  15.7656  15.7878  15.8118  15.8316
    16.0118  16.1058  16.6884  16.7606  16.7654  16.8049  17.0883  17.1509
    17.1731  17.2541  17.2691  17.3370  17.3580  17.3583  17.6685  17.6701
    17.7145  17.7334  17.7888  17.8428  17.9236  17.9483  17.9890  18.0047
    18.0248  18.0251  18.0520  18.0775  18.1025  18.1224  18.9565  19.0012
    19.0305  19.3226  19.5100  19.7061  19.7095  19.8841  19.8977  19.9427
    20.0099  20.0442  20.1012  20.1188  20.3228  20.3612  20.3621  20.4404
    20.5320  20.5895  20.6352  20.6693  20.7766  20.7899  20.8048  20.8865

          k = 0.1667-0.5000 0.3284 (  9842 PWs)   bands (ev):

   -68.0466 -52.8971 -52.8949 -52.8842 -52.8832 -52.8741 -52.8739 -52.8667
   -52.8666 -51.7879 -51.7875 -51.7857 -51.7748 -51.7720 -51.7692 -51.7640
   -34.1162 -34.1019 -34.1018 -24.3745 -24.3723 -24.3660 -24.3655 -24.3478
   -24.3470 -24.3349 -24.3202 -24.3042 -24.2999 -24.2943 -24.2755 -24.2723
   -24.2577 -24.2282 -24.2257 -24.2236 -24.2183 -24.1988 -24.1978 -24.1823
   -24.1767 -24.1617 -24.1583 -23.1530 -23.1492 -23.1482 -23.1454 -23.1356
   -23.1349 -23.1239 -23.1224 -23.1196 -23.1060 -23.0950 -23.0877 -23.0686
   -23.0684 -23.0537 -23.0496 -23.0430 -23.0415 -23.0383 -23.0326 -23.0276
    13.1965  13.3178  14.3210  14.4250  15.2064  15.3012  15.6804  15.7622
    15.8267  15.8715  15.8796  15.8912  15.8936  15.9780  16.0171  16.0988
    16.1241  16.1982  16.6646  16.7636  16.8569  16.8731  16.9363  16.9523
    16.9637  16.9843  17.0329  17.1254  17.3237  17.3631  17.4169  17.4241
    17.5524  17.5577  17.5665  17.7067  17.7484  17.7534  17.8422  17.8485
    17.8784  17.9024  17.9032  17.9137  17.9959  18.0098  18.7814  18.7918
    19.1126  19.2214  19.5810  19.6951  19.7644  19.9984  20.0319  20.0685
    20.1485  20.1578  20.1855  20.1929  20.3210  20.3252  20.3805  20.4107
    20.5007  20.5617  20.6520  20.6821  20.6901  20.6972  20.7033  20.7299

          k = 0.1667-0.5000-0.4926 (  9840 PWs)   bands (ev):

   -68.0466 -52.8907 -52.8907 -52.8907 -52.8875 -52.8704 -52.8704 -52.8704
   -52.8701 -51.7877 -51.7864 -51.7864 -51.7748 -51.7706 -51.7695 -51.7655
   -34.1161 -34.1019 -34.1017 -24.3713 -24.3708 -24.3591 -24.3589 -24.3386
   -24.3385 -24.3172 -24.3159 -24.3093 -24.2976 -24.2970 -24.2715 -24.2493
   -24.2414 -24.2380 -24.2378 -24.2301 -24.2290 -24.2231 -24.2227 -24.1759
   -24.1731 -24.1731 -24.1650 -23.1565 -23.1496 -23.1426 -23.1417 -23.1398
   -23.1367 -23.1272 -23.1260 -23.1252 -23.1054 -23.0940 -23.0838 -23.0665
   -23.0633 -23.0462 -23.0450 -23.0407 -23.0398 -23.0388 -23.0378 -23.0377
    13.6219  13.8287  13.8287  13.8512  15.5126  15.6587  15.6594  15.6867
    15.7301  15.9170  15.9314  15.9339  16.1796  16.2049  16.2072  16.2185
    16.2726  16.5107  16.5156  16.5374  16.7106  16.7587  16.7615  16.7931
    16.9114  16.9299  17.0482  17.0619  17.2203  17.2281  17.2906  17.3124
    17.4515  17.4709  17.4822  17.5652  17.5667  17.6436  17.7881  17.7934
    17.8317  17.8352  17.8363  17.8395  18.3204  18.3210  18.3593  18.3696
    19.1819  19.2042  19.7030  19.7738  19.7888  20.1208  20.1213  20.1685
    20.2050  20.2619  20.2620  20.3416  20.3419  20.4246  20.4247  20.4489
    20.4516  20.4531  20.5242  20.5362  20.5640  20.6454  20.6524  20.6627

          k = 0.3333 0.3333 0.0000 (  9867 PWs)   bands (ev):

   -68.0467 -52.9054 -52.8892 -52.8878 -52.8788 -52.8772 -52.8702 -52.8702
   -52.8618 -51.7886 -51.7886 -51.7845 -51.7745 -51.7724 -51.7704 -51.7621
   -34.1163 -34.1018 -34.1018 -24.3989 -24.3954 -24.3709 -24.3649 -24.3616
   -24.3509 -24.3488 -24.3310 -24.3305 -24.3083 -24.3016 -24.2728 -24.2554
   -24.2419 -24.2154 -24.2099 -24.2072 -24.2021 -24.1826 -24.1822 -24.1722
   -24.1707 -24.1682 -24.1526 -23.1733 -23.1680 -23.1570 -23.1401 -23.1367
   -23.1283 -23.1190 -23.1136 -23.1105 -23.1080 -23.1049 -23.0800 -23.0629
   -23.0616 -23.0615 -23.0517 -23.0462 -23.0399 -23.0397 -23.0339 -23.0146
    12.5059  13.8721  13.9647  14.5999  15.3473  15.4272  15.4553  15.5422
    15.6040  15.6062  15.6136  15.6157  15.6736  15.8333  15.9035  16.1145
    16.4085  16.4152  16.5108  16.6831  16.8557  16.8773  16.9376  16.9855
    17.0276  17.0440  17.0976  17.1399  17.2245  17.4999  17.5935  17.5977
    17.6783  17.6942  17.8399  17.8488  17.9295  17.9776  18.0076  18.0321
    18.0583  18.0850  18.2737  18.3242  18.4282  18.5998  18.6766  18.9487
    19.0614  19.1645  19.5284  19.5548  19.6787  19.8325  19.9037  19.9271
    20.0421  20.0541  20.0796  20.2301  20.3013  20.3197  20.3558  20.4640
    20.4715  20.4810  20.5208  20.5439  20.6462  20.6822  20.7027  20.7218

          k = 0.3333 0.3333 0.1642 (  9871 PWs)   bands (ev):

   -68.0467 -52.9036 -52.8880 -52.8867 -52.8806 -52.8761 -52.8715 -52.8714
   -52.8629 -51.7883 -51.7883 -51.7847 -51.7741 -51.7723 -51.7707 -51.7627
   -34.1163 -34.1018 -34.1018 -24.3867 -24.3865 -24.3691 -24.3584 -24.3476
   -24.3469 -24.3408 -24.3315 -24.3286 -24.3051 -24.3022 -24.2713 -24.2602
   -24.2408 -24.2274 -24.2118 -24.2110 -24.1934 -24.1899 -24.1875 -24.1822
   -24.1807 -24.1769 -24.1652 -23.1641 -23.1624 -23.1535 -23.1371 -23.1325
   -23.1295 -23.1289 -23.1180 -23.1084 -23.0977 -23.0940 -23.0792 -23.0693
   -23.0674 -23.0632 -23.0547 -23.0530 -23.0414 -23.0391 -23.0340 -23.0196
    12.6392  13.9837  14.0785  14.7297  15.0015  15.3042  15.3363  15.5409
    15.6470  15.6798  15.7345  15.7628  15.9398  16.0187  16.0419  16.1568
    16.3897  16.4782  16.4928  16.6838  16.7380  16.8895  16.8972  16.9893
    17.0142  17.0914  17.1008  17.1583  17.2587  17.4063  17.4779  17.5597
    17.5711  17.6270  17.7183  17.7843  17.8134  17.8397  17.8770  17.9117
    17.9392  17.9898  18.0900  18.1036  18.2107  18.3639  18.4197  19.0089
    19.1052  19.1599  19.6130  19.6665  19.7290  19.7968  19.9852  20.0251
    20.1162  20.1263  20.2153  20.2387  20.3223  20.3962  20.4034  20.4594
    20.4949  20.4959  20.5171  20.5837  20.6752  20.7220  20.7303  20.8152

          k = 0.3333 0.3333 0.3284 (  9859 PWs)   bands (ev):

   -68.0466 -52.8988 -52.8857 -52.8845 -52.8833 -52.8750 -52.8746 -52.8733
   -52.8657 -51.7876 -51.7874 -51.7852 -51.7733 -51.7718 -51.7713 -51.7643
   -34.1162 -34.1018 -34.1018 -24.3656 -24.3576 -24.3551 -24.3405 -24.3351
   -24.3349 -24.3328 -24.3174 -24.3159 -24.3020 -24.2905 -24.2880 -24.2631
   -24.2529 -24.2338 -24.2201 -24.2192 -24.2082 -24.2039 -24.2021 -24.2017
   -24.1927 -24.1897 -24.1888 -23.1513 -23.1442 -23.1415 -23.1330 -23.1329
   -23.1266 -23.1258 -23.1241 -23.1052 -23.0839 -23.0834 -23.0816 -23.0801
   -23.0746 -23.0711 -23.0659 -23.0587 -23.0427 -23.0427 -23.0362 -23.0332
    13.0222  14.2372  14.3713  14.3883  15.0605  15.1337  15.1351  15.7820
    15.8188  15.9426  15.9630  15.9733  16.1529  16.2108  16.2470  16.2911
    16.3993  16.4033  16.4647  16.5231  16.7434  16.7627  16.8964  16.9390
    17.0686  17.1516  17.1901  17.2041  17.2262  17.2521  17.3868  17.4250
    17.4333  17.4461  17.4499  17.4837  17.5656  17.6191  17.6458  17.6701
    17.7111  17.7408  17.7595  17.8089  17.9467  17.9617  18.0060  18.7175
    19.1871  19.1958  19.6904  19.8520  19.8590  20.0124  20.1564  20.1624
    20.2037  20.3090  20.3259  20.3528  20.4143  20.4551  20.4992  20.5023
    20.5534  20.5968  20.6004  20.6968  20.7318  20.7389  20.7586  20.8614

          k = 0.3333 0.3333-0.4926 (  9864 PWs)   bands (ev):

   -68.0467 -52.8930 -52.8913 -52.8798 -52.8797 -52.8797 -52.8783 -52.8697
   -52.8693 -51.7873 -51.7865 -51.7860 -51.7731 -51.7717 -51.7710 -51.7654
   -34.1162 -34.1019 -34.1018 -24.3485 -24.3460 -24.3444 -24.3374 -24.3318
   -24.3217 -24.3179 -24.3174 -24.3005 -24.2966 -24.2811 -24.2811 -24.2805
   -24.2593 -24.2476 -24.2445 -24.2342 -24.2160 -24.2065 -24.2055 -24.2017
   -24.2016 -24.1981 -24.1971 -23.1441 -23.1364 -23.1358 -23.1344 -23.1338
   -23.1281 -23.1096 -23.1068 -23.1048 -23.1047 -23.0908 -23.0849 -23.0838
   -23.0795 -23.0653 -23.0601 -23.0527 -23.0516 -23.0473 -23.0421 -23.0384
    13.5450  13.6741  14.6364  14.7723  14.8004  14.8122  15.6217  15.7070
    15.9437  15.9940  16.1637  16.1720  16.2058  16.2075  16.2133  16.2209
    16.2974  16.3650  16.6307  16.7909  16.8174  16.8495  16.8919  16.8942
    16.8946  16.9194  17.0963  17.1338  17.1940  17.3018  17.3098  17.3269
    17.3420  17.3771  17.4076  17.4395  17.4772  17.4786  17.5711  17.5969
    17.6024  17.6201  17.6526  17.6556  17.6601  17.6697  18.2452  18.2574
    19.2224  19.2301  19.8181  19.8655  19.9377  20.2244  20.2402  20.2790
    20.2823  20.3335  20.3915  20.4165  20.4341  20.4933  20.4962  20.5006
    20.5358  20.6524  20.6534  20.7201  20.7292  20.7361  20.7411  20.7682

          k = 0.3333-0.5000 0.0000 (  9892 PWs)   bands (ev):

   -68.0467 -52.8982 -52.8958 -52.8833 -52.8823 -52.8745 -52.8745 -52.8660
   -52.8660 -51.7879 -51.7876 -51.7851 -51.7746 -51.7723 -51.7694 -51.7641
   -34.1164 -34.1018 -34.1018 -24.3843 -24.3809 -24.3711 -24.3694 -24.3511
   -24.3482 -24.3398 -24.3250 -24.3052 -24.3018 -24.2962 -24.2750 -24.2676
   -24.2574 -24.2228 -24.2215 -24.2066 -24.2063 -24.1946 -24.1893 -24.1841
   -24.1784 -24.1635 -24.1600 -23.1542 -23.1503 -23.1463 -23.1454 -23.1347
   -23.1335 -23.1298 -23.1289 -23.1223 -23.1157 -23.0878 -23.0864 -23.0632
   -23.0627 -23.0590 -23.0553 -23.0469 -23.0388 -23.0387 -23.0283 -23.0222
    13.0832  13.2021  14.2277  14.3294  15.4810  15.5972  15.6466  15.7066
    15.7128  15.7534  15.7564  15.7644  15.7933  15.8548  15.9869  16.0650
    16.1067  16.1481  16.6784  16.7560  16.8446  16.8986  16.9421  16.9943
    17.0264  17.0323  17.0583  17.1353  17.2954  17.3182  17.5476  17.5582
    17.6095  17.6166  17.6376  17.7193  17.7221  17.8467  17.9976  18.0288
    18.0800  18.0932  18.0938  18.1199  18.1215  18.1303  19.0045  19.0105
    19.0582  19.2237  19.5110  19.5636  19.6169  19.8791  19.9634  20.0510
    20.1279  20.1287  20.1346  20.1465  20.2249  20.2425  20.3229  20.3805
    20.3974  20.5037  20.5521  20.5839  20.6111  20.6369  20.7138  20.7293

          k = 0.3333-0.5000 0.1642 (  9868 PWs)   bands (ev):

   -68.0466 -52.8966 -52.8944 -52.8822 -52.8813 -52.8761 -52.8759 -52.8672
   -52.8671 -51.7876 -51.7874 -51.7852 -51.7741 -51.7724 -51.7696 -51.7647
   -34.1163 -34.1018 -34.1018 -24.3733 -24.3704 -24.3618 -24.3606 -24.3446
   -24.3436 -24.3350 -24.3218 -24.2995 -24.2976 -24.2927 -24.2756 -24.2700
   -24.2571 -24.2285 -24.2261 -24.2198 -24.2098 -24.1951 -24.1951 -24.1904
   -24.1858 -24.1771 -24.1743 -23.1491 -23.1454 -23.1434 -23.1413 -23.1359
   -23.1336 -23.1234 -23.1218 -23.1137 -23.1126 -23.0879 -23.0856 -23.0712
   -23.0666 -23.0604 -23.0599 -23.0502 -23.0423 -23.0418 -23.0319 -23.0265
    13.2081  13.3294  14.3530  14.4569  15.1982  15.2939  15.6744  15.7769
    15.8384  15.8709  15.8742  15.8802  15.9061  15.9892  16.0415  16.1345
    16.1362  16.2125  16.6944  16.7755  16.8659  16.8746  16.9520  16.9762
    16.9967  17.0305  17.0609  17.1616  17.2530  17.2846  17.3921  17.4354
    17.5291  17.5379  17.5550  17.6741  17.6768  17.6992  17.8348  17.8464
    17.8766  17.9084  17.9241  17.9382  17.9703  17.9786  18.7507  18.7621
    19.1225  19.2250  19.5850  19.6847  19.7594  20.0182  20.0693  20.1087
    20.1679  20.1840  20.2016  20.2050  20.3279  20.3378  20.4002  20.4267
    20.4907  20.5329  20.5819  20.6379  20.6812  20.6884  20.7092  20.7179

          k = 0.3333-0.5000 0.3284 (  9866 PWs)   bands (ev):

   -68.0467 -52.8923 -52.8906 -52.8805 -52.8800 -52.8790 -52.8780 -52.8704
   -52.8701 -51.7871 -51.7869 -51.7854 -51.7730 -51.7723 -51.7701 -51.7663
   -34.1162 -34.1018 -34.1018 -24.3459 -24.3456 -24.3419 -24.3377 -24.3347
   -24.3203 -24.3197 -24.3162 -24.2957 -24.2911 -24.2772 -24.2756 -24.2752
   -24.2568 -24.2426 -24.2421 -24.2383 -24.2224 -24.2154 -24.2115 -24.2064
   -24.2052 -24.2008 -24.1994 -23.1409 -23.1356 -23.1342 -23.1323 -23.1295
   -23.1266 -23.1101 -23.1093 -23.1069 -23.1052 -23.0887 -23.0856 -23.0812
   -23.0729 -23.0675 -23.0665 -23.0561 -23.0528 -23.0507 -23.0425 -23.0393
    13.5608  13.6902  14.6344  14.7722  14.7945  14.8162  15.6356  15.7212
    15.9200  16.0296  16.1384  16.1808  16.1911  16.2037  16.2078  16.2229
    16.3302  16.3960  16.6542  16.8379  16.8512  16.8729  16.9196  16.9276
    16.9309  16.9409  17.0539  17.0973  17.1542  17.2539  17.2631  17.2863
    17.3292  17.3392  17.4216  17.4562  17.4841  17.4848  17.5627  17.5716
    17.5947  17.6151  17.6245  17.6284  17.6789  17.6832  18.2313  18.2405
    19.2182  19.2441  19.8105  19.8816  19.9444  20.2608  20.2697  20.2865
    20.3180  20.3557  20.4044  20.4308  20.4469  20.4711  20.4825  20.5001
    20.5281  20.6329  20.6441  20.6895  20.6999  20.7092  20.7175  20.7211

          k = 0.3333-0.5000-0.4926 (  9856 PWs)   bands (ev):

   -68.0466 -52.8864 -52.8864 -52.8864 -52.8840 -52.8747 -52.8747 -52.8747
   -52.8736 -51.7869 -51.7864 -51.7856 -51.7729 -51.7715 -51.7703 -51.7674
   -34.1162 -34.1018 -34.1018 -24.3344 -24.3301 -24.3254 -24.3250 -24.3158
   -24.3157 -24.3068 -24.3045 -24.2947 -24.2832 -24.2804 -24.2776 -24.2620
   -24.2533 -24.2524 -24.2491 -24.2490 -24.2454 -24.2430 -24.2357 -24.2175
   -24.2097 -24.2068 -24.2060 -23.1400 -23.1309 -23.1237 -23.1214 -23.1205
   -23.1158 -23.1129 -23.1102 -23.1099 -23.1045 -23.0911 -23.0818 -23.0802
   -23.0762 -23.0636 -23.0621 -23.0585 -23.0573 -23.0568 -23.0560 -23.0557
    13.9853  14.2077  14.2078  14.2294  15.1404  15.2933  15.2935  15.3222
    16.0053  16.2111  16.2377  16.2593  16.2638  16.5187  16.5208  16.5291
    16.5795  16.5899  16.5979  16.6082  16.6979  16.7109  16.7267  16.7516
    16.9525  16.9955  17.0127  17.0509  17.1220  17.1481  17.1541  17.1721
    17.2038  17.3467  17.3551  17.3789  17.4039  17.4079  17.4363  17.4376
    17.4953  17.4980  17.5046  17.5178  17.7513  17.7557  17.7751  17.7802
    19.2520  19.2686  19.9532  19.9706  19.9707  20.3522  20.3536  20.3846
    20.4666  20.4938  20.5191  20.5305  20.5496  20.6014  20.6025  20.6098
    20.6129  20.6225  20.6251  20.6290  20.6633  20.7011  20.7103  20.7209

          k =-0.5000-0.5000 0.0000 (  9836 PWs)   bands (ev):

   -68.0466 -52.8908 -52.8908 -52.8908 -52.8873 -52.8703 -52.8703 -52.8703
   -52.8702 -51.7873 -51.7873 -51.7851 -51.7747 -51.7700 -51.7700 -51.7667
   -34.1163 -34.1017 -34.1017 -24.3818 -24.3810 -24.3659 -24.3659 -24.3392
   -24.3392 -24.3133 -24.3130 -24.3130 -24.3045 -24.3045 -24.2658 -24.2399
   -24.2394 -24.2286 -24.2286 -24.2228 -24.2228 -24.2124 -24.2121 -24.1798
   -24.1786 -24.1786 -24.1662 -23.1557 -23.1490 -23.1453 -23.1413 -23.1413
   -23.1390 -23.1323 -23.1323 -23.1303 -23.1149 -23.0841 -23.0841 -23.0556
   -23.0556 -23.0553 -23.0536 -23.0525 -23.0352 -23.0352 -23.0307 -23.0278
    13.5219  13.7233  13.7233  13.7476  15.5917  15.7238  15.7929  15.8084
    15.8084  15.8743  15.8743  15.8793  16.0268  16.0268  16.0776  16.1207
    16.2045  16.5402  16.5402  16.5639  16.7444  16.8041  16.8041  16.8321
    16.8957  16.8957  17.0311  17.0513  17.3221  17.3755  17.3755  17.4166
    17.4432  17.4432  17.4588  17.5037  17.5092  17.7770  17.9381  17.9381
    18.0364  18.0416  18.0517  18.0517  18.5444  18.5444  18.6229  18.6423
    19.1236  19.1739  19.4690  19.6622  19.6622  19.8830  19.8830  20.0273
    20.2125  20.2894  20.2979  20.3085  20.3085  20.3133  20.3133  20.3237
    20.3244  20.4205  20.4214  20.4214  20.5414  20.5718  20.5718  20.5988

          k =-0.5000-0.5000 0.1642 (  9848 PWs)   bands (ev):

   -68.0466 -52.8894 -52.8894 -52.8894 -52.8862 -52.8717 -52.8716 -52.8716
   -52.8713 -51.7871 -51.7871 -51.7851 -51.7742 -51.7702 -51.7702 -51.7672
   -34.1163 -34.1017 -34.1017 -24.3691 -24.3685 -24.3551 -24.3551 -24.3313
   -24.3312 -24.3098 -24.3098 -24.3077 -24.2974 -24.2974 -24.2695 -24.2444
   -24.2364 -24.2360 -24.2360 -24.2263 -24.2263 -24.2220 -24.2217 -24.1935
   -24.1901 -24.1901 -24.1814 -23.1493 -23.1419 -23.1375 -23.1341 -23.1341
   -23.1310 -23.1283 -23.1283 -23.1264 -23.1143 -23.0837 -23.0837 -23.0605
   -23.0605 -23.0604 -23.0585 -23.0576 -23.0411 -23.0411 -23.0371 -23.0344
    13.6474  13.8530  13.8530  13.8768  15.5258  15.6759  15.6759  15.7062
    15.7253  15.9097  15.9247  15.9247  16.2170  16.2308  16.2308  16.2353
    16.2971  16.5604  16.5604  16.5851  16.7427  16.7896  16.7896  16.8230
    16.9178  16.9178  17.0523  17.0684  17.2070  17.2263  17.2793  17.2793
    17.3929  17.3929  17.4211  17.4662  17.4699  17.6352  17.7653  17.7653
    17.8718  17.8734  17.8794  17.8794  18.2587  18.2587  18.3047  18.3165
    19.2034  19.2034  19.6987  19.7777  19.7777  20.1430  20.1430  20.2339
    20.2593  20.3471  20.3471  20.3718  20.3782  20.4300  20.4300  20.4691
    20.4745  20.4745  20.4867  20.4966  20.5531  20.5940  20.6225  20.6225

          k =-0.5000-0.5000 0.3284 (  9860 PWs)   bands (ev):

   -68.0466 -52.8857 -52.8857 -52.8857 -52.8833 -52.8755 -52.8754 -52.8754
   -52.8743 -51.7866 -51.7866 -51.7851 -51.7730 -51.7706 -51.7706 -51.7684
   -34.1162 -34.1018 -34.1018 -24.3363 -24.3315 -24.3253 -24.3253 -24.3096
   -24.3095 -24.2999 -24.2999 -24.2925 -24.2814 -24.2814 -24.2750 -24.2597
   -24.2532 -24.2532 -24.2466 -24.2464 -24.2413 -24.2413 -24.2333 -24.2289
   -24.2202 -24.2164 -24.2164 -23.1357 -23.1245 -23.1197 -23.1197 -23.1168
   -23.1157 -23.1133 -23.1133 -23.1108 -23.1090 -23.0824 -23.0824 -23.0740
   -23.0732 -23.0732 -23.0716 -23.0711 -23.0571 -23.0571 -23.0548 -23.0532
    13.9985  14.2201  14.2201  14.2430  15.1391  15.2926  15.2926  15.3223
    15.9860  16.2162  16.2389  16.2389  16.2440  16.5180  16.5412  16.5412
    16.6216  16.6225  16.6225  16.6418  16.7326  16.7494  16.7494  16.7846
    16.9548  16.9548  17.0379  17.0670  17.1241  17.1306  17.1486  17.1486
    17.1789  17.3071  17.3071  17.3473  17.3669  17.3677  17.3843  17.3843
    17.5269  17.5414  17.5517  17.5517  17.7283  17.7283  17.7562  17.7636
    19.2626  19.2654  19.9588  19.9706  19.9706  20.4170  20.4170  20.4265
    20.4664  20.5065  20.5147  20.5147  20.5567  20.5978  20.5978  20.6046
    20.6188  20.6188  20.6250  20.6308  20.6541  20.6601  20.6601  20.6661

          k =-0.5000-0.5000-0.4926 (  9888 PWs)   bands (ev):

   -68.0467 -52.8806 -52.8805 -52.8805 -52.8805 -52.8805 -52.8805 -52.8805
   -52.8771 -51.7864 -51.7864 -51.7851 -51.7719 -51.7708 -51.7708 -51.7694
   -34.1162 -34.1018 -34.1018 -24.2990 -24.2956 -24.2956 -24.2862 -24.2856
   -24.2830 -24.2830 -24.2821 -24.2821 -24.2795 -24.2792 -24.2789 -24.2783
   -24.2756 -24.2741 -24.2732 -24.2670 -24.2670 -24.2604 -24.2604 -24.2598
   -24.2310 -24.2310 -24.2272 -23.1293 -23.1118 -23.1118 -23.1090 -23.1085
   -23.1023 -23.0987 -23.0958 -23.0958 -23.0873 -23.0859 -23.0859 -23.0830
   -23.0824 -23.0822 -23.0778 -23.0763 -23.0763 -23.0751 -23.0751 -23.0714
    14.3788  14.7306  14.7306  14.7317  14.7696  14.7696  14.7709  14.7766
    16.2160  16.2588  16.5978  16.6163  16.6226  16.6226  16.6441  16.6441
    16.6617  16.6917  16.6917  16.6942  16.6942  16.7124  16.7209  16.7241
    16.8903  16.8903  16.9181  17.2280  17.2323  17.2351  17.2395  17.2395
    17.2442  17.2483  17.2526  17.2526  17.2594  17.2629  17.2629  17.2703
    17.2808  17.2928  17.2928  17.2954  17.3062  17.3102  17.3124  17.3124
    19.2861  19.2922  20.0460  20.0650  20.0650  20.5372  20.5372  20.5384
    20.5470  20.5488  20.5573  20.5573  20.5607  20.5628  20.5628  20.5685
    20.6482  20.6604  20.6604  20.8413  20.9101  20.9101  20.9169  20.9181

 ------ SPIN DOWN ----------


          k = 0.0000 0.0000 0.0000 (  9843 PWs)   bands (ev):

   -67.5671 -52.9032 -52.8743 -52.8723 -52.8470 -52.8419 -52.8408 -52.8313
   -51.8064 -51.8034 -51.8034 -51.7952 -51.7884 -51.7884 -51.7854 -51.7712
   -33.6492 -33.6492 -33.6258 -24.4397 -24.4397 -24.4383 -24.4097 -24.4097
   -24.4062 -24.2849 -24.2841 -24.2841 -24.2503 -24.2420 -24.2420 -24.2010
   -24.1820 -24.1820 -24.1307 -24.1251 -24.1131 -24.1131 -24.1096 -24.1096
   -23.2720 -23.2599 -23.2564 -23.2310 -23.2310 -23.2290 -23.1158 -23.1154
   -23.1154 -23.0962 -23.0962 -23.0805 -23.0738 -23.0728 -23.0728 -23.0690
   -23.0672 -23.0652 -23.0652 -23.0567 -23.0539 -23.0194 -23.0040 -23.0040
    11.3720  14.8313  14.8336  14.8558  14.8558  14.9712  14.9829  15.0539
    15.0981  15.1087  15.2565  15.3024  15.3671  15.4559  15.4559  16.6398
    16.7071  16.7071  16.7663  16.7663  16.8916  16.9129  16.9145  16.9145
    17.2100  17.2552  17.2772  17.2880  17.3500  17.3500  17.8899  17.9328
    17.9328  18.2408  18.2408  18.3113  18.3842  18.3842  18.4821  18.4928
    18.4928  18.4994  19.3519  19.3903  19.4107  19.4107  19.4526  19.4689
    19.4689  19.5126  19.5126  20.1522  20.2049  20.2603  20.2849  20.2849
    20.3415  20.3756  20.3818  20.4588  20.4713  20.4713  20.4724  20.4947
    20.4976  20.5285  20.5523  20.5523  20.5924  20.5942  20.6092  20.6602

          k = 0.0000 0.0000 0.1642 (  9879 PWs)   bands (ev):

   -67.5671 -52.9012 -52.8739 -52.8735 -52.8470 -52.8423 -52.8410 -52.8319
   -51.8057 -51.8024 -51.8024 -51.7959 -51.7894 -51.7894 -51.7845 -51.7722
   -33.6493 -33.6493 -33.6258 -24.4300 -24.4300 -24.4210 -24.4044 -24.4044
   -24.3932 -24.2943 -24.2943 -24.2828 -24.2481 -24.2481 -24.2464 -24.2130
   -24.1803 -24.1803 -24.1554 -24.1372 -24.1146 -24.1146 -24.1120 -24.1120
   -23.2610 -23.2430 -23.2401 -23.2212 -23.2212 -23.2190 -23.1233 -23.1212
   -23.1212 -23.0936 -23.0936 -23.0897 -23.0774 -23.0728 -23.0704 -23.0704
   -23.0680 -23.0676 -23.0676 -23.0584 -23.0550 -23.0350 -23.0086 -23.0086
    11.5207  14.4202  14.9151  14.9151  14.9207  14.9429  15.0366  15.0724
    15.1578  15.1687  15.2406  15.3576  15.4769  15.4769  15.7466  16.5062
    16.6741  16.6741  16.7476  16.7476  16.8074  16.9618  16.9868  16.9964
    16.9964  17.0817  17.2189  17.2534  17.5120  17.5120  17.7004  17.7004
    18.1977  18.2682  18.2682  18.3232  18.3302  18.4298  18.4298  18.4849
    18.7202  18.7202  18.8024  18.8024  19.3276  19.3281  19.4327  19.4800
    19.4983  19.6591  19.6591  19.7127  19.7127  19.9891  19.9891  20.1322
    20.1322  20.1808  20.3326  20.3704  20.3713  20.4524  20.4770  20.4770
    20.5016  20.5165  20.6249  20.6855  20.7685  20.7907  20.8080  21.0165

          k = 0.0000 0.0000 0.3284 (  9863 PWs)   bands (ev):

   -67.5671 -52.8963 -52.8771 -52.8731 -52.8471 -52.8431 -52.8411 -52.8333
   -51.8038 -51.7996 -51.7996 -51.7976 -51.7921 -51.7921 -51.7819 -51.7748
   -33.6492 -33.6492 -33.6258 -24.4032 -24.4032 -24.3913 -24.3913 -24.3712
   -24.3569 -24.3229 -24.3229 -24.2819 -24.2612 -24.2612 -24.2490 -24.2280
   -24.2179 -24.1753 -24.1753 -24.1665 -24.1222 -24.1222 -24.1132 -24.1132
   -23.2346 -23.2007 -23.1969 -23.1969 -23.1959 -23.1919 -23.1428 -23.1338
   -23.1338 -23.1166 -23.1065 -23.0920 -23.0920 -23.0796 -23.0796 -23.0780
   -23.0699 -23.0651 -23.0620 -23.0578 -23.0542 -23.0542 -23.0204 -23.0204
    11.9549  13.5028  15.0585  15.0782  15.0782  15.1746  15.2489  15.2918
    15.3383  15.3546  15.4556  15.4556  15.4589  15.4612  15.8202  16.1505
    16.2497  16.5813  16.6426  16.6426  16.7024  16.7024  17.1646  17.2015
    17.2383  17.2383  17.2921  17.3180  17.6582  17.6582  17.8662  17.9230
    17.9230  17.9398  18.1255  18.1255  18.2858  18.2858  18.3700  18.3700
    18.4327  18.4864  18.5980  18.8187  18.8187  18.9721  19.0747  19.2161
    19.2161  19.2961  19.2961  19.7294  19.7296  20.0174  20.0773  20.0773
    20.1712  20.2134  20.2178  20.2178  20.4015  20.4185  20.5105  20.5312
    20.7129  20.7863  20.7912  20.7912  21.0027  21.0212  21.1295  21.1559

          k = 0.0000 0.0000-0.4926 (  9858 PWs)   bands (ev):

   -67.5671 -52.8927 -52.8800 -52.8726 -52.8471 -52.8436 -52.8409 -52.8341
   -51.8023 -51.7990 -51.7959 -51.7959 -51.7959 -51.7959 -51.7783 -51.7783
   -33.6492 -33.6492 -33.6257 -24.3871 -24.3871 -24.3636 -24.3636 -24.3604
   -24.3604 -24.3094 -24.3090 -24.3077 -24.2860 -24.2691 -24.2684 -24.2684
   -24.2062 -24.1941 -24.1715 -24.1715 -24.1273 -24.1273 -24.1136 -24.1136
   -23.2161 -23.1770 -23.1770 -23.1586 -23.1538 -23.1534 -23.1518 -23.1497
   -23.1463 -23.1463 -23.1370 -23.1366 -23.0948 -23.0948 -23.0820 -23.0820
   -23.0663 -23.0662 -23.0617 -23.0616 -23.0393 -23.0393 -23.0346 -23.0346
    12.6062  12.6721  15.1629  15.2692  15.2692  15.2875  15.2954  15.3207
    15.3207  15.3813  15.5773  15.6526  15.6689  15.7058  15.7151  15.8249
    15.9663  16.0077  16.6547  16.6547  16.6598  16.6598  17.4262  17.5257
    17.5432  17.5438  17.6024  17.6024  17.6534  17.6534  17.6668  17.7071
    17.7272  17.7502  18.0529  18.0529  18.0721  18.0721  18.2573  18.2573
    18.3407  18.3407  18.4942  18.4942  18.5286  18.5286  18.7541  18.8647
    19.5366  19.5822  19.7556  19.7556  19.8544  19.8544  19.9296  19.9940
    20.0078  20.0389  20.4031  20.4178  20.5090  20.5460  20.6013  20.6013
    20.6675  20.6675  20.8220  20.8683  20.8885  20.9767  21.2642  21.3169

          k = 0.0000 0.1667 0.0000 (  9857 PWs)   bands (ev):

   -67.5671 -52.9009 -52.8752 -52.8719 -52.8476 -52.8422 -52.8411 -52.8319
   -51.8052 -51.8029 -51.8022 -51.7956 -51.7896 -51.7872 -51.7866 -51.7724
   -33.6492 -33.6492 -33.6259 -24.4297 -24.4282 -24.4208 -24.4043 -24.4000
   -24.3952 -24.2940 -24.2936 -24.2786 -24.2584 -24.2482 -24.2405 -24.1994
   -24.1957 -24.1798 -24.1383 -24.1341 -24.1262 -24.1239 -24.1171 -24.1098
   -23.2607 -23.2426 -23.2390 -23.2212 -23.2200 -23.2194 -23.1228 -23.1206
   -23.1189 -23.0951 -23.0899 -23.0825 -23.0751 -23.0727 -23.0726 -23.0715
   -23.0713 -23.0696 -23.0664 -23.0652 -23.0563 -23.0241 -23.0212 -23.0084
    11.5252  14.4981  14.8957  14.9146  14.9184  14.9693  15.0307  15.0892
    15.1317  15.1825  15.2056  15.3350  15.4009  15.4804  15.8388  16.5733
    16.6350  16.6889  16.8330  16.8406  16.8495  16.8727  16.8894  16.9877
    16.9881  17.1408  17.1937  17.2426  17.4418  17.4896  17.6890  17.7117
    18.1428  18.2378  18.3034  18.3334  18.3549  18.3846  18.3897  18.4605
    18.6863  18.7716  18.8235  18.8535  19.2744  19.3695  19.5048  19.5377
    19.5842  19.6059  19.6400  19.7113  19.7964  19.8802  19.8950  20.0954
    20.1617  20.1645  20.2756  20.3451  20.4096  20.4415  20.4671  20.4771
    20.5146  20.5732  20.5795  20.6042  20.7357  20.7841  20.8325  21.0562

          k = 0.0000 0.1667 0.1642 (  9863 PWs)   bands (ev):

   -67.5671 -52.8990 -52.8749 -52.8729 -52.8476 -52.8427 -52.8414 -52.8326
   -51.8046 -51.8020 -51.8012 -51.7962 -51.7904 -51.7882 -51.7857 -51.7733
   -33.6492 -33.6492 -33.6258 -24.4209 -24.4197 -24.4063 -24.3998 -24.3893
   -24.3853 -24.3028 -24.2930 -24.2892 -24.2551 -24.2527 -24.2440 -24.2129
   -24.1913 -24.1777 -24.1579 -24.1398 -24.1344 -24.1252 -24.1180 -24.1129
   -23.2515 -23.2294 -23.2267 -23.2203 -23.2119 -23.2008 -23.1292 -23.1262
   -23.1234 -23.0982 -23.0917 -23.0890 -23.0869 -23.0793 -23.0709 -23.0701
   -23.0673 -23.0663 -23.0636 -23.0612 -23.0571 -23.0479 -23.0153 -23.0122
    11.6715  14.4805  14.5852  14.8829  15.0039  15.0286  15.0535  15.1397
    15.1567  15.2293  15.2606  15.3656  15.5163  15.7876  15.8718  16.4444
    16.6356  16.6725  16.8084  16.8158  16.8277  16.8361  16.9365  16.9643
    16.9973  17.1312  17.1788  17.2431  17.3256  17.5044  17.5695  17.9465
    17.9916  18.1414  18.2069  18.2712  18.2730  18.2772  18.5000  18.5638
    18.8282  18.8418  18.9024  18.9325  18.9536  18.9891  19.2045  19.2996
    19.4360  19.4791  19.5688  19.5839  19.6025  19.6965  20.0077  20.0496
    20.2023  20.2820  20.3233  20.3693  20.3874  20.4599  20.4716  20.4976
    20.5105  20.5803  20.6251  20.7702  20.7782  20.8857  20.8880  20.9687

          k = 0.0000 0.1667 0.3284 (  9871 PWs)   bands (ev):

   -67.5671 -52.8944 -52.8764 -52.8736 -52.8476 -52.8436 -52.8415 -52.8340
   -51.8031 -51.7996 -51.7984 -51.7975 -51.7929 -51.7910 -51.7831 -51.7759
   -33.6492 -33.6492 -33.6258 -24.3976 -24.3971 -24.3890 -24.3790 -24.3589
   -24.3479 -24.3276 -24.3187 -24.2922 -24.2635 -24.2622 -24.2421 -24.2345
   -24.2139 -24.1852 -24.1721 -24.1667 -24.1366 -24.1275 -24.1231 -24.1166
   -23.2285 -23.2030 -23.1982 -23.1919 -23.1881 -23.1727 -23.1465 -23.1397
   -23.1376 -23.1137 -23.1131 -23.1011 -23.0922 -23.0913 -23.0858 -23.0748
   -23.0672 -23.0617 -23.0598 -23.0567 -23.0537 -23.0532 -23.0230 -23.0220
    12.0977  13.6079  14.7144  14.8789  15.1883  15.2432  15.3077  15.3398
    15.4005  15.4436  15.4929  15.5174  15.5314  15.8358  15.8803  16.1590
    16.2905  16.4991  16.6633  16.7541  16.7719  16.8311  16.9935  17.1100
    17.1546  17.1816  17.2062  17.3642  17.4191  17.7052  17.8139  17.8422
    17.8639  18.0469  18.0577  18.1172  18.1692  18.1707  18.1783  18.2643
    18.3516  18.3592  18.6943  18.7101  18.7554  18.8330  18.9730  19.0665
    19.2155  19.3506  19.3819  19.7504  19.7729  19.9936  20.0086  20.0237
    20.0783  20.2092  20.2425  20.2986  20.3844  20.4756  20.5077  20.5499
    20.6211  20.6636  20.7140  20.7799  20.8828  20.9424  20.9875  21.0177

          k = 0.0000 0.1667-0.4926 (  9874 PWs)   bands (ev):

   -67.5671 -52.8909 -52.8790 -52.8732 -52.8477 -52.8441 -52.8414 -52.8348
   -51.8020 -51.7988 -51.7962 -51.7961 -51.7947 -51.7947 -51.7795 -51.7795
   -33.6493 -33.6492 -33.6257 -24.3860 -24.3790 -24.3634 -24.3597 -24.3565
   -24.3540 -24.3081 -24.3080 -24.3027 -24.2802 -24.2771 -24.2676 -24.2515
   -24.2154 -24.1983 -24.1762 -24.1682 -24.1385 -24.1284 -24.1280 -24.1173
   -23.2106 -23.1794 -23.1786 -23.1684 -23.1621 -23.1536 -23.1514 -23.1463
   -23.1459 -23.1426 -23.1426 -23.1229 -23.1041 -23.1010 -23.0863 -23.0769
   -23.0667 -23.0622 -23.0591 -23.0554 -23.0394 -23.0379 -23.0364 -23.0353
    12.7333  12.8015  14.8056  14.8712  15.3722  15.3808  15.4193  15.4208
    15.6125  15.6167  15.6483  15.7178  15.7280  15.7501  15.7837  15.8901
    16.0095  16.0445  16.6863  16.6938  16.7222  16.7344  17.2910  17.3383
    17.3932  17.4275  17.4438  17.4442  17.4537  17.5050  17.7297  17.7973
    17.8262  17.8424  18.0793  18.0828  18.0836  18.0878  18.1339  18.1379
    18.1838  18.2277  18.2600  18.2672  18.3478  18.3840  18.9328  18.9915
    19.6555  19.6620  19.7240  19.7584  19.8133  19.8898  19.9853  20.0204
    20.0294  20.0577  20.3588  20.3760  20.3957  20.4550  20.4596  20.5094
    20.5175  20.5760  20.7815  20.8253  20.8428  20.9119  21.0308  21.0359

          k = 0.0000 0.3333 0.0000 (  9864 PWs)   bands (ev):

   -67.5671 -52.8949 -52.8791 -52.8706 -52.8485 -52.8432 -52.8414 -52.8334
   -51.8019 -51.8017 -51.7989 -51.7967 -51.7929 -51.7899 -51.7841 -51.7755
   -33.6492 -33.6490 -33.6259 -24.4017 -24.4002 -24.3922 -24.3856 -24.3680
   -24.3551 -24.3225 -24.3206 -24.2748 -24.2711 -24.2612 -24.2393 -24.2218
   -24.2049 -24.1937 -24.1735 -24.1564 -24.1436 -24.1273 -24.1268 -24.1104
   -23.2338 -23.1985 -23.1964 -23.1945 -23.1935 -23.1879 -23.1427 -23.1322
   -23.1302 -23.1042 -23.1021 -23.0917 -23.0855 -23.0817 -23.0803 -23.0751
   -23.0720 -23.0688 -23.0684 -23.0675 -23.0596 -23.0526 -23.0367 -23.0199
    11.9725  13.5619  15.0548  15.0665  15.0745  15.1722  15.2664  15.2871
    15.3376  15.3882  15.4123  15.4486  15.4616  15.4824  15.9050  16.2134
    16.2556  16.6368  16.6534  16.6892  16.8012  16.8179  17.0566  17.1050
    17.2015  17.2348  17.2675  17.3131  17.6401  17.6756  17.7940  17.8392
    17.8686  17.9366  18.0339  18.1434  18.2333  18.3100  18.3383  18.4203
    18.4390  18.4953  18.5343  18.8092  18.8911  19.0006  19.0469  19.1151
    19.1232  19.3382  19.3835  19.7803  19.8330  19.9643  20.0482  20.0825
    20.1682  20.2255  20.2628  20.3171  20.3324  20.4102  20.4168  20.5235
    20.6661  20.6887  20.7737  20.8185  21.0026  21.0610  21.1094  21.1603

          k = 0.0000 0.3333 0.1642 (  9844 PWs)   bands (ev):

   -67.5670 -52.8932 -52.8785 -52.8713 -52.8485 -52.8438 -52.8417 -52.8340
   -51.8020 -51.8008 -51.7979 -51.7969 -51.7934 -51.7890 -51.7851 -51.7765
   -33.6492 -33.6490 -33.6258 -24.3962 -24.3946 -24.3899 -24.3765 -24.3534
   -24.3482 -24.3273 -24.3177 -24.2901 -24.2650 -24.2622 -24.2357 -24.2316
   -24.2039 -24.1954 -24.1705 -24.1579 -24.1546 -24.1398 -24.1272 -24.1138
   -23.2279 -23.2009 -23.1952 -23.1915 -23.1876 -23.1701 -23.1470 -23.1378
   -23.1333 -23.1125 -23.1044 -23.1036 -23.0972 -23.0869 -23.0800 -23.0725
   -23.0706 -23.0658 -23.0636 -23.0619 -23.0587 -23.0526 -23.0304 -23.0227
    12.1108  13.6606  14.6687  14.8727  15.1726  15.2424  15.3359  15.3423
    15.4179  15.4619  15.4900  15.5343  15.5358  15.7914  15.9565  16.2031
    16.2939  16.5282  16.6734  16.8468  16.8765  16.8993  16.9720  17.0050
    17.0627  17.1565  17.2057  17.3517  17.4229  17.6251  17.8215  17.8287
    17.8295  17.9912  18.0190  18.1264  18.1285  18.1715  18.1783  18.2455
    18.3788  18.4128  18.6846  18.7198  18.7545  18.7641  18.8893  19.0232
    19.2506  19.3803  19.4424  19.8000  19.8397  19.9128  19.9912  19.9928
    20.1372  20.2798  20.3091  20.3259  20.3506  20.4330  20.4806  20.5795
    20.5881  20.6184  20.6267  20.7717  20.8664  20.9169  20.9905  21.0333

          k = 0.0000 0.3333 0.3284 (  9861 PWs)   bands (ev):

   -67.5671 -52.8892 -52.8772 -52.8736 -52.8485 -52.8451 -52.8420 -52.8355
   -51.8016 -51.7992 -51.7975 -51.7952 -51.7948 -51.7878 -51.7863 -51.7791
   -33.6492 -33.6491 -33.6257 -24.3863 -24.3805 -24.3790 -24.3479 -24.3409
   -24.3404 -24.3169 -24.3157 -24.3053 -24.2670 -24.2644 -24.2491 -24.2283
   -24.2132 -24.2049 -24.1738 -24.1674 -24.1635 -24.1610 -24.1284 -24.1219
   -23.2116 -23.1938 -23.1852 -23.1823 -23.1692 -23.1570 -23.1551 -23.1526
   -23.1344 -23.1286 -23.1276 -23.1208 -23.1206 -23.0941 -23.0741 -23.0695
   -23.0636 -23.0608 -23.0577 -23.0542 -23.0515 -23.0506 -23.0306 -23.0286
    12.5111  13.8774  13.9436  14.6115  15.4573  15.4935  15.5260  15.5660
    15.6476  15.6539  15.6665  15.6759  15.7295  15.9032  15.9745  16.1187
    16.4265  16.5072  16.5571  16.6914  16.8790  16.9504  16.9588  17.0393
    17.0608  17.0673  17.1331  17.2456  17.3064  17.6203  17.7073  17.7941
    17.7993  17.8117  17.8384  17.9522  17.9644  17.9942  18.0370  18.0427
    18.1090  18.1620  18.3426  18.3714  18.4528  18.6615  18.7806  18.9658
    19.5350  19.6120  19.6797  19.8167  19.8659  19.9113  19.9420  20.1254
    20.2320  20.2417  20.2614  20.2913  20.3246  20.3476  20.4220  20.4330
    20.4920  20.5109  20.5839  20.5902  20.7132  20.7199  20.8047  20.8188

          k = 0.0000 0.3333-0.4926 (  9850 PWs)   bands (ev):

   -67.5670 -52.8863 -52.8768 -52.8755 -52.8485 -52.8459 -52.8419 -52.8364
   -51.8012 -51.7982 -51.7969 -51.7966 -51.7915 -51.7915 -51.7827 -51.7827
   -33.6492 -33.6490 -33.6257 -24.3836 -24.3627 -24.3609 -24.3580 -24.3473
   -24.3274 -24.3092 -24.3085 -24.3018 -24.2656 -24.2619 -24.2545 -24.2380
   -24.2298 -24.2064 -24.1921 -24.1684 -24.1660 -24.1588 -24.1293 -24.1271
   -23.1960 -23.1827 -23.1737 -23.1713 -23.1698 -23.1617 -23.1562 -23.1556
   -23.1468 -23.1457 -23.1399 -23.1307 -23.1200 -23.0942 -23.0713 -23.0686
   -23.0655 -23.0569 -23.0548 -23.0548 -23.0424 -23.0412 -23.0367 -23.0367
    13.0944  13.1689  14.2459  14.3172  15.6287  15.6671  15.6829  15.7485
    15.7597  15.7716  15.7847  15.8323  15.8501  15.9025  16.0599  16.1083
    16.1126  16.1404  16.7444  16.7551  16.8946  16.9219  16.9998  17.0042
    17.0129  17.0363  17.1255  17.1878  17.4544  17.4570  17.5819  17.6648
    17.6806  17.6945  17.8182  17.8346  17.9866  17.9897  18.0404  18.0617
    18.0685  18.0790  18.0950  18.1006  18.2250  18.2273  19.0042  19.0193
    19.6517  19.7054  19.8998  19.9021  20.0266  20.0620  20.0716  20.0813
    20.1013  20.1219  20.1338  20.1371  20.1841  20.1856  20.3411  20.4307
    20.5247  20.6327  20.6571  20.6621  20.6725  20.7052  20.7092  20.7162

          k = 0.0000-0.5000 0.0000 (  9890 PWs)   bands (ev):

   -67.5671 -52.8888 -52.8842 -52.8698 -52.8490 -52.8436 -52.8415 -52.8342
   -51.8008 -51.7975 -51.7974 -51.7974 -51.7944 -51.7944 -51.7798 -51.7798
   -33.6493 -33.6491 -33.6259 -24.3852 -24.3776 -24.3652 -24.3606 -24.3596
   -24.3592 -24.3065 -24.3007 -24.2953 -24.2841 -24.2802 -24.2684 -24.2571
   -24.2009 -24.1890 -24.1879 -24.1685 -24.1499 -24.1332 -24.1276 -24.1109
   -23.2145 -23.1770 -23.1744 -23.1591 -23.1487 -23.1471 -23.1448 -23.1446
   -23.1445 -23.1433 -23.1311 -23.1294 -23.0905 -23.0872 -23.0871 -23.0855
   -23.0736 -23.0726 -23.0643 -23.0642 -23.0548 -23.0525 -23.0384 -23.0333
    12.6426  12.7097  15.1547  15.2544  15.2683  15.2690  15.3050  15.3057
    15.3190  15.3762  15.6494  15.7066  15.7211  15.7238  15.7551  15.8154
    16.0082  16.0457  16.7094  16.7219  16.7337  16.7457  17.3535  17.4190
    17.4873  17.5243  17.5331  17.5587  17.6058  17.6539  17.6598  17.7062
    17.7269  17.7629  18.0316  18.0483  18.0922  18.1126  18.2046  18.2889
    18.3050  18.3909  18.3992  18.4230  18.4333  18.4551  18.6648  18.7727
    19.6183  19.6680  19.7796  19.8570  19.8852  19.9481  19.9642  20.0144
    20.0753  20.1245  20.3060  20.4024  20.4100  20.5100  20.5282  20.5696
    20.5701  20.6297  20.8141  20.8287  20.8683  20.9087  21.2511  21.3109

          k = 0.0000-0.5000 0.1642 (  9886 PWs)   bands (ev):

   -67.5671 -52.8872 -52.8835 -52.8705 -52.8490 -52.8444 -52.8418 -52.8349
   -51.8008 -51.7975 -51.7974 -51.7974 -51.7935 -51.7934 -51.7808 -51.7808
   -33.6492 -33.6491 -33.6259 -24.3845 -24.3713 -24.3646 -24.3591 -24.3566
   -24.3509 -24.3055 -24.3051 -24.2917 -24.2804 -24.2717 -24.2675 -24.2501
   -24.2157 -24.1922 -24.1854 -24.1653 -24.1584 -24.1412 -24.1337 -24.1141
   -23.2096 -23.1783 -23.1759 -23.1626 -23.1622 -23.1503 -23.1495 -23.1451
   -23.1397 -23.1390 -23.1375 -23.1179 -23.1076 -23.1067 -23.0828 -23.0744
   -23.0703 -23.0647 -23.0606 -23.0595 -23.0490 -23.0484 -23.0392 -23.0353
    12.7647  12.8340  14.7846  14.8510  15.3678  15.3858  15.4156  15.4279
    15.5967  15.6019  15.7115  15.7664  15.7753  15.7900  15.7934  15.8778
    16.0462  16.0774  16.7345  16.7489  16.7983  16.8168  17.2232  17.2647
    17.3345  17.3686  17.4353  17.4496  17.4548  17.4779  17.7246  17.7842
    17.8389  17.8539  18.0539  18.0567  18.1003  18.1016  18.1378  18.1458
    18.1492  18.1549  18.1883  18.2208  18.2795  18.3154  18.8964  18.9376
    19.6882  19.7124  19.7710  19.7730  19.9002  19.9841  20.0356  20.0573
    20.0853  20.1361  20.3214  20.3364  20.3505  20.3860  20.4280  20.4358
    20.4477  20.5625  20.7737  20.7821  20.8264  20.8430  21.0345  21.0442

          k = 0.0000-0.5000 0.3284 (  9852 PWs)   bands (ev):

   -67.5671 -52.8832 -52.8819 -52.8727 -52.8489 -52.8460 -52.8421 -52.8364
   -51.8008 -51.7974 -51.7974 -51.7974 -51.7908 -51.7907 -51.7835 -51.7834
   -33.6492 -33.6490 -33.6257 -24.3831 -24.3632 -24.3583 -24.3578 -24.3473
   -24.3266 -24.3115 -24.3079 -24.2944 -24.2656 -24.2594 -24.2515 -24.2369
   -24.2309 -24.2015 -24.1928 -24.1802 -24.1734 -24.1570 -24.1352 -24.1231
   -23.1969 -23.1800 -23.1722 -23.1700 -23.1678 -23.1596 -23.1564 -23.1554
   -23.1469 -23.1451 -23.1346 -23.1339 -23.1245 -23.0911 -23.0705 -23.0678
   -23.0658 -23.0599 -23.0549 -23.0546 -23.0430 -23.0409 -23.0408 -23.0405
    13.1120  13.1874  14.2305  14.3025  15.6193  15.6567  15.6789  15.7537
    15.7716  15.7717  15.7787  15.8614  15.8751  15.9144  16.0671  16.1214
    16.1304  16.1533  16.7709  16.7855  16.9547  16.9702  16.9845  16.9847
    16.9980  17.0255  17.0988  17.1576  17.4588  17.4617  17.5694  17.6121
    17.6399  17.6689  17.8212  17.8342  17.9708  17.9813  18.0361  18.0563
    18.0628  18.0667  18.0708  18.0835  18.2319  18.2355  18.9940  18.9989
    19.6567  19.7102  19.9207  19.9253  20.0736  20.0880  20.1068  20.1134
    20.1150  20.1200  20.1217  20.1642  20.1664  20.1902  20.3018  20.3902
    20.5176  20.6046  20.6330  20.6545  20.6670  20.6962  20.7074  20.7224

          k = 0.0000-0.5000-0.4926 (  9832 PWs)   bands (ev):

   -67.5670 -52.8811 -52.8796 -52.8755 -52.8488 -52.8470 -52.8421 -52.8373
   -51.8007 -51.7974 -51.7974 -51.7974 -51.7871 -51.7871 -51.7871 -51.7871
   -33.6492 -33.6490 -33.6257 -24.3824 -24.3625 -24.3572 -24.3487 -24.3420
   -24.3132 -24.3112 -24.3100 -24.2998 -24.2646 -24.2450 -24.2427 -24.2269
   -24.2215 -24.2063 -24.2047 -24.2006 -24.1984 -24.1503 -24.1358 -24.1299
   -23.1823 -23.1784 -23.1759 -23.1750 -23.1637 -23.1621 -23.1621 -23.1596
   -23.1526 -23.1521 -23.1457 -23.1454 -23.1210 -23.0751 -23.0649 -23.0639
   -23.0638 -23.0634 -23.0499 -23.0485 -23.0484 -23.0483 -23.0374 -23.0372
    13.5721  13.6958  13.6965  13.7242  15.8107  15.8149  15.8191  15.8286
    15.8532  15.8692  15.8804  15.8816  16.0906  16.0907  16.0910  16.0936
    16.4942  16.4953  16.5143  16.6093  16.7944  16.7953  16.8098  16.8178
    16.9852  16.9908  17.0277  17.1249  17.3592  17.4403  17.4463  17.4556
    17.5623  17.5630  17.6241  17.6291  17.8832  17.9239  17.9685  17.9696
    17.9845  18.0024  18.0046  18.0095  18.6113  18.6151  18.7289  18.7290
    19.7138  19.8119  19.8363  19.8368  20.0771  20.1472  20.1705  20.1839
    20.1876  20.2584  20.2629  20.2774  20.2831  20.3008  20.3139  20.3287
    20.3558  20.3562  20.3922  20.4000  20.5458  20.5821  20.6545  20.6597

          k = 0.1667 0.1667 0.0000 (  9865 PWs)   bands (ev):

   -67.5671 -52.8987 -52.8755 -52.8719 -52.8482 -52.8423 -52.8417 -52.8326
   -51.8040 -51.8021 -51.8015 -51.7959 -51.7884 -51.7884 -51.7877 -51.7735
   -33.6492 -33.6492 -33.6259 -24.4192 -24.4175 -24.4088 -24.3949 -24.3916
   -24.3852 -24.3014 -24.2896 -24.2890 -24.2641 -24.2486 -24.2429 -24.1989
   -24.1971 -24.1877 -24.1450 -24.1365 -24.1333 -24.1285 -24.1272 -24.1216
   -23.2509 -23.2295 -23.2250 -23.2208 -23.2099 -23.2010 -23.1276 -23.1250
   -23.1233 -23.0919 -23.0895 -23.0854 -23.0838 -23.0830 -23.0810 -23.0700
   -23.0700 -23.0667 -23.0637 -23.0619 -23.0596 -23.0385 -23.0282 -23.0103
    11.6760  14.5329  14.6108  14.8770  15.0245  15.0315  15.0475  15.1349
    15.1641  15.2094  15.2771  15.3006  15.4481  15.8619  15.8847  16.4857
    16.6154  16.7040  16.8255  16.8442  16.8579  16.9405  16.9489  16.9548
    16.9659  16.9968  17.1520  17.2836  17.3001  17.5054  17.5088  17.9760
    18.0219  18.0685  18.1234  18.2025  18.2990  18.3726  18.5037  18.5550
    18.7711  18.8702  18.8931  18.9478  18.9909  19.0079  19.2056  19.2326
    19.4121  19.4932  19.5850  19.6493  19.6861  19.7085  19.9595  19.9755
    20.2006  20.2589  20.3310  20.3968  20.4178  20.4307  20.4828  20.4977
    20.5228  20.5273  20.5871  20.7853  20.7907  20.8642  20.8914  20.9824

          k = 0.1667 0.1667 0.1642 (  9854 PWs)   bands (ev):

   -67.5671 -52.8969 -52.8750 -52.8728 -52.8482 -52.8428 -52.8420 -52.8333
   -51.8036 -51.8012 -51.8006 -51.7964 -51.7893 -51.7893 -51.7868 -51.7745
   -33.6492 -33.6492 -33.6258 -24.4139 -24.4044 -24.4015 -24.3835 -24.3818
   -24.3790 -24.3010 -24.2992 -24.2960 -24.2588 -24.2498 -24.2498 -24.2115
   -24.1970 -24.1824 -24.1578 -24.1441 -24.1397 -24.1331 -24.1279 -24.1249
   -23.2421 -23.2187 -23.2155 -23.2110 -23.2104 -23.1857 -23.1316 -23.1308
   -23.1306 -23.0945 -23.0942 -23.0931 -23.0886 -23.0842 -23.0773 -23.0712
   -23.0691 -23.0645 -23.0619 -23.0603 -23.0588 -23.0572 -23.0225 -23.0148
    11.8201  14.5426  14.6521  14.6855  14.9838  15.0154  15.0238  15.1779
    15.2376  15.2558  15.3164  15.3490  15.8361  15.9176  15.9446  16.3909
    16.6684  16.6866  16.7773  16.8105  16.8229  16.8371  16.9476  16.9625
    16.9713  17.0740  17.0880  17.2693  17.3598  17.4088  17.7468  17.7471
    17.7831  18.0626  18.1591  18.1776  18.2015  18.2429  18.6024  18.6280
    18.6651  18.6897  18.8048  18.8271  18.9093  19.0632  19.0645  19.1049
    19.1302  19.2099  19.2964  19.7110  19.7367  19.7971  20.1812  20.1973
    20.2499  20.2554  20.2646  20.3372  20.3673  20.4264  20.4640  20.4776
    20.5158  20.5191  20.5928  20.7326  20.7342  20.8111  20.9378  21.0409

          k = 0.1667 0.1667 0.3284 (  9869 PWs)   bands (ev):

   -67.5671 -52.8925 -52.8755 -52.8740 -52.8483 -52.8439 -52.8422 -52.8347
   -51.8024 -51.7988 -51.7982 -51.7973 -51.7918 -51.7917 -51.7842 -51.7771
   -33.6492 -33.6492 -33.6258 -24.3921 -24.3878 -24.3800 -24.3719 -24.3489
   -24.3431 -24.3251 -24.3173 -24.2987 -24.2644 -24.2600 -24.2408 -24.2388
   -24.2122 -24.1873 -24.1824 -24.1652 -24.1397 -24.1382 -24.1308 -24.1305
   -23.2214 -23.1975 -23.1953 -23.1870 -23.1842 -23.1634 -23.1507 -23.1420
   -23.1413 -23.1136 -23.1087 -23.1016 -23.0969 -23.0949 -23.0892 -23.0811
   -23.0670 -23.0653 -23.0603 -23.0590 -23.0549 -23.0468 -23.0269 -23.0248
    12.2396  13.7165  14.7785  14.8557  14.9979  15.0278  15.3284  15.4201
    15.4707  15.4958  15.5529  15.5853  15.9000  15.9631  15.9634  16.1784
    16.3110  16.5340  16.6808  16.7800  16.8582  16.8815  16.8877  16.9439
    17.0964  17.1163  17.3141  17.3275  17.5322  17.5643  17.5824  17.7277
    17.8707  17.9291  17.9576  18.0704  18.1034  18.1113  18.1231  18.1380
    18.2331  18.2443  18.4948  18.5353  18.5970  18.6775  18.8729  18.8920
    19.3739  19.4526  19.4809  19.8341  19.8428  20.0400  20.0650  20.0815
    20.1251  20.1733  20.2778  20.3163  20.3712  20.4593  20.4849  20.4973
    20.6177  20.6697  20.6767  20.6792  20.7057  20.8644  20.8853  20.9553

          k = 0.1667 0.1667-0.4926 (  9860 PWs)   bands (ev):

   -67.5670 -52.8893 -52.8780 -52.8735 -52.8484 -52.8444 -52.8421 -52.8356
   -51.8016 -51.7985 -51.7952 -51.7950 -51.7950 -51.7949 -51.7806 -51.7806
   -33.6492 -33.6492 -33.6257 -24.3784 -24.3748 -24.3537 -24.3537 -24.3531
   -24.3518 -24.3060 -24.3041 -24.3023 -24.2818 -24.2709 -24.2595 -24.2514
   -24.2197 -24.2032 -24.1840 -24.1690 -24.1428 -24.1378 -24.1330 -24.1324
   -23.2056 -23.1811 -23.1769 -23.1709 -23.1635 -23.1540 -23.1490 -23.1455
   -23.1452 -23.1409 -23.1395 -23.1186 -23.0988 -23.0960 -23.0951 -23.0893
   -23.0674 -23.0602 -23.0582 -23.0543 -23.0448 -23.0422 -23.0345 -23.0344
    12.8613  12.9317  14.8810  14.9879  14.9923  14.9963  15.6684  15.7234
    15.7330  15.7421  15.7513  15.7627  15.7889  15.8127  15.8307  15.9485
    16.0567  16.0876  16.7132  16.7219  16.7783  16.7959  17.2536  17.2835
    17.2856  17.2943  17.3628  17.3739  17.3925  17.4127  17.7295  17.7789
    17.7955  17.8134  17.9625  18.0024  18.0087  18.0383  18.0402  18.0583
    18.0733  18.0857  18.0863  18.0956  18.1500  18.1730  18.9876  19.0125
    19.7525  19.7664  19.7931  19.8389  19.8530  19.8676  20.0302  20.0360
    20.0452  20.0639  20.0764  20.0795  20.3881  20.5020  20.5081  20.5955
    20.6577  20.7160  20.7430  20.7882  20.8124  20.9285  20.9329  20.9379

          k = 0.1667 0.3333 0.0000 (  9857 PWs)   bands (ev):

   -67.5671 -52.8929 -52.8784 -52.8709 -52.8495 -52.8432 -52.8421 -52.8341
   -51.8011 -51.8007 -51.7987 -51.7967 -51.7917 -51.7907 -51.7853 -51.7767
   -33.6492 -33.6490 -33.6259 -24.3943 -24.3925 -24.3829 -24.3821 -24.3580
   -24.3450 -24.3250 -24.3171 -24.2845 -24.2762 -24.2590 -24.2349 -24.2274
   -24.2032 -24.1904 -24.1819 -24.1571 -24.1446 -24.1404 -24.1311 -24.1251
   -23.2270 -23.2014 -23.1953 -23.1891 -23.1854 -23.1709 -23.1458 -23.1365
   -23.1331 -23.1108 -23.1045 -23.0948 -23.0917 -23.0857 -23.0815 -23.0781
   -23.0749 -23.0747 -23.0682 -23.0597 -23.0545 -23.0523 -23.0390 -23.0202
    12.1152  13.6650  14.7266  14.8848  15.1865  15.2356  15.3290  15.3438
    15.3793  15.4562  15.4876  15.4939  15.5386  15.8398  15.9559  16.2195
    16.3011  16.5405  16.7067  16.8511  16.8657  16.8750  17.0072  17.0227
    17.1344  17.1756  17.1855  17.2921  17.3690  17.6501  17.7140  17.7865
    17.8671  18.0260  18.0645  18.0713  18.1047  18.2014  18.2371  18.2670
    18.3384  18.3512  18.6734  18.6956  18.7185  18.8143  18.8783  18.9907
    19.2813  19.4185  19.4269  19.8310  19.8519  19.9238  19.9924  20.0897
    20.1446  20.2116  20.2626  20.2838  20.4056  20.4457  20.4684  20.5289
    20.5819  20.6136  20.6309  20.7249  20.8213  20.9658  21.0050  21.0369

          k = 0.1667 0.3333 0.1642 (  9869 PWs)   bands (ev):

   -67.5671 -52.8914 -52.8778 -52.8714 -52.8495 -52.8438 -52.8425 -52.8348
   -51.8011 -51.8000 -51.7979 -51.7967 -51.7923 -51.7897 -51.7862 -51.7776
   -33.6492 -33.6491 -33.6259 -24.3891 -24.3840 -24.3812 -24.3706 -24.3460
   -24.3425 -24.3229 -24.3177 -24.2943 -24.2715 -24.2571 -24.2385 -24.2302
   -24.2058 -24.1945 -24.1807 -24.1579 -24.1570 -24.1439 -24.1419 -24.1285
   -23.2206 -23.1956 -23.1929 -23.1863 -23.1825 -23.1618 -23.1503 -23.1392
   -23.1381 -23.1124 -23.1016 -23.0995 -23.0968 -23.0921 -23.0880 -23.0811
   -23.0760 -23.0707 -23.0642 -23.0608 -23.0529 -23.0500 -23.0366 -23.0239
    12.2524  13.7674  14.7535  14.8464  14.9956  15.0262  15.3558  15.4145
    15.4571  15.5252  15.5497  15.6086  15.8723  15.9497  16.0361  16.2211
    16.3117  16.5697  16.7039  16.8799  16.8865  16.9048  16.9475  16.9697
    16.9919  17.1132  17.2126  17.3286  17.4954  17.5279  17.5548  17.6699
    17.8680  17.9372  17.9436  18.0437  18.0502  18.1089  18.1637  18.1845
    18.1905  18.2563  18.4871  18.5086  18.5777  18.6242  18.8399  18.8471
    19.4169  19.4821  19.5226  19.8906  19.8989  19.9917  20.0674  20.0999
    20.1522  20.2114  20.2762  20.3272  20.4029  20.4335  20.4611  20.4853
    20.5732  20.5910  20.6435  20.6473  20.6847  20.8232  20.8985  21.0064

          k = 0.1667 0.3333 0.3284 (  9858 PWs)   bands (ev):

   -67.5671 -52.8875 -52.8765 -52.8733 -52.8495 -52.8452 -52.8429 -52.8363
   -51.8008 -51.7984 -51.7971 -51.7953 -51.7938 -51.7886 -51.7872 -51.7802
   -33.6492 -33.6491 -33.6257 -24.3750 -24.3714 -24.3682 -24.3424 -24.3360
   -24.3322 -24.3159 -24.3123 -24.3036 -24.2691 -24.2584 -24.2473 -24.2361
   -24.2146 -24.2053 -24.1834 -24.1769 -24.1699 -24.1615 -24.1450 -24.1364
   -23.2038 -23.1884 -23.1834 -23.1747 -23.1656 -23.1576 -23.1546 -23.1512
   -23.1346 -23.1238 -23.1205 -23.1165 -23.1133 -23.0962 -23.0819 -23.0753
   -23.0693 -23.0683 -23.0647 -23.0612 -23.0510 -23.0448 -23.0362 -23.0337
    12.6493  13.9951  14.0626  14.7479  15.0690  15.3478  15.3850  15.6639
    15.6869  15.7632  15.7691  15.8117  16.0207  16.0599  16.1462  16.1706
    16.4816  16.5063  16.5336  16.7213  16.7875  16.9014  16.9838  17.0293
    17.0910  17.1159  17.1748  17.1971  17.3008  17.5812  17.6067  17.6544
    17.6850  17.7096  17.7179  17.8264  17.8751  17.8960  17.9217  17.9647
    17.9928  18.0382  18.1132  18.1511  18.2066  18.4242  18.4816  18.9718
    19.6857  19.7179  19.7802  19.9589  20.0143  20.0410  20.0619  20.1076
    20.1942  20.2342  20.2808  20.3196  20.3911  20.4140  20.4242  20.4378
    20.5044  20.5410  20.5565  20.7153  20.7307  20.8078  20.8171  20.8847

          k = 0.1667 0.3333-0.4926 (  9852 PWs)   bands (ev):

   -67.5670 -52.8848 -52.8757 -52.8752 -52.8495 -52.8459 -52.8430 -52.8373
   -51.8006 -51.7978 -51.7960 -51.7957 -51.7920 -51.7919 -51.7837 -51.7837
   -33.6492 -33.6491 -33.6257 -24.3719 -24.3550 -24.3502 -24.3469 -24.3402
   -24.3243 -24.3056 -24.3039 -24.2979 -24.2648 -24.2596 -24.2527 -24.2418
   -24.2325 -24.2140 -24.1994 -24.1748 -24.1733 -24.1674 -24.1437 -24.1433
   -23.1919 -23.1825 -23.1690 -23.1672 -23.1670 -23.1555 -23.1515 -23.1508
   -23.1436 -23.1391 -23.1329 -23.1235 -23.1160 -23.0983 -23.0789 -23.0782
   -23.0689 -23.0614 -23.0599 -23.0566 -23.0496 -23.0489 -23.0397 -23.0379
    13.2245  13.3012  14.3764  14.4492  15.2657  15.3220  15.8293  15.8360
    15.8647  15.8849  15.9051  15.9305  16.0336  16.0588  16.0923  16.1626
    16.1807  16.2028  16.7811  16.7935  16.9035  16.9280  16.9726  16.9737
    16.9795  17.0247  17.1808  17.2128  17.4100  17.4104  17.5028  17.5371
    17.5709  17.5842  17.7603  17.7827  17.8316  17.8320  17.8648  17.8898
    17.8994  17.9028  17.9223  17.9470  18.0183  18.0232  18.7740  18.7746
    19.8605  19.9040  19.9728  19.9796  20.0609  20.0760  20.1086  20.1200
    20.1233  20.1436  20.1539  20.1858  20.3606  20.4469  20.5000  20.5333
    20.5754  20.6394  20.6695  20.6823  20.6954  20.7262  20.7695  20.7897

          k = 0.1667-0.5000 0.0000 (  9898 PWs)   bands (ev):

   -67.5671 -52.8871 -52.8831 -52.8701 -52.8501 -52.8436 -52.8422 -52.8350
   -51.8005 -51.7973 -51.7962 -51.7962 -51.7947 -51.7946 -51.7810 -51.7810
   -33.6492 -33.6491 -33.6259 -24.3766 -24.3754 -24.3599 -24.3588 -24.3581
   -24.3515 -24.3056 -24.3021 -24.2922 -24.2832 -24.2717 -24.2710 -24.2466
   -24.2106 -24.1922 -24.1853 -24.1731 -24.1508 -24.1439 -24.1318 -24.1255
   -23.2087 -23.1768 -23.1762 -23.1629 -23.1613 -23.1501 -23.1483 -23.1435
   -23.1392 -23.1364 -23.1358 -23.1176 -23.1002 -23.0972 -23.0851 -23.0832
   -23.0785 -23.0685 -23.0667 -23.0568 -23.0512 -23.0506 -23.0371 -23.0344
    12.7691  12.8384  14.8193  14.8860  15.3604  15.3611  15.4001  15.4090
    15.6113  15.6124  15.6943  15.7721  15.7822  15.7991  15.7996  15.8938
    16.0517  16.0835  16.7604  16.7746  16.7749  16.7936  17.2791  17.3251
    17.3617  17.3656  17.3967  17.4340  17.4937  17.5328  17.7087  17.7164
    17.7297  17.7736  18.0177  18.0571  18.0684  18.0979  18.1082  18.1131
    18.1805  18.1814  18.2555  18.2600  18.2947  18.3145  18.8665  18.9179
    19.7359  19.7426  19.8094  19.8400  19.8413  19.9253  20.0042  20.0578
    20.1325  20.1572  20.2698  20.2839  20.3185  20.4265  20.4293  20.4507
    20.4890  20.5386  20.7709  20.7947  20.8238  20.8640  20.9645  20.9745

          k = 0.1667-0.5000 0.1642 (  9892 PWs)   bands (ev):

   -67.5671 -52.8856 -52.8824 -52.8706 -52.8501 -52.8444 -52.8426 -52.8357
   -51.8004 -51.7972 -51.7963 -51.7963 -51.7938 -51.7937 -51.7819 -51.7819
   -33.6492 -33.6490 -33.6259 -24.3745 -24.3684 -24.3559 -24.3539 -24.3506
   -24.3488 -24.3034 -24.3021 -24.2950 -24.2790 -24.2653 -24.2617 -24.2487
   -24.2172 -24.1972 -24.1927 -24.1700 -24.1611 -24.1455 -24.1451 -24.1295
   -23.2044 -23.1784 -23.1749 -23.1664 -23.1625 -23.1506 -23.1474 -23.1413
   -23.1411 -23.1377 -23.1341 -23.1128 -23.1028 -23.1005 -23.0924 -23.0879
   -23.0730 -23.0656 -23.0632 -23.0564 -23.0505 -23.0500 -23.0375 -23.0365
    12.8920  12.9635  14.8745  14.9763  14.9856  15.0049  15.6572  15.7122
    15.7246  15.7385  15.7999  15.8104  15.8258  15.8318  15.8734  15.9384
    16.0943  16.1216  16.7734  16.7895  16.8354  16.8584  17.2109  17.2451
    17.2951  17.3014  17.3246  17.3547  17.3710  17.4034  17.7005  17.7492
    17.7551  17.7972  17.9193  17.9540  17.9909  18.0022  18.0250  18.0292
    18.0417  18.0501  18.0880  18.0923  18.1112  18.1351  18.9499  18.9644
    19.8108  19.8140  19.8393  19.8798  19.8997  19.9277  20.0253  20.0298
    20.0606  20.0946  20.1201  20.1636  20.3301  20.4415  20.4768  20.5542
    20.6088  20.6510  20.7325  20.7617  20.7875  20.8222  20.8537  20.8749

          k = 0.1667-0.5000 0.3284 (  9842 PWs)   bands (ev):

   -67.5670 -52.8819 -52.8808 -52.8723 -52.8500 -52.8461 -52.8431 -52.8372
   -51.8001 -51.7970 -51.7966 -51.7964 -51.7913 -51.7912 -51.7844 -51.7844
   -33.6491 -33.6490 -33.6257 -24.3709 -24.3524 -24.3512 -24.3457 -24.3405
   -24.3235 -24.3069 -24.3030 -24.2925 -24.2629 -24.2580 -24.2493 -24.2411
   -24.2328 -24.2089 -24.2008 -24.1857 -24.1812 -24.1674 -24.1493 -24.1391
   -23.1926 -23.1796 -23.1689 -23.1655 -23.1651 -23.1527 -23.1513 -23.1504
   -23.1426 -23.1374 -23.1270 -23.1259 -23.1240 -23.0951 -23.0777 -23.0768
   -23.0707 -23.0631 -23.0622 -23.0567 -23.0506 -23.0500 -23.0417 -23.0406
    13.2417  13.3192  14.3619  14.4356  15.2668  15.3230  15.8546  15.8568
    15.8770  15.8876  15.8945  15.9343  16.0188  16.0619  16.0996  16.1638
    16.2070  16.2238  16.8101  16.8268  16.9534  16.9626  16.9753  16.9827
    16.9884  17.0214  17.1311  17.1665  17.4069  17.4105  17.4678  17.4689
    17.5439  17.5973  17.7670  17.7795  17.8040  17.8371  17.8580  17.8717
    17.8811  17.8989  17.9232  17.9346  18.0180  18.0217  18.7565  18.7622
    19.8709  19.9177  20.0044  20.0066  20.0569  20.0923  20.1225  20.1239
    20.1470  20.1741  20.1764  20.2342  20.3298  20.4143  20.4710  20.5081
    20.5606  20.6200  20.6503  20.6527  20.6911  20.6985  20.7196  20.7351

          k = 0.1667-0.5000-0.4926 (  9840 PWs)   bands (ev):

   -67.5670 -52.8799 -52.8787 -52.8745 -52.8499 -52.8470 -52.8431 -52.8382
   -51.7999 -51.7967 -51.7967 -51.7967 -51.7879 -51.7878 -51.7878 -51.7878
   -33.6492 -33.6490 -33.6257 -24.3692 -24.3488 -24.3436 -24.3412 -24.3338
   -24.3062 -24.3054 -24.3041 -24.2952 -24.2648 -24.2445 -24.2421 -24.2308
   -24.2252 -24.2162 -24.2140 -24.2083 -24.2057 -24.1659 -24.1519 -24.1460
   -23.1806 -23.1768 -23.1742 -23.1676 -23.1563 -23.1545 -23.1520 -23.1496
   -23.1445 -23.1438 -23.1402 -23.1399 -23.1221 -23.0802 -23.0708 -23.0698
   -23.0688 -23.0684 -23.0565 -23.0554 -23.0550 -23.0549 -23.0442 -23.0440
    13.7025  13.8305  13.8312  13.8579  15.6130  15.6873  15.6991  15.7003
    15.9298  15.9341  15.9373  16.0215  16.2774  16.2802  16.2894  16.2902
    16.5172  16.5180  16.5372  16.6265  16.7799  16.7816  16.7980  16.8264
    17.0151  17.0213  17.0560  17.1372  17.2500  17.3147  17.3232  17.3236
    17.5179  17.5201  17.5772  17.5836  17.7405  17.7759  17.7996  17.8006
    17.8125  17.8392  17.8433  17.8579  18.3209  18.3223  18.3750  18.3815
    19.9934  20.0695  20.0730  20.0956  20.1481  20.1913  20.2439  20.2473
    20.2594  20.3299  20.3338  20.3523  20.3607  20.3618  20.4363  20.4424
    20.4960  20.5080  20.5095  20.5101  20.5839  20.5954  20.6493  20.6531

          k = 0.3333 0.3333 0.0000 (  9867 PWs)   bands (ev):

   -67.5671 -52.8879 -52.8780 -52.8717 -52.8515 -52.8432 -52.8432 -52.8357
   -51.8001 -51.7978 -51.7974 -51.7966 -51.7926 -51.7885 -51.7885 -51.7799
   -33.6491 -33.6490 -33.6259 -24.3786 -24.3773 -24.3730 -24.3506 -24.3414
   -24.3383 -24.3126 -24.3081 -24.3042 -24.2793 -24.2617 -24.2418 -24.2260
   -24.2102 -24.1972 -24.1818 -24.1695 -24.1614 -24.1572 -24.1478 -24.1393
   -23.2092 -23.1921 -23.1814 -23.1790 -23.1660 -23.1548 -23.1536 -23.1502
   -23.1279 -23.1268 -23.1258 -23.1138 -23.1126 -23.0948 -23.0785 -23.0750
   -23.0713 -23.0668 -23.0636 -23.0609 -23.0499 -23.0483 -23.0470 -23.0253
    12.5280  13.9159  13.9700  14.6326  15.4792  15.5057  15.5196  15.5565
    15.6439  15.6500  15.6548  15.6621  15.7637  15.9216  15.9865  16.1665
    16.4718  16.5408  16.5884  16.7234  16.9705  16.9778  17.0308  17.0382
    17.0723  17.0795  17.1289  17.1529  17.2428  17.6040  17.6805  17.6813
    17.7057  17.7822  17.8203  17.8841  17.9858  18.0296  18.0308  18.0517
    18.0602  18.2386  18.3405  18.3936  18.4099  18.5781  18.6859  18.9173
    19.5847  19.6643  19.6903  19.8950  19.9466  19.9606  19.9912  20.1871
    20.1983  20.2056  20.2432  20.2804  20.3026  20.4047  20.4101  20.4433
    20.4437  20.4541  20.5418  20.5991  20.6465  20.6963  20.7052  20.7530

          k = 0.3333 0.3333 0.1642 (  9871 PWs)   bands (ev):

   -67.5671 -52.8866 -52.8773 -52.8717 -52.8515 -52.8439 -52.8438 -52.8365
   -51.7997 -51.7973 -51.7972 -51.7964 -51.7918 -51.7892 -51.7891 -51.7807
   -33.6491 -33.6490 -33.6258 -24.3696 -24.3685 -24.3647 -24.3443 -24.3364
   -24.3318 -24.3117 -24.3059 -24.3044 -24.2767 -24.2577 -24.2420 -24.2312
   -24.2145 -24.1976 -24.1919 -24.1745 -24.1640 -24.1614 -24.1612 -24.1519
   -23.2025 -23.1870 -23.1791 -23.1742 -23.1632 -23.1567 -23.1527 -23.1495
   -23.1316 -23.1199 -23.1174 -23.1136 -23.1070 -23.0963 -23.0850 -23.0822
   -23.0761 -23.0722 -23.0660 -23.0632 -23.0504 -23.0480 -23.0467 -23.0306
    12.6616  14.0280  14.0846  14.7638  15.0378  15.3557  15.3916  15.6507
    15.6843  15.7761  15.7865  15.8297  16.0405  16.0480  16.1353  16.2074
    16.5132  16.5479  16.5610  16.7412  16.7943  16.9861  17.0014  17.0451
    17.0857  17.1103  17.1349  17.1866  17.2995  17.4970  17.5876  17.6186
    17.6390  17.6566  17.7389  17.8484  17.8594  17.8908  17.8919  17.9185
    17.9998  18.0915  18.0917  18.1472  18.2089  18.3753  18.4295  18.9455
    19.7239  19.7370  19.7981  20.0158  20.0357  20.0574  20.0707  20.1279
    20.2229  20.2350  20.2988  20.3753  20.3919  20.4137  20.4147  20.4292
    20.4809  20.4826  20.5268  20.6681  20.7095  20.7125  20.7542  20.9188

          k = 0.3333 0.3333 0.3284 (  9859 PWs)   bands (ev):

   -67.5671 -52.8834 -52.8759 -52.8724 -52.8515 -52.8454 -52.8448 -52.8381
   -51.7991 -51.7967 -51.7957 -51.7955 -51.7911 -51.7908 -51.7895 -51.7831
   -33.6491 -33.6491 -33.6257 -24.3501 -24.3500 -24.3454 -24.3268 -24.3203
   -24.3196 -24.3132 -24.2987 -24.2942 -24.2665 -24.2592 -24.2540 -24.2352
   -24.2260 -24.2054 -24.2027 -24.1930 -24.1843 -24.1834 -24.1761 -24.1661
   -23.1852 -23.1807 -23.1789 -23.1543 -23.1539 -23.1518 -23.1496 -23.1480
   -23.1314 -23.1288 -23.1115 -23.1096 -23.1015 -23.0941 -23.0934 -23.0862
   -23.0824 -23.0816 -23.0781 -23.0659 -23.0529 -23.0520 -23.0472 -23.0448
    13.0464  14.2952  14.3816  14.3974  15.0996  15.1668  15.1691  15.9127
    15.9551  15.9581  16.0296  16.0436  16.1950  16.3032  16.3618  16.3654
    16.4642  16.4978  16.5143  16.5788  16.7985  16.8149  16.9982  17.0742
    17.0960  17.2042  17.2550  17.2706  17.2724  17.3125  17.4575  17.4638
    17.5000  17.5332  17.5364  17.5740  17.5831  17.6276  17.6567  17.6690
    17.7218  17.7643  17.7719  17.8362  17.9882  17.9927  18.0041  18.6886
    19.9307  19.9539  20.0131  20.0750  20.2195  20.2241  20.2395  20.2786
    20.2863  20.3532  20.3837  20.3965  20.4243  20.4351  20.5003  20.5227
    20.5484  20.6606  20.6911  20.7088  20.7381  20.7492  20.7635  20.9178

          k = 0.3333 0.3333-0.4926 (  9864 PWs)   bands (ev):

   -67.5671 -52.8812 -52.8751 -52.8734 -52.8515 -52.8461 -52.8451 -52.8390
   -51.7990 -51.7965 -51.7939 -51.7932 -51.7931 -51.7931 -51.7863 -51.7862
   -33.6491 -33.6490 -33.6257 -24.3441 -24.3401 -24.3222 -24.3216 -24.3172
   -24.3165 -24.2979 -24.2943 -24.2858 -24.2626 -24.2539 -24.2504 -24.2465
   -24.2404 -24.2315 -24.2179 -24.1977 -24.1889 -24.1862 -24.1822 -24.1772
   -23.1799 -23.1788 -23.1685 -23.1548 -23.1496 -23.1450 -23.1420 -23.1405
   -23.1308 -23.1303 -23.1201 -23.1145 -23.1056 -23.0975 -23.0963 -23.0935
   -23.0783 -23.0746 -23.0693 -23.0664 -23.0622 -23.0617 -23.0520 -23.0486
    13.5933  13.6761  14.6981  14.7943  14.8100  14.8243  15.6905  15.7142
    16.1729  16.1777  16.1939  16.2101  16.2337  16.2383  16.2509  16.3420
    16.3827  16.4032  16.8758  16.8820  16.8843  16.8903  16.9021  16.9145
    16.9228  16.9660  17.2530  17.2793  17.3033  17.3158  17.3295  17.3422
    17.4060  17.4540  17.4600  17.4839  17.4882  17.4907  17.5860  17.5945
    17.6514  17.6566  17.6588  17.6751  17.6825  17.6869  18.2561  18.2582
    20.1240  20.1542  20.1776  20.1795  20.2460  20.2514  20.2619  20.3062
    20.3157  20.3414  20.3968  20.4422  20.4556  20.4988  20.5902  20.5998
    20.6488  20.6839  20.6890  20.7070  20.7318  20.7417  20.7555  20.7704

          k = 0.3333-0.5000 0.0000 (  9892 PWs)   bands (ev):

   -67.5671 -52.8828 -52.8807 -52.8717 -52.8526 -52.8436 -52.8433 -52.8367
   -51.7998 -51.7967 -51.7954 -51.7952 -51.7930 -51.7930 -51.7842 -51.7842
   -33.6491 -33.6490 -33.6259 -24.3745 -24.3581 -24.3578 -24.3544 -24.3417
   -24.3279 -24.3063 -24.3046 -24.2924 -24.2810 -24.2578 -24.2490 -24.2331
   -24.2267 -24.2011 -24.1886 -24.1750 -24.1719 -24.1628 -24.1525 -24.1428
   -23.1936 -23.1782 -23.1701 -23.1662 -23.1654 -23.1564 -23.1523 -23.1514
   -23.1425 -23.1416 -23.1348 -23.1271 -23.1203 -23.0893 -23.0773 -23.0768
   -23.0664 -23.0655 -23.0618 -23.0617 -23.0530 -23.0502 -23.0364 -23.0363
    13.1279  13.2033  14.2683  14.3403  15.6318  15.6701  15.6736  15.7487
    15.7639  15.7701  15.7814  15.8828  15.8963  15.9129  16.1039  16.1470
    16.1501  16.1815  16.7982  16.8137  16.9418  16.9724  17.0202  17.0367
    17.0518  17.0763  17.1328  17.1912  17.3446  17.3464  17.5571  17.6066
    17.6325  17.6482  17.7281  17.7421  17.9472  18.0339  18.0342  18.0343
    18.0409  18.0907  18.1221  18.1227  18.1261  18.1540  18.9365  18.9465
    19.7111  19.7669  19.9705  19.9745  20.0423  20.0500  20.0588  20.0935
    20.1091  20.1578  20.1762  20.2096  20.2297  20.2411  20.3236  20.4233
    20.4515  20.5548  20.6134  20.6362  20.6517  20.6968  20.7057  20.7124

          k = 0.3333-0.5000 0.1642 (  9868 PWs)   bands (ev):

   -67.5671 -52.8816 -52.8799 -52.8715 -52.8525 -52.8444 -52.8439 -52.8374
   -51.7993 -51.7964 -51.7948 -51.7944 -51.7933 -51.7932 -51.7850 -51.7849
   -33.6491 -33.6490 -33.6259 -24.3646 -24.3493 -24.3481 -24.3466 -24.3356
   -24.3242 -24.3016 -24.3002 -24.2948 -24.2732 -24.2564 -24.2472 -24.2377
   -24.2290 -24.2085 -24.2004 -24.1815 -24.1781 -24.1671 -24.1635 -24.1572
   -23.1905 -23.1785 -23.1658 -23.1634 -23.1631 -23.1508 -23.1480 -23.1465
   -23.1405 -23.1368 -23.1294 -23.1204 -23.1154 -23.0934 -23.0857 -23.0843
   -23.0713 -23.0688 -23.0659 -23.0622 -23.0552 -23.0529 -23.0409 -23.0397
    13.2532  13.3308  14.3945  14.4680  15.2569  15.3148  15.8665  15.8724
    15.8753  15.8753  15.8961  15.9311  16.0282  16.0658  16.1346  16.1919
    16.2197  16.2393  16.8311  16.8487  16.9458  16.9728  17.0033  17.0052
    17.0260  17.0587  17.1773  17.2067  17.3093  17.3106  17.4738  17.4745
    17.5337  17.5806  17.6855  17.7003  17.7786  17.8262  17.8634  17.8642
    17.8890  17.8991  17.9293  17.9713  17.9836  17.9955  18.7272  18.7303
    19.8955  19.9392  20.0064  20.0097  20.0815  20.1047  20.1267  20.1375
    20.1639  20.2091  20.2208  20.2476  20.3480  20.4422  20.4563  20.4886
    20.5142  20.6091  20.6285  20.6612  20.6844  20.6937  20.7235  20.7425

          k = 0.3333-0.5000 0.3284 (  9866 PWs)   bands (ev):

   -67.5671 -52.8788 -52.8783 -52.8716 -52.8525 -52.8461 -52.8451 -52.8391
   -51.7983 -51.7957 -51.7943 -51.7939 -51.7927 -51.7924 -51.7871 -51.7869
   -33.6491 -33.6490 -33.6257 -24.3420 -24.3367 -24.3241 -24.3206 -24.3164
   -24.3146 -24.2958 -24.2921 -24.2889 -24.2582 -24.2523 -24.2498 -24.2421
   -24.2364 -24.2262 -24.2224 -24.2012 -24.2011 -24.1910 -24.1843 -24.1793
   -23.1812 -23.1757 -23.1658 -23.1531 -23.1493 -23.1416 -23.1398 -23.1391
   -23.1309 -23.1274 -23.1203 -23.1137 -23.1033 -23.1020 -23.0956 -23.0944
   -23.0788 -23.0774 -23.0731 -23.0698 -23.0627 -23.0614 -23.0533 -23.0508
    13.6091  13.6926  14.6951  14.7943  14.8044  14.8284  15.7016  15.7294
    16.1471  16.1664  16.1925  16.2167  16.2321  16.2382  16.2800  16.3299
    16.4166  16.4309  16.8995  16.9187  16.9210  16.9270  16.9365  16.9406
    16.9553  16.9814  17.2037  17.2126  17.2654  17.2753  17.2892  17.3087
    17.4121  17.4189  17.4289  17.5073  17.5078  17.5122  17.5805  17.5868
    17.6197  17.6216  17.6459  17.6713  17.6857  17.7101  18.2399  18.2429
    20.1555  20.1819  20.1948  20.1949  20.2663  20.2685  20.2913  20.3291
    20.3430  20.3688  20.4064  20.4396  20.4466  20.4927  20.5736  20.5993
    20.6292  20.6516  20.6579  20.6882  20.6939  20.6959  20.7306  20.7446

          k = 0.3333-0.5000-0.4926 (  9856 PWs)   bands (ev):

   -67.5671 -52.8774 -52.8769 -52.8721 -52.8525 -52.8470 -52.8456 -52.8400
   -51.7977 -51.7948 -51.7948 -51.7948 -51.7902 -51.7897 -51.7897 -51.7897
   -33.6491 -33.6490 -33.6257 -24.3341 -24.3215 -24.3112 -24.3112 -24.3066
   -24.2943 -24.2871 -24.2843 -24.2843 -24.2643 -24.2448 -24.2423 -24.2417
   -24.2412 -24.2375 -24.2347 -24.2288 -24.2240 -24.2047 -24.1939 -24.1880
   -23.1736 -23.1704 -23.1690 -23.1488 -23.1375 -23.1349 -23.1320 -23.1302
   -23.1271 -23.1268 -23.1227 -23.1206 -23.1178 -23.0932 -23.0856 -23.0855
   -23.0814 -23.0809 -23.0738 -23.0731 -23.0722 -23.0721 -23.0634 -23.0632
    14.0706  14.2110  14.2118  14.2353  15.2037  15.3147  15.3161  15.3184
    16.2595  16.2650  16.2650  16.3324  16.5780  16.5784  16.5991  16.6257
    16.6325  16.6346  16.6366  16.6680  16.7352  16.7378  16.7558  16.8332
    17.0829  17.0918  17.1066  17.1428  17.1576  17.1630  17.1755  17.2158
    17.3753  17.3765  17.3880  17.4084  17.4216  17.4294  17.4439  17.4616
    17.4919  17.5156  17.5276  17.5490  17.7752  17.7756  17.7822  17.7858
    20.2235  20.2762  20.2863  20.3324  20.3340  20.4348  20.4352  20.4605
    20.4606  20.4684  20.5529  20.5566  20.5809  20.5989  20.6051  20.6091
    20.6138  20.6189  20.6428  20.6466  20.6513  20.7224  20.7281  20.7296

          k =-0.5000-0.5000 0.0000 (  9836 PWs)   bands (ev):

   -67.5670 -52.8793 -52.8793 -52.8739 -52.8540 -52.8436 -52.8436 -52.8377
   -51.7993 -51.7959 -51.7959 -51.7959 -51.7886 -51.7886 -51.7886 -51.7886
   -33.6490 -33.6490 -33.6259 -24.3734 -24.3572 -24.3572 -24.3415 -24.3321
   -24.3108 -24.3057 -24.3057 -24.2976 -24.2798 -24.2436 -24.2436 -24.2220
   -24.2145 -24.2035 -24.2000 -24.1981 -24.1981 -24.1647 -24.1533 -24.1533
   -23.1780 -23.1780 -23.1679 -23.1671 -23.1582 -23.1582 -23.1553 -23.1553
   -23.1500 -23.1499 -23.1419 -23.1416 -23.1243 -23.0744 -23.0689 -23.0689
   -23.0630 -23.0623 -23.0610 -23.0610 -23.0585 -23.0585 -23.0373 -23.0370
    13.6021  13.7248  13.7248  13.7551  15.8105  15.8105  15.8204  15.8581
    15.8743  15.8857  15.9125  15.9125  16.1084  16.1126  16.1126  16.1152
    16.5449  16.5449  16.5642  16.6507  16.8220  16.8220  16.8369  16.8449
    16.9995  16.9995  17.0383  17.1293  17.3274  17.4134  17.4134  17.4271
    17.4631  17.4631  17.5167  17.5218  17.8592  17.9372  17.9372  17.9559
    17.9714  18.0604  18.0604  18.0649  18.5254  18.5254  18.6318  18.6325
    19.7563  19.8535  19.8813  19.8813  20.1641  20.1686  20.2231  20.2231
    20.2690  20.2849  20.2851  20.2983  20.2983  20.3216  20.3216  20.3356
    20.3547  20.3547  20.4077  20.4149  20.4443  20.5623  20.5695  20.6160

          k =-0.5000-0.5000 0.1642 (  9848 PWs)   bands (ev):

   -67.5671 -52.8785 -52.8785 -52.8732 -52.8540 -52.8444 -52.8444 -52.8384
   -51.7986 -51.7954 -51.7954 -51.7954 -51.7892 -51.7891 -51.7891 -51.7891
   -33.6490 -33.6490 -33.6258 -24.3619 -24.3452 -24.3452 -24.3344 -24.3240
   -24.3061 -24.2986 -24.2986 -24.2937 -24.2790 -24.2431 -24.2431 -24.2264
   -24.2187 -24.2132 -24.2088 -24.2059 -24.2059 -24.1780 -24.1672 -24.1672
   -23.1772 -23.1772 -23.1667 -23.1603 -23.1514 -23.1514 -23.1461 -23.1461
   -23.1418 -23.1417 -23.1381 -23.1375 -23.1251 -23.0793 -23.0750 -23.0750
   -23.0679 -23.0673 -23.0663 -23.0663 -23.0623 -23.0623 -23.0440 -23.0437
    13.7280  13.8550  13.8550  13.8842  15.6254  15.7058  15.7156  15.7156
    15.9241  15.9241  15.9328  16.0195  16.2975  16.3051  16.3130  16.3130
    16.5661  16.5661  16.5855  16.6668  16.8102  16.8102  16.8272  16.8525
    17.0225  17.0225  17.0602  17.1381  17.2307  17.3051  17.3051  17.3119
    17.4278  17.4278  17.4788  17.4853  17.7110  17.7622  17.7622  17.7754
    17.8265  17.8944  17.8944  17.9094  18.2648  18.2648  18.3174  18.3223
    20.0124  20.0951  20.0951  20.1265  20.2017  20.2021  20.3377  20.3377
    20.3416  20.3576  20.3576  20.3705  20.3705  20.3803  20.4593  20.4637
    20.4663  20.4681  20.4868  20.4868  20.5214  20.5628  20.6261  20.6321

          k =-0.5000-0.5000 0.3284 (  9860 PWs)   bands (ev):

   -67.5671 -52.8768 -52.8768 -52.8715 -52.8540 -52.8461 -52.8461 -52.8401
   -51.7970 -51.7941 -51.7941 -51.7941 -51.7909 -51.7904 -51.7904 -51.7904
   -33.6490 -33.6490 -33.6258 -24.3313 -24.3167 -24.3119 -24.3119 -24.3021
   -24.2946 -24.2874 -24.2794 -24.2794 -24.2724 -24.2427 -24.2427 -24.2388
   -24.2382 -24.2320 -24.2296 -24.2272 -24.2272 -24.2093 -24.2031 -24.2031
   -23.1723 -23.1723 -23.1642 -23.1439 -23.1341 -23.1341 -23.1317 -23.1260
   -23.1256 -23.1256 -23.1225 -23.1195 -23.1193 -23.0920 -23.0877 -23.0877
   -23.0807 -23.0807 -23.0807 -23.0806 -23.0746 -23.0746 -23.0631 -23.0629
    14.0841  14.2236  14.2236  14.2496  15.2011  15.3136  15.3136  15.3194
    16.2396  16.2396  16.2457  16.3139  16.6198  16.6198  16.6373  16.6428
    16.6458  16.6458  16.6469  16.7048  16.7680  16.7680  16.7874  16.8584
    17.0936  17.0936  17.0998  17.1332  17.1678  17.1678  17.1727  17.1804
    17.3221  17.3221  17.3704  17.3787  17.3860  17.3860  17.3865  17.3904
    17.5279  17.5672  17.5672  17.5920  17.7544  17.7544  17.7600  17.7636
    20.2753  20.2791  20.3266  20.3775  20.3775  20.4443  20.4443  20.4659
    20.5026  20.5026  20.5294  20.5374  20.5522  20.5967  20.5967  20.5994
    20.6026  20.6373  20.6373  20.6507  20.6538  20.6689  20.6730  20.6730

          k =-0.5000-0.5000-0.4926 (  9888 PWs)   bands (ev):

   -67.5671 -52.8759 -52.8759 -52.8707 -52.8540 -52.8470 -52.8470 -52.8410
   -51.7957 -51.7923 -51.7923 -51.7923 -51.7922 -51.7922 -51.7922 -51.7922
   -33.6490 -33.6490 -33.6257 -24.3068 -24.3038 -24.2862 -24.2833 -24.2755
   -24.2755 -24.2728 -24.2695 -24.2566 -24.2556 -24.2553 -24.2553 -24.2549
   -24.2549 -24.2538 -24.2513 -24.2513 -24.2444 -24.2298 -24.2298 -24.2246
   -23.1684 -23.1684 -23.1629 -23.1320 -23.1318 -23.1213 -23.1213 -23.1157
   -23.1141 -23.1072 -23.1072 -23.1020 -23.0973 -23.0973 -23.0923 -23.0922
   -23.0909 -23.0905 -23.0905 -23.0905 -23.0902 -23.0888 -23.0887 -23.0887
    14.5111  14.7384  14.7384  14.7390  14.7726  14.7786  14.7786  14.7815
    16.6231  16.6506  16.6506  16.6527  16.6584  16.6584  16.6703  16.7052
    16.7052  16.7059  16.7059  16.7163  16.7204  16.7293  16.8182  16.8532
    17.1447  17.1447  17.1752  17.1945  17.2385  17.2385  17.2434  17.2500
    17.2500  17.2570  17.2621  17.2628  17.2699  17.2770  17.2770  17.2774
    17.2849  17.2982  17.3025  17.3025  17.3218  17.3234  17.3234  17.3523
    20.3083  20.3375  20.4832  20.4832  20.5082  20.5387  20.5468  20.5468
    20.5490  20.5521  20.5535  20.5535  20.5575  20.5733  20.5744  20.5744
    20.6682  20.7266  20.7266  20.8938  20.8982  20.9238  20.9238  20.9244

     the Fermi energy is    19.3132 ev

!    total energy              =   -4052.51379807 Ry
     total all-electron energy =    -34071.800509 Ry
     estimated scf accuracy    <       0.00000126 Ry
     smearing contrib. (-TS)   =       0.00365137 Ry
     internal energy E=F+TS    =   -4052.51744944 Ry

     The total energy is F=E-TS. E is the sum of the following terms:
     one-electron contribution =    -954.87452338 Ry
     hartree contribution      =     615.08930422 Ry
     xc contribution           =    -362.20158152 Ry
     ewald contribution        =   -2154.04875593 Ry
     one-center paw contrib.   =   -1196.48189282 Ry

     total magnetization       =     1.43 Bohr mag/cell
     absolute magnetization    =    16.64 Bohr mag/cell

     convergence has been achieved in  90 iterations


     Computing stress (Cartesian axis) and pressure

          total   stress  (Ry/bohr**3)                   (kbar)     P=        0.07
   0.00011543   0.00000000   0.00000000           16.98        0.00        0.00
   0.00000000   0.00011543   0.00000000            0.00       16.98        0.00
   0.00000000   0.00000000  -0.00022950            0.00        0.00      -33.76


     Writing all to output data dir ./tmp/fecr_fe01cr15_t0.01.save/ :
     XML data file, charge density, pseudopotentials, collected wavefunctions
 
     init_run     :     36.25s CPU     24.17s WALL (       1 calls)
     electrons    :   3867.75s CPU   2762.93s WALL (       1 calls)
     stress       :     11.86s CPU     11.66s WALL (       1 calls)

     Called by init_run:
     wfcinit      :      3.75s CPU      4.59s WALL (       1 calls)
     potinit      :     31.50s CPU     18.47s WALL (       1 calls)
     hinit0       :      0.77s CPU      0.76s WALL (       1 calls)

     Called by electrons:
     c_bands      :   1053.81s CPU   1056.83s WALL (      90 calls)
     sum_band     :    110.20s CPU    110.28s WALL (      90 calls)
     v_of_rho     :      4.74s CPU      3.86s WALL (      91 calls)
     newd         :      4.54s CPU      4.57s WALL (      91 calls)
                                        4.57s GPU  (      91 calls)
     PAW_pot      :   2715.49s CPU   1595.40s WALL (      91 calls)
     mix_rho      :      6.59s CPU      6.56s WALL (      90 calls)

     Called by c_bands:
     init_us_2    :      9.08s CPU      8.65s WALL (   14560 calls)
     cegterg      :    948.40s CPU    951.41s WALL (    7200 calls)

     Called by *egterg:
     cdiaghg      :    321.36s CPU    323.75s WALL (   37558 calls)
                                      323.51s GPU  (   37558 calls)
     h_psi        :    298.56s CPU    300.23s WALL (   37638 calls)
                                      299.87s GPU  (   37638 calls)
     s_psi        :     19.21s CPU     19.46s WALL (   37638 calls)
     g_psi        :      0.17s CPU      1.66s WALL (   30358 calls)
                                        1.57s GPU  (   30358 calls)

     Called by h_psi:
     h_psi:calbec :      1.41s CPU     65.06s WALL (   37638 calls)
                                       64.92s GPU  (   37638 calls)
     vloc_psi     :    152.48s CPU    152.33s WALL (   37638 calls)
                                      152.17s GPU  (   37638 calls)
     add_vuspsi   :     18.76s CPU     80.75s WALL (   37638 calls)
                                       80.60s GPU  (   37638 calls)

     General routines
     calbec       :      1.74s CPU      1.81s WALL (   44918 calls)
     fft          :      2.19s CPU      2.38s WALL (    2294 calls)
                                        0.23s GPU  (    2112 calls)
     ffts         :      0.37s CPU      0.44s WALL (    2217 calls)
                                        0.10s GPU  (    2035 calls)
     fftw         :      8.67s CPU    143.06s WALL (  408860 calls)
                                      142.05s GPU  (  408860 calls)
     interpolate  :      2.64s CPU      2.65s WALL (     182 calls)
 
     Parallel routines
 
     PWSCF        :      1h 5m CPU  46m42.45s WALL

 
   This run was terminated on:  18: 3:11  24May2026            

=------------------------------------------------------------------------------=
   JOB DONE.
=------------------------------------------------------------------------------=
Warning: ieee_invalid is signaling
Warning: ieee_divide_by_zero is signaling
Warning: ieee_inexact is signaling
FORTRAN STOP
