--------------------------------------------------------------------------
WARNING: Open MPI tried to bind a process but failed.  This is a
warning only; your job will continue, though performance may
be degraded.

  Local host:        b1c76c1b6516
  Application name:  /workspace/q-e-qe-7.3.1/bin/pw.x
  Error message:     failed to bind memory
  Location:          ../../../../../orte/mca/rtc/hwloc/rtc_hwloc.c:447

--------------------------------------------------------------------------

     Program PWSCF v.7.3.1 starts on 13May2026 at  8:41:18 

     This program is part of the open-source Quantum ESPRESSO suite
     for quantum simulation of materials; please cite
         "P. Giannozzi et al., J. Phys.:Condens. Matter 21 395502 (2009);
         "P. Giannozzi et al., J. Phys.:Condens. Matter 29 465901 (2017);
         "P. Giannozzi et al., J. Chem. Phys. 152 154105 (2020);
          URL http://www.quantum-espresso.org", 
     in publications or presentations arising from this work. More details at
     http://www.quantum-espresso.org/quote

     Parallel version (MPI & OpenMP), running on       8 processor cores
     Number of MPI processes:                 1
     Threads/MPI process:                     8

     MPI processes distributed on     1 nodes
     194557 MiB available memory on the printing compute node when the environment starts
 
     Reading input from inputs/fecr_fe11cr05_h-0.01.in

     Current dimensions of program PWSCF are:
     Max number of different atomic species (ntypx) = 10
     Max number of k-points (npk) =  40000
     Max angular momentum in pseudopotentials (lmaxx) =  4
     file Fe.pbe-spn-kjpaw_psl.1.0.0.UPF: wavefunction(s)  3P 3D renormalized
     file Cr.pbe-spn-kjpaw_psl.1.0.0.UPF: wavefunction(s)  3S 3P 3D renormalized
     Message from routine setup:
     using ibrav=0 with symmetry is DISCOURAGED, use correct ibrav instead
 
     Subspace diagonalization in iterative solution of the eigenvalue problem:
     a serial algorithm will be used

 
     G-vector sticks info
     --------------------
     sticks:   dense  smooth     PW     G-vecs:    dense   smooth      PW
     Sum        4461    2225    633               223327    78997   11837
 
     Using Slab Decomposition
 


     bravais-lattice index     =            0
     lattice parameter (alat)  =      10.7971  a.u.
     unit-cell volume          =    1258.6821 (a.u.)^3
     number of atoms/cell      =           16
     number of atomic types    =            2
     number of electrons       =       246.00
     number of Kohn-Sham states=          148
     kinetic-energy cutoff     =      60.0000  Ry
     charge density cutoff     =     480.0000  Ry
     scf convergence threshold =      1.0E-08
     mixing beta               =       0.3000
     number of iterations used =            8  plain     mixing
     Exchange-correlation= SLA  PW   PBX  PBC
                           (   1   4   3   4   0   0   0)

     GPU acceleration is ACTIVE.  1 visible GPUs per MPI rank


     celldm(1)=  10.797056  celldm(2)=   0.000000  celldm(3)=   0.000000
     celldm(4)=   0.000000  celldm(5)=   0.000000  celldm(6)=   0.000000

     crystal axes: (cart. coord. in units of alat)
               a(1) = (   1.000000   0.000000   0.000000 )  
               a(2) = (   0.000000   1.000000   0.000000 )  
               a(3) = (   0.000000   0.000000   1.000000 )  

     reciprocal axes: (cart. coord. in units 2 pi/alat)
               b(1) = (  1.000000  0.000000  0.000000 )  
               b(2) = (  0.000000  1.000000  0.000000 )  
               b(3) = (  0.000000  0.000000  1.000000 )  


     PseudoPot. # 1 for Fe read from file:
     ./pseudo/Fe.pbe-spn-kjpaw_psl.1.0.0.UPF
     MD5 check sum: fc81f059e5c5069939230b1155715ae8
     Pseudo is Projector augmented-wave + core cor, Zval = 16.0
     Generated using &quot;atomic&quot; code by A. Dal Corso  v.6.3
     Shape of augmentation charge: PSQ
     Using radial grid of 1191 points,  6 beta functions with: 
                l(1) =   0
                l(2) =   0
                l(3) =   1
                l(4) =   1
                l(5) =   2
                l(6) =   2
     Q(r) pseudized with 0 coefficients 


     PseudoPot. # 2 for Cr read from file:
     ./pseudo/Cr.pbe-spn-kjpaw_psl.1.0.0.UPF
     MD5 check sum: 198f1a2427a48552563eee314eba32ba
     Pseudo is Projector augmented-wave + core cor, Zval = 14.0
     Generated using &quot;atomic&quot; code by A. Dal Corso  v.6.3
     Shape of augmentation charge: PSQ
     Using radial grid of 1183 points,  6 beta functions with: 
                l(1) =   0
                l(2) =   0
                l(3) =   1
                l(4) =   1
                l(5) =   2
                l(6) =   2
     Q(r) pseudized with 0 coefficients 


     atomic species   valence    mass     pseudopotential
     Fe               16.00    55.84500     Fe( 1.00)
     Cr               14.00    51.99600     Cr( 1.00)

     Starting magnetic structure 
     atomic species   magnetization
     Fe              0.500
     Cr              0.300

      8 Sym. Ops., with inversion, found ( 6 have fractional translation)



   Cartesian axes

     site n.     atom                  positions (alat units)
         1        Cr     tau(   1) = (   0.0000000   0.0000000   0.0000000  )
         2        Fe     tau(   2) = (   0.2500000   0.2500000   0.2500000  )
         3        Fe     tau(   3) = (   0.0000000   0.0000000   0.5000000  )
         4        Cr     tau(   4) = (   0.2500000   0.2500000   0.7500000  )
         5        Fe     tau(   5) = (   0.0000000   0.5000000   0.0000000  )
         6        Fe     tau(   6) = (   0.2500000   0.7500000   0.2500000  )
         7        Cr     tau(   7) = (   0.0000000   0.5000000   0.5000000  )
         8        Fe     tau(   8) = (   0.2500000   0.7500000   0.7500000  )
         9        Cr     tau(   9) = (   0.5000000   0.0000000   0.0000000  )
        10        Fe     tau(  10) = (   0.7500000   0.2500000   0.2500000  )
        11        Fe     tau(  11) = (   0.5000000   0.0000000   0.5000000  )
        12        Fe     tau(  12) = (   0.7500000   0.2500000   0.7500000  )
        13        Fe     tau(  13) = (   0.5000000   0.5000000   0.0000000  )
        14        Fe     tau(  14) = (   0.7500000   0.7500000   0.2500000  )
        15        Cr     tau(  15) = (   0.5000000   0.5000000   0.5000000  )
        16        Fe     tau(  16) = (   0.7500000   0.7500000   0.7500000  )

     number of k points=    52  Marzari-Vanderbilt smearing, width (Ry)=  0.0200
                       cart. coord. in units 2pi/alat
        k(    1) = (   0.0000000   0.0000000   0.0000000), wk =   0.0046296
        k(    2) = (   0.0000000   0.0000000   0.1666667), wk =   0.0185185
        k(    3) = (   0.0000000   0.0000000   0.3333333), wk =   0.0185185
        k(    4) = (   0.0000000   0.0000000  -0.5000000), wk =   0.0092593
        k(    5) = (   0.0000000   0.1666667   0.1666667), wk =   0.0092593
        k(    6) = (   0.0000000   0.1666667   0.3333333), wk =   0.0185185
        k(    7) = (   0.0000000   0.1666667  -0.5000000), wk =   0.0185185
        k(    8) = (   0.0000000   0.3333333   0.3333333), wk =   0.0092593
        k(    9) = (   0.0000000   0.3333333  -0.5000000), wk =   0.0185185
        k(   10) = (   0.0000000  -0.5000000  -0.5000000), wk =   0.0046296
        k(   11) = (   0.1666667   0.1666667   0.1666667), wk =   0.0185185
        k(   12) = (   0.1666667   0.1666667   0.3333333), wk =   0.0370370
        k(   13) = (   0.1666667   0.1666667  -0.5000000), wk =   0.0370370
        k(   14) = (   0.1666667   0.3333333   0.3333333), wk =   0.0185185
        k(   15) = (   0.1666667   0.3333333  -0.5000000), wk =   0.0370370
        k(   16) = (   0.1666667  -0.5000000  -0.5000000), wk =   0.0092593
        k(   17) = (   0.3333333   0.3333333   0.3333333), wk =   0.0185185
        k(   18) = (   0.3333333   0.3333333  -0.5000000), wk =   0.0370370
        k(   19) = (   0.3333333  -0.5000000  -0.5000000), wk =   0.0092593
        k(   20) = (  -0.5000000  -0.5000000  -0.5000000), wk =   0.0046296
        k(   21) = (   0.1666667   0.0000000   0.0000000), wk =   0.0092593
        k(   22) = (   0.3333333   0.0000000   0.0000000), wk =   0.0092593
        k(   23) = (  -0.5000000   0.0000000   0.0000000), wk =   0.0046296
        k(   24) = (   0.1666667  -0.1666667   0.0000000), wk =   0.0370370
        k(   25) = (   0.0000000   0.1666667  -0.1666667), wk =   0.0092593
        k(   26) = (   0.3333333  -0.1666667   0.0000000), wk =   0.0370370
        k(   27) = (   0.0000000   0.1666667  -0.3333333), wk =   0.0185185
        k(   28) = (   0.1666667   0.3333333   0.0000000), wk =   0.0370370
        k(   29) = (  -0.5000000  -0.1666667   0.0000000), wk =   0.0185185
        k(   30) = (   0.1666667  -0.5000000   0.0000000), wk =   0.0185185
        k(   31) = (   0.3333333  -0.3333333   0.0000000), wk =   0.0370370
        k(   32) = (   0.0000000   0.3333333  -0.3333333), wk =   0.0092593
        k(   33) = (  -0.5000000  -0.3333333   0.0000000), wk =   0.0185185
        k(   34) = (   0.3333333  -0.5000000   0.0000000), wk =   0.0185185
        k(   35) = (  -0.5000000   0.5000000   0.0000000), wk =   0.0092593
        k(   36) = (   0.1666667  -0.1666667   0.1666667), wk =   0.0185185
        k(   37) = (   0.3333333  -0.1666667   0.1666667), wk =   0.0185185
        k(   38) = (  -0.3333333  -0.1666667  -0.1666667), wk =   0.0185185
        k(   39) = (  -0.1666667   0.1666667  -0.3333333), wk =   0.0370370
        k(   40) = (  -0.5000000  -0.1666667   0.1666667), wk =   0.0092593
        k(   41) = (   0.5000000  -0.1666667  -0.1666667), wk =   0.0092593
        k(   42) = (   0.3333333  -0.3333333   0.1666667), wk =   0.0370370
        k(   43) = (  -0.3333333  -0.3333333  -0.1666667), wk =   0.0370370
        k(   44) = (  -0.1666667   0.3333333  -0.3333333), wk =   0.0185185
        k(   45) = (  -0.5000000  -0.3333333   0.1666667), wk =   0.0185185
        k(   46) = (   0.5000000  -0.3333333  -0.1666667), wk =   0.0185185
        k(   47) = (   0.3333333  -0.5000000   0.1666667), wk =   0.0370370
        k(   48) = (  -0.5000000   0.5000000   0.1666667), wk =   0.0185185
        k(   49) = (   0.3333333  -0.3333333   0.3333333), wk =   0.0185185
        k(   50) = (  -0.5000000  -0.3333333   0.3333333), wk =   0.0092593
        k(   51) = (   0.5000000  -0.3333333  -0.3333333), wk =   0.0092593
        k(   52) = (  -0.5000000   0.5000000   0.3333333), wk =   0.0185185

     Dense  grid:   223327 G-vectors     FFT dimensions: (  80,  80,  80)

     Smooth grid:    78997 G-vectors     FFT dimensions: (  54,  54,  54)

     Estimated max dynamical RAM per process >       3.22 GB

     Check: negative core charge=   -0.000003
     Generating pointlists ...
     new r_m :   0.1786 (alat units)  1.9285 (a.u.) for type    1
     new r_m :   0.1786 (alat units)  1.9285 (a.u.) for type    2

     Initial potential from superposition of free atoms

     starting charge     245.9913, renormalised to     246.0000
     Starting wfcs are  160 randomized atomic wfcs
     Checking if some PAW data can be deallocated... 

     total cpu time spent up to now is       18.6 secs

     Self-consistent Calculation

     iteration #  1     ecut=    60.00 Ry     beta= 0.30
     Davidson diagonalization with overlap
     ethr =  1.00E-02,  avg # of iterations =  3.5

     negative rho (up, down):  0.000E+00 1.683E-01

     total cpu time spent up to now is       56.3 secs

     total energy              =   -4855.54855472 Ry
     estimated scf accuracy    <      17.45545164 Ry

     total magnetization       =    50.01 Bohr mag/cell
     absolute magnetization    =    53.23 Bohr mag/cell

     iteration #  2     ecut=    60.00 Ry     beta= 0.30
     Davidson diagonalization with overlap
     ethr =  7.10E-03,  avg # of iterations =  4.6

     negative rho (up, down):  0.000E+00 1.457E-01

     total cpu time spent up to now is       96.0 secs

     total energy              =   -4856.02528668 Ry
     estimated scf accuracy    <      64.19103285 Ry

     total magnetization       =    23.96 Bohr mag/cell
     absolute magnetization    =    25.64 Bohr mag/cell

     iteration #  3     ecut=    60.00 Ry     beta= 0.30
     Davidson diagonalization with overlap
     ethr =  7.10E-03,  avg # of iterations =  2.4

     negative rho (up, down):  0.000E+00 1.014E-01

     total cpu time spent up to now is      128.0 secs

     total energy              =   -4859.43342971 Ry
     estimated scf accuracy    <       6.41149544 Ry

     total magnetization       =    42.74 Bohr mag/cell
     absolute magnetization    =    43.33 Bohr mag/cell

     iteration #  4     ecut=    60.00 Ry     beta= 0.30
     Davidson diagonalization with overlap
     ethr =  2.61E-03,  avg # of iterations =  4.8

     negative rho (up, down):  0.000E+00 7.283E-02

     total cpu time spent up to now is      169.4 secs

     total energy              =   -4860.19383437 Ry
     estimated scf accuracy    <      18.88926482 Ry

     total magnetization       =    42.10 Bohr mag/cell
     absolute magnetization    =    42.80 Bohr mag/cell

     iteration #  5     ecut=    60.00 Ry     beta= 0.30
     Davidson diagonalization with overlap
     ethr =  2.61E-03,  avg # of iterations =  3.4

     negative rho (up, down):  0.000E+00 4.291E-02

     total cpu time spent up to now is      202.7 secs

     total energy              =   -4861.19951889 Ry
     estimated scf accuracy    <       2.79862962 Ry

     total magnetization       =    41.55 Bohr mag/cell
     absolute magnetization    =    42.26 Bohr mag/cell

     iteration #  6     ecut=    60.00 Ry     beta= 0.30
     Davidson diagonalization with overlap
     ethr =  1.14E-03,  avg # of iterations =  3.2

     negative rho (up, down):  0.000E+00 1.005E-02

     total cpu time spent up to now is      237.7 secs

     total energy              =   -4861.70544512 Ry
     estimated scf accuracy    <      11.42035640 Ry

     total magnetization       =    34.91 Bohr mag/cell
     absolute magnetization    =    36.24 Bohr mag/cell

     iteration #  7     ecut=    60.00 Ry     beta= 0.30
     Davidson diagonalization with overlap
     ethr =  1.14E-03,  avg # of iterations =  3.8

     negative rho (up, down):  0.000E+00 4.385E-03

     total cpu time spent up to now is      272.3 secs

     total energy              =   -4862.25293366 Ry
     estimated scf accuracy    <       4.86052062 Ry

     total magnetization       =    30.66 Bohr mag/cell
     absolute magnetization    =    32.42 Bohr mag/cell

     iteration #  8     ecut=    60.00 Ry     beta= 0.30
     Davidson diagonalization with overlap
     ethr =  1.14E-03,  avg # of iterations =  1.6

     negative rho (up, down):  0.000E+00 3.364E-03

     total cpu time spent up to now is      302.4 secs

     total energy              =   -4862.50744881 Ry
     estimated scf accuracy    <       2.16465841 Ry

     total magnetization       =    27.98 Bohr mag/cell
     absolute magnetization    =    30.14 Bohr mag/cell

     iteration #  9     ecut=    60.00 Ry     beta= 0.30
     Davidson diagonalization with overlap
     ethr =  8.80E-04,  avg # of iterations =  2.8

     negative rho (up, down):  0.000E+00 3.264E-03

     total cpu time spent up to now is      335.7 secs

     total energy              =   -4862.74548890 Ry
     estimated scf accuracy    <       0.59657280 Ry

     total magnetization       =    25.53 Bohr mag/cell
     absolute magnetization    =    28.16 Bohr mag/cell

     iteration # 10     ecut=    60.00 Ry     beta= 0.30
     Davidson diagonalization with overlap
     ethr =  2.43E-04,  avg # of iterations =  3.3

     negative rho (up, down):  0.000E+00 3.113E-03

     total cpu time spent up to now is      370.0 secs

     total energy              =   -4862.75673575 Ry
     estimated scf accuracy    <       0.35956464 Ry

     total magnetization       =    24.96 Bohr mag/cell
     absolute magnetization    =    27.55 Bohr mag/cell

     iteration # 11     ecut=    60.00 Ry     beta= 0.30
     Davidson diagonalization with overlap
     ethr =  1.46E-04,  avg # of iterations =  1.9

     negative rho (up, down):  0.000E+00 2.447E-03

     total cpu time spent up to now is      401.2 secs

     total energy              =   -4862.78722854 Ry
     estimated scf accuracy    <       0.09226631 Ry

     total magnetization       =    23.74 Bohr mag/cell
     absolute magnetization    =    26.46 Bohr mag/cell

     iteration # 12     ecut=    60.00 Ry     beta= 0.30
     Davidson diagonalization with overlap
     ethr =  3.75E-05,  avg # of iterations =  7.3

     negative rho (up, down):  0.000E+00 1.872E-03

     total cpu time spent up to now is      445.5 secs

     total energy              =   -4862.79356465 Ry
     estimated scf accuracy    <       0.44347062 Ry

     total magnetization       =    23.35 Bohr mag/cell
     absolute magnetization    =    25.94 Bohr mag/cell

     iteration # 13     ecut=    60.00 Ry     beta= 0.30
     Davidson diagonalization with overlap
     ethr =  3.75E-05,  avg # of iterations =  2.3

     negative rho (up, down):  0.000E+00 1.373E-03

     total cpu time spent up to now is      477.5 secs

     total energy              =   -4862.82135849 Ry
     estimated scf accuracy    <       0.06372482 Ry

     total magnetization       =    22.78 Bohr mag/cell
     absolute magnetization    =    25.45 Bohr mag/cell

     iteration # 14     ecut=    60.00 Ry     beta= 0.30
     Davidson diagonalization with overlap
     ethr =  2.59E-05,  avg # of iterations =  2.6

     negative rho (up, down):  0.000E+00 1.184E-03

     total cpu time spent up to now is      510.2 secs

     total energy              =   -4862.82233881 Ry
     estimated scf accuracy    <       0.08106191 Ry

     total magnetization       =    22.50 Bohr mag/cell
     absolute magnetization    =    25.16 Bohr mag/cell

     iteration # 15     ecut=    60.00 Ry     beta= 0.30
     Davidson diagonalization with overlap
     ethr =  2.59E-05,  avg # of iterations =  2.7

     negative rho (up, down):  0.000E+00 1.321E-03

     total cpu time spent up to now is      543.2 secs

     total energy              =   -4862.82128660 Ry
     estimated scf accuracy    <       0.08656683 Ry

     total magnetization       =    22.15 Bohr mag/cell
     absolute magnetization    =    24.84 Bohr mag/cell

     iteration # 16     ecut=    60.00 Ry     beta= 0.30
     Davidson diagonalization with overlap
     ethr =  2.59E-05,  avg # of iterations =  2.6

     negative rho (up, down):  0.000E+00 8.302E-04

     total cpu time spent up to now is      576.0 secs

     total energy              =   -4862.82827527 Ry
     estimated scf accuracy    <       0.12154307 Ry

     total magnetization       =    22.66 Bohr mag/cell
     absolute magnetization    =    25.24 Bohr mag/cell

     iteration # 17     ecut=    60.00 Ry     beta= 0.30
     Davidson diagonalization with overlap
     ethr =  2.59E-05,  avg # of iterations =  1.5

     negative rho (up, down):  0.000E+00 6.922E-04

     total cpu time spent up to now is      605.3 secs

     total energy              =   -4862.83779677 Ry
     estimated scf accuracy    <       0.00645987 Ry

     total magnetization       =    21.87 Bohr mag/cell
     absolute magnetization    =    24.62 Bohr mag/cell

     iteration # 18     ecut=    60.00 Ry     beta= 0.30
     Davidson diagonalization with overlap
     c_bands:  3 eigenvalues not converged
     ethr =  2.63E-06,  avg # of iterations =  7.8

     negative rho (up, down):  0.000E+00 6.835E-04

     total cpu time spent up to now is      653.3 secs

     total energy              =   -4862.83963484 Ry
     estimated scf accuracy    <       0.01121630 Ry

     total magnetization       =    21.69 Bohr mag/cell
     absolute magnetization    =    24.42 Bohr mag/cell

     iteration # 19     ecut=    60.00 Ry     beta= 0.30
     Davidson diagonalization with overlap
     c_bands:  1 eigenvalues not converged
     ethr =  2.63E-06,  avg # of iterations =  1.7

     negative rho (up, down):  0.000E+00 6.962E-04

     total cpu time spent up to now is      683.3 secs

     total energy              =   -4862.84165966 Ry
     estimated scf accuracy    <       0.00746534 Ry

     total magnetization       =    21.60 Bohr mag/cell
     absolute magnetization    =    24.37 Bohr mag/cell

     iteration # 20     ecut=    60.00 Ry     beta= 0.30
     Davidson diagonalization with overlap
     ethr =  2.63E-06,  avg # of iterations =  3.3

     negative rho (up, down):  0.000E+00 4.977E-04

     total cpu time spent up to now is      718.5 secs

     total energy              =   -4862.84296152 Ry
     estimated scf accuracy    <       0.00784409 Ry

     total magnetization       =    21.39 Bohr mag/cell
     absolute magnetization    =    24.40 Bohr mag/cell

     iteration # 21     ecut=    60.00 Ry     beta= 0.30
     Davidson diagonalization with overlap
     ethr =  2.63E-06,  avg # of iterations =  2.8

     negative rho (up, down):  0.000E+00 6.910E-04

     total cpu time spent up to now is      751.5 secs

     total energy              =   -4862.84332631 Ry
     estimated scf accuracy    <       0.00441541 Ry

     total magnetization       =    21.21 Bohr mag/cell
     absolute magnetization    =    24.40 Bohr mag/cell

     iteration # 22     ecut=    60.00 Ry     beta= 0.30
     Davidson diagonalization with overlap
     ethr =  1.79E-06,  avg # of iterations =  2.5

     negative rho (up, down):  0.000E+00 5.759E-04

     total cpu time spent up to now is      784.3 secs

     total energy              =   -4862.84428831 Ry
     estimated scf accuracy    <       0.00899659 Ry

     total magnetization       =    21.31 Bohr mag/cell
     absolute magnetization    =    24.42 Bohr mag/cell

     iteration # 23     ecut=    60.00 Ry     beta= 0.30
     Davidson diagonalization with overlap
     ethr =  1.79E-06,  avg # of iterations =  5.0

     negative rho (up, down):  0.000E+00 6.135E-04

     total cpu time spent up to now is      823.0 secs

     total energy              =   -4862.84601084 Ry
     estimated scf accuracy    <       0.00187862 Ry

     total magnetization       =    21.05 Bohr mag/cell
     absolute magnetization    =    24.58 Bohr mag/cell

     iteration # 24     ecut=    60.00 Ry     beta= 0.30
     Davidson diagonalization with overlap
     c_bands:  1 eigenvalues not converged
     ethr =  7.64E-07,  avg # of iterations =  6.2

     negative rho (up, down):  0.000E+00 7.748E-04

     total cpu time spent up to now is      864.0 secs

     total energy              =   -4862.84709686 Ry
     estimated scf accuracy    <       0.00262213 Ry

     total magnetization       =    21.00 Bohr mag/cell
     absolute magnetization    =    24.72 Bohr mag/cell

     iteration # 25     ecut=    60.00 Ry     beta= 0.30
     Davidson diagonalization with overlap
     ethr =  7.64E-07,  avg # of iterations =  6.3

     negative rho (up, down):  0.000E+00 7.514E-04

     total cpu time spent up to now is      907.4 secs

     total energy              =   -4862.84818395 Ry
     estimated scf accuracy    <       0.00232768 Ry

     total magnetization       =    20.89 Bohr mag/cell
     absolute magnetization    =    25.14 Bohr mag/cell

     iteration # 26     ecut=    60.00 Ry     beta= 0.30
     Davidson diagonalization with overlap
     ethr =  7.64E-07,  avg # of iterations =  1.5

     negative rho (up, down):  0.000E+00 6.783E-04

     total cpu time spent up to now is      936.4 secs

     total energy              =   -4862.84735532 Ry
     estimated scf accuracy    <       0.00225877 Ry

     total magnetization       =    20.86 Bohr mag/cell
     absolute magnetization    =    25.17 Bohr mag/cell

     iteration # 27     ecut=    60.00 Ry     beta= 0.30
     Davidson diagonalization with overlap
     ethr =  7.64E-07,  avg # of iterations =  1.6

     negative rho (up, down):  0.000E+00 8.831E-04

     total cpu time spent up to now is      966.3 secs

     total energy              =   -4862.84805221 Ry
     estimated scf accuracy    <       0.00283205 Ry

     total magnetization       =    20.87 Bohr mag/cell
     absolute magnetization    =    25.00 Bohr mag/cell

     iteration # 28     ecut=    60.00 Ry     beta= 0.30
     Davidson diagonalization with overlap
     ethr =  7.64E-07,  avg # of iterations =  5.8

     negative rho (up, down):  0.000E+00 8.303E-04

     total cpu time spent up to now is     1009.3 secs

     total energy              =   -4862.84931279 Ry
     estimated scf accuracy    <       0.00580932 Ry

     total magnetization       =    20.86 Bohr mag/cell
     absolute magnetization    =    25.46 Bohr mag/cell

     iteration # 29     ecut=    60.00 Ry     beta= 0.30
     Davidson diagonalization with overlap
     ethr =  7.64E-07,  avg # of iterations =  3.7

     negative rho (up, down):  0.000E+00 9.687E-04

     total cpu time spent up to now is     1044.8 secs

     total energy              =   -4862.84785909 Ry
     estimated scf accuracy    <       0.00114485 Ry

     total magnetization       =    20.67 Bohr mag/cell
     absolute magnetization    =    25.69 Bohr mag/cell

     iteration # 30     ecut=    60.00 Ry     beta= 0.30
     Davidson diagonalization with overlap
     ethr =  4.65E-07,  avg # of iterations =  7.6

     negative rho (up, down):  0.000E+00 9.652E-04

     total cpu time spent up to now is     1099.0 secs

     total energy              =   -4862.85293015 Ry
     estimated scf accuracy    <       0.00194852 Ry

     total magnetization       =    20.36 Bohr mag/cell
     absolute magnetization    =    26.86 Bohr mag/cell

     iteration # 31     ecut=    60.00 Ry     beta= 0.30
     Davidson diagonalization with overlap
     ethr =  4.65E-07,  avg # of iterations =  4.7

     negative rho (up, down):  0.000E+00 9.826E-04

     total cpu time spent up to now is     1136.6 secs

     total energy              =   -4862.85285942 Ry
     estimated scf accuracy    <       0.00077632 Ry

     total magnetization       =    20.27 Bohr mag/cell
     absolute magnetization    =    27.14 Bohr mag/cell

     iteration # 32     ecut=    60.00 Ry     beta= 0.30
     Davidson diagonalization with overlap
     ethr =  3.16E-07,  avg # of iterations =  6.5

     negative rho (up, down):  0.000E+00 9.262E-04

     total cpu time spent up to now is     1186.0 secs

     total energy              =   -4862.85403249 Ry
     estimated scf accuracy    <       0.00084843 Ry

     total magnetization       =    20.07 Bohr mag/cell
     absolute magnetization    =    27.76 Bohr mag/cell

     iteration # 33     ecut=    60.00 Ry     beta= 0.30
     Davidson diagonalization with overlap
     ethr =  3.16E-07,  avg # of iterations =  2.0

     negative rho (up, down):  0.000E+00 9.268E-04

     total cpu time spent up to now is     1217.1 secs

     total energy              =   -4862.85421114 Ry
     estimated scf accuracy    <       0.00074671 Ry

     total magnetization       =    20.13 Bohr mag/cell
     absolute magnetization    =    27.61 Bohr mag/cell

     iteration # 34     ecut=    60.00 Ry     beta= 0.30
     Davidson diagonalization with overlap
     ethr =  3.04E-07,  avg # of iterations =  4.9

     negative rho (up, down):  0.000E+00 9.748E-04

     total cpu time spent up to now is     1256.1 secs

     total energy              =   -4862.85465611 Ry
     estimated scf accuracy    <       0.00043239 Ry

     total magnetization       =    20.01 Bohr mag/cell
     absolute magnetization    =    27.93 Bohr mag/cell

     iteration # 35     ecut=    60.00 Ry     beta= 0.30
     Davidson diagonalization with overlap
     ethr =  1.76E-07,  avg # of iterations =  5.6

     negative rho (up, down):  0.000E+00 9.522E-04

     total cpu time spent up to now is     1296.6 secs

     total energy              =   -4862.85422864 Ry
     estimated scf accuracy    <       0.00087421 Ry

     total magnetization       =    19.94 Bohr mag/cell
     absolute magnetization    =    28.14 Bohr mag/cell

     iteration # 36     ecut=    60.00 Ry     beta= 0.30
     Davidson diagonalization with overlap
     ethr =  1.76E-07,  avg # of iterations =  6.4

     negative rho (up, down):  0.000E+00 9.721E-04

     total cpu time spent up to now is     1346.2 secs

     total energy              =   -4862.85535425 Ry
     estimated scf accuracy    <       0.00022874 Ry

     total magnetization       =    19.77 Bohr mag/cell
     absolute magnetization    =    28.65 Bohr mag/cell

     iteration # 37     ecut=    60.00 Ry     beta= 0.30
     Davidson diagonalization with overlap
     ethr =  9.30E-08,  avg # of iterations =  5.3

     negative rho (up, down):  0.000E+00 9.650E-04

     total cpu time spent up to now is     1385.8 secs

     total energy              =   -4862.85531880 Ry
     estimated scf accuracy    <       0.00027186 Ry

     total magnetization       =    19.75 Bohr mag/cell
     absolute magnetization    =    28.78 Bohr mag/cell

     iteration # 38     ecut=    60.00 Ry     beta= 0.30
     Davidson diagonalization with overlap
     ethr =  9.30E-08,  avg # of iterations =  5.5

     negative rho (up, down):  0.000E+00 9.679E-04

     total cpu time spent up to now is     1429.5 secs

     total energy              =   -4862.85549225 Ry
     estimated scf accuracy    <       0.00031063 Ry

     total magnetization       =    19.67 Bohr mag/cell
     absolute magnetization    =    28.98 Bohr mag/cell

     iteration # 39     ecut=    60.00 Ry     beta= 0.30
     Davidson diagonalization with overlap
     ethr =  9.30E-08,  avg # of iterations =  1.2

     negative rho (up, down):  0.000E+00 9.933E-04

     total cpu time spent up to now is     1458.5 secs

     total energy              =   -4862.85550441 Ry
     estimated scf accuracy    <       0.00015382 Ry

     total magnetization       =    19.67 Bohr mag/cell
     absolute magnetization    =    28.96 Bohr mag/cell

     iteration # 40     ecut=    60.00 Ry     beta= 0.30
     Davidson diagonalization with overlap
     ethr =  6.25E-08,  avg # of iterations =  5.2

     negative rho (up, down):  0.000E+00 9.779E-04

     total cpu time spent up to now is     1499.1 secs

     total energy              =   -4862.85542428 Ry
     estimated scf accuracy    <       0.00013859 Ry

     total magnetization       =    19.64 Bohr mag/cell
     absolute magnetization    =    29.04 Bohr mag/cell

     iteration # 41     ecut=    60.00 Ry     beta= 0.30
     Davidson diagonalization with overlap
     ethr =  5.63E-08,  avg # of iterations =  5.2

     negative rho (up, down):  0.000E+00 9.941E-04

     total cpu time spent up to now is     1540.1 secs

     total energy              =   -4862.85544897 Ry
     estimated scf accuracy    <       0.00021667 Ry

     total magnetization       =    19.69 Bohr mag/cell
     absolute magnetization    =    28.92 Bohr mag/cell

     iteration # 42     ecut=    60.00 Ry     beta= 0.30
     Davidson diagonalization with overlap
     ethr =  5.63E-08,  avg # of iterations =  5.5

     negative rho (up, down):  0.000E+00 9.974E-04

     total cpu time spent up to now is     1583.1 secs

     total energy              =   -4862.85552549 Ry
     estimated scf accuracy    <       0.00003565 Ry

     total magnetization       =    19.64 Bohr mag/cell
     absolute magnetization    =    29.08 Bohr mag/cell

     iteration # 43     ecut=    60.00 Ry     beta= 0.30
     Davidson diagonalization with overlap
     ethr =  1.45E-08,  avg # of iterations =  6.7

     negative rho (up, down):  0.000E+00 9.993E-04

     total cpu time spent up to now is     1633.3 secs

     total energy              =   -4862.85560690 Ry
     estimated scf accuracy    <       0.00007103 Ry

     total magnetization       =    19.59 Bohr mag/cell
     absolute magnetization    =    29.22 Bohr mag/cell

     iteration # 44     ecut=    60.00 Ry     beta= 0.30
     Davidson diagonalization with overlap
     ethr =  1.45E-08,  avg # of iterations =  2.8

     negative rho (up, down):  0.000E+00 9.975E-04

     total cpu time spent up to now is     1666.8 secs

     total energy              =   -4862.85561656 Ry
     estimated scf accuracy    <       0.00001588 Ry

     total magnetization       =    19.60 Bohr mag/cell
     absolute magnetization    =    29.18 Bohr mag/cell

     iteration # 45     ecut=    60.00 Ry     beta= 0.30
     Davidson diagonalization with overlap
     ethr =  6.46E-09,  avg # of iterations =  3.6

     negative rho (up, down):  0.000E+00 9.983E-04

     total cpu time spent up to now is     1701.7 secs

     total energy              =   -4862.85561737 Ry
     estimated scf accuracy    <       0.00001590 Ry

     total magnetization       =    19.61 Bohr mag/cell
     absolute magnetization    =    29.17 Bohr mag/cell

     iteration # 46     ecut=    60.00 Ry     beta= 0.30
     Davidson diagonalization with overlap
     ethr =  6.46E-09,  avg # of iterations =  3.0

     negative rho (up, down):  0.000E+00 9.974E-04

     total cpu time spent up to now is     1735.1 secs

     total energy              =   -4862.85561910 Ry
     estimated scf accuracy    <       0.00001018 Ry

     total magnetization       =    19.60 Bohr mag/cell
     absolute magnetization    =    29.18 Bohr mag/cell

     iteration # 47     ecut=    60.00 Ry     beta= 0.30
     Davidson diagonalization with overlap
     ethr =  4.14E-09,  avg # of iterations =  5.6

     negative rho (up, down):  0.000E+00 9.911E-04

     total cpu time spent up to now is     1776.0 secs

     total energy              =   -4862.85562458 Ry
     estimated scf accuracy    <       0.00000707 Ry

     total magnetization       =    19.60 Bohr mag/cell
     absolute magnetization    =    29.20 Bohr mag/cell

     iteration # 48     ecut=    60.00 Ry     beta= 0.30
     Davidson diagonalization with overlap
     ethr =  2.87E-09,  avg # of iterations =  3.5

     negative rho (up, down):  0.000E+00 9.908E-04

     total cpu time spent up to now is     1811.3 secs

     total energy              =   -4862.85562330 Ry
     estimated scf accuracy    <       0.00000558 Ry

     total magnetization       =    19.60 Bohr mag/cell
     absolute magnetization    =    29.19 Bohr mag/cell

     iteration # 49     ecut=    60.00 Ry     beta= 0.30
     Davidson diagonalization with overlap
     ethr =  2.27E-09,  avg # of iterations =  4.3

     negative rho (up, down):  0.000E+00 9.894E-04

     total cpu time spent up to now is     1849.3 secs

     total energy              =   -4862.85562344 Ry
     estimated scf accuracy    <       0.00002117 Ry

     total magnetization       =    19.60 Bohr mag/cell
     absolute magnetization    =    29.17 Bohr mag/cell

     iteration # 50     ecut=    60.00 Ry     beta= 0.30
     Davidson diagonalization with overlap
     ethr =  2.27E-09,  avg # of iterations =  4.2

     negative rho (up, down):  0.000E+00 9.877E-04

     total cpu time spent up to now is     1886.9 secs

     total energy              =   -4862.85562468 Ry
     estimated scf accuracy    <       0.00000470 Ry

     total magnetization       =    19.60 Bohr mag/cell
     absolute magnetization    =    29.19 Bohr mag/cell

     iteration # 51     ecut=    60.00 Ry     beta= 0.30
     Davidson diagonalization with overlap
     ethr =  1.91E-09,  avg # of iterations =  5.1

     negative rho (up, down):  0.000E+00 9.864E-04

     total cpu time spent up to now is     1928.3 secs

     total energy              =   -4862.85562453 Ry
     estimated scf accuracy    <       0.00002840 Ry

     total magnetization       =    19.60 Bohr mag/cell
     absolute magnetization    =    29.18 Bohr mag/cell

     iteration # 52     ecut=    60.00 Ry     beta= 0.30
     Davidson diagonalization with overlap
     ethr =  1.91E-09,  avg # of iterations =  4.3

     negative rho (up, down):  0.000E+00 9.835E-04

     total cpu time spent up to now is     1967.6 secs

     total energy              =   -4862.85562786 Ry
     estimated scf accuracy    <       0.00000101 Ry

     total magnetization       =    19.60 Bohr mag/cell
     absolute magnetization    =    29.18 Bohr mag/cell

     iteration # 53     ecut=    60.00 Ry     beta= 0.30
     Davidson diagonalization with overlap
     ethr =  4.09E-10,  avg # of iterations =  4.8

     negative rho (up, down):  0.000E+00 9.833E-04

     total cpu time spent up to now is     2006.2 secs

     total energy              =   -4862.85562799 Ry
     estimated scf accuracy    <       0.00000266 Ry

     total magnetization       =    19.60 Bohr mag/cell
     absolute magnetization    =    29.18 Bohr mag/cell

     iteration # 54     ecut=    60.00 Ry     beta= 0.30
     Davidson diagonalization with overlap
     ethr =  4.09E-10,  avg # of iterations =  3.6

     negative rho (up, down):  0.000E+00 9.807E-04

     total cpu time spent up to now is     2041.4 secs

     total energy              =   -4862.85562810 Ry
     estimated scf accuracy    <       0.00000267 Ry

     total magnetization       =    19.60 Bohr mag/cell
     absolute magnetization    =    29.18 Bohr mag/cell

     iteration # 55     ecut=    60.00 Ry     beta= 0.30
     Davidson diagonalization with overlap
     ethr =  4.09E-10,  avg # of iterations =  4.7

     negative rho (up, down):  0.000E+00 9.823E-04

     total cpu time spent up to now is     2080.4 secs

     total energy              =   -4862.85562806 Ry
     estimated scf accuracy    <       0.00000262 Ry

     total magnetization       =    19.60 Bohr mag/cell
     absolute magnetization    =    29.17 Bohr mag/cell

     iteration # 56     ecut=    60.00 Ry     beta= 0.30
     Davidson diagonalization with overlap
     ethr =  4.09E-10,  avg # of iterations =  3.2

     negative rho (up, down):  0.000E+00 9.805E-04

     total cpu time spent up to now is     2115.0 secs

     total energy              =   -4862.85562828 Ry
     estimated scf accuracy    <       0.00000123 Ry

     total magnetization       =    19.60 Bohr mag/cell
     absolute magnetization    =    29.18 Bohr mag/cell

     iteration # 57     ecut=    60.00 Ry     beta= 0.30
     Davidson diagonalization with overlap
     ethr =  4.09E-10,  avg # of iterations =  2.0

     negative rho (up, down):  0.000E+00 9.804E-04

     total cpu time spent up to now is     2146.4 secs

     total energy              =   -4862.85562845 Ry
     estimated scf accuracy    <       0.00000040 Ry

     total magnetization       =    19.60 Bohr mag/cell
     absolute magnetization    =    29.17 Bohr mag/cell

     iteration # 58     ecut=    60.00 Ry     beta= 0.30
     Davidson diagonalization with overlap
     ethr =  1.61E-10,  avg # of iterations =  3.3

     negative rho (up, down):  0.000E+00 9.805E-04

     total cpu time spent up to now is     2180.8 secs

     total energy              =   -4862.85562850 Ry
     estimated scf accuracy    <       0.00000010 Ry

     total magnetization       =    19.60 Bohr mag/cell
     absolute magnetization    =    29.17 Bohr mag/cell

     iteration # 59     ecut=    60.00 Ry     beta= 0.30
     Davidson diagonalization with overlap
     ethr =  4.01E-11,  avg # of iterations =  5.0

     negative rho (up, down):  0.000E+00 9.808E-04

     total cpu time spent up to now is     2218.5 secs

     total energy              =   -4862.85562853 Ry
     estimated scf accuracy    <       0.00000010 Ry

     total magnetization       =    19.60 Bohr mag/cell
     absolute magnetization    =    29.17 Bohr mag/cell

     iteration # 60     ecut=    60.00 Ry     beta= 0.30
     Davidson diagonalization with overlap
     ethr =  4.01E-11,  avg # of iterations =  1.8

     negative rho (up, down):  0.000E+00 9.813E-04

     total cpu time spent up to now is     2248.8 secs

     total energy              =   -4862.85562854 Ry
     estimated scf accuracy    <       0.00000010 Ry

     total magnetization       =    19.60 Bohr mag/cell
     absolute magnetization    =    29.17 Bohr mag/cell

     iteration # 61     ecut=    60.00 Ry     beta= 0.30
     Davidson diagonalization with overlap
     ethr =  4.01E-11,  avg # of iterations =  3.7

     negative rho (up, down):  0.000E+00 9.815E-04

     total cpu time spent up to now is     2285.1 secs

     total energy              =   -4862.85562856 Ry
     estimated scf accuracy    <       0.00000004 Ry

     total magnetization       =    19.60 Bohr mag/cell
     absolute magnetization    =    29.17 Bohr mag/cell

     iteration # 62     ecut=    60.00 Ry     beta= 0.30
     Davidson diagonalization with overlap
     ethr =  1.51E-11,  avg # of iterations =  5.0

     negative rho (up, down):  0.000E+00 9.817E-04

     total cpu time spent up to now is     2323.2 secs

     total energy              =   -4862.85562857 Ry
     estimated scf accuracy    <       0.00000015 Ry

     total magnetization       =    19.60 Bohr mag/cell
     absolute magnetization    =    29.17 Bohr mag/cell

     iteration # 63     ecut=    60.00 Ry     beta= 0.30
     Davidson diagonalization with overlap
     ethr =  1.51E-11,  avg # of iterations =  3.7

     negative rho (up, down):  0.000E+00 9.819E-04

     total cpu time spent up to now is     2358.9 secs

     total energy              =   -4862.85562858 Ry
     estimated scf accuracy    <       0.00000001 Ry

     total magnetization       =    19.60 Bohr mag/cell
     absolute magnetization    =    29.17 Bohr mag/cell

     iteration # 64     ecut=    60.00 Ry     beta= 0.30
     Davidson diagonalization with overlap
     ethr =  4.64E-12,  avg # of iterations =  5.3

     negative rho (up, down):  0.000E+00 9.819E-04

     total cpu time spent up to now is     2398.7 secs

     total energy              =   -4862.85562858 Ry
     estimated scf accuracy    <       0.00000003 Ry

     total magnetization       =    19.60 Bohr mag/cell
     absolute magnetization    =    29.17 Bohr mag/cell

     iteration # 65     ecut=    60.00 Ry     beta= 0.30
     Davidson diagonalization with overlap
     ethr =  4.64E-12,  avg # of iterations =  2.1

     negative rho (up, down):  0.000E+00 9.820E-04

     total cpu time spent up to now is     2430.6 secs

     total energy              =   -4862.85562858 Ry
     estimated scf accuracy    <       0.00000001 Ry

     total magnetization       =    19.60 Bohr mag/cell
     absolute magnetization    =    29.17 Bohr mag/cell

     iteration # 66     ecut=    60.00 Ry     beta= 0.30
     Davidson diagonalization with overlap
     ethr =  4.39E-12,  avg # of iterations =  2.3

     negative rho (up, down):  0.000E+00 9.818E-04
 
     Magnetic moment per site  (integrated on atomic sphere of radius R)
     atom   1 (R=0.179)  charge= 12.1449  magn= -0.9406
     atom   2 (R=0.179)  charge= 14.4494  magn=  2.0609
     atom   3 (R=0.179)  charge= 14.4327  magn=  2.2290
     atom   4 (R=0.179)  charge= 12.1860  magn=  0.4948
     atom   5 (R=0.179)  charge= 14.4327  magn=  2.2290
     atom   6 (R=0.179)  charge= 14.4466  magn=  2.0894
     atom   7 (R=0.179)  charge= 12.1449  magn= -0.9406
     atom   8 (R=0.179)  charge= 14.4494  magn=  2.0609
     atom   9 (R=0.179)  charge= 12.1449  magn= -0.9406
     atom  10 (R=0.179)  charge= 14.4465  magn=  2.1462
     atom  11 (R=0.179)  charge= 14.4327  magn=  2.2290
     atom  12 (R=0.179)  charge= 14.4498  magn=  2.0278
     atom  13 (R=0.179)  charge= 14.4327  magn=  2.2290
     atom  14 (R=0.179)  charge= 14.4442  magn=  2.2100
     atom  15 (R=0.179)  charge= 12.1449  magn= -0.9406
     atom  16 (R=0.179)  charge= 14.4465  magn=  2.1462

     total cpu time spent up to now is     2463.0 secs

     End of self-consistent calculation

     Number of k-points >= 100: set verbosity='high' to print the bands.

     the Fermi energy is    18.5306 ev

!    total energy              =   -4862.85562858 Ry
     total all-electron energy =    -38509.780885 Ry
     estimated scf accuracy    <          8.0E-09 Ry
     smearing contrib. (-TS)   =      -0.00494654 Ry
     internal energy E=F+TS    =   -4862.85068204 Ry

     The total energy is F=E-TS. E is the sum of the following terms:
     one-electron contribution =   -1522.99675808 Ry
     hartree contribution      =     911.88259127 Ry
     xc contribution           =    -416.29252176 Ry
     ewald contribution        =   -2553.50519518 Ry
     one-center paw contrib.   =   -1281.93879829 Ry

     total magnetization       =    19.60 Bohr mag/cell
     absolute magnetization    =    29.17 Bohr mag/cell

     convergence has been achieved in  66 iterations


     Computing stress (Cartesian axis) and pressure


     negative rho (up, down):  0.000E+00 9.818E-04
          total   stress  (Ry/bohr**3)                   (kbar)     P=      -47.07
  -0.00019305   0.00000000   0.00000000          -28.40        0.00        0.00
   0.00000000  -0.00038346   0.00006212            0.00      -56.41        9.14
   0.00000000   0.00006212  -0.00038346            0.00        9.14      -56.41


     Writing all to output data dir ./tmp/fecr_fe11cr05_h-0.01.save/ :
     XML data file, charge density, pseudopotentials, collected wavefunctions
 
     init_run     :     22.90s CPU     18.27s WALL (       1 calls)
     electrons    :   2856.60s CPU   2444.32s WALL (       1 calls)
     stress       :     28.50s CPU     28.28s WALL (       1 calls)

     Called by init_run:
     wfcinit      :      8.05s CPU      9.17s WALL (       1 calls)
     potinit      :     14.14s CPU      8.27s WALL (       1 calls)
     hinit0       :      0.45s CPU      0.45s WALL (       1 calls)

     Called by electrons:
     c_bands      :   1722.87s CPU   1724.73s WALL (      66 calls)
     sum_band     :    155.12s CPU    154.55s WALL (      66 calls)
     v_of_rho     :      1.42s CPU      1.37s WALL (      67 calls)
     newd         :      5.12s CPU      5.14s WALL (      67 calls)
                                        5.14s GPU  (      67 calls)
     PAW_pot      :    980.91s CPU    561.73s WALL (      67 calls)
     mix_rho      :      2.69s CPU      2.71s WALL (      66 calls)

     Called by c_bands:
     init_us_2    :     10.33s CPU     10.13s WALL (   13936 calls)
     cegterg      :   1619.85s CPU   1621.87s WALL (    6864 calls)

     Called by *egterg:
     cdiaghg      :    429.97s CPU    432.03s WALL (   34047 calls)
                                      431.88s GPU  (   34047 calls)
     h_psi        :    540.01s CPU    541.85s WALL (   34151 calls)
                                      541.40s GPU  (   34151 calls)
     s_psi        :     20.30s CPU     20.46s WALL (   34151 calls)
     g_psi        :      0.14s CPU      2.88s WALL (   27183 calls)
                                        2.77s GPU  (   27183 calls)

     Called by h_psi:
     h_psi:calbec :      1.24s CPU     99.25s WALL (   34151 calls)
                                       99.11s GPU  (   34151 calls)
     vloc_psi     :    305.13s CPU    306.05s WALL (   34151 calls)
                                      305.91s GPU  (   34151 calls)
     add_vuspsi   :     19.68s CPU    133.82s WALL (   34151 calls)
                                      133.68s GPU  (   34151 calls)

     General routines
     calbec       :      1.57s CPU      1.65s WALL (   41119 calls)
     fft          :      1.35s CPU      1.62s WALL (    1694 calls)
                                        0.30s GPU  (    1560 calls)
     ffts         :      0.20s CPU      0.21s WALL (     266 calls)
                                        0.01s GPU  (     132 calls)
     fftw         :      6.89s CPU    307.77s WALL (  406962 calls)
                                      306.46s GPU  (  406962 calls)
     interpolate  :      1.67s CPU      1.65s WALL (     134 calls)
 
     Parallel routines
 
     PWSCF        :  48m29.86s CPU  41m32.79s WALL

 
   This run was terminated on:   9:22:51  13May2026            

=------------------------------------------------------------------------------=
   JOB DONE.
=------------------------------------------------------------------------------=
Warning: ieee_invalid is signaling
Warning: ieee_divide_by_zero is signaling
Warning: ieee_inexact is signaling
FORTRAN STOP
