--------------------------------------------------------------------------
WARNING: Open MPI tried to bind a process but failed.  This is a
warning only; your job will continue, though performance may
be degraded.

  Local host:        4b82db919bf5
  Application name:  /root/q-e-qe-7.3.1/bin/pw.x
  Error message:     failed to bind memory
  Location:          ../../../../../orte/mca/rtc/hwloc/rtc_hwloc.c:447

--------------------------------------------------------------------------

     Program PWSCF v.7.3.1 starts on 20May2026 at 16:55:14 

     This program is part of the open-source Quantum ESPRESSO suite
     for quantum simulation of materials; please cite
         "P. Giannozzi et al., J. Phys.:Condens. Matter 21 395502 (2009);
         "P. Giannozzi et al., J. Phys.:Condens. Matter 29 465901 (2017);
         "P. Giannozzi et al., J. Chem. Phys. 152 154105 (2020);
          URL http://www.quantum-espresso.org", 
     in publications or presentations arising from this work. More details at
     http://www.quantum-espresso.org/quote

     Parallel version (MPI & OpenMP), running on       8 processor cores
     Number of MPI processes:                 1
     Threads/MPI process:                     8

     MPI processes distributed on     1 nodes
     174445 MiB available memory on the printing compute node when the environment starts
 
     Reading input from inputs/fecr_fe06cr10_s0.01.in

     Current dimensions of program PWSCF are:
     Max number of different atomic species (ntypx) = 10
     Max number of k-points (npk) =  40000
     Max angular momentum in pseudopotentials (lmaxx) =  4
     file Fe.pbe-spn-kjpaw_psl.1.0.0.UPF: wavefunction(s)  3P 3D renormalized
     file Cr.pbe-spn-kjpaw_psl.1.0.0.UPF: wavefunction(s)  3S 3P 3D renormalized
     Found identity + (  0.5000 -0.5000  0.5000) symmetry
     This is a supercell, fractional translations are disabled
     Message from routine setup:
     using ibrav=0 with symmetry is DISCOURAGED, use correct ibrav instead
 
     Subspace diagonalization in iterative solution of the eigenvalue problem:
     a serial algorithm will be used

 
     G-vector sticks info
     --------------------
     sticks:   dense  smooth     PW     G-vecs:    dense   smooth      PW
     Sum        4311    2169    601               213253    75389   11355
 
     Using Slab Decomposition
 


     bravais-lattice index     =            0
     lattice parameter (alat)  =      10.6299  a.u.
     unit-cell volume          =    1200.8151 (a.u.)^3
     number of atoms/cell      =           16
     number of atomic types    =            2
     number of electrons       =       236.00
     number of Kohn-Sham states=          142
     kinetic-energy cutoff     =      60.0000  Ry
     charge density cutoff     =     480.0000  Ry
     scf convergence threshold =      1.0E-07
     mixing beta               =       0.3000
     number of iterations used =            8  plain     mixing
     Exchange-correlation= SLA  PW   PBX  PBC
                           (   1   4   3   4   0   0   0)

     GPU acceleration is ACTIVE.  1 visible GPUs per MPI rank


     celldm(1)=  10.629877  celldm(2)=   0.000000  celldm(3)=   0.000000
     celldm(4)=   0.000000  celldm(5)=   0.000000  celldm(6)=   0.000000

     crystal axes: (cart. coord. in units of alat)
               a(1) = (   0.999950   0.009999   0.000000 )  
               a(2) = (   0.009999   0.999950   0.000000 )  
               a(3) = (   0.000000   0.000000   0.999950 )  

     reciprocal axes: (cart. coord. in units 2 pi/alat)
               b(1) = (  1.000150 -0.010001  0.000000 )  
               b(2) = ( -0.010001  1.000150  0.000000 )  
               b(3) = (  0.000000  0.000000  1.000050 )  


     PseudoPot. # 1 for Fe read from file:
     ./pseudo/Fe.pbe-spn-kjpaw_psl.1.0.0.UPF
     MD5 check sum: fc81f059e5c5069939230b1155715ae8
     Pseudo is Projector augmented-wave + core cor, Zval = 16.0
     Generated using &quot;atomic&quot; code by A. Dal Corso  v.6.3
     Shape of augmentation charge: PSQ
     Using radial grid of 1191 points,  6 beta functions with: 
                l(1) =   0
                l(2) =   0
                l(3) =   1
                l(4) =   1
                l(5) =   2
                l(6) =   2
     Q(r) pseudized with 0 coefficients 


     PseudoPot. # 2 for Cr read from file:
     ./pseudo/Cr.pbe-spn-kjpaw_psl.1.0.0.UPF
     MD5 check sum: 198f1a2427a48552563eee314eba32ba
     Pseudo is Projector augmented-wave + core cor, Zval = 14.0
     Generated using &quot;atomic&quot; code by A. Dal Corso  v.6.3
     Shape of augmentation charge: PSQ
     Using radial grid of 1183 points,  6 beta functions with: 
                l(1) =   0
                l(2) =   0
                l(3) =   1
                l(4) =   1
                l(5) =   2
                l(6) =   2
     Q(r) pseudized with 0 coefficients 


     atomic species   valence    mass     pseudopotential
     Fe               16.00    55.84500     Fe( 1.00)
     Cr               14.00    51.99600     Cr( 1.00)

     Starting magnetic structure 
     atomic species   magnetization
     Fe              0.500
     Cr              0.300

      2 Sym. Ops., with inversion, found



   Cartesian axes

     site n.     atom                  positions (alat units)
         1        Cr     tau(   1) = (   0.0000000   0.0000000   0.0000000  )
         2        Fe     tau(   2) = (   0.2524874   0.2524874   0.2499875  )
         3        Fe     tau(   3) = (   0.0000000   0.0000000   0.4999750  )
         4        Cr     tau(   4) = (   0.2524874   0.2524874   0.7499625  )
         5        Cr     tau(   5) = (   0.0049997   0.4999750   0.0000000  )
         6        Fe     tau(   6) = (   0.2574871   0.7524624   0.2499875  )
         7        Cr     tau(   7) = (   0.0049997   0.4999750   0.4999750  )
         8        Cr     tau(   8) = (   0.2574871   0.7524624   0.7499625  )
         9        Cr     tau(   9) = (   0.4999750   0.0049997   0.0000000  )
        10        Cr     tau(  10) = (   0.7524624   0.2574871   0.2499875  )
        11        Cr     tau(  11) = (   0.4999750   0.0049997   0.4999750  )
        12        Fe     tau(  12) = (   0.7524624   0.2574871   0.7499625  )
        13        Fe     tau(  13) = (   0.5049747   0.5049747   0.0000000  )
        14        Cr     tau(  14) = (   0.7574621   0.7574621   0.2499875  )
        15        Cr     tau(  15) = (   0.5049747   0.5049747   0.4999750  )
        16        Fe     tau(  16) = (   0.7574621   0.7574621   0.7499625  )

     number of k points=   112  Marzari-Vanderbilt smearing, width (Ry)=  0.0200

     Number of k-points >= 100: set verbosity='high' to print them.

     Dense  grid:   213253 G-vectors     FFT dimensions: (  75,  75,  75)

     Smooth grid:    75389 G-vectors     FFT dimensions: (  54,  54,  54)

     Estimated max dynamical RAM per process >       5.37 GB

     Check: negative core charge=   -0.000003
     Generating pointlists ...
     new r_m :   0.1774 (alat units)  1.8860 (a.u.) for type    1
     new r_m :   0.1774 (alat units)  1.8860 (a.u.) for type    2

     Initial potential from superposition of free atoms

     starting charge     235.9896, renormalised to     236.0000
     Starting wfcs are  160 randomized atomic wfcs
     Checking if some PAW data can be deallocated... 

     total cpu time spent up to now is       31.3 secs

     Self-consistent Calculation

     iteration #  1     ecut=    60.00 Ry     beta= 0.30
     Davidson diagonalization with overlap
     ethr =  1.00E-02,  avg # of iterations =  5.9

     negative rho (up, down):  6.110E-01 4.511E+00

     total cpu time spent up to now is       93.1 secs

     total energy              =   -4427.37578650 Ry
     estimated scf accuracy    <     648.97493391 Ry

     total magnetization       =    45.24 Bohr mag/cell
     absolute magnetization    =    94.54 Bohr mag/cell

     iteration #  2     ecut=    60.00 Ry     beta= 0.30
     Davidson diagonalization with overlap
     ethr =  1.00E-02,  avg # of iterations =  5.9

     negative rho (up, down):  4.515E-01 3.313E+00

     total cpu time spent up to now is      153.0 secs

     total energy              =   -4440.63395701 Ry
     estimated scf accuracy    <     120.80464154 Ry

     total magnetization       =    23.11 Bohr mag/cell
     absolute magnetization    =    23.92 Bohr mag/cell

     iteration #  3     ecut=    60.00 Ry     beta= 0.30
     Davidson diagonalization with overlap
     ethr =  1.00E-02,  avg # of iterations =  5.2

     negative rho (up, down):  3.960E-01 2.948E+00

     total cpu time spent up to now is      219.4 secs

     total energy              =   -4441.98981366 Ry
     estimated scf accuracy    <     214.44418768 Ry

     total magnetization       =    18.69 Bohr mag/cell
     absolute magnetization    =    19.23 Bohr mag/cell

     iteration #  4     ecut=    60.00 Ry     beta= 0.30
     Davidson diagonalization with overlap
     ethr =  1.00E-02,  avg # of iterations =  4.8

     negative rho (up, down):  3.456E-01 2.609E+00

     total cpu time spent up to now is      277.6 secs

     total energy              =   -4454.06677384 Ry
     estimated scf accuracy    <      41.57488072 Ry

     total magnetization       =    27.55 Bohr mag/cell
     absolute magnetization    =    28.26 Bohr mag/cell

     iteration #  5     ecut=    60.00 Ry     beta= 0.30
     Davidson diagonalization with overlap
     ethr =  1.00E-02,  avg # of iterations =  1.0

     negative rho (up, down):  2.479E-01 1.961E+00

     total cpu time spent up to now is      317.9 secs

     total energy              =   -4454.80986463 Ry
     estimated scf accuracy    <      34.35114116 Ry

     total magnetization       =    24.83 Bohr mag/cell
     absolute magnetization    =    25.55 Bohr mag/cell

     iteration #  6     ecut=    60.00 Ry     beta= 0.30
     Davidson diagonalization with overlap
     ethr =  1.00E-02,  avg # of iterations =  1.0

     negative rho (up, down):  1.347E-01 1.202E+00

     total cpu time spent up to now is      359.1 secs

     total energy              =   -4455.23723020 Ry
     estimated scf accuracy    <      24.47393137 Ry

     total magnetization       =    26.49 Bohr mag/cell
     absolute magnetization    =    26.92 Bohr mag/cell

     iteration #  7     ecut=    60.00 Ry     beta= 0.30
     Davidson diagonalization with overlap
     ethr =  1.00E-02,  avg # of iterations =  1.0

     negative rho (up, down):  3.821E-02 5.036E-01

     total cpu time spent up to now is      399.8 secs

     total energy              =   -4456.79153511 Ry
     estimated scf accuracy    <      12.86883973 Ry

     total magnetization       =    24.62 Bohr mag/cell
     absolute magnetization    =    25.07 Bohr mag/cell

     iteration #  8     ecut=    60.00 Ry     beta= 0.30
     Davidson diagonalization with overlap
     ethr =  5.45E-03,  avg # of iterations =  1.0

     negative rho (up, down):  2.317E-02 3.697E-01

     total cpu time spent up to now is      440.9 secs

     total energy              =   -4457.06561202 Ry
     estimated scf accuracy    <       5.56973803 Ry

     total magnetization       =    20.86 Bohr mag/cell
     absolute magnetization    =    21.72 Bohr mag/cell

     iteration #  9     ecut=    60.00 Ry     beta= 0.30
     Davidson diagonalization with overlap
     ethr =  2.36E-03,  avg # of iterations =  1.0

     negative rho (up, down):  0.000E+00 1.636E-03

     total cpu time spent up to now is      482.2 secs

     total energy              =   -4457.35166751 Ry
     estimated scf accuracy    <       3.76345628 Ry

     total magnetization       =    20.12 Bohr mag/cell
     absolute magnetization    =    21.07 Bohr mag/cell

     iteration # 10     ecut=    60.00 Ry     beta= 0.30
     Davidson diagonalization with overlap
     ethr =  1.59E-03,  avg # of iterations =  1.0

     negative rho (up, down):  0.000E+00 1.295E-03

     total cpu time spent up to now is      523.4 secs

     total energy              =   -4457.43685832 Ry
     estimated scf accuracy    <       1.29195053 Ry

     total magnetization       =    16.38 Bohr mag/cell
     absolute magnetization    =    18.23 Bohr mag/cell

     iteration # 11     ecut=    60.00 Ry     beta= 0.30
     Davidson diagonalization with overlap
     ethr =  5.47E-04,  avg # of iterations =  1.8

     negative rho (up, down):  0.000E+00 9.628E-04

     total cpu time spent up to now is      567.2 secs

     total energy              =   -4457.46764802 Ry
     estimated scf accuracy    <       0.43259387 Ry

     total magnetization       =    15.45 Bohr mag/cell
     absolute magnetization    =    17.46 Bohr mag/cell

     iteration # 12     ecut=    60.00 Ry     beta= 0.30
     Davidson diagonalization with overlap
     c_bands:  1 eigenvalues not converged
     c_bands:  1 eigenvalues not converged
     ethr =  1.83E-04,  avg # of iterations =  7.8

     negative rho (up, down):  0.000E+00 7.829E-04

     total cpu time spent up to now is      631.9 secs

     total energy              =   -4457.51499808 Ry
     estimated scf accuracy    <       0.55818468 Ry

     total magnetization       =    14.32 Bohr mag/cell
     absolute magnetization    =    16.29 Bohr mag/cell

     iteration # 13     ecut=    60.00 Ry     beta= 0.30
     Davidson diagonalization with overlap
     ethr =  1.83E-04,  avg # of iterations =  1.2

     negative rho (up, down):  0.000E+00 4.690E-04

     total cpu time spent up to now is      674.1 secs

     total energy              =   -4457.55859207 Ry
     estimated scf accuracy    <       0.10827337 Ry

     total magnetization       =    14.16 Bohr mag/cell
     absolute magnetization    =    16.06 Bohr mag/cell

     iteration # 14     ecut=    60.00 Ry     beta= 0.30
     Davidson diagonalization with overlap
     c_bands:  3 eigenvalues not converged
     c_bands:  1 eigenvalues not converged
     c_bands:  2 eigenvalues not converged
     c_bands:  1 eigenvalues not converged
     c_bands:  1 eigenvalues not converged
     c_bands:  1 eigenvalues not converged
     ethr =  4.59E-05,  avg # of iterations =  7.9

     negative rho (up, down):  0.000E+00 3.217E-04

     total cpu time spent up to now is      739.1 secs

     total energy              =   -4457.56454208 Ry
     estimated scf accuracy    <       0.26956460 Ry

     total magnetization       =    13.62 Bohr mag/cell
     absolute magnetization    =    15.56 Bohr mag/cell

     iteration # 15     ecut=    60.00 Ry     beta= 0.30
     Davidson diagonalization with overlap
     ethr =  4.59E-05,  avg # of iterations =  2.0

     negative rho (up, down):  0.000E+00 7.929E-05

     total cpu time spent up to now is      783.8 secs

     total energy              =   -4457.59093216 Ry
     estimated scf accuracy    <       0.06764856 Ry

     total magnetization       =    13.29 Bohr mag/cell
     absolute magnetization    =    15.20 Bohr mag/cell

     iteration # 16     ecut=    60.00 Ry     beta= 0.30
     Davidson diagonalization with overlap
     c_bands:  1 eigenvalues not converged
     c_bands:  1 eigenvalues not converged
     c_bands:  1 eigenvalues not converged
     c_bands:  2 eigenvalues not converged
     c_bands:  3 eigenvalues not converged
     ethr =  2.87E-05,  avg # of iterations =  6.3

     total cpu time spent up to now is      843.5 secs

     total energy              =   -4457.59952206 Ry
     estimated scf accuracy    <       0.23963495 Ry

     total magnetization       =    12.55 Bohr mag/cell
     absolute magnetization    =    14.47 Bohr mag/cell

     iteration # 17     ecut=    60.00 Ry     beta= 0.30
     Davidson diagonalization with overlap
     ethr =  2.87E-05,  avg # of iterations =  4.6

     total cpu time spent up to now is      896.4 secs

     total energy              =   -4457.59864279 Ry
     estimated scf accuracy    <       0.15883340 Ry

     total magnetization       =    11.53 Bohr mag/cell
     absolute magnetization    =    13.47 Bohr mag/cell

     iteration # 18     ecut=    60.00 Ry     beta= 0.30
     Davidson diagonalization with overlap
     c_bands:  1 eigenvalues not converged
     c_bands:  2 eigenvalues not converged
     ethr =  2.87E-05,  avg # of iterations =  5.6

     total cpu time spent up to now is      953.3 secs

     total energy              =   -4457.60692133 Ry
     estimated scf accuracy    <       0.25027973 Ry

     total magnetization       =    12.09 Bohr mag/cell
     absolute magnetization    =    13.95 Bohr mag/cell

     iteration # 19     ecut=    60.00 Ry     beta= 0.30
     Davidson diagonalization with overlap
     ethr =  2.87E-05,  avg # of iterations =  2.0

     total cpu time spent up to now is      998.6 secs

     total energy              =   -4457.62020519 Ry
     estimated scf accuracy    <       0.01529848 Ry

     total magnetization       =    10.99 Bohr mag/cell
     absolute magnetization    =    13.02 Bohr mag/cell

     iteration # 20     ecut=    60.00 Ry     beta= 0.30
     Davidson diagonalization with overlap
     c_bands:  2 eigenvalues not converged
     c_bands:  1 eigenvalues not converged
     c_bands:  1 eigenvalues not converged
     c_bands:  1 eigenvalues not converged
     c_bands:  1 eigenvalues not converged
     c_bands:  3 eigenvalues not converged
     c_bands:  1 eigenvalues not converged
     c_bands:  3 eigenvalues not converged
     c_bands:  1 eigenvalues not converged
     c_bands:  1 eigenvalues not converged
     c_bands:  2 eigenvalues not converged
     c_bands:  1 eigenvalues not converged
     c_bands:  3 eigenvalues not converged
     c_bands:  2 eigenvalues not converged
     c_bands:  1 eigenvalues not converged
     c_bands:  1 eigenvalues not converged
     c_bands:  1 eigenvalues not converged
     ethr =  6.48E-06,  avg # of iterations =  9.2

     total cpu time spent up to now is     1066.0 secs

     total energy              =   -4457.62122940 Ry
     estimated scf accuracy    <       0.00800423 Ry

     total magnetization       =    10.94 Bohr mag/cell
     absolute magnetization    =    12.90 Bohr mag/cell

     iteration # 21     ecut=    60.00 Ry     beta= 0.30
     Davidson diagonalization with overlap
     c_bands:  2 eigenvalues not converged
     c_bands:  1 eigenvalues not converged
     c_bands:  1 eigenvalues not converged
     c_bands:  1 eigenvalues not converged
     c_bands:  1 eigenvalues not converged
     c_bands:  1 eigenvalues not converged
     ethr =  3.39E-06,  avg # of iterations =  8.7

     total cpu time spent up to now is     1135.0 secs

     total energy              =   -4457.62115123 Ry
     estimated scf accuracy    <       0.01578680 Ry

     total magnetization       =    10.69 Bohr mag/cell
     absolute magnetization    =    12.58 Bohr mag/cell

     iteration # 22     ecut=    60.00 Ry     beta= 0.30
     Davidson diagonalization with overlap
     ethr =  3.39E-06,  avg # of iterations =  6.9

     total cpu time spent up to now is     1196.5 secs

     total energy              =   -4457.62113467 Ry
     estimated scf accuracy    <       0.03909658 Ry

     total magnetization       =    10.81 Bohr mag/cell
     absolute magnetization    =    12.67 Bohr mag/cell

     iteration # 23     ecut=    60.00 Ry     beta= 0.30
     Davidson diagonalization with overlap
     ethr =  3.39E-06,  avg # of iterations =  3.3

     total cpu time spent up to now is     1244.9 secs

     total energy              =   -4457.62285659 Ry
     estimated scf accuracy    <       0.00123306 Ry

     total magnetization       =    10.67 Bohr mag/cell
     absolute magnetization    =    12.54 Bohr mag/cell

     iteration # 24     ecut=    60.00 Ry     beta= 0.30
     Davidson diagonalization with overlap
     c_bands:  1 eigenvalues not converged
     ethr =  5.22E-07,  avg # of iterations =  7.4

     total cpu time spent up to now is     1309.5 secs

     total energy              =   -4457.62316994 Ry
     estimated scf accuracy    <       0.00328468 Ry

     total magnetization       =    10.66 Bohr mag/cell
     absolute magnetization    =    12.46 Bohr mag/cell

     iteration # 25     ecut=    60.00 Ry     beta= 0.30
     Davidson diagonalization with overlap
     ethr =  5.22E-07,  avg # of iterations =  3.7

     total cpu time spent up to now is     1361.7 secs

     total energy              =   -4457.62347704 Ry
     estimated scf accuracy    <       0.00184612 Ry

     total magnetization       =    10.54 Bohr mag/cell
     absolute magnetization    =    12.27 Bohr mag/cell

     iteration # 26     ecut=    60.00 Ry     beta= 0.30
     Davidson diagonalization with overlap
     ethr =  5.22E-07,  avg # of iterations =  1.6

     total cpu time spent up to now is     1405.4 secs

     total energy              =   -4457.62351689 Ry
     estimated scf accuracy    <       0.00123780 Ry

     total magnetization       =    10.51 Bohr mag/cell
     absolute magnetization    =    12.22 Bohr mag/cell

     iteration # 27     ecut=    60.00 Ry     beta= 0.30
     Davidson diagonalization with overlap
     ethr =  5.22E-07,  avg # of iterations =  1.9

     total cpu time spent up to now is     1450.1 secs

     total energy              =   -4457.62355051 Ry
     estimated scf accuracy    <       0.00065569 Ry

     total magnetization       =    10.50 Bohr mag/cell
     absolute magnetization    =    12.18 Bohr mag/cell

     iteration # 28     ecut=    60.00 Ry     beta= 0.30
     Davidson diagonalization with overlap
     ethr =  2.78E-07,  avg # of iterations =  1.7

     total cpu time spent up to now is     1494.0 secs

     total energy              =   -4457.62365729 Ry
     estimated scf accuracy    <       0.00039110 Ry

     total magnetization       =    10.52 Bohr mag/cell
     absolute magnetization    =    12.19 Bohr mag/cell

     iteration # 29     ecut=    60.00 Ry     beta= 0.30
     Davidson diagonalization with overlap
     ethr =  1.66E-07,  avg # of iterations =  4.8

     total cpu time spent up to now is     1548.4 secs

     total energy              =   -4457.62371278 Ry
     estimated scf accuracy    <       0.00027138 Ry

     total magnetization       =    10.51 Bohr mag/cell
     absolute magnetization    =    12.12 Bohr mag/cell

     iteration # 30     ecut=    60.00 Ry     beta= 0.30
     Davidson diagonalization with overlap
     ethr =  1.15E-07,  avg # of iterations =  3.0

     total cpu time spent up to now is     1596.5 secs

     total energy              =   -4457.62376636 Ry
     estimated scf accuracy    <       0.00016140 Ry

     total magnetization       =    10.51 Bohr mag/cell
     absolute magnetization    =    12.11 Bohr mag/cell

     iteration # 31     ecut=    60.00 Ry     beta= 0.30
     Davidson diagonalization with overlap
     ethr =  6.84E-08,  avg # of iterations =  4.0

     total cpu time spent up to now is     1648.4 secs

     total energy              =   -4457.62376797 Ry
     estimated scf accuracy    <       0.00025607 Ry

     total magnetization       =    10.53 Bohr mag/cell
     absolute magnetization    =    12.08 Bohr mag/cell

     iteration # 32     ecut=    60.00 Ry     beta= 0.30
     Davidson diagonalization with overlap
     ethr =  6.84E-08,  avg # of iterations =  2.6

     total cpu time spent up to now is     1695.1 secs

     total energy              =   -4457.62379934 Ry
     estimated scf accuracy    <       0.00017537 Ry

     total magnetization       =    10.52 Bohr mag/cell
     absolute magnetization    =    12.07 Bohr mag/cell

     iteration # 33     ecut=    60.00 Ry     beta= 0.30
     Davidson diagonalization with overlap
     ethr =  6.84E-08,  avg # of iterations =  2.2

     total cpu time spent up to now is     1740.9 secs

     total energy              =   -4457.62380377 Ry
     estimated scf accuracy    <       0.00021277 Ry

     total magnetization       =    10.54 Bohr mag/cell
     absolute magnetization    =    12.07 Bohr mag/cell

     iteration # 34     ecut=    60.00 Ry     beta= 0.30
     Davidson diagonalization with overlap
     c_bands:  1 eigenvalues not converged
     ethr =  6.84E-08,  avg # of iterations =  5.9

     total cpu time spent up to now is     1800.3 secs

     total energy              =   -4457.62387278 Ry
     estimated scf accuracy    <       0.00007096 Ry

     total magnetization       =    10.55 Bohr mag/cell
     absolute magnetization    =    12.01 Bohr mag/cell

     iteration # 35     ecut=    60.00 Ry     beta= 0.30
     Davidson diagonalization with overlap
     ethr =  3.01E-08,  avg # of iterations =  2.8

     total cpu time spent up to now is     1848.2 secs

     total energy              =   -4457.62387872 Ry
     estimated scf accuracy    <       0.00004469 Ry

     total magnetization       =    10.55 Bohr mag/cell
     absolute magnetization    =    12.01 Bohr mag/cell

     iteration # 36     ecut=    60.00 Ry     beta= 0.30
     Davidson diagonalization with overlap
     ethr =  1.89E-08,  avg # of iterations =  3.6

     total cpu time spent up to now is     1898.6 secs

     total energy              =   -4457.62388549 Ry
     estimated scf accuracy    <       0.00009631 Ry

     total magnetization       =    10.56 Bohr mag/cell
     absolute magnetization    =    12.01 Bohr mag/cell

     iteration # 37     ecut=    60.00 Ry     beta= 0.30
     Davidson diagonalization with overlap
     ethr =  1.89E-08,  avg # of iterations =  4.0

     total cpu time spent up to now is     1951.9 secs

     total energy              =   -4457.62389222 Ry
     estimated scf accuracy    <       0.00003982 Ry

     total magnetization       =    10.57 Bohr mag/cell
     absolute magnetization    =    12.00 Bohr mag/cell

     iteration # 38     ecut=    60.00 Ry     beta= 0.30
     Davidson diagonalization with overlap
     ethr =  1.69E-08,  avg # of iterations =  2.4

     total cpu time spent up to now is     1998.0 secs

     total energy              =   -4457.62389721 Ry
     estimated scf accuracy    <       0.00006164 Ry

     total magnetization       =    10.57 Bohr mag/cell
     absolute magnetization    =    12.00 Bohr mag/cell

     iteration # 39     ecut=    60.00 Ry     beta= 0.30
     Davidson diagonalization with overlap
     ethr =  1.69E-08,  avg # of iterations =  2.0

     total cpu time spent up to now is     2043.8 secs

     total energy              =   -4457.62390565 Ry
     estimated scf accuracy    <       0.00003371 Ry

     total magnetization       =    10.58 Bohr mag/cell
     absolute magnetization    =    12.00 Bohr mag/cell

     iteration # 40     ecut=    60.00 Ry     beta= 0.30
     Davidson diagonalization with overlap
     ethr =  1.43E-08,  avg # of iterations =  5.3

     total cpu time spent up to now is     2100.0 secs

     total energy              =   -4457.62391847 Ry
     estimated scf accuracy    <       0.00003311 Ry

     total magnetization       =    10.60 Bohr mag/cell
     absolute magnetization    =    12.01 Bohr mag/cell

     iteration # 41     ecut=    60.00 Ry     beta= 0.30
     Davidson diagonalization with overlap
     ethr =  1.40E-08,  avg # of iterations =  2.0

     total cpu time spent up to now is     2145.2 secs

     total energy              =   -4457.62391619 Ry
     estimated scf accuracy    <       0.00001946 Ry

     total magnetization       =    10.61 Bohr mag/cell
     absolute magnetization    =    12.03 Bohr mag/cell

     iteration # 42     ecut=    60.00 Ry     beta= 0.30
     Davidson diagonalization with overlap
     ethr =  8.24E-09,  avg # of iterations =  3.8

     total cpu time spent up to now is     2196.4 secs

     total energy              =   -4457.62391890 Ry
     estimated scf accuracy    <       0.00006591 Ry

     total magnetization       =    10.60 Bohr mag/cell
     absolute magnetization    =    12.01 Bohr mag/cell

     iteration # 43     ecut=    60.00 Ry     beta= 0.30
     Davidson diagonalization with overlap
     ethr =  8.24E-09,  avg # of iterations =  2.5

     total cpu time spent up to now is     2243.9 secs

     total energy              =   -4457.62392250 Ry
     estimated scf accuracy    <       0.00001267 Ry

     total magnetization       =    10.61 Bohr mag/cell
     absolute magnetization    =    12.02 Bohr mag/cell

     iteration # 44     ecut=    60.00 Ry     beta= 0.30
     Davidson diagonalization with overlap
     ethr =  5.37E-09,  avg # of iterations =  3.5

     total cpu time spent up to now is     2294.4 secs

     total energy              =   -4457.62392465 Ry
     estimated scf accuracy    <       0.00002967 Ry

     total magnetization       =    10.61 Bohr mag/cell
     absolute magnetization    =    12.03 Bohr mag/cell

     iteration # 45     ecut=    60.00 Ry     beta= 0.30
     Davidson diagonalization with overlap
     ethr =  5.37E-09,  avg # of iterations =  3.2

     total cpu time spent up to now is     2343.7 secs

     total energy              =   -4457.62392761 Ry
     estimated scf accuracy    <       0.00000763 Ry

     total magnetization       =    10.62 Bohr mag/cell
     absolute magnetization    =    12.03 Bohr mag/cell

     iteration # 46     ecut=    60.00 Ry     beta= 0.30
     Davidson diagonalization with overlap
     ethr =  3.23E-09,  avg # of iterations =  4.1

     total cpu time spent up to now is     2394.4 secs

     total energy              =   -4457.62392808 Ry
     estimated scf accuracy    <       0.00000955 Ry

     total magnetization       =    10.62 Bohr mag/cell
     absolute magnetization    =    12.04 Bohr mag/cell

     iteration # 47     ecut=    60.00 Ry     beta= 0.30
     Davidson diagonalization with overlap
     ethr =  3.23E-09,  avg # of iterations =  1.4

     total cpu time spent up to now is     2437.2 secs

     total energy              =   -4457.62393097 Ry
     estimated scf accuracy    <       0.00000484 Ry

     total magnetization       =    10.62 Bohr mag/cell
     absolute magnetization    =    12.04 Bohr mag/cell

     iteration # 48     ecut=    60.00 Ry     beta= 0.30
     Davidson diagonalization with overlap
     ethr =  2.05E-09,  avg # of iterations =  5.8

     total cpu time spent up to now is     2497.5 secs

     total energy              =   -4457.62393279 Ry
     estimated scf accuracy    <       0.00000719 Ry

     total magnetization       =    10.62 Bohr mag/cell
     absolute magnetization    =    12.05 Bohr mag/cell

     iteration # 49     ecut=    60.00 Ry     beta= 0.30
     Davidson diagonalization with overlap
     ethr =  2.05E-09,  avg # of iterations =  1.0

     total cpu time spent up to now is     2538.8 secs

     total energy              =   -4457.62393180 Ry
     estimated scf accuracy    <       0.00000495 Ry

     total magnetization       =    10.62 Bohr mag/cell
     absolute magnetization    =    12.05 Bohr mag/cell

     iteration # 50     ecut=    60.00 Ry     beta= 0.30
     Davidson diagonalization with overlap
     ethr =  2.05E-09,  avg # of iterations =  1.9

     total cpu time spent up to now is     2583.6 secs

     total energy              =   -4457.62393441 Ry
     estimated scf accuracy    <       0.00000896 Ry

     total magnetization       =    10.62 Bohr mag/cell
     absolute magnetization    =    12.05 Bohr mag/cell

     iteration # 51     ecut=    60.00 Ry     beta= 0.30
     Davidson diagonalization with overlap
     ethr =  2.05E-09,  avg # of iterations =  3.7

     total cpu time spent up to now is     2633.8 secs

     total energy              =   -4457.62393630 Ry
     estimated scf accuracy    <       0.00000544 Ry

     total magnetization       =    10.62 Bohr mag/cell
     absolute magnetization    =    12.05 Bohr mag/cell

     iteration # 52     ecut=    60.00 Ry     beta= 0.30
     Davidson diagonalization with overlap
     ethr =  2.05E-09,  avg # of iterations =  5.6

     total cpu time spent up to now is     2697.3 secs

     total energy              =   -4457.62394073 Ry
     estimated scf accuracy    <       0.00000789 Ry

     total magnetization       =    10.63 Bohr mag/cell
     absolute magnetization    =    12.07 Bohr mag/cell

     iteration # 53     ecut=    60.00 Ry     beta= 0.30
     Davidson diagonalization with overlap
     ethr =  2.05E-09,  avg # of iterations =  1.3

     total cpu time spent up to now is     2739.6 secs

     total energy              =   -4457.62394268 Ry
     estimated scf accuracy    <       0.00000704 Ry

     total magnetization       =    10.63 Bohr mag/cell
     absolute magnetization    =    12.07 Bohr mag/cell

     iteration # 54     ecut=    60.00 Ry     beta= 0.30
     Davidson diagonalization with overlap
     ethr =  2.05E-09,  avg # of iterations =  3.5

     total cpu time spent up to now is     2789.7 secs

     total energy              =   -4457.62394378 Ry
     estimated scf accuracy    <       0.00000832 Ry

     total magnetization       =    10.63 Bohr mag/cell
     absolute magnetization    =    12.08 Bohr mag/cell

     iteration # 55     ecut=    60.00 Ry     beta= 0.30
     Davidson diagonalization with overlap
     ethr =  2.05E-09,  avg # of iterations =  1.6

     total cpu time spent up to now is     2833.2 secs

     total energy              =   -4457.62394448 Ry
     estimated scf accuracy    <       0.00000396 Ry

     total magnetization       =    10.63 Bohr mag/cell
     absolute magnetization    =    12.08 Bohr mag/cell

     iteration # 56     ecut=    60.00 Ry     beta= 0.30
     Davidson diagonalization with overlap
     ethr =  1.68E-09,  avg # of iterations =  3.3

     total cpu time spent up to now is     2882.9 secs

     total energy              =   -4457.62394571 Ry
     estimated scf accuracy    <       0.00001218 Ry

     total magnetization       =    10.63 Bohr mag/cell
     absolute magnetization    =    12.08 Bohr mag/cell

     iteration # 57     ecut=    60.00 Ry     beta= 0.30
     Davidson diagonalization with overlap
     ethr =  1.68E-09,  avg # of iterations =  5.5

     total cpu time spent up to now is     2940.5 secs

     total energy              =   -4457.62394927 Ry
     estimated scf accuracy    <       0.00000399 Ry

     total magnetization       =    10.63 Bohr mag/cell
     absolute magnetization    =    12.09 Bohr mag/cell

     iteration # 58     ecut=    60.00 Ry     beta= 0.30
     Davidson diagonalization with overlap
     ethr =  1.68E-09,  avg # of iterations =  5.1

     total cpu time spent up to now is     2996.3 secs

     total energy              =   -4457.62394556 Ry
     estimated scf accuracy    <       0.00000331 Ry

     total magnetization       =    10.63 Bohr mag/cell
     absolute magnetization    =    12.10 Bohr mag/cell

     iteration # 59     ecut=    60.00 Ry     beta= 0.30
     Davidson diagonalization with overlap
     ethr =  1.40E-09,  avg # of iterations =  5.0

     total cpu time spent up to now is     3052.2 secs

     total energy              =   -4457.62394588 Ry
     estimated scf accuracy    <       0.00000359 Ry

     total magnetization       =    10.63 Bohr mag/cell
     absolute magnetization    =    12.09 Bohr mag/cell

     iteration # 60     ecut=    60.00 Ry     beta= 0.30
     Davidson diagonalization with overlap
     ethr =  1.40E-09,  avg # of iterations =  1.7

     total cpu time spent up to now is     3096.0 secs

     total energy              =   -4457.62394804 Ry
     estimated scf accuracy    <       0.00000454 Ry

     total magnetization       =    10.63 Bohr mag/cell
     absolute magnetization    =    12.08 Bohr mag/cell

     iteration # 61     ecut=    60.00 Ry     beta= 0.30
     Davidson diagonalization with overlap
     ethr =  1.40E-09,  avg # of iterations =  2.8

     total cpu time spent up to now is     3143.6 secs

     total energy              =   -4457.62394948 Ry
     estimated scf accuracy    <       0.00000438 Ry

     total magnetization       =    10.63 Bohr mag/cell
     absolute magnetization    =    12.09 Bohr mag/cell

     iteration # 62     ecut=    60.00 Ry     beta= 0.30
     Davidson diagonalization with overlap
     ethr =  1.40E-09,  avg # of iterations =  4.5

     total cpu time spent up to now is     3194.7 secs

     total energy              =   -4457.62395044 Ry
     estimated scf accuracy    <       0.00000547 Ry

     total magnetization       =    10.63 Bohr mag/cell
     absolute magnetization    =    12.09 Bohr mag/cell

     iteration # 63     ecut=    60.00 Ry     beta= 0.30
     Davidson diagonalization with overlap
     ethr =  1.40E-09,  avg # of iterations =  4.0

     total cpu time spent up to now is     3245.5 secs

     total energy              =   -4457.62395143 Ry
     estimated scf accuracy    <       0.00000815 Ry

     total magnetization       =    10.63 Bohr mag/cell
     absolute magnetization    =    12.09 Bohr mag/cell

     iteration # 64     ecut=    60.00 Ry     beta= 0.30
     Davidson diagonalization with overlap
     ethr =  1.40E-09,  avg # of iterations =  5.6

     total cpu time spent up to now is     3309.4 secs

     total energy              =   -4457.62395593 Ry
     estimated scf accuracy    <       0.00001605 Ry

     total magnetization       =    10.64 Bohr mag/cell
     absolute magnetization    =    12.11 Bohr mag/cell

     iteration # 65     ecut=    60.00 Ry     beta= 0.30
     Davidson diagonalization with overlap
     ethr =  1.40E-09,  avg # of iterations =  5.4

     total cpu time spent up to now is     3367.5 secs

     total energy              =   -4457.62395832 Ry
     estimated scf accuracy    <       0.00001109 Ry

     total magnetization       =    10.64 Bohr mag/cell
     absolute magnetization    =    12.11 Bohr mag/cell

     iteration # 66     ecut=    60.00 Ry     beta= 0.30
     Davidson diagonalization with overlap
     ethr =  1.40E-09,  avg # of iterations =  5.0

     total cpu time spent up to now is     3422.2 secs

     total energy              =   -4457.62395997 Ry
     estimated scf accuracy    <       0.00000779 Ry

     total magnetization       =    10.64 Bohr mag/cell
     absolute magnetization    =    12.12 Bohr mag/cell

     iteration # 67     ecut=    60.00 Ry     beta= 0.30
     Davidson diagonalization with overlap
     ethr =  1.40E-09,  avg # of iterations =  4.9

     total cpu time spent up to now is     3476.0 secs

     total energy              =   -4457.62395550 Ry
     estimated scf accuracy    <       0.00000269 Ry

     total magnetization       =    10.64 Bohr mag/cell
     absolute magnetization    =    12.12 Bohr mag/cell

     iteration # 68     ecut=    60.00 Ry     beta= 0.30
     Davidson diagonalization with overlap
     ethr =  1.14E-09,  avg # of iterations =  5.0

     total cpu time spent up to now is     3532.8 secs

     total energy              =   -4457.62395681 Ry
     estimated scf accuracy    <       0.00000368 Ry

     total magnetization       =    10.64 Bohr mag/cell
     absolute magnetization    =    12.11 Bohr mag/cell

     iteration # 69     ecut=    60.00 Ry     beta= 0.30
     Davidson diagonalization with overlap
     ethr =  1.14E-09,  avg # of iterations =  1.0

     total cpu time spent up to now is     3573.9 secs

     total energy              =   -4457.62395759 Ry
     estimated scf accuracy    <       0.00000388 Ry

     total magnetization       =    10.64 Bohr mag/cell
     absolute magnetization    =    12.11 Bohr mag/cell

     iteration # 70     ecut=    60.00 Ry     beta= 0.30
     Davidson diagonalization with overlap
     ethr =  1.14E-09,  avg # of iterations =  1.8

     total cpu time spent up to now is     3618.0 secs

     total energy              =   -4457.62395882 Ry
     estimated scf accuracy    <       0.00000882 Ry

     total magnetization       =    10.64 Bohr mag/cell
     absolute magnetization    =    12.11 Bohr mag/cell

     iteration # 71     ecut=    60.00 Ry     beta= 0.30
     Davidson diagonalization with overlap
     ethr =  1.14E-09,  avg # of iterations =  5.4

     total cpu time spent up to now is     3676.2 secs

     total energy              =   -4457.62396140 Ry
     estimated scf accuracy    <       0.00000997 Ry

     total magnetization       =    10.64 Bohr mag/cell
     absolute magnetization    =    12.12 Bohr mag/cell

     iteration # 72     ecut=    60.00 Ry     beta= 0.30
     Davidson diagonalization with overlap
     ethr =  1.14E-09,  avg # of iterations =  5.1

     total cpu time spent up to now is     3737.7 secs

     total energy              =   -4457.62396459 Ry
     estimated scf accuracy    <       0.00000993 Ry

     total magnetization       =    10.64 Bohr mag/cell
     absolute magnetization    =    12.13 Bohr mag/cell

     iteration # 73     ecut=    60.00 Ry     beta= 0.30
     Davidson diagonalization with overlap
     ethr =  1.14E-09,  avg # of iterations =  5.1

     total cpu time spent up to now is     3794.6 secs

     total energy              =   -4457.62396695 Ry
     estimated scf accuracy    <       0.00000443 Ry

     total magnetization       =    10.64 Bohr mag/cell
     absolute magnetization    =    12.14 Bohr mag/cell

     iteration # 74     ecut=    60.00 Ry     beta= 0.30
     Davidson diagonalization with overlap
     ethr =  1.14E-09,  avg # of iterations =  5.1

     total cpu time spent up to now is     3853.5 secs

     total energy              =   -4457.62396939 Ry
     estimated scf accuracy    <       0.00000637 Ry

     total magnetization       =    10.64 Bohr mag/cell
     absolute magnetization    =    12.15 Bohr mag/cell

     iteration # 75     ecut=    60.00 Ry     beta= 0.30
     Davidson diagonalization with overlap
     ethr =  1.14E-09,  avg # of iterations =  5.1

     total cpu time spent up to now is     3910.1 secs

     total energy              =   -4457.62396829 Ry
     estimated scf accuracy    <       0.00000438 Ry

     total magnetization       =    10.64 Bohr mag/cell
     absolute magnetization    =    12.16 Bohr mag/cell

     iteration # 76     ecut=    60.00 Ry     beta= 0.30
     Davidson diagonalization with overlap
     ethr =  1.14E-09,  avg # of iterations =  6.9

     total cpu time spent up to now is     3980.0 secs

     total energy              =   -4457.62386760 Ry
     estimated scf accuracy    <       0.00000361 Ry

     total magnetization       =    10.64 Bohr mag/cell
     absolute magnetization    =    12.18 Bohr mag/cell

     iteration # 77     ecut=    60.00 Ry     beta= 0.30
     Davidson diagonalization with overlap
     ethr =  1.14E-09,  avg # of iterations = 11.8

     total cpu time spent up to now is     4076.9 secs

     total energy              =   -4457.62393740 Ry
     estimated scf accuracy    <       0.00001129 Ry

     total magnetization       =    10.65 Bohr mag/cell
     absolute magnetization    =    12.27 Bohr mag/cell

     iteration # 78     ecut=    60.00 Ry     beta= 0.30
     Davidson diagonalization with overlap
     ethr =  1.14E-09,  avg # of iterations = 10.1

     total cpu time spent up to now is     4165.7 secs

     total energy              =   -4457.62396293 Ry
     estimated scf accuracy    <       0.00000421 Ry

     total magnetization       =    10.65 Bohr mag/cell
     absolute magnetization    =    12.21 Bohr mag/cell

     iteration # 79     ecut=    60.00 Ry     beta= 0.30
     Davidson diagonalization with overlap
     ethr =  1.14E-09,  avg # of iterations =  7.7

     total cpu time spent up to now is     4239.1 secs

     total energy              =   -4457.62397438 Ry
     estimated scf accuracy    <       0.00000230 Ry

     total magnetization       =    10.64 Bohr mag/cell
     absolute magnetization    =    12.18 Bohr mag/cell

     iteration # 80     ecut=    60.00 Ry     beta= 0.30
     Davidson diagonalization with overlap
     ethr =  9.73E-10,  avg # of iterations =  6.2

     total cpu time spent up to now is     4305.0 secs

     total energy              =   -4457.62398122 Ry
     estimated scf accuracy    <       0.00000317 Ry

     total magnetization       =    10.65 Bohr mag/cell
     absolute magnetization    =    12.20 Bohr mag/cell

     iteration # 81     ecut=    60.00 Ry     beta= 0.30
     Davidson diagonalization with overlap
     ethr =  9.73E-10,  avg # of iterations =  5.1

     total cpu time spent up to now is     4361.4 secs

     total energy              =   -4457.62397266 Ry
     estimated scf accuracy    <       0.00000267 Ry

     total magnetization       =    10.65 Bohr mag/cell
     absolute magnetization    =    12.21 Bohr mag/cell

     iteration # 82     ecut=    60.00 Ry     beta= 0.30
     Davidson diagonalization with overlap
     ethr =  9.73E-10,  avg # of iterations =  7.8

     total cpu time spent up to now is     4435.8 secs

     total energy              =   -4457.62397773 Ry
     estimated scf accuracy    <       0.00000314 Ry

     total magnetization       =    10.65 Bohr mag/cell
     absolute magnetization    =    12.24 Bohr mag/cell

     iteration # 83     ecut=    60.00 Ry     beta= 0.30
     Davidson diagonalization with overlap
     ethr =  9.73E-10,  avg # of iterations =  6.5

     total cpu time spent up to now is     4503.3 secs

     total energy              =   -4457.62393259 Ry
     estimated scf accuracy    <       0.00000347 Ry

     total magnetization       =    10.65 Bohr mag/cell
     absolute magnetization    =    12.22 Bohr mag/cell

     iteration # 84     ecut=    60.00 Ry     beta= 0.30
     Davidson diagonalization with overlap
     ethr =  9.73E-10,  avg # of iterations = 10.6

     total cpu time spent up to now is     4593.7 secs

     total energy              =   -4457.62395313 Ry
     estimated scf accuracy    <       0.00000255 Ry

     total magnetization       =    10.65 Bohr mag/cell
     absolute magnetization    =    12.29 Bohr mag/cell

     iteration # 85     ecut=    60.00 Ry     beta= 0.30
     Davidson diagonalization with overlap
     ethr =  9.73E-10,  avg # of iterations =  9.2

     total cpu time spent up to now is     4676.0 secs

     total energy              =   -4457.62398230 Ry
     estimated scf accuracy    <       0.00000506 Ry

     total magnetization       =    10.65 Bohr mag/cell
     absolute magnetization    =    12.24 Bohr mag/cell

     iteration # 86     ecut=    60.00 Ry     beta= 0.30
     Davidson diagonalization with overlap
     ethr =  9.73E-10,  avg # of iterations =  5.6

     total cpu time spent up to now is     4740.2 secs

     total energy              =   -4457.62398404 Ry
     estimated scf accuracy    <       0.00000465 Ry

     total magnetization       =    10.65 Bohr mag/cell
     absolute magnetization    =    12.26 Bohr mag/cell

     iteration # 87     ecut=    60.00 Ry     beta= 0.30
     Davidson diagonalization with overlap
     ethr =  9.73E-10,  avg # of iterations =  6.8

     total cpu time spent up to now is     4809.6 secs

     total energy              =   -4457.62398907 Ry
     estimated scf accuracy    <       0.00000156 Ry

     total magnetization       =    10.65 Bohr mag/cell
     absolute magnetization    =    12.28 Bohr mag/cell

     iteration # 88     ecut=    60.00 Ry     beta= 0.30
     Davidson diagonalization with overlap
     ethr =  6.60E-10,  avg # of iterations =  5.0

     total cpu time spent up to now is     4865.1 secs

     total energy              =   -4457.62398756 Ry
     estimated scf accuracy    <       0.00000255 Ry

     total magnetization       =    10.65 Bohr mag/cell
     absolute magnetization    =    12.27 Bohr mag/cell

     iteration # 89     ecut=    60.00 Ry     beta= 0.30
     Davidson diagonalization with overlap
     ethr =  6.60E-10,  avg # of iterations =  5.5

     total cpu time spent up to now is     4928.8 secs

     total energy              =   -4457.62399086 Ry
     estimated scf accuracy    <       0.00000486 Ry

     total magnetization       =    10.65 Bohr mag/cell
     absolute magnetization    =    12.29 Bohr mag/cell

     iteration # 90     ecut=    60.00 Ry     beta= 0.30
     Davidson diagonalization with overlap
     ethr =  6.60E-10,  avg # of iterations =  1.8

     total cpu time spent up to now is     4973.3 secs

     total energy              =   -4457.62399093 Ry
     estimated scf accuracy    <       0.00000163 Ry

     total magnetization       =    10.65 Bohr mag/cell
     absolute magnetization    =    12.29 Bohr mag/cell

     iteration # 91     ecut=    60.00 Ry     beta= 0.30
     Davidson diagonalization with overlap
     ethr =  6.60E-10,  avg # of iterations =  1.5

     total cpu time spent up to now is     5017.4 secs

     total energy              =   -4457.62399051 Ry
     estimated scf accuracy    <       0.00000106 Ry

     total magnetization       =    10.65 Bohr mag/cell
     absolute magnetization    =    12.29 Bohr mag/cell

     iteration # 92     ecut=    60.00 Ry     beta= 0.30
     Davidson diagonalization with overlap
     ethr =  4.50E-10,  avg # of iterations =  5.1

     total cpu time spent up to now is     5072.1 secs

     total energy              =   -4457.62399034 Ry
     estimated scf accuracy    <       0.00000065 Ry

     total magnetization       =    10.65 Bohr mag/cell
     absolute magnetization    =    12.29 Bohr mag/cell

     iteration # 93     ecut=    60.00 Ry     beta= 0.30
     Davidson diagonalization with overlap
     ethr =  2.76E-10,  avg # of iterations =  5.1

     total cpu time spent up to now is     5127.4 secs

     total energy              =   -4457.62399063 Ry
     estimated scf accuracy    <       0.00000081 Ry

     total magnetization       =    10.65 Bohr mag/cell
     absolute magnetization    =    12.28 Bohr mag/cell

     iteration # 94     ecut=    60.00 Ry     beta= 0.30
     Davidson diagonalization with overlap
     ethr =  2.76E-10,  avg # of iterations =  5.0

     total cpu time spent up to now is     5184.0 secs

     total energy              =   -4457.62399107 Ry
     estimated scf accuracy    <       0.00000031 Ry

     total magnetization       =    10.65 Bohr mag/cell
     absolute magnetization    =    12.29 Bohr mag/cell

     iteration # 95     ecut=    60.00 Ry     beta= 0.30
     Davidson diagonalization with overlap
     ethr =  1.32E-10,  avg # of iterations =  5.3

     total cpu time spent up to now is     5241.0 secs

     total energy              =   -4457.62399125 Ry
     estimated scf accuracy    <       0.00000129 Ry

     total magnetization       =    10.65 Bohr mag/cell
     absolute magnetization    =    12.29 Bohr mag/cell

     iteration # 96     ecut=    60.00 Ry     beta= 0.30
     Davidson diagonalization with overlap
     ethr =  1.32E-10,  avg # of iterations =  5.3

     total cpu time spent up to now is     5298.2 secs

     total energy              =   -4457.62399136 Ry
     estimated scf accuracy    <       0.00000128 Ry

     total magnetization       =    10.65 Bohr mag/cell
     absolute magnetization    =    12.29 Bohr mag/cell

     iteration # 97     ecut=    60.00 Ry     beta= 0.30
     Davidson diagonalization with overlap
     ethr =  1.32E-10,  avg # of iterations =  3.3

     total cpu time spent up to now is     5347.9 secs

     total energy              =   -4457.62399147 Ry
     estimated scf accuracy    <       0.00000073 Ry

     total magnetization       =    10.65 Bohr mag/cell
     absolute magnetization    =    12.29 Bohr mag/cell

     iteration # 98     ecut=    60.00 Ry     beta= 0.30
     Davidson diagonalization with overlap
     ethr =  1.32E-10,  avg # of iterations =  4.7

     total cpu time spent up to now is     5404.0 secs

     total energy              =   -4457.62399014 Ry
     estimated scf accuracy    <       0.00000189 Ry

     total magnetization       =    10.65 Bohr mag/cell
     absolute magnetization    =    12.29 Bohr mag/cell

     iteration # 99     ecut=    60.00 Ry     beta= 0.30
     Davidson diagonalization with overlap
     ethr =  1.32E-10,  avg # of iterations =  8.4

     total cpu time spent up to now is     5482.6 secs

     total energy              =   -4457.62399126 Ry
     estimated scf accuracy    <       0.00000040 Ry

     total magnetization       =    10.65 Bohr mag/cell
     absolute magnetization    =    12.31 Bohr mag/cell

     iteration #100     ecut=    60.00 Ry     beta= 0.30
     Davidson diagonalization with overlap
     ethr =  1.32E-10,  avg # of iterations =  6.6

     total cpu time spent up to now is     5549.9 secs

     total energy              =   -4457.62399193 Ry
     estimated scf accuracy    <       0.00000173 Ry

     total magnetization       =    10.65 Bohr mag/cell
     absolute magnetization    =    12.30 Bohr mag/cell

     iteration #101     ecut=    60.00 Ry     beta= 0.30
     Davidson diagonalization with overlap
     ethr =  1.32E-10,  avg # of iterations =  5.7

     total cpu time spent up to now is     5614.3 secs

     total energy              =   -4457.62399197 Ry
     estimated scf accuracy    <       0.00000225 Ry

     total magnetization       =    10.65 Bohr mag/cell
     absolute magnetization    =    12.31 Bohr mag/cell

     iteration #102     ecut=    60.00 Ry     beta= 0.30
     Davidson diagonalization with overlap
     ethr =  1.32E-10,  avg # of iterations =  7.0

     total cpu time spent up to now is     5685.9 secs

     total energy              =   -4457.62399277 Ry
     estimated scf accuracy    <       0.00000130 Ry

     total magnetization       =    10.65 Bohr mag/cell
     absolute magnetization    =    12.31 Bohr mag/cell

     iteration #103     ecut=    60.00 Ry     beta= 0.30
     Davidson diagonalization with overlap
     ethr =  1.32E-10,  avg # of iterations =  4.4

     total cpu time spent up to now is     5739.3 secs

     total energy              =   -4457.62399260 Ry
     estimated scf accuracy    <       0.00000097 Ry

     total magnetization       =    10.65 Bohr mag/cell
     absolute magnetization    =    12.32 Bohr mag/cell

     iteration #104     ecut=    60.00 Ry     beta= 0.30
     Davidson diagonalization with overlap
     ethr =  1.32E-10,  avg # of iterations =  3.7

     total cpu time spent up to now is     5789.6 secs

     total energy              =   -4457.62399277 Ry
     estimated scf accuracy    <       0.00000026 Ry

     total magnetization       =    10.65 Bohr mag/cell
     absolute magnetization    =    12.31 Bohr mag/cell

     iteration #105     ecut=    60.00 Ry     beta= 0.30
     Davidson diagonalization with overlap
     ethr =  1.10E-10,  avg # of iterations =  3.5

     total cpu time spent up to now is     5839.1 secs

     total energy              =   -4457.62399280 Ry
     estimated scf accuracy    <       0.00000032 Ry

     total magnetization       =    10.65 Bohr mag/cell
     absolute magnetization    =    12.32 Bohr mag/cell

     iteration #106     ecut=    60.00 Ry     beta= 0.30
     Davidson diagonalization with overlap
     ethr =  1.10E-10,  avg # of iterations =  5.2

     total cpu time spent up to now is     5896.4 secs

     total energy              =   -4457.62399266 Ry
     estimated scf accuracy    <       0.00000015 Ry

     total magnetization       =    10.65 Bohr mag/cell
     absolute magnetization    =    12.32 Bohr mag/cell

     iteration #107     ecut=    60.00 Ry     beta= 0.30
     Davidson diagonalization with overlap
     ethr =  6.26E-11,  avg # of iterations =  5.2

     total cpu time spent up to now is     5956.5 secs

     total energy              =   -4457.62399277 Ry
     estimated scf accuracy    <       0.00000075 Ry

     total magnetization       =    10.65 Bohr mag/cell
     absolute magnetization    =    12.32 Bohr mag/cell

     iteration #108     ecut=    60.00 Ry     beta= 0.30
     Davidson diagonalization with overlap
     ethr =  6.26E-11,  avg # of iterations =  5.5

     total cpu time spent up to now is     6019.1 secs

     total energy              =   -4457.62399300 Ry
     estimated scf accuracy    <       0.00000034 Ry

     total magnetization       =    10.65 Bohr mag/cell
     absolute magnetization    =    12.32 Bohr mag/cell

     iteration #109     ecut=    60.00 Ry     beta= 0.30
     Davidson diagonalization with overlap
     ethr =  6.26E-11,  avg # of iterations =  2.1
 
     Magnetic moment per site  (integrated on atomic sphere of radius R)
     atom   1 (R=0.177)  charge= 12.1062  magn=  0.1637
     atom   2 (R=0.177)  charge= 14.4043  magn=  1.6000
     atom   3 (R=0.177)  charge= 14.3816  magn=  1.7906
     atom   4 (R=0.177)  charge= 12.1250  magn= -0.0730
     atom   5 (R=0.177)  charge= 12.1063  magn=  0.1630
     atom   6 (R=0.177)  charge= 14.4023  magn=  1.6645
     atom   7 (R=0.177)  charge= 12.1074  magn=  0.2193
     atom   8 (R=0.177)  charge= 12.1224  magn= -0.0937
     atom   9 (R=0.177)  charge= 12.1073  magn=  0.2193
     atom  10 (R=0.177)  charge= 12.1224  magn= -0.0937
     atom  11 (R=0.177)  charge= 12.1061  magn=  0.1630
     atom  12 (R=0.177)  charge= 14.4023  magn=  1.6645
     atom  13 (R=0.177)  charge= 14.3814  magn=  1.7906
     atom  14 (R=0.177)  charge= 12.1250  magn= -0.0730
     atom  15 (R=0.177)  charge= 12.1057  magn=  0.1635
     atom  16 (R=0.177)  charge= 14.4043  magn=  1.6000

     total cpu time spent up to now is     6063.5 secs

     End of self-consistent calculation

     Number of k-points >= 100: set verbosity='high' to print the bands.

     the Fermi energy is    19.9303 ev

!    total energy              =   -4457.62399300 Ry
     total all-electron energy =    -36290.729977 Ry
     estimated scf accuracy    <       0.00000008 Ry
     smearing contrib. (-TS)   =      -0.00270052 Ry
     internal energy E=F+TS    =   -4457.62129248 Ry

     The total energy is F=E-TS. E is the sum of the following terms:
     one-electron contribution =   -1187.41723656 Ry
     hartree contribution      =     746.33514112 Ry
     xc contribution           =    -389.40740563 Ry
     ewald contribution        =   -2387.88717190 Ry
     one-center paw contrib.   =   -1239.24461951 Ry

     total magnetization       =    10.65 Bohr mag/cell
     absolute magnetization    =    12.32 Bohr mag/cell

     convergence has been achieved in 109 iterations


     Computing stress (Cartesian axis) and pressure

          total   stress  (Ry/bohr**3)                   (kbar)     P=       44.98
   0.00022782  -0.00017299   0.00016958           33.51      -25.45       24.95
  -0.00017299   0.00045906   0.00000001          -25.45       67.53        0.00
   0.00016958   0.00000001   0.00023051           24.95        0.00       33.91


     Writing all to output data dir ./tmp/fecr_fe06cr10_s0.01.save/ :
     XML data file, charge density, pseudopotentials, collected wavefunctions
 
     init_run     :     39.55s CPU     30.87s WALL (       1 calls)
     electrons    :   7362.40s CPU   6032.21s WALL (       1 calls)
     stress       :     32.82s CPU     32.28s WALL (       1 calls)

     Called by init_run:
     wfcinit      :     10.19s CPU     12.44s WALL (       1 calls)
     potinit      :     28.47s CPU     17.43s WALL (       1 calls)
     hinit0       :      0.57s CPU      0.56s WALL (       1 calls)

     Called by electrons:
     c_bands      :   3742.98s CPU   3754.36s WALL (     109 calls)
     sum_band     :    340.79s CPU    340.99s WALL (     109 calls)
     v_of_rho     :      6.04s CPU      5.06s WALL (     110 calls)
     newd         :      4.27s CPU      4.31s WALL (     110 calls)
                                        4.31s GPU  (     110 calls)
     PAW_pot      :   3290.21s CPU   1938.35s WALL (     110 calls)
     mix_rho      :      3.63s CPU      3.68s WALL (     109 calls)

     Called by c_bands:
     init_us_2    :     29.08s CPU     27.51s WALL (   49280 calls)
     cegterg      :   3384.29s CPU   3395.78s WALL (   24416 calls)

     Called by *egterg:
     cdiaghg      :   1181.21s CPU   1190.51s WALL (  133086 calls)
                                     1189.96s GPU  (  133086 calls)
     h_psi        :   1025.18s CPU   1031.05s WALL (  133310 calls)
                                     1030.03s GPU  (  133310 calls)
     s_psi        :     67.32s CPU     68.36s WALL (  133310 calls)
     g_psi        :      0.60s CPU      5.64s WALL (  108670 calls)
                                        5.32s GPU  (  108670 calls)

     Called by h_psi:
     h_psi:calbec :      4.84s CPU    215.35s WALL (  133310 calls)
                                      214.87s GPU  (  133310 calls)
     vloc_psi     :    540.83s CPU    540.17s WALL (  133310 calls)
                                      539.73s GPU  (  133310 calls)
     add_vuspsi   :     65.87s CPU    268.35s WALL (  133310 calls)
                                      267.86s GPU  (  133310 calls)

     General routines
     calbec       :      5.90s CPU      6.14s WALL (  157950 calls)
     fft          :      1.27s CPU      1.54s WALL (    2769 calls)
                                        0.34s GPU  (    2549 calls)
     ffts         :      0.42s CPU      0.42s WALL (     438 calls)
                                        0.01s GPU  (     218 calls)
     fftw         :     30.13s CPU    507.46s WALL ( 1407078 calls)
                                      504.19s GPU  ( 1407078 calls)
     interpolate  :      1.77s CPU      1.78s WALL (     220 calls)
 
     Parallel routines
 
     PWSCF        :      2h 4m CPU      1h41m WALL

 
   This run was terminated on:  18:37: 0  20May2026            

=------------------------------------------------------------------------------=
   JOB DONE.
=------------------------------------------------------------------------------=
Warning: ieee_divide_by_zero is signaling
Warning: ieee_inexact is signaling
FORTRAN STOP
