nohup: ignoring input
--------------------------------------------------------------------------
WARNING: Open MPI tried to bind a process but failed.  This is a
warning only; your job will continue, though performance may
be degraded.

  Local host:        4b82db919bf5
  Application name:  /root/q-e-qe-7.3.1/bin/pw.x
  Error message:     failed to bind memory
  Location:          ../../../../../orte/mca/rtc/hwloc/rtc_hwloc.c:447

--------------------------------------------------------------------------

     Program PWSCF v.7.3.1 starts on 25May2026 at  4:47:37 

     This program is part of the open-source Quantum ESPRESSO suite
     for quantum simulation of materials; please cite
         "P. Giannozzi et al., J. Phys.:Condens. Matter 21 395502 (2009);
         "P. Giannozzi et al., J. Phys.:Condens. Matter 29 465901 (2017);
         "P. Giannozzi et al., J. Chem. Phys. 152 154105 (2020);
          URL http://www.quantum-espresso.org", 
     in publications or presentations arising from this work. More details at
     http://www.quantum-espresso.org/quote

     Parallel version (MPI & OpenMP), running on       2 processor cores
     Number of MPI processes:                 1
     Threads/MPI process:                     2

     MPI processes distributed on     1 nodes
     156482 MiB available memory on the printing compute node when the environment starts
 
     Reading input from outputs/fecr_fe02cr14_h0.00_thr7.in

     Current dimensions of program PWSCF are:
     Max number of different atomic species (ntypx) = 10
     Max number of k-points (npk) =  40000
     Max angular momentum in pseudopotentials (lmaxx) =  4
     file Fe.pbe-spn-kjpaw_psl.1.0.0.UPF: wavefunction(s)  3P 3D renormalized
     file Cr.pbe-spn-kjpaw_psl.1.0.0.UPF: wavefunction(s)  3S 3P 3D renormalized
     file Cr.pbe-spn-kjpaw_psl.1.0.0.UPF: wavefunction(s)  3S 3P 3D renormalized
     Found identity + ( -0.5000 -0.5000 -0.5000) symmetry
     This is a supercell, fractional translations are disabled
     Message from routine setup:
     using ibrav=0 with symmetry is DISCOURAGED, use correct ibrav instead
 
     Subspace diagonalization in iterative solution of the eigenvalue problem:
     a serial algorithm will be used

 
     G-vector sticks info
     --------------------
     sticks:   dense  smooth     PW     G-vecs:    dense   smooth      PW
     Sum        4421    2217    621               221119    78205   11753
 
     Using Slab Decomposition
 


     bravais-lattice index     =            0
     lattice parameter (alat)  =      10.7569  a.u.
     unit-cell volume          =    1244.6825 (a.u.)^3
     number of atoms/cell      =           16
     number of atomic types    =            3
     number of electrons       =       228.00
     number of Kohn-Sham states=          137
     kinetic-energy cutoff     =      60.0000  Ry
     charge density cutoff     =     480.0000  Ry
     scf convergence threshold =      1.0E-07
     mixing beta               =       0.1000
     number of iterations used =           16  local-TF  mixing
     Exchange-correlation= SLA  PW   PBX  PBC
                           (   1   4   3   4   0   0   0)

     GPU acceleration is ACTIVE.  1 visible GPUs per MPI rank


     celldm(1)=  10.756877  celldm(2)=   0.000000  celldm(3)=   0.000000
     celldm(4)=   0.000000  celldm(5)=   0.000000  celldm(6)=   0.000000

     crystal axes: (cart. coord. in units of alat)
               a(1) = (   1.000000   0.000000   0.000000 )  
               a(2) = (   0.000000   1.000000   0.000000 )  
               a(3) = (   0.000000   0.000000   1.000000 )  

     reciprocal axes: (cart. coord. in units 2 pi/alat)
               b(1) = (  1.000000  0.000000  0.000000 )  
               b(2) = (  0.000000  1.000000  0.000000 )  
               b(3) = (  0.000000  0.000000  1.000000 )  


     PseudoPot. # 1 for Fe read from file:
     ./pseudo/Fe.pbe-spn-kjpaw_psl.1.0.0.UPF
     MD5 check sum: fc81f059e5c5069939230b1155715ae8
     Pseudo is Projector augmented-wave + core cor, Zval = 16.0
     Generated using &quot;atomic&quot; code by A. Dal Corso  v.6.3
     Shape of augmentation charge: PSQ
     Using radial grid of 1191 points,  6 beta functions with: 
                l(1) =   0
                l(2) =   0
                l(3) =   1
                l(4) =   1
                l(5) =   2
                l(6) =   2
     Q(r) pseudized with 0 coefficients 


     PseudoPot. # 2 for Cr read from file:
     ./pseudo/Cr.pbe-spn-kjpaw_psl.1.0.0.UPF
     MD5 check sum: 198f1a2427a48552563eee314eba32ba
     Pseudo is Projector augmented-wave + core cor, Zval = 14.0
     Generated using &quot;atomic&quot; code by A. Dal Corso  v.6.3
     Shape of augmentation charge: PSQ
     Using radial grid of 1183 points,  6 beta functions with: 
                l(1) =   0
                l(2) =   0
                l(3) =   1
                l(4) =   1
                l(5) =   2
                l(6) =   2
     Q(r) pseudized with 0 coefficients 


     PseudoPot. # 3 for Cr read from file:
     ./pseudo/Cr.pbe-spn-kjpaw_psl.1.0.0.UPF
     MD5 check sum: 198f1a2427a48552563eee314eba32ba
     Pseudo is Projector augmented-wave + core cor, Zval = 14.0
     Generated using &quot;atomic&quot; code by A. Dal Corso  v.6.3
     Shape of augmentation charge: PSQ
     Using radial grid of 1183 points,  6 beta functions with: 
                l(1) =   0
                l(2) =   0
                l(3) =   1
                l(4) =   1
                l(5) =   2
                l(6) =   2
     Q(r) pseudized with 0 coefficients 


     atomic species   valence    mass     pseudopotential
     Fe               16.00    55.84500     Fe( 1.00)
     CrA              14.00    51.99600     Cr( 1.00)
     CrB              14.00    51.99600     Cr( 1.00)

     Starting magnetic structure 
     atomic species   magnetization
     Fe              0.500
     CrA             0.500
     CrB            -0.500

     12 Sym. Ops., with inversion, found



   Cartesian axes

     site n.     atom                  positions (alat units)
         1        CrA    tau(   1) = (   0.0000000   0.0000000   0.0000000  )
         2        Fe     tau(   2) = (   0.2500000   0.2500000   0.2500000  )
         3        CrA    tau(   3) = (   0.0000000   0.0000000   0.5000000  )
         4        CrB    tau(   4) = (   0.2500000   0.2500000   0.7500000  )
         5        CrA    tau(   5) = (   0.0000000   0.5000000   0.0000000  )
         6        CrB    tau(   6) = (   0.2500000   0.7500000   0.2500000  )
         7        CrA    tau(   7) = (   0.0000000   0.5000000   0.5000000  )
         8        CrB    tau(   8) = (   0.2500000   0.7500000   0.7500000  )
         9        CrA    tau(   9) = (   0.5000000   0.0000000   0.0000000  )
        10        CrB    tau(  10) = (   0.7500000   0.2500000   0.2500000  )
        11        CrA    tau(  11) = (   0.5000000   0.0000000   0.5000000  )
        12        CrB    tau(  12) = (   0.7500000   0.2500000   0.7500000  )
        13        CrA    tau(  13) = (   0.5000000   0.5000000   0.0000000  )
        14        CrB    tau(  14) = (   0.7500000   0.7500000   0.2500000  )
        15        CrA    tau(  15) = (   0.5000000   0.5000000   0.5000000  )
        16        Fe     tau(  16) = (   0.7500000   0.7500000   0.7500000  )

     number of k points=    32  Marzari-Vanderbilt smearing, width (Ry)=  0.0200
                       cart. coord. in units 2pi/alat
        k(    1) = (   0.0000000   0.0000000   0.0000000), wk =   0.0046296
        k(    2) = (   0.0000000   0.0000000   0.1666667), wk =   0.0277778
        k(    3) = (   0.0000000   0.0000000   0.3333333), wk =   0.0277778
        k(    4) = (   0.0000000   0.0000000  -0.5000000), wk =   0.0138889
        k(    5) = (   0.0000000   0.1666667   0.1666667), wk =   0.0277778
        k(    6) = (   0.0000000   0.1666667   0.3333333), wk =   0.0555556
        k(    7) = (   0.0000000   0.1666667  -0.5000000), wk =   0.0555556
        k(    8) = (   0.0000000   0.3333333   0.3333333), wk =   0.0277778
        k(    9) = (   0.0000000   0.3333333  -0.5000000), wk =   0.0555556
        k(   10) = (   0.0000000  -0.5000000  -0.5000000), wk =   0.0138889
        k(   11) = (   0.1666667   0.1666667   0.1666667), wk =   0.0092593
        k(   12) = (   0.1666667   0.1666667   0.3333333), wk =   0.0277778
        k(   13) = (   0.1666667   0.1666667  -0.5000000), wk =   0.0277778
        k(   14) = (   0.1666667   0.3333333   0.3333333), wk =   0.0277778
        k(   15) = (   0.1666667   0.3333333  -0.5000000), wk =   0.0555556
        k(   16) = (   0.1666667  -0.5000000  -0.5000000), wk =   0.0277778
        k(   17) = (   0.3333333   0.3333333   0.3333333), wk =   0.0092593
        k(   18) = (   0.3333333   0.3333333  -0.5000000), wk =   0.0277778
        k(   19) = (   0.3333333  -0.5000000  -0.5000000), wk =   0.0277778
        k(   20) = (  -0.5000000  -0.5000000  -0.5000000), wk =   0.0046296
        k(   21) = (   0.0000000   0.1666667  -0.1666667), wk =   0.0277778
        k(   22) = (   0.0000000   0.3333333  -0.1666667), wk =   0.0555556
        k(   23) = (   0.0000000   0.3333333  -0.3333333), wk =   0.0277778
        k(   24) = (  -0.1666667   0.1666667   0.1666667), wk =   0.0277778
        k(   25) = (  -0.1666667   0.3333333   0.1666667), wk =   0.0555556
        k(   26) = (   0.1666667  -0.3333333   0.1666667), wk =   0.0277778
        k(   27) = (  -0.1666667  -0.5000000   0.1666667), wk =   0.0277778
        k(   28) = (  -0.1666667   0.3333333   0.3333333), wk =   0.0277778
        k(   29) = (   0.1666667   0.3333333  -0.3333333), wk =   0.0555556
        k(   30) = (  -0.1666667  -0.5000000   0.3333333), wk =   0.0555556
        k(   31) = (  -0.3333333   0.3333333   0.3333333), wk =   0.0277778
        k(   32) = (  -0.3333333  -0.5000000   0.3333333), wk =   0.0277778

     Dense  grid:   221119 G-vectors     FFT dimensions: (  75,  75,  75)

     Smooth grid:    78205 G-vectors     FFT dimensions: (  54,  54,  54)

     Estimated max dynamical RAM per process >       2.33 GB

     Check: negative core charge=   -0.000003
     Generating pointlists ...
     new r_m :   0.1786 (alat units)  1.9214 (a.u.) for type    1
     new r_m :   0.1786 (alat units)  1.9214 (a.u.) for type    2
     new r_m :   0.1786 (alat units)  1.9214 (a.u.) for type    3

     Initial potential from superposition of free atoms

     starting charge     227.9883, renormalised to     228.0000
     Starting wfcs are  160 randomized atomic wfcs
     Checking if some PAW data can be deallocated... 

     total cpu time spent up to now is       10.4 secs

     Self-consistent Calculation

     iteration #  1     ecut=    60.00 Ry     beta= 0.10
     Davidson diagonalization with overlap
     ethr =  1.00E-02,  avg # of iterations =  5.8

     negative rho (up, down):  0.000E+00 9.287E-01

     total cpu time spent up to now is       27.6 secs

     total energy              =   -4113.06132697 Ry
     estimated scf accuracy    <     394.61705007 Ry

     total magnetization       =    15.44 Bohr mag/cell
     absolute magnetization    =    94.05 Bohr mag/cell

     iteration #  2     ecut=    60.00 Ry     beta= 0.10
     Davidson diagonalization with overlap
     ethr =  1.00E-02,  avg # of iterations =  3.8

     negative rho (up, down):  0.000E+00 8.004E-01

     total cpu time spent up to now is       41.6 secs

     total energy              =   -4129.31807119 Ry
     estimated scf accuracy    <       8.46172102 Ry

     total magnetization       =    15.86 Bohr mag/cell
     absolute magnetization    =    55.64 Bohr mag/cell

     iteration #  3     ecut=    60.00 Ry     beta= 0.10
     Davidson diagonalization with overlap
     ethr =  3.71E-03,  avg # of iterations =  1.6

     negative rho (up, down):  0.000E+00 3.086E-01

     total cpu time spent up to now is       53.8 secs

     total energy              =   -4131.14259585 Ry
     estimated scf accuracy    <       7.02290705 Ry

     total magnetization       =    15.40 Bohr mag/cell
     absolute magnetization    =    54.16 Bohr mag/cell

     iteration #  4     ecut=    60.00 Ry     beta= 0.10
     Davidson diagonalization with overlap
     ethr =  3.08E-03,  avg # of iterations =  2.1

     negative rho (up, down):  0.000E+00 3.099E-01

     total cpu time spent up to now is       66.6 secs

     total energy              =   -4131.49589854 Ry
     estimated scf accuracy    <       4.12425731 Ry

     total magnetization       =     9.23 Bohr mag/cell
     absolute magnetization    =    44.72 Bohr mag/cell

     iteration #  5     ecut=    60.00 Ry     beta= 0.10
     Davidson diagonalization with overlap
     ethr =  1.81E-03,  avg # of iterations =  1.5

     negative rho (up, down):  0.000E+00 2.872E-01

     total cpu time spent up to now is       78.6 secs

     total energy              =   -4131.64815410 Ry
     estimated scf accuracy    <       4.17303923 Ry

     total magnetization       =     9.22 Bohr mag/cell
     absolute magnetization    =    44.46 Bohr mag/cell

     iteration #  6     ecut=    60.00 Ry     beta= 0.10
     Davidson diagonalization with overlap
     ethr =  1.81E-03,  avg # of iterations =  1.2

     negative rho (up, down):  0.000E+00 1.783E-03

     total cpu time spent up to now is       90.3 secs

     total energy              =   -4132.57141196 Ry
     estimated scf accuracy    <       5.35272600 Ry

     total magnetization       =     8.21 Bohr mag/cell
     absolute magnetization    =    43.06 Bohr mag/cell

     iteration #  7     ecut=    60.00 Ry     beta= 0.10
     Davidson diagonalization with overlap
     ethr =  1.81E-03,  avg # of iterations =  2.2

     negative rho (up, down):  0.000E+00 1.902E-03

     total cpu time spent up to now is      103.1 secs

     total energy              =   -4133.01592829 Ry
     estimated scf accuracy    <       0.71586011 Ry

     total magnetization       =     7.48 Bohr mag/cell
     absolute magnetization    =    37.72 Bohr mag/cell

     iteration #  8     ecut=    60.00 Ry     beta= 0.10
     Davidson diagonalization with overlap
     ethr =  3.14E-04,  avg # of iterations =  7.3

     total cpu time spent up to now is      122.7 secs

     total energy              =   -4133.61781563 Ry
     estimated scf accuracy    <       5.81214987 Ry

     total magnetization       =     4.02 Bohr mag/cell
     absolute magnetization    =    28.47 Bohr mag/cell

     iteration #  9     ecut=    60.00 Ry     beta= 0.10
     Davidson diagonalization with overlap
     ethr =  3.14E-04,  avg # of iterations =  2.0

     negative rho (up, down):  0.000E+00 3.753E-02

     total cpu time spent up to now is      135.3 secs

     total energy              =   -4132.72220301 Ry
     estimated scf accuracy    <       8.58251611 Ry

     total magnetization       =     3.86 Bohr mag/cell
     absolute magnetization    =    29.08 Bohr mag/cell

     iteration # 10     ecut=    60.00 Ry     beta= 0.10
     Davidson diagonalization with overlap
     ethr =  3.14E-04,  avg # of iterations =  6.7

     negative rho (up, down):  0.000E+00 2.624E-02

     total cpu time spent up to now is      154.0 secs

     total energy              =   -4133.31296413 Ry
     estimated scf accuracy    <       0.69112553 Ry

     total magnetization       =     4.35 Bohr mag/cell
     absolute magnetization    =    25.34 Bohr mag/cell

     iteration # 11     ecut=    60.00 Ry     beta= 0.10
     Davidson diagonalization with overlap
     ethr =  3.03E-04,  avg # of iterations =  1.5

     negative rho (up, down):  0.000E+00 2.248E-02

     total cpu time spent up to now is      166.1 secs

     total energy              =   -4133.38130868 Ry
     estimated scf accuracy    <       0.15698015 Ry

     total magnetization       =     3.63 Bohr mag/cell
     absolute magnetization    =    23.51 Bohr mag/cell

     iteration # 12     ecut=    60.00 Ry     beta= 0.10
     Davidson diagonalization with overlap
     ethr =  6.89E-05,  avg # of iterations =  5.7

     negative rho (up, down):  0.000E+00 8.146E-03

     total cpu time spent up to now is      182.1 secs

     total energy              =   -4133.41582795 Ry
     estimated scf accuracy    <       0.12977304 Ry

     total magnetization       =     3.63 Bohr mag/cell
     absolute magnetization    =    23.04 Bohr mag/cell

     iteration # 13     ecut=    60.00 Ry     beta= 0.10
     Davidson diagonalization with overlap
     ethr =  5.69E-05,  avg # of iterations =  4.9

     total cpu time spent up to now is      197.2 secs

     total energy              =   -4133.45065307 Ry
     estimated scf accuracy    <       0.37705873 Ry

     total magnetization       =     3.60 Bohr mag/cell
     absolute magnetization    =    23.49 Bohr mag/cell

     iteration # 14     ecut=    60.00 Ry     beta= 0.10
     Davidson diagonalization with overlap
     c_bands:  1 eigenvalues not converged
     ethr =  5.69E-05,  avg # of iterations =  7.3

     total cpu time spent up to now is      215.6 secs

     total energy              =   -4133.46150728 Ry
     estimated scf accuracy    <       0.36738648 Ry

     total magnetization       =     3.27 Bohr mag/cell
     absolute magnetization    =    20.50 Bohr mag/cell

     iteration # 15     ecut=    60.00 Ry     beta= 0.10
     Davidson diagonalization with overlap
     ethr =  5.69E-05,  avg # of iterations =  4.5

     total cpu time spent up to now is      230.6 secs

     total energy              =   -4133.48398445 Ry
     estimated scf accuracy    <       0.08870661 Ry

     total magnetization       =     3.75 Bohr mag/cell
     absolute magnetization    =    21.04 Bohr mag/cell

     iteration # 16     ecut=    60.00 Ry     beta= 0.10
     Davidson diagonalization with overlap
     ethr =  3.89E-05,  avg # of iterations =  3.4

     total cpu time spent up to now is      244.4 secs

     total energy              =   -4133.49977929 Ry
     estimated scf accuracy    <       0.03735183 Ry

     total magnetization       =     3.73 Bohr mag/cell
     absolute magnetization    =    21.69 Bohr mag/cell

     iteration # 17     ecut=    60.00 Ry     beta= 0.10
     Davidson diagonalization with overlap
     ethr =  1.64E-05,  avg # of iterations =  6.3

     total cpu time spent up to now is      260.9 secs

     total energy              =   -4133.50647236 Ry
     estimated scf accuracy    <       0.08360977 Ry

     total magnetization       =     3.74 Bohr mag/cell
     absolute magnetization    =    21.17 Bohr mag/cell

     iteration # 18     ecut=    60.00 Ry     beta= 0.10
     Davidson diagonalization with overlap
     c_bands:  1 eigenvalues not converged
     ethr =  1.64E-05,  avg # of iterations =  4.0

     total cpu time spent up to now is      275.4 secs

     total energy              =   -4133.50913685 Ry
     estimated scf accuracy    <       0.05973705 Ry

     total magnetization       =     3.68 Bohr mag/cell
     absolute magnetization    =    19.95 Bohr mag/cell

     iteration # 19     ecut=    60.00 Ry     beta= 0.10
     Davidson diagonalization with overlap
     ethr =  1.64E-05,  avg # of iterations =  2.7

     total cpu time spent up to now is      288.8 secs

     total energy              =   -4133.51748002 Ry
     estimated scf accuracy    <       0.01989501 Ry

     total magnetization       =     3.51 Bohr mag/cell
     absolute magnetization    =    19.59 Bohr mag/cell

     iteration # 20     ecut=    60.00 Ry     beta= 0.10
     Davidson diagonalization with overlap
     ethr =  8.73E-06,  avg # of iterations =  3.9

     total cpu time spent up to now is      303.2 secs

     total energy              =   -4133.51728108 Ry
     estimated scf accuracy    <       0.02379427 Ry

     total magnetization       =     3.49 Bohr mag/cell
     absolute magnetization    =    19.27 Bohr mag/cell

     iteration # 21     ecut=    60.00 Ry     beta= 0.10
     Davidson diagonalization with overlap
     c_bands:  1 eigenvalues not converged
     c_bands:  1 eigenvalues not converged
     ethr =  8.73E-06,  avg # of iterations =  6.9

     total cpu time spent up to now is      320.3 secs

     total energy              =   -4133.52148599 Ry
     estimated scf accuracy    <       0.00733940 Ry

     total magnetization       =     3.54 Bohr mag/cell
     absolute magnetization    =    18.50 Bohr mag/cell

     iteration # 22     ecut=    60.00 Ry     beta= 0.10
     Davidson diagonalization with overlap
     c_bands:  1 eigenvalues not converged
     c_bands:  1 eigenvalues not converged
     ethr =  3.22E-06,  avg # of iterations =  7.8

     total cpu time spent up to now is      338.0 secs

     total energy              =   -4133.52280409 Ry
     estimated scf accuracy    <       0.00327940 Ry

     total magnetization       =     3.50 Bohr mag/cell
     absolute magnetization    =    18.20 Bohr mag/cell

     iteration # 23     ecut=    60.00 Ry     beta= 0.10
     Davidson diagonalization with overlap
     c_bands:  1 eigenvalues not converged
     c_bands:  1 eigenvalues not converged
     ethr =  1.44E-06,  avg # of iterations =  3.8

     total cpu time spent up to now is      352.4 secs

     total energy              =   -4133.52330043 Ry
     estimated scf accuracy    <       0.00580776 Ry

     total magnetization       =     3.51 Bohr mag/cell
     absolute magnetization    =    18.32 Bohr mag/cell

     iteration # 24     ecut=    60.00 Ry     beta= 0.10
     Davidson diagonalization with overlap
     ethr =  1.44E-06,  avg # of iterations =  2.5

     total cpu time spent up to now is      365.4 secs

     total energy              =   -4133.52429453 Ry
     estimated scf accuracy    <       0.00110956 Ry

     total magnetization       =     3.55 Bohr mag/cell
     absolute magnetization    =    18.35 Bohr mag/cell

     iteration # 25     ecut=    60.00 Ry     beta= 0.10
     Davidson diagonalization with overlap
     ethr =  4.87E-07,  avg # of iterations =  4.9

     total cpu time spent up to now is      380.7 secs

     total energy              =   -4133.52459205 Ry
     estimated scf accuracy    <       0.00105220 Ry

     total magnetization       =     3.54 Bohr mag/cell
     absolute magnetization    =    18.29 Bohr mag/cell

     iteration # 26     ecut=    60.00 Ry     beta= 0.10
     Davidson diagonalization with overlap
     c_bands:  1 eigenvalues not converged
     ethr =  4.61E-07,  avg # of iterations =  2.6

     total cpu time spent up to now is      393.8 secs

     total energy              =   -4133.52521535 Ry
     estimated scf accuracy    <       0.00109881 Ry

     total magnetization       =     3.56 Bohr mag/cell
     absolute magnetization    =    18.39 Bohr mag/cell

     iteration # 27     ecut=    60.00 Ry     beta= 0.10
     Davidson diagonalization with overlap
     c_bands:  1 eigenvalues not converged
     c_bands:  1 eigenvalues not converged
     ethr =  4.61E-07,  avg # of iterations =  4.1

     total cpu time spent up to now is      408.4 secs

     total energy              =   -4133.52588893 Ry
     estimated scf accuracy    <       0.00138573 Ry

     total magnetization       =     3.57 Bohr mag/cell
     absolute magnetization    =    18.36 Bohr mag/cell

     iteration # 28     ecut=    60.00 Ry     beta= 0.10
     Davidson diagonalization with overlap
     ethr =  4.61E-07,  avg # of iterations =  3.2

     total cpu time spent up to now is      421.9 secs

     total energy              =   -4133.52618411 Ry
     estimated scf accuracy    <       0.00374359 Ry

     total magnetization       =     3.57 Bohr mag/cell
     absolute magnetization    =    18.27 Bohr mag/cell

     iteration # 29     ecut=    60.00 Ry     beta= 0.10
     Davidson diagonalization with overlap
     ethr =  4.61E-07,  avg # of iterations =  1.0

     total cpu time spent up to now is      433.5 secs

     total energy              =   -4133.52654099 Ry
     estimated scf accuracy    <       0.00362364 Ry

     total magnetization       =     3.57 Bohr mag/cell
     absolute magnetization    =    18.29 Bohr mag/cell

     iteration # 30     ecut=    60.00 Ry     beta= 0.10
     Davidson diagonalization with overlap
     ethr =  4.61E-07,  avg # of iterations =  1.0

     total cpu time spent up to now is      445.0 secs

     total energy              =   -4133.52645275 Ry
     estimated scf accuracy    <       0.00325428 Ry

     total magnetization       =     3.57 Bohr mag/cell
     absolute magnetization    =    18.24 Bohr mag/cell

     iteration # 31     ecut=    60.00 Ry     beta= 0.10
     Davidson diagonalization with overlap
     ethr =  4.61E-07,  avg # of iterations =  1.8

     total cpu time spent up to now is      457.4 secs

     total energy              =   -4133.52696130 Ry
     estimated scf accuracy    <       0.00115601 Ry

     total magnetization       =     3.56 Bohr mag/cell
     absolute magnetization    =    18.25 Bohr mag/cell

     iteration # 32     ecut=    60.00 Ry     beta= 0.10
     Davidson diagonalization with overlap
     ethr =  4.61E-07,  avg # of iterations =  3.6

     total cpu time spent up to now is      471.6 secs

     total energy              =   -4133.52727671 Ry
     estimated scf accuracy    <       0.00179868 Ry

     total magnetization       =     3.57 Bohr mag/cell
     absolute magnetization    =    18.10 Bohr mag/cell

     iteration # 33     ecut=    60.00 Ry     beta= 0.10
     Davidson diagonalization with overlap
     ethr =  4.61E-07,  avg # of iterations =  1.0

     total cpu time spent up to now is      483.1 secs

     total energy              =   -4133.52757686 Ry
     estimated scf accuracy    <       0.00170839 Ry

     total magnetization       =     3.58 Bohr mag/cell
     absolute magnetization    =    18.09 Bohr mag/cell

     iteration # 34     ecut=    60.00 Ry     beta= 0.10
     Davidson diagonalization with overlap
     ethr =  4.61E-07,  avg # of iterations =  3.0

     total cpu time spent up to now is      496.7 secs

     total energy              =   -4133.52784942 Ry
     estimated scf accuracy    <       0.00080621 Ry

     total magnetization       =     3.60 Bohr mag/cell
     absolute magnetization    =    17.98 Bohr mag/cell

     iteration # 35     ecut=    60.00 Ry     beta= 0.10
     Davidson diagonalization with overlap
     ethr =  3.54E-07,  avg # of iterations =  1.9

     total cpu time spent up to now is      509.2 secs

     total energy              =   -4133.52819785 Ry
     estimated scf accuracy    <       0.00103114 Ry

     total magnetization       =     3.61 Bohr mag/cell
     absolute magnetization    =    17.95 Bohr mag/cell

     iteration # 36     ecut=    60.00 Ry     beta= 0.10
     Davidson diagonalization with overlap
     ethr =  3.54E-07,  avg # of iterations =  5.2

     total cpu time spent up to now is      525.5 secs

     total energy              =   -4133.52869849 Ry
     estimated scf accuracy    <       0.00156152 Ry

     total magnetization       =     3.61 Bohr mag/cell
     absolute magnetization    =    17.63 Bohr mag/cell

     iteration # 37     ecut=    60.00 Ry     beta= 0.10
     Davidson diagonalization with overlap
     ethr =  3.54E-07,  avg # of iterations =  3.5

     total cpu time spent up to now is      539.5 secs

     total energy              =   -4133.52907867 Ry
     estimated scf accuracy    <       0.00055001 Ry

     total magnetization       =     3.60 Bohr mag/cell
     absolute magnetization    =    17.49 Bohr mag/cell

     iteration # 38     ecut=    60.00 Ry     beta= 0.10
     Davidson diagonalization with overlap
     ethr =  2.41E-07,  avg # of iterations =  4.9

     total cpu time spent up to now is      554.9 secs

     total energy              =   -4133.52870853 Ry
     estimated scf accuracy    <       0.00084723 Ry

     total magnetization       =     3.61 Bohr mag/cell
     absolute magnetization    =    17.31 Bohr mag/cell

     iteration # 39     ecut=    60.00 Ry     beta= 0.10
     Davidson diagonalization with overlap
     ethr =  2.41E-07,  avg # of iterations =  5.0

     total cpu time spent up to now is      570.3 secs

     total energy              =   -4133.52918747 Ry
     estimated scf accuracy    <       0.00178712 Ry

     total magnetization       =     3.56 Bohr mag/cell
     absolute magnetization    =    17.35 Bohr mag/cell

     iteration # 40     ecut=    60.00 Ry     beta= 0.10
     Davidson diagonalization with overlap
     ethr =  2.41E-07,  avg # of iterations =  5.0

     total cpu time spent up to now is      585.5 secs

     total energy              =   -4133.52959824 Ry
     estimated scf accuracy    <       0.00118796 Ry

     total magnetization       =     3.60 Bohr mag/cell
     absolute magnetization    =    17.21 Bohr mag/cell

     iteration # 41     ecut=    60.00 Ry     beta= 0.10
     Davidson diagonalization with overlap
     ethr =  2.41E-07,  avg # of iterations =  5.2

     total cpu time spent up to now is      600.9 secs

     total energy              =   -4133.52830718 Ry
     estimated scf accuracy    <       0.00127566 Ry

     total magnetization       =     3.60 Bohr mag/cell
     absolute magnetization    =    17.00 Bohr mag/cell

     iteration # 42     ecut=    60.00 Ry     beta= 0.10
     Davidson diagonalization with overlap
     ethr =  2.41E-07,  avg # of iterations =  5.2

     total cpu time spent up to now is      617.4 secs

     total energy              =   -4133.52849738 Ry
     estimated scf accuracy    <       0.00095367 Ry

     total magnetization       =     3.59 Bohr mag/cell
     absolute magnetization    =    17.48 Bohr mag/cell

     iteration # 43     ecut=    60.00 Ry     beta= 0.10
     Davidson diagonalization with overlap
     ethr =  2.41E-07,  avg # of iterations =  3.2

     total cpu time spent up to now is      631.5 secs

     total energy              =   -4133.52882473 Ry
     estimated scf accuracy    <       0.00162203 Ry

     total magnetization       =     3.57 Bohr mag/cell
     absolute magnetization    =    17.63 Bohr mag/cell

     iteration # 44     ecut=    60.00 Ry     beta= 0.10
     Davidson diagonalization with overlap
     ethr =  2.41E-07,  avg # of iterations =  5.6

     total cpu time spent up to now is      648.8 secs

     total energy              =   -4133.52672012 Ry
     estimated scf accuracy    <       0.00041852 Ry

     total magnetization       =     3.59 Bohr mag/cell
     absolute magnetization    =    17.07 Bohr mag/cell

     iteration # 45     ecut=    60.00 Ry     beta= 0.10
     Davidson diagonalization with overlap
     c_bands:  1 eigenvalues not converged
     ethr =  1.84E-07,  avg # of iterations =  9.2

     total cpu time spent up to now is      671.8 secs

     total energy              =   -4133.53087067 Ry
     estimated scf accuracy    <       0.00013236 Ry

     total magnetization       =     3.62 Bohr mag/cell
     absolute magnetization    =    15.71 Bohr mag/cell

     iteration # 46     ecut=    60.00 Ry     beta= 0.10
     Davidson diagonalization with overlap
     ethr =  5.81E-08,  avg # of iterations =  4.0

     total cpu time spent up to now is      686.2 secs

     total energy              =   -4133.53062025 Ry
     estimated scf accuracy    <       0.00007828 Ry

     total magnetization       =     3.63 Bohr mag/cell
     absolute magnetization    =    15.67 Bohr mag/cell

     iteration # 47     ecut=    60.00 Ry     beta= 0.10
     Davidson diagonalization with overlap
     ethr =  3.43E-08,  avg # of iterations =  7.4

     total cpu time spent up to now is      706.4 secs

     total energy              =   -4133.53093497 Ry
     estimated scf accuracy    <       0.00002186 Ry

     total magnetization       =     3.65 Bohr mag/cell
     absolute magnetization    =    15.28 Bohr mag/cell

     iteration # 48     ecut=    60.00 Ry     beta= 0.10
     Davidson diagonalization with overlap
     c_bands:  1 eigenvalues not converged
     ethr =  9.59E-09,  avg # of iterations =  6.5

     total cpu time spent up to now is      725.0 secs

     total energy              =   -4133.52971730 Ry
     estimated scf accuracy    <       0.00007028 Ry

     total magnetization       =     3.64 Bohr mag/cell
     absolute magnetization    =    15.42 Bohr mag/cell

     iteration # 49     ecut=    60.00 Ry     beta= 0.10
     Davidson diagonalization with overlap
     c_bands:  1 eigenvalues not converged
     ethr =  9.59E-09,  avg # of iterations = 11.3

     total cpu time spent up to now is      751.2 secs

     total energy              =   -4133.53105934 Ry
     estimated scf accuracy    <       0.00048744 Ry

     total magnetization       =     3.67 Bohr mag/cell
     absolute magnetization    =    14.71 Bohr mag/cell

     iteration # 50     ecut=    60.00 Ry     beta= 0.10
     Davidson diagonalization with overlap
     ethr =  9.59E-09,  avg # of iterations =  6.3

     total cpu time spent up to now is      769.5 secs

     total energy              =   -4133.53108296 Ry
     estimated scf accuracy    <       0.00005410 Ry

     total magnetization       =     3.67 Bohr mag/cell
     absolute magnetization    =    14.76 Bohr mag/cell

     iteration # 51     ecut=    60.00 Ry     beta= 0.10
     Davidson diagonalization with overlap
     ethr =  9.59E-09,  avg # of iterations =  5.2

     total cpu time spent up to now is      786.0 secs

     total energy              =   -4133.53110646 Ry
     estimated scf accuracy    <       0.00003943 Ry

     total magnetization       =     3.67 Bohr mag/cell
     absolute magnetization    =    14.69 Bohr mag/cell

     iteration # 52     ecut=    60.00 Ry     beta= 0.10
     Davidson diagonalization with overlap
     ethr =  9.59E-09,  avg # of iterations =  3.0

     total cpu time spent up to now is      799.3 secs

     total energy              =   -4133.53108391 Ry
     estimated scf accuracy    <       0.00000566 Ry

     total magnetization       =     3.68 Bohr mag/cell
     absolute magnetization    =    14.69 Bohr mag/cell

     iteration # 53     ecut=    60.00 Ry     beta= 0.10
     Davidson diagonalization with overlap
     ethr =  2.48E-09,  avg # of iterations =  7.0

     total cpu time spent up to now is      819.0 secs

     total energy              =   -4133.53110550 Ry
     estimated scf accuracy    <       0.00004289 Ry

     total magnetization       =     3.67 Bohr mag/cell
     absolute magnetization    =    14.77 Bohr mag/cell

     iteration # 54     ecut=    60.00 Ry     beta= 0.10
     Davidson diagonalization with overlap
     ethr =  2.48E-09,  avg # of iterations =  4.9

     total cpu time spent up to now is      835.8 secs

     total energy              =   -4133.53111229 Ry
     estimated scf accuracy    <       0.00000646 Ry

     total magnetization       =     3.66 Bohr mag/cell
     absolute magnetization    =    14.82 Bohr mag/cell

     iteration # 55     ecut=    60.00 Ry     beta= 0.10
     Davidson diagonalization with overlap
     ethr =  2.48E-09,  avg # of iterations =  3.6

     total cpu time spent up to now is      850.3 secs

     total energy              =   -4133.53111414 Ry
     estimated scf accuracy    <       0.00000129 Ry

     total magnetization       =     3.67 Bohr mag/cell
     absolute magnetization    =    14.79 Bohr mag/cell

     iteration # 56     ecut=    60.00 Ry     beta= 0.10
     Davidson diagonalization with overlap
     ethr =  5.64E-10,  avg # of iterations =  5.7

     total cpu time spent up to now is      867.3 secs

     total energy              =   -4133.53111707 Ry
     estimated scf accuracy    <       0.00000363 Ry

     total magnetization       =     3.67 Bohr mag/cell
     absolute magnetization    =    14.82 Bohr mag/cell

     iteration # 57     ecut=    60.00 Ry     beta= 0.10
     Davidson diagonalization with overlap
     ethr =  5.64E-10,  avg # of iterations =  1.1

     total cpu time spent up to now is      879.0 secs

     total energy              =   -4133.53111751 Ry
     estimated scf accuracy    <       0.00000200 Ry

     total magnetization       =     3.67 Bohr mag/cell
     absolute magnetization    =    14.82 Bohr mag/cell

     iteration # 58     ecut=    60.00 Ry     beta= 0.10
     Davidson diagonalization with overlap
     ethr =  5.64E-10,  avg # of iterations =  1.8

     total cpu time spent up to now is      891.4 secs

     total energy              =   -4133.53111706 Ry
     estimated scf accuracy    <       0.00000170 Ry

     total magnetization       =     3.67 Bohr mag/cell
     absolute magnetization    =    14.82 Bohr mag/cell

     iteration # 59     ecut=    60.00 Ry     beta= 0.10
     Davidson diagonalization with overlap
     ethr =  5.64E-10,  avg # of iterations =  5.1

     total cpu time spent up to now is      907.8 secs

     total energy              =   -4133.53111873 Ry
     estimated scf accuracy    <       0.00000089 Ry

     total magnetization       =     3.67 Bohr mag/cell
     absolute magnetization    =    14.80 Bohr mag/cell

     iteration # 60     ecut=    60.00 Ry     beta= 0.10
     Davidson diagonalization with overlap
     ethr =  3.89E-10,  avg # of iterations =  3.6

     total cpu time spent up to now is      921.7 secs

     total energy              =   -4133.53111915 Ry
     estimated scf accuracy    <       0.00000043 Ry

     total magnetization       =     3.67 Bohr mag/cell
     absolute magnetization    =    14.79 Bohr mag/cell

     iteration # 61     ecut=    60.00 Ry     beta= 0.10
     Davidson diagonalization with overlap
     ethr =  1.87E-10,  avg # of iterations =  5.0

     total cpu time spent up to now is      936.9 secs

     total energy              =   -4133.53111794 Ry
     estimated scf accuracy    <       0.00000043 Ry

     total magnetization       =     3.67 Bohr mag/cell
     absolute magnetization    =    14.79 Bohr mag/cell

     iteration # 62     ecut=    60.00 Ry     beta= 0.10
     Davidson diagonalization with overlap
     ethr =  1.87E-10,  avg # of iterations =  6.5
 
     Magnetic moment per site  (integrated on atomic sphere of radius R)
     atom   1 (R=0.179)  charge= 12.2021  magn=  0.8513
     atom   2 (R=0.179)  charge= 14.5131  magn=  0.9819
     atom   3 (R=0.179)  charge= 12.2017  magn=  0.8509
     atom   4 (R=0.179)  charge= 12.2195  magn= -0.8502
     atom   5 (R=0.179)  charge= 12.2017  magn=  0.8509
     atom   6 (R=0.179)  charge= 12.2195  magn= -0.8502
     atom   7 (R=0.179)  charge= 12.2019  magn=  0.8503
     atom   8 (R=0.179)  charge= 12.2195  magn= -0.8502
     atom   9 (R=0.179)  charge= 12.2017  magn=  0.8509
     atom  10 (R=0.179)  charge= 12.2195  magn= -0.8502
     atom  11 (R=0.179)  charge= 12.2019  magn=  0.8503
     atom  12 (R=0.179)  charge= 12.2195  magn= -0.8502
     atom  13 (R=0.179)  charge= 12.2019  magn=  0.8503
     atom  14 (R=0.179)  charge= 12.2195  magn= -0.8502
     atom  15 (R=0.179)  charge= 12.2016  magn=  0.8518
     atom  16 (R=0.179)  charge= 14.5131  magn=  0.9819

     total cpu time spent up to now is      955.7 secs

     End of self-consistent calculation

 ------ SPIN UP ------------


          k = 0.0000 0.0000 0.0000 (  9771 PWs)   bands (ev):

   -68.1358 -68.1356 -52.7542 -52.7150 -52.7146 -52.7146 -52.6980 -52.6976
   -52.6976 -52.6815 -51.7772 -51.7772 -51.7598 -51.7595 -51.7595 -51.7514
   -34.1959 -34.1959 -34.1958 -34.1917 -34.1917 -34.1916 -24.3203 -24.3203
   -24.3201 -24.2360 -24.2359 -24.2359 -24.1585 -24.1501 -24.1501 -24.1208
   -24.1208 -24.1208 -24.0455 -24.0454 -24.0454 -23.9749 -23.9747 -23.9747
   -23.9708 -23.9708 -23.9706 -23.9608 -23.9544 -23.9544 -23.2213 -23.2213
   -23.2213 -23.1404 -23.1404 -23.1404 -23.0486 -23.0486 -23.0486 -23.0322
   -23.0322 -23.0321 -23.0179 -23.0179 -23.0179 -22.9767 -22.9767 -22.9767
    11.3867  14.7175  14.7902  14.7902  14.9691  14.9691  14.9691  15.0230
    15.0230  15.1541  15.2559  15.2559  15.2559  15.4259  15.4259  16.7150
    16.7151  16.7151  16.7768  16.7768  16.7768  16.9493  16.9493  16.9495
    17.0605  17.0605  17.0606  17.2205  17.2205  17.3465  17.3465  17.3467
    17.9345  18.3320  18.3320  18.3321  18.6342  18.6342  18.6343  18.6359
    18.6359  18.6361  18.6677  18.6679  18.6679  19.0563  19.0563  19.4891
    19.4891  19.4891  19.6704  19.6704  19.8144  20.2562  20.2562  20.2563
    20.2694  20.2695  20.2695  20.3792  20.3792  20.3793  20.5398  20.5398
    20.5786  20.5786  20.5787  20.5899  20.5899  20.5901  20.6511  20.6511
    20.6840

          k = 0.0000 0.0000 0.1667 (  9767 PWs)   bands (ev):

   -68.1357 -68.1356 -52.7516 -52.7174 -52.7137 -52.7135 -52.6990 -52.6987
   -52.6966 -52.6826 -51.7760 -51.7760 -51.7609 -51.7607 -51.7590 -51.7519
   -34.1957 -34.1956 -34.1955 -34.1920 -34.1920 -34.1919 -24.3091 -24.3048
   -24.3047 -24.2311 -24.2240 -24.2240 -24.1617 -24.1610 -24.1466 -24.1327
   -24.1327 -24.1104 -24.0530 -24.0414 -24.0412 -23.9969 -23.9966 -23.9791
   -23.9791 -23.9736 -23.9696 -23.9687 -23.9587 -23.9554 -23.2056 -23.2032
   -23.2032 -23.1320 -23.1306 -23.1306 -23.0462 -23.0446 -23.0446 -23.0402
   -23.0369 -23.0369 -23.0285 -23.0285 -23.0195 -22.9919 -22.9827 -22.9827
    11.5388  14.4818  14.7909  14.8497  14.8884  15.0196  15.0196  15.0938
    15.0997  15.1115  15.3004  15.3082  15.3083  15.4384  15.7425  16.6214
    16.7074  16.7074  16.7210  16.7318  16.7318  16.7936  16.9050  16.9858
    16.9859  17.0362  17.1329  17.2002  17.2002  17.3583  17.3584  17.5661
    18.0992  18.3217  18.3217  18.3612  18.3658  18.3660  18.3828  18.5250
    18.5251  18.8021  18.8691  18.8766  18.8774  18.9646  18.9646  19.0253
    19.4513  19.5211  19.5213  19.6446  19.6447  19.8636  19.8637  19.9315
    20.0038  20.0168  20.2725  20.2926  20.2992  20.2994  20.4924  20.5847
    20.5869  20.5869  20.5907  20.5939  20.6203  20.6480  20.6698  20.6854
    20.7490

          k = 0.0000 0.0000 0.3333 (  9778 PWs)   bands (ev):

   -68.1358 -68.1357 -52.7445 -52.7248 -52.7106 -52.7104 -52.7021 -52.7018
   -52.6936 -52.6855 -51.7728 -51.7727 -51.7640 -51.7640 -51.7575 -51.7534
   -34.1949 -34.1949 -34.1947 -34.1928 -34.1927 -34.1925 -24.2783 -24.2640
   -24.2640 -24.2174 -24.1933 -24.1884 -24.1883 -24.1767 -24.1655 -24.1655
   -24.1280 -24.0801 -24.0738 -24.0580 -24.0577 -24.0296 -24.0295 -23.9981
   -23.9942 -23.9941 -23.9707 -23.9666 -23.9624 -23.9584 -23.1630 -23.1586
   -23.1586 -23.1085 -23.1056 -23.1056 -23.0646 -23.0595 -23.0595 -23.0516
   -23.0516 -23.0403 -23.0333 -23.0333 -23.0312 -23.0250 -22.9979 -22.9979
    11.9826  13.5552  14.9686  15.0134  15.1537  15.1537  15.1786  15.3248
    15.3255  15.3608  15.3746  15.3746  15.3982  15.4453  15.7734  16.1652
    16.2280  16.4909  16.6632  16.6632  16.7219  16.7219  17.0238  17.1234
    17.1585  17.1586  17.2917  17.3182  17.3183  17.6641  17.6641  17.6975
    17.8619  18.0128  18.0129  18.1452  18.2413  18.2919  18.2920  18.4157
    18.4157  18.4850  18.5330  18.5704  18.5706  18.8773  19.0541  19.0943
    19.1079  19.1080  19.2677  19.3565  19.3728  19.3728  19.8053  20.0180
    20.0180  20.0989  20.0990  20.2903  20.2993  20.3140  20.4227  20.5523
    20.6047  20.6334  20.7247  20.7260  20.8431  20.9631  20.9926  20.9926
    21.0187

          k = 0.0000 0.0000-0.5000 (  9794 PWs)   bands (ev):

   -68.1357 -68.1357 -52.7348 -52.7346 -52.7066 -52.7062 -52.7061 -52.7060
   -52.6897 -52.6895 -51.7684 -51.7684 -51.7683 -51.7683 -51.7555 -51.7555
   -34.1938 -34.1938 -34.1938 -34.1938 -34.1937 -34.1937 -24.2361 -24.2361
   -24.2123 -24.2122 -24.2122 -24.2122 -24.1979 -24.1978 -24.1300 -24.1300
   -24.1299 -24.1294 -24.1012 -24.1009 -24.0392 -24.0389 -24.0126 -24.0126
   -24.0126 -24.0124 -23.9669 -23.9668 -23.9628 -23.9627 -23.1083 -23.1083
   -23.1057 -23.1057 -23.1057 -23.1057 -23.0760 -23.0760 -23.0760 -23.0759
   -23.0749 -23.0749 -23.0329 -23.0328 -23.0166 -23.0166 -23.0166 -23.0166
    12.6793  12.6793  15.1877  15.1877  15.2298  15.2298  15.3096  15.3096
    15.3096  15.3097  15.5379  15.5380  15.6878  15.6878  15.7522  15.7522
    15.9520  15.9521  16.6815  16.6815  16.6815  16.6815  17.3901  17.3901
    17.4601  17.4602  17.4603  17.4604  17.4842  17.4842  17.7012  17.7013
    17.7838  17.7838  17.7839  17.7842  18.1762  18.1763  18.2231  18.2232
    18.2232  18.2233  18.4930  18.4931  18.4931  18.4932  18.7752  18.7752
    18.7790  18.7790  19.6125  19.6125  19.7818  19.7819  19.7819  19.7820
    19.8667  19.8667  20.3512  20.3513  20.4278  20.4278  20.4970  20.4971
    20.4971  20.4971  20.6198  20.6199  20.8883  20.8883  20.9511  20.9511
    21.0023

          k = 0.0000 0.1667 0.1667 (  9783 PWs)   bands (ev):

   -68.1358 -68.1356 -52.7491 -52.7166 -52.7158 -52.7125 -52.7001 -52.6979
   -52.6976 -52.6837 -51.7750 -51.7749 -51.7618 -51.7607 -51.7596 -51.7525
   -34.1959 -34.1954 -34.1948 -34.1926 -34.1922 -34.1917 -24.3013 -24.2898
   -24.2896 -24.2216 -24.2171 -24.2130 -24.1702 -24.1581 -24.1577 -24.1360
   -24.1317 -24.1112 -24.0565 -24.0413 -24.0374 -24.0067 -24.0024 -23.9967
   -23.9835 -23.9781 -23.9757 -23.9718 -23.9673 -23.9584 -23.1971 -23.1892
   -23.1879 -23.1233 -23.1220 -23.1219 -23.0537 -23.0497 -23.0469 -23.0412
   -23.0410 -23.0378 -23.0359 -23.0267 -23.0180 -23.0138 -22.9877 -22.9801
    11.6883  14.4799  14.6433  14.8220  14.9271  14.9592  15.0866  15.1436
    15.1452  15.1878  15.1954  15.3733  15.4192  15.7540  15.7943  16.4998
    16.6160  16.7017  16.7048  16.7624  16.7829  16.7976  16.8235  16.9859
    16.9926  17.0257  17.1208  17.1897  17.2554  17.2732  17.2788  17.7887
    17.9953  18.1004  18.2271  18.2935  18.3446  18.3581  18.5127  18.5422
    18.5985  18.6388  18.6483  18.8484  18.8633  18.9998  19.0552  19.1168
    19.2275  19.2627  19.3300  19.4164  19.5410  19.6576  19.7242  19.7419
    19.8911  20.1330  20.1458  20.2028  20.2529  20.2971  20.4901  20.5290
    20.5662  20.6432  20.6583  20.6729  20.6952  20.7725  20.8024  20.8486
    20.8724

          k = 0.0000 0.1667 0.3333 (  9771 PWs)   bands (ev):

   -68.1358 -68.1357 -52.7423 -52.7233 -52.7127 -52.7094 -52.7035 -52.7009
   -52.6948 -52.6866 -51.7721 -51.7718 -51.7645 -51.7634 -51.7584 -51.7541
   -34.1956 -34.1947 -34.1937 -34.1936 -34.1928 -34.1919 -24.2742 -24.2569
   -24.2501 -24.2079 -24.1957 -24.1857 -24.1820 -24.1800 -24.1662 -24.1574
   -24.1283 -24.0850 -24.0743 -24.0584 -24.0530 -24.0325 -24.0268 -24.0067
   -24.0001 -23.9929 -23.9829 -23.9731 -23.9726 -23.9624 -23.1684 -23.1553
   -23.1498 -23.1058 -23.1001 -23.0963 -23.0846 -23.0730 -23.0644 -23.0537
   -23.0536 -23.0384 -23.0372 -23.0316 -23.0234 -23.0173 -23.0011 -22.9900
    12.1241  13.6556  14.7254  14.8509  15.1034  15.2388  15.2774  15.2784
    15.4134  15.4427  15.4477  15.4723  15.4949  15.7322  15.8390  16.2043
    16.2348  16.4407  16.6906  16.7660  16.7839  16.7895  16.8572  16.9998
    17.0961  17.1791  17.2120  17.2613  17.3965  17.4343  17.5162  17.7850
    17.8543  17.9749  18.0521  18.0990  18.1401  18.1737  18.1998  18.2108
    18.3463  18.4189  18.4446  18.7008  18.7358  18.7889  18.8493  18.8699
    19.1373  19.1748  19.2163  19.2431  19.3695  19.5029  19.5955  19.9480
    19.9653  19.9774  19.9796  20.3113  20.3507  20.4015  20.4314  20.5567
    20.5768  20.6348  20.6670  20.6818  20.7584  20.7817  20.7964  20.8702
    20.9450

          k = 0.0000 0.1667-0.5000 (  9786 PWs)   bands (ev):

   -68.1357 -68.1357 -52.7329 -52.7327 -52.7082 -52.7080 -52.7052 -52.7050
   -52.6908 -52.6906 -51.7683 -51.7683 -51.7676 -51.7676 -51.7562 -51.7562
   -34.1948 -34.1947 -34.1938 -34.1938 -34.1927 -34.1926 -24.2347 -24.2346
   -24.2200 -24.2197 -24.2009 -24.2008 -24.1881 -24.1881 -24.1281 -24.1279
   -24.1255 -24.1253 -24.0960 -24.0957 -24.0433 -24.0430 -24.0192 -24.0191
   -24.0100 -24.0099 -23.9783 -23.9782 -23.9676 -23.9675 -23.1266 -23.1266
   -23.1112 -23.1112 -23.1043 -23.1043 -23.0850 -23.0849 -23.0745 -23.0744
   -23.0648 -23.0648 -23.0232 -23.0232 -23.0174 -23.0174 -23.0079 -23.0079
    12.8055  12.8055  14.8365  14.8365  15.3154  15.3154  15.4299  15.4299
    15.5205  15.5205  15.6194  15.6194  15.7554  15.7555  15.8130  15.8130
    15.9898  15.9898  16.7131  16.7131  16.7431  16.7431  17.1772  17.1773
    17.2771  17.2771  17.4185  17.4186  17.4500  17.4500  17.6838  17.6838
    17.7852  17.7852  17.8191  17.8191  18.0869  18.0869  18.1485  18.1485
    18.2156  18.2157  18.2317  18.2317  18.3745  18.3745  18.8909  18.8910
    19.0033  19.0034  19.4677  19.4678  19.6511  19.6511  19.6764  19.6765
    19.9706  19.9707  20.2341  20.2342  20.3849  20.3850  20.4533  20.4533
    20.4546  20.4547  20.6541  20.6542  20.8034  20.8034  20.9506  20.9507
    20.9581

          k = 0.0000 0.3333 0.3333 (  9751 PWs)   bands (ev):

   -68.1357 -68.1356 -52.7362 -52.7206 -52.7176 -52.7076 -52.7063 -52.6980
   -52.6977 -52.6896 -51.7705 -51.7691 -51.7661 -51.7629 -51.7597 -51.7558
   -34.1958 -34.1946 -34.1943 -34.1932 -34.1926 -34.1915 -24.2564 -24.2439
   -24.2143 -24.2101 -24.1966 -24.1959 -24.1824 -24.1551 -24.1502 -24.1497
   -24.1178 -24.0840 -24.0804 -24.0717 -24.0483 -24.0383 -24.0364 -24.0202
   -24.0100 -24.0058 -24.0043 -23.9914 -23.9787 -23.9680 -23.1613 -23.1503
   -23.1278 -23.1101 -23.1063 -23.1034 -23.0921 -23.0866 -23.0791 -23.0680
   -23.0598 -23.0280 -23.0267 -23.0192 -23.0124 -23.0118 -23.0092 -22.9881
    12.5335  13.8507  14.0270  14.6167  15.3562  15.4348  15.4715  15.5862
    15.6066  15.6144  15.6401  15.6781  15.6901  15.7728  15.9336  16.1696
    16.2906  16.3699  16.5384  16.7708  16.8490  16.8514  16.9457  16.9464
    16.9550  17.0288  17.1656  17.2352  17.3140  17.3409  17.5300  17.6025
    17.7013  17.8149  17.8636  17.9321  17.9526  17.9776  18.0424  18.0646
    18.1384  18.2245  18.3175  18.3610  18.5152  18.5934  18.9028  18.9817
    19.0417  19.1452  19.1477  19.3464  19.3743  19.4378  19.7077  19.7424
    19.7585  19.9936  20.1356  20.3283  20.3307  20.3519  20.4355  20.4427
    20.5397  20.5447  20.5804  20.5836  20.6090  20.6557  20.7688  20.8047
    20.8260

          k = 0.0000 0.3333-0.5000 (  9776 PWs)   bands (ev):

   -68.1357 -68.1357 -52.7280 -52.7278 -52.7133 -52.7131 -52.7022 -52.7020
   -52.6938 -52.6937 -51.7682 -51.7682 -51.7656 -51.7656 -51.7582 -51.7582
   -34.1955 -34.1954 -34.1938 -34.1938 -34.1919 -34.1918 -24.2291 -24.2290
   -24.2255 -24.2254 -24.1899 -24.1898 -24.1735 -24.1733 -24.1142 -24.1140
   -24.1082 -24.1082 -24.0866 -24.0863 -24.0511 -24.0509 -24.0382 -24.0381
   -24.0151 -24.0150 -24.0016 -24.0015 -23.9749 -23.9747 -23.1370 -23.1370
   -23.1316 -23.1316 -23.1104 -23.1104 -23.1017 -23.1017 -23.0714 -23.0713
   -23.0405 -23.0405 -23.0189 -23.0189 -23.0095 -23.0095 -22.9986 -22.9986
    13.1626  13.1626  14.3006  14.3006  15.5421  15.5422  15.6615  15.6616
    15.7400  15.7400  15.8069  15.8070  15.8651  15.8651  16.0283  16.0284
    16.0809  16.0809  16.7224  16.7224  16.8583  16.8583  16.8825  16.8826
    17.0943  17.0944  17.0970  17.0970  17.3874  17.3874  17.4456  17.4457
    17.6277  17.6279  17.7703  17.7703  17.8427  17.8427  18.0702  18.0702
    18.1603  18.1604  18.1926  18.1927  18.2039  18.2039  19.0665  19.0666
    19.2407  19.2408  19.2727  19.2729  19.3284  19.3285  19.5585  19.5586
    20.0553  20.0554  20.2027  20.2027  20.2429  20.2430  20.4235  20.4236
    20.4736  20.4736  20.6291  20.6292  20.7102  20.7103  20.7227  20.7228
    20.8194

          k = 0.0000-0.5000-0.5000 (  9748 PWs)   bands (ev):

   -68.1357 -68.1357 -52.7228 -52.7225 -52.7185 -52.7183 -52.6982 -52.6979
   -52.6978 -52.6978 -51.7682 -51.7682 -51.7640 -51.7640 -51.7598 -51.7598
   -34.1957 -34.1956 -34.1938 -34.1938 -34.1915 -34.1915 -24.2306 -24.2303
   -24.2181 -24.2178 -24.1993 -24.1990 -24.1561 -24.1558 -24.1045 -24.1042
   -24.0910 -24.0907 -24.0712 -24.0709 -24.0635 -24.0631 -24.0490 -24.0486
   -24.0454 -24.0450 -23.9981 -23.9978 -23.9797 -23.9794 -23.1408 -23.1407
   -23.1313 -23.1313 -23.1302 -23.1302 -23.1005 -23.1004 -23.0697 -23.0697
   -23.0282 -23.0281 -23.0196 -23.0196 -23.0071 -23.0071 -22.9945 -22.9945
    13.6116  13.6117  13.7874  13.7875  15.6131  15.6132  15.8236  15.8237
    15.8837  15.8838  15.9487  15.9488  15.9737  15.9737  16.1406  16.1407
    16.2082  16.2082  16.5771  16.5772  16.7910  16.7911  16.8241  16.8242
    16.8765  16.8766  17.1148  17.1149  17.2825  17.2825  17.4063  17.4064
    17.4834  17.4836  17.5924  17.5926  17.6706  17.6708  18.0152  18.0153
    18.1136  18.1137  18.1221  18.1223  18.5567  18.5569  18.8659  18.8661
    19.1380  19.1381  19.2239  19.2241  19.4591  19.4594  19.5220  19.5221
    19.9454  19.9455  20.3313  20.3314  20.3904  20.3906  20.3960  20.3962
    20.3992  20.3993  20.5280  20.5281  20.5905  20.5907  20.6560  20.6561
    20.7578

          k = 0.1667 0.1667 0.1667 (  9765 PWs)   bands (ev):

   -68.1358 -68.1356 -52.7467 -52.7153 -52.7153 -52.7142 -52.6992 -52.6989
   -52.6989 -52.6848 -51.7739 -51.7739 -51.7622 -51.7606 -51.7606 -51.7531
   -34.1956 -34.1956 -34.1942 -34.1932 -34.1920 -34.1920 -24.2923 -24.2764
   -24.2764 -24.2093 -24.2085 -24.2085 -24.1678 -24.1678 -24.1664 -24.1325
   -24.1225 -24.1225 -24.0524 -24.0524 -24.0308 -24.0094 -24.0094 -24.0000
   -23.9893 -23.9893 -23.9891 -23.9741 -23.9692 -23.9692 -23.1829 -23.1829
   -23.1771 -23.1171 -23.1171 -23.1097 -23.0660 -23.0660 -23.0518 -23.0400
   -23.0313 -23.0313 -23.0309 -23.0309 -23.0299 -23.0246 -22.9862 -22.9862
    11.8357  14.4989  14.7194  14.7194  14.9015  14.9783  14.9783  15.1896
    15.1896  15.2260  15.2874  15.2874  15.8275  15.8275  15.8355  16.4063
    16.6296  16.6296  16.7466  16.7466  16.7956  16.7956  16.8699  16.8964
    17.0140  17.1081  17.1081  17.1085  17.1359  17.1359  17.6368  17.6368
    17.8686  17.9984  18.1938  18.1938  18.2841  18.2841  18.5196  18.5196
    18.6034  18.6034  18.6097  18.7296  18.7789  18.7789  19.0101  19.0663
    19.2160  19.2796  19.2796  19.3109  19.3109  19.4348  19.4348  19.8125
    20.0492  20.1864  20.1864  20.2432  20.2432  20.2754  20.5266  20.5266
    20.6041  20.6041  20.6529  20.6529  20.6597  20.6983  20.7970  20.7970
    20.8960

          k = 0.1667 0.1667 0.3333 (  9771 PWs)   bands (ev):

   -68.1357 -68.1357 -52.7401 -52.7219 -52.7119 -52.7112 -52.7024 -52.7023
   -52.6960 -52.6878 -51.7713 -51.7711 -51.7645 -51.7634 -51.7591 -51.7547
   -34.1955 -34.1948 -34.1941 -34.1932 -34.1928 -34.1919 -24.2666 -24.2456
   -24.2425 -24.1966 -24.1942 -24.1881 -24.1814 -24.1710 -24.1680 -24.1542
   -24.1249 -24.0919 -24.0727 -24.0539 -24.0536 -24.0403 -24.0221 -24.0067
   -24.0046 -24.0028 -23.9893 -23.9879 -23.9763 -23.9750 -23.1622 -23.1499
   -23.1481 -23.1028 -23.0988 -23.0951 -23.0852 -23.0851 -23.0711 -23.0529
   -23.0498 -23.0465 -23.0401 -23.0202 -23.0196 -23.0191 -23.0022 -22.9914
    12.2646  13.7597  14.7712  14.8880  14.9443  15.0162  15.2802  15.3531
    15.4065  15.5034  15.5136  15.5744  15.7962  15.8747  15.9166  16.2344
    16.2491  16.4761  16.7020  16.7166  16.7867  16.8538  16.8822  16.9638
    16.9958  17.1133  17.2150  17.2821  17.3411  17.3497  17.4698  17.6877
    17.7878  17.8866  17.9842  18.0203  18.0292  18.0951  18.1049  18.2154
    18.2193  18.2854  18.2939  18.5204  18.6366  18.6898  18.8413  18.9472
    18.9655  19.0905  19.1568  19.3670  19.4432  19.4899  19.6196  19.8094
    20.0294  20.0316  20.0805  20.2678  20.3953  20.4435  20.4503  20.4640
    20.5273  20.5718  20.6378  20.6893  20.7050  20.7372  20.8460  20.8635
    20.8934

          k = 0.1667 0.1667-0.5000 (  9786 PWs)   bands (ev):

   -68.1357 -68.1357 -52.7311 -52.7309 -52.7072 -52.7070 -52.7070 -52.7065
   -52.6920 -52.6918 -51.7679 -51.7679 -51.7673 -51.7673 -51.7569 -51.7569
   -34.1950 -34.1949 -34.1938 -34.1938 -34.1924 -34.1923 -24.2306 -24.2305
   -24.2148 -24.2144 -24.1981 -24.1979 -24.1805 -24.1803 -24.1320 -24.1317
   -24.1152 -24.1147 -24.0935 -24.0930 -24.0477 -24.0475 -24.0233 -24.0231
   -24.0124 -24.0123 -23.9826 -23.9825 -23.9820 -23.9819 -23.1295 -23.1295
   -23.1132 -23.1131 -23.1099 -23.1099 -23.0831 -23.0831 -23.0737 -23.0737
   -23.0591 -23.0591 -23.0287 -23.0287 -23.0139 -23.0139 -23.0041 -23.0041
    12.9325  12.9325  14.9140  14.9140  15.0084  15.0085  15.5940  15.5941
    15.6477  15.6478  15.7144  15.7144  15.8406  15.8407  15.8618  15.8618
    16.0330  16.0330  16.7365  16.7365  16.7954  16.7955  17.0917  17.0918
    17.2326  17.2327  17.3012  17.3014  17.4084  17.4087  17.6078  17.6079
    17.6910  17.6912  17.8082  17.8083  18.0233  18.0233  18.0358  18.0359
    18.0839  18.0840  18.1445  18.1446  18.2025  18.2025  18.9791  18.9793
    19.1549  19.1551  19.3470  19.3471  19.4423  19.4424  19.7685  19.7686
    20.0521  20.0523  20.0921  20.0922  20.4159  20.4161  20.4664  20.4665
    20.4713  20.4714  20.6825  20.6826  20.7575  20.7576  20.8759  20.8761
    20.9244

          k = 0.1667 0.3333 0.3333 (  9765 PWs)   bands (ev):

   -68.1357 -68.1357 -52.7342 -52.7190 -52.7164 -52.7082 -52.7064 -52.6993
   -52.6993 -52.6908 -51.7697 -51.7688 -51.7657 -51.7630 -51.7604 -51.7565
   -34.1955 -34.1947 -34.1945 -34.1930 -34.1925 -34.1919 -24.2458 -24.2296
   -24.2117 -24.2023 -24.1899 -24.1818 -24.1806 -24.1619 -24.1462 -24.1443
   -24.1139 -24.0945 -24.0759 -24.0662 -24.0505 -24.0457 -24.0376 -24.0190
   -24.0174 -24.0118 -24.0087 -24.0044 -23.9966 -23.9827 -23.1499 -23.1424
   -23.1264 -23.1080 -23.1066 -23.1023 -23.0969 -23.0883 -23.0665 -23.0648
   -23.0560 -23.0426 -23.0336 -23.0204 -23.0115 -23.0113 -23.0112 -22.9951
    12.6704  13.9638  14.1446  14.7500  15.0775  15.3046  15.3713  15.5312
    15.6426  15.7143  15.7681  15.8005  15.8424  16.0302  16.0797  16.2170
    16.2932  16.4433  16.5182  16.7407  16.8168  16.8607  16.9467  16.9499
    17.0078  17.0285  17.0841  17.2086  17.2610  17.3264  17.5105  17.5187
    17.5408  17.7200  17.7675  17.7868  17.8491  17.8993  17.9204  17.9367
    18.0585  18.0592  18.1186  18.1804  18.2929  18.4003  18.5755  19.0500
    19.1250  19.1810  19.1988  19.3046  19.4346  19.4985  19.6441  19.8869
    19.9430  20.1713  20.2399  20.2928  20.3134  20.4273  20.4724  20.4761
    20.5552  20.5828  20.6125  20.6237  20.6295  20.6785  20.7467  20.8267
    20.8270

          k = 0.1667 0.3333-0.5000 (  9772 PWs)   bands (ev):

   -68.1357 -68.1357 -52.7263 -52.7261 -52.7120 -52.7118 -52.7039 -52.7036
   -52.6951 -52.6950 -51.7677 -51.7677 -51.7655 -51.7655 -51.7588 -51.7588
   -34.1953 -34.1952 -34.1938 -34.1938 -34.1920 -34.1919 -24.2191 -24.2191
   -24.2129 -24.2127 -24.1836 -24.1833 -24.1684 -24.1683 -24.1199 -24.1197
   -24.1001 -24.0998 -24.0863 -24.0859 -24.0579 -24.0577 -24.0410 -24.0409
   -24.0204 -24.0204 -24.0118 -24.0117 -23.9913 -23.9911 -23.1300 -23.1300
   -23.1261 -23.1260 -23.1100 -23.1099 -23.0921 -23.0921 -23.0710 -23.0710
   -23.0444 -23.0444 -23.0272 -23.0272 -23.0129 -23.0129 -23.0019 -23.0019
    13.2917  13.2918  14.4298  14.4298  15.2907  15.2907  15.7020  15.7021
    15.8399  15.8400  15.9270  15.9271  15.9537  15.9538  16.0959  16.0960
    16.1609  16.1609  16.7329  16.7330  16.8485  16.8485  16.9094  16.9094
    17.0685  17.0687  17.1235  17.1235  17.3031  17.3031  17.3463  17.3464
    17.5054  17.5056  17.6650  17.6651  17.7959  17.7959  17.9023  17.9023
    17.9656  17.9656  17.9903  17.9903  18.0673  18.0675  18.8921  18.8921
    19.1392  19.1394  19.2588  19.2591  19.4547  19.4547  19.8006  19.8007
    20.1655  20.1656  20.2445  20.2445  20.3752  20.3753  20.4630  20.4631
    20.5025  20.5026  20.6439  20.6441  20.7001  20.7001  20.8097  20.8099
    20.8177

          k = 0.1667-0.5000-0.5000 (  9708 PWs)   bands (ev):

   -68.1356 -68.1356 -52.7212 -52.7209 -52.7172 -52.7170 -52.6998 -52.6994
   -52.6993 -52.6991 -51.7677 -51.7676 -51.7640 -51.7640 -51.7603 -51.7603
   -34.1954 -34.1953 -34.1937 -34.1937 -34.1918 -34.1917 -24.2154 -24.2151
   -24.2059 -24.2057 -24.1900 -24.1897 -24.1498 -24.1496 -24.1082 -24.1078
   -24.0860 -24.0857 -24.0714 -24.0711 -24.0678 -24.0674 -24.0570 -24.0567
   -24.0542 -24.0539 -24.0094 -24.0091 -23.9976 -23.9973 -23.1320 -23.1319
   -23.1217 -23.1216 -23.1197 -23.1196 -23.0960 -23.0960 -23.0700 -23.0699
   -23.0337 -23.0337 -23.0256 -23.0256 -23.0139 -23.0139 -23.0024 -23.0024
    13.7411  13.7411  13.9212  13.9213  15.6100  15.6101  15.7263  15.7264
    15.7751  15.7752  16.0021  16.0022  16.2189  16.2190  16.2209  16.2210
    16.3028  16.3028  16.5988  16.5989  16.7785  16.7786  16.8183  16.8184
    16.9016  16.9017  17.1408  17.1409  17.1698  17.1698  17.3209  17.3210
    17.3540  17.3542  17.4953  17.4955  17.6250  17.6252  17.8575  17.8576
    17.9179  17.9181  17.9455  17.9456  18.3058  18.3059  18.4744  18.4745
    19.2088  19.2089  19.2565  19.2567  19.5606  19.5608  19.7907  19.7908
    20.2377  20.2377  20.3832  20.3833  20.4498  20.4499  20.5215  20.5216
    20.5663  20.5664  20.5724  20.5725  20.5943  20.5944  20.6672  20.6673
    20.7611

          k = 0.3333 0.3333 0.3333 (  9792 PWs)   bands (ev):

   -68.1358 -68.1357 -52.7289 -52.7149 -52.7149 -52.7117 -52.7035 -52.7035
   -52.7024 -52.6941 -51.7678 -51.7678 -51.7655 -51.7624 -51.7624 -51.7582
   -34.1949 -34.1948 -34.1948 -34.1926 -34.1926 -34.1923 -24.2196 -24.1969
   -24.1969 -24.1837 -24.1837 -24.1813 -24.1602 -24.1447 -24.1447 -24.1238
   -24.1238 -24.1023 -24.0635 -24.0635 -24.0563 -24.0563 -24.0481 -24.0435
   -24.0267 -24.0267 -24.0263 -24.0263 -24.0217 -24.0152 -23.1257 -23.1212
   -23.1212 -23.1087 -23.1087 -23.1056 -23.0872 -23.0872 -23.0584 -23.0564
   -23.0545 -23.0476 -23.0476 -23.0404 -23.0139 -23.0139 -23.0117 -23.0117
    13.0635  14.2107  14.4633  14.4633  15.0401  15.1967  15.1967  15.7695
    15.7695  16.0003  16.0197  16.0197  16.0934  16.0934  16.2434  16.3042
    16.4613  16.4613  16.4955  16.5475  16.8229  16.8229  16.9356  16.9356
    17.0346  17.0346  17.1365  17.1365  17.1600  17.1610  17.4306  17.4668
    17.4668  17.4718  17.4825  17.4825  17.5935  17.6559  17.7190  17.7190
    17.8199  17.8199  17.8486  17.8486  18.0002  18.0002  18.1181  18.8319
    19.1918  19.1918  19.2768  19.2768  19.5092  19.7725  19.7725  20.1201
    20.1996  20.1996  20.2867  20.4228  20.5436  20.5436  20.5520  20.5520
    20.5627  20.5982  20.6340  20.6340  20.6529  20.6529  20.8408  20.9103
    20.9103

          k = 0.3333 0.3333-0.5000 (  9770 PWs)   bands (ev):

   -68.1357 -68.1357 -52.7217 -52.7215 -52.7093 -52.7091 -52.7079 -52.7073
   -52.6986 -52.6985 -51.7665 -51.7665 -51.7651 -51.7651 -51.7604 -51.7604
   -34.1949 -34.1948 -34.1937 -34.1937 -34.1924 -34.1923 -24.1953 -24.1952
   -24.1835 -24.1830 -24.1639 -24.1637 -24.1605 -24.1605 -24.1169 -24.1166
   -24.0981 -24.0977 -24.0807 -24.0803 -24.0760 -24.0757 -24.0473 -24.0470
   -24.0408 -24.0407 -24.0361 -24.0357 -24.0238 -24.0235 -23.1150 -23.1149
   -23.1128 -23.1128 -23.1026 -23.1026 -23.0751 -23.0750 -23.0725 -23.0725
   -23.0526 -23.0526 -23.0401 -23.0401 -23.0234 -23.0234 -23.0132 -23.0132
    13.6563  13.6563  14.7293  14.7294  14.8703  14.8704  15.7205  15.7205
    15.9485  15.9486  16.0460  16.0462  16.2664  16.2665  16.2690  16.2691
    16.3734  16.3734  16.6862  16.6863  16.8818  16.8818  16.9559  16.9560
    16.9748  16.9751  17.0767  17.0767  17.1039  17.1039  17.1875  17.1876
    17.3862  17.3863  17.4956  17.4956  17.5773  17.5773  17.6404  17.6405
    17.6580  17.6581  17.6891  17.6891  17.7605  17.7607  18.3216  18.3216
    19.2575  19.2577  19.2928  19.2931  19.6892  19.6892  20.0359  20.0362
    20.3742  20.3743  20.4112  20.4113  20.5175  20.5176  20.5615  20.5617
    20.5833  20.5833  20.6762  20.6763  20.6841  20.6843  20.7946  20.8269
    20.8277

          k = 0.3333-0.5000-0.5000 (  9756 PWs)   bands (ev):

   -68.1357 -68.1357 -52.7167 -52.7164 -52.7138 -52.7135 -52.7043 -52.7040
   -52.7029 -52.7026 -51.7661 -51.7661 -51.7640 -51.7640 -51.7619 -51.7619
   -34.1947 -34.1946 -34.1936 -34.1936 -34.1926 -34.1925 -24.1739 -24.1736
   -24.1727 -24.1724 -24.1643 -24.1640 -24.1333 -24.1330 -24.1142 -24.1138
   -24.0912 -24.0909 -24.0878 -24.0875 -24.0778 -24.0775 -24.0725 -24.0722
   -24.0662 -24.0660 -24.0412 -24.0409 -24.0326 -24.0324 -23.1104 -23.1103
   -23.0974 -23.0974 -23.0924 -23.0924 -23.0841 -23.0841 -23.0710 -23.0710
   -23.0489 -23.0489 -23.0408 -23.0408 -23.0331 -23.0330 -23.0248 -23.0248
    14.1034  14.1035  14.2989  14.2989  15.2544  15.2544  15.3708  15.3708
    16.0214  16.0214  16.2483  16.2484  16.3312  16.3314  16.5242  16.5242
    16.6121  16.6121  16.6752  16.6752  16.7449  16.7450  16.8007  16.8008
    16.9510  16.9511  16.9647  16.9647  17.1241  17.1242  17.1650  17.1651
    17.2244  17.2244  17.3897  17.3899  17.4777  17.4778  17.5068  17.5069
    17.5730  17.5732  17.5866  17.5867  17.7930  17.7931  17.8748  17.8748
    19.3092  19.3094  19.3227  19.3230  19.8262  19.8263  20.0643  20.0645
    20.4134  20.4135  20.4846  20.4847  20.6024  20.6026  20.6502  20.6502
    20.7091  20.7091  20.7177  20.7178  20.7334  20.7335  20.7538  20.7538
    20.9432

          k =-0.5000-0.5000-0.5000 (  9808 PWs)   bands (ev):

   -68.1358 -68.1358 -52.7110 -52.7103 -52.7103 -52.7102 -52.7101 -52.7101
   -52.7062 -52.7059 -51.7640 -51.7640 -51.7640 -51.7640 -51.7640 -51.7640
   -34.1937 -34.1937 -34.1937 -34.1937 -34.1936 -34.1936 -24.1277 -24.1277
   -24.1275 -24.1275 -24.1274 -24.1274 -24.1274 -24.1270 -24.1270 -24.1268
   -24.1099 -24.1099 -24.1098 -24.1095 -24.1095 -24.1094 -24.1074 -24.1070
   -24.0541 -24.0539 -24.0539 -24.0539 -24.0533 -24.0533 -23.0927 -23.0927
   -23.0739 -23.0739 -23.0738 -23.0738 -23.0738 -23.0738 -23.0613 -23.0613
   -23.0613 -23.0613 -23.0535 -23.0535 -23.0535 -23.0535 -23.0534 -23.0534
    14.5014  14.5015  14.8376  14.8376  14.8376  14.8376  14.8377  14.8377
    16.2631  16.2631  16.2632  16.2632  16.6611  16.6611  16.6612  16.6613
    16.6613  16.6614  16.7888  16.7888  16.7888  16.7889  16.7889  16.7892
    16.9329  16.9329  16.9329  16.9330  16.9331  16.9331  17.3404  17.3406
    17.3470  17.3470  17.3472  17.3472  17.3683  17.3683  17.3684  17.3685
    17.3685  17.3686  17.3686  17.3686  17.3687  17.3688  17.3688  17.3689
    19.3560  19.3560  19.3563  19.3563  20.1309  20.1309  20.1311  20.1312
    20.1313  20.1313  20.6586  20.6586  20.6586  20.6587  20.6587  20.6589
    20.7775  20.7775  20.7775  20.7776  20.7777  20.7777  20.9805  20.9806
    20.9807

          k = 0.0000 0.1667-0.1667 (  9783 PWs)   bands (ev):

   -68.1358 -68.1356 -52.7491 -52.7169 -52.7155 -52.7125 -52.7001 -52.6979
   -52.6976 -52.6837 -51.7750 -51.7749 -51.7618 -51.7607 -51.7596 -51.7525
   -34.1958 -34.1954 -34.1949 -34.1927 -34.1922 -34.1916 -24.3014 -24.2898
   -24.2894 -24.2217 -24.2171 -24.2130 -24.1703 -24.1582 -24.1577 -24.1359
   -24.1317 -24.1113 -24.0567 -24.0412 -24.0373 -24.0067 -24.0023 -23.9967
   -23.9835 -23.9784 -23.9753 -23.9718 -23.9673 -23.9584 -23.1970 -23.1893
   -23.1879 -23.1233 -23.1220 -23.1219 -23.0536 -23.0497 -23.0469 -23.0412
   -23.0410 -23.0378 -23.0359 -23.0267 -23.0180 -23.0138 -22.9877 -22.9801
    11.6883  14.4800  14.6433  14.8221  14.9271  14.9592  15.0866  15.1436
    15.1452  15.1879  15.1954  15.3733  15.4192  15.7540  15.7943  16.4998
    16.6160  16.7017  16.7048  16.7624  16.7828  16.7975  16.8236  16.9860
    16.9926  17.0256  17.1209  17.1896  17.2554  17.2731  17.2788  17.7888
    17.9952  18.1004  18.2272  18.2935  18.3444  18.3582  18.5127  18.5423
    18.5985  18.6390  18.6484  18.8484  18.8632  18.9996  19.0550  19.1169
    19.2275  19.2629  19.3299  19.4164  19.5411  19.6576  19.7242  19.7418
    19.8912  20.1330  20.1457  20.2028  20.2529  20.2970  20.4901  20.5289
    20.5662  20.6432  20.6582  20.6729  20.6953  20.7725  20.8024  20.8488
    20.8725

          k = 0.0000 0.3333-0.1667 (  9771 PWs)   bands (ev):

   -68.1358 -68.1357 -52.7423 -52.7234 -52.7127 -52.7094 -52.7035 -52.7009
   -52.6948 -52.6866 -51.7721 -51.7718 -51.7645 -51.7634 -51.7584 -51.7541
   -34.1955 -34.1947 -34.1938 -34.1937 -34.1929 -34.1918 -24.2743 -24.2567
   -24.2500 -24.2080 -24.1958 -24.1859 -24.1820 -24.1800 -24.1662 -24.1574
   -24.1282 -24.0850 -24.0744 -24.0583 -24.0529 -24.0324 -24.0267 -24.0067
   -24.0001 -23.9931 -23.9828 -23.9731 -23.9725 -23.9624 -23.1684 -23.1553
   -23.1498 -23.1058 -23.1001 -23.0963 -23.0845 -23.0729 -23.0644 -23.0537
   -23.0536 -23.0384 -23.0372 -23.0316 -23.0234 -23.0173 -23.0011 -22.9900
    12.1241  13.6557  14.7254  14.8509  15.1034  15.2388  15.2774  15.2784
    15.4134  15.4427  15.4477  15.4723  15.4949  15.7322  15.8390  16.2043
    16.2347  16.4407  16.6906  16.7660  16.7839  16.7895  16.8572  16.9998
    17.0961  17.1791  17.2119  17.2613  17.3965  17.4343  17.5162  17.7850
    17.8543  17.9749  18.0521  18.0990  18.1401  18.1737  18.1997  18.2108
    18.3463  18.4189  18.4446  18.7007  18.7359  18.7888  18.8493  18.8699
    19.1373  19.1748  19.2163  19.2432  19.3696  19.5028  19.5954  19.9480
    19.9652  19.9774  19.9795  20.3113  20.3507  20.4016  20.4313  20.5568
    20.5768  20.6348  20.6670  20.6819  20.7583  20.7817  20.7963  20.8702
    20.9450

          k = 0.0000 0.3333-0.3333 (  9751 PWs)   bands (ev):

   -68.1357 -68.1356 -52.7362 -52.7208 -52.7173 -52.7076 -52.7063 -52.6980
   -52.6977 -52.6896 -51.7705 -51.7691 -51.7661 -51.7629 -51.7597 -51.7558
   -34.1957 -34.1947 -34.1943 -34.1932 -34.1927 -34.1915 -24.2565 -24.2436
   -24.2142 -24.2104 -24.1964 -24.1959 -24.1827 -24.1552 -24.1502 -24.1499
   -24.1177 -24.0840 -24.0806 -24.0715 -24.0480 -24.0384 -24.0364 -24.0201
   -24.0100 -24.0060 -24.0042 -23.9918 -23.9784 -23.9681 -23.1613 -23.1504
   -23.1278 -23.1102 -23.1063 -23.1033 -23.0921 -23.0865 -23.0791 -23.0679
   -23.0598 -23.0280 -23.0267 -23.0191 -23.0124 -23.0118 -23.0092 -22.9881
    12.5335  13.8508  14.0269  14.6167  15.3561  15.4348  15.4715  15.5862
    15.6066  15.6145  15.6401  15.6781  15.6901  15.7728  15.9336  16.1696
    16.2907  16.3699  16.5383  16.7708  16.8490  16.8515  16.9458  16.9463
    16.9550  17.0287  17.1655  17.2351  17.3140  17.3408  17.5300  17.6026
    17.7013  17.8150  17.8635  17.9322  17.9527  17.9777  18.0425  18.0645
    18.1385  18.2245  18.3176  18.3610  18.5152  18.5936  18.9026  18.9818
    19.0416  19.1453  19.1476  19.3462  19.3745  19.4379  19.7077  19.7423
    19.7584  19.9935  20.1356  20.3283  20.3306  20.3521  20.4354  20.4426
    20.5398  20.5447  20.5804  20.5837  20.6089  20.6557  20.7687  20.8048
    20.8258

          k =-0.1667 0.1667 0.1667 (  9765 PWs)   bands (ev):

   -68.1358 -68.1356 -52.7467 -52.7157 -52.7153 -52.7139 -52.6993 -52.6989
   -52.6988 -52.6848 -51.7739 -51.7739 -51.7622 -51.7606 -51.7606 -51.7531
   -34.1956 -34.1955 -34.1943 -34.1933 -34.1920 -34.1918 -24.2924 -24.2763
   -24.2762 -24.2092 -24.2086 -24.2086 -24.1679 -24.1678 -24.1666 -24.1323
   -24.1225 -24.1224 -24.0526 -24.0524 -24.0307 -24.0094 -24.0093 -23.9997
   -23.9893 -23.9893 -23.9891 -23.9741 -23.9693 -23.9693 -23.1829 -23.1829
   -23.1772 -23.1171 -23.1171 -23.1096 -23.0660 -23.0660 -23.0517 -23.0400
   -23.0313 -23.0312 -23.0309 -23.0309 -23.0299 -23.0246 -22.9862 -22.9862
    11.8357  14.4990  14.7193  14.7194  14.9015  14.9783  14.9783  15.1895
    15.1896  15.2260  15.2875  15.2875  15.8275  15.8275  15.8355  16.4063
    16.6296  16.6296  16.7466  16.7466  16.7955  16.7956  16.8698  16.8965
    17.0139  17.1081  17.1082  17.1084  17.1359  17.1360  17.6367  17.6368
    17.8685  17.9985  18.1938  18.1939  18.2839  18.2841  18.5196  18.5196
    18.6035  18.6036  18.6096  18.7296  18.7791  18.7792  19.0100  19.0665
    19.2159  19.2795  19.2795  19.3109  19.3110  19.4346  19.4348  19.8125
    20.0491  20.1864  20.1865  20.2432  20.2433  20.2753  20.5265  20.5266
    20.6041  20.6041  20.6529  20.6529  20.6598  20.6983  20.7971  20.7972
    20.8958

          k =-0.1667 0.3333 0.1667 (  9771 PWs)   bands (ev):

   -68.1357 -68.1357 -52.7401 -52.7219 -52.7121 -52.7109 -52.7026 -52.7021
   -52.6960 -52.6878 -51.7713 -51.7711 -51.7645 -51.7634 -51.7591 -51.7547
   -34.1955 -34.1947 -34.1942 -34.1933 -34.1927 -34.1919 -24.2667 -24.2454
   -24.2423 -24.1968 -24.1943 -24.1882 -24.1812 -24.1712 -24.1681 -24.1542
   -24.1248 -24.0919 -24.0727 -24.0537 -24.0535 -24.0404 -24.0220 -24.0066
   -24.0047 -24.0029 -23.9893 -23.9878 -23.9763 -23.9750 -23.1622 -23.1500
   -23.1480 -23.1028 -23.0989 -23.0951 -23.0851 -23.0851 -23.0711 -23.0529
   -23.0498 -23.0465 -23.0402 -23.0202 -23.0196 -23.0191 -23.0022 -22.9914
    12.2646  13.7597  14.7712  14.8879  14.9443  15.0162  15.2802  15.3531
    15.4064  15.5034  15.5137  15.5745  15.7963  15.8746  15.9166  16.2344
    16.2490  16.4761  16.7020  16.7166  16.7867  16.8538  16.8822  16.9637
    16.9958  17.1132  17.2152  17.2821  17.3412  17.3497  17.4698  17.6876
    17.7879  17.8866  17.9841  18.0203  18.0291  18.0951  18.1049  18.2154
    18.2192  18.2855  18.2940  18.5203  18.6366  18.6898  18.8414  18.9473
    18.9655  19.0908  19.1567  19.3668  19.4431  19.4899  19.6195  19.8093
    20.0294  20.0316  20.0805  20.2677  20.3953  20.4435  20.4502  20.4640
    20.5272  20.5718  20.6378  20.6894  20.7050  20.7373  20.8460  20.8634
    20.8935

          k = 0.1667-0.3333 0.1667 (  9771 PWs)   bands (ev):

   -68.1357 -68.1357 -52.7401 -52.7219 -52.7119 -52.7111 -52.7024 -52.7023
   -52.6960 -52.6878 -51.7713 -51.7711 -51.7645 -51.7634 -51.7591 -51.7547
   -34.1954 -34.1948 -34.1942 -34.1934 -34.1928 -34.1918 -24.2667 -24.2454
   -24.2422 -24.1967 -24.1942 -24.1884 -24.1813 -24.1712 -24.1679 -24.1543
   -24.1248 -24.0919 -24.0729 -24.0536 -24.0535 -24.0403 -24.0220 -24.0067
   -24.0047 -24.0028 -23.9892 -23.9877 -23.9764 -23.9750 -23.1622 -23.1500
   -23.1481 -23.1028 -23.0989 -23.0950 -23.0851 -23.0851 -23.0711 -23.0529
   -23.0498 -23.0464 -23.0402 -23.0203 -23.0196 -23.0190 -23.0022 -22.9914
    12.2646  13.7597  14.7712  14.8880  14.9443  15.0162  15.2802  15.3530
    15.4064  15.5035  15.5137  15.5744  15.7963  15.8747  15.9166  16.2344
    16.2490  16.4761  16.7020  16.7165  16.7867  16.8538  16.8823  16.9638
    16.9959  17.1133  17.2150  17.2821  17.3412  17.3497  17.4697  17.6876
    17.7878  17.8866  17.9841  18.0203  18.0292  18.0951  18.1048  18.2154
    18.2193  18.2855  18.2940  18.5203  18.6366  18.6898  18.8415  18.9472
    18.9655  19.0908  19.1567  19.3669  19.4430  19.4900  19.6195  19.8093
    20.0294  20.0314  20.0804  20.2678  20.3954  20.4435  20.4503  20.4640
    20.5272  20.5718  20.6378  20.6895  20.7049  20.7372  20.8459  20.8636
    20.8936

          k =-0.1667-0.5000 0.1667 (  9786 PWs)   bands (ev):

   -68.1357 -68.1357 -52.7311 -52.7309 -52.7077 -52.7071 -52.7066 -52.7064
   -52.6920 -52.6918 -51.7679 -51.7679 -51.7673 -51.7673 -51.7569 -51.7569
   -34.1950 -34.1950 -34.1937 -34.1937 -34.1924 -34.1924 -24.2306 -24.2305
   -24.2146 -24.2145 -24.1980 -24.1979 -24.1806 -24.1805 -24.1318 -24.1314
   -24.1152 -24.1151 -24.0932 -24.0932 -24.0477 -24.0474 -24.0233 -24.0233
   -24.0124 -24.0123 -23.9826 -23.9826 -23.9820 -23.9819 -23.1295 -23.1295
   -23.1132 -23.1131 -23.1099 -23.1098 -23.0831 -23.0831 -23.0737 -23.0737
   -23.0591 -23.0591 -23.0287 -23.0287 -23.0139 -23.0139 -23.0041 -23.0041
    12.9325  12.9325  14.9140  14.9140  15.0084  15.0084  15.5940  15.5941
    15.6477  15.6477  15.7144  15.7144  15.8407  15.8407  15.8618  15.8618
    16.0330  16.0330  16.7365  16.7365  16.7954  16.7955  17.0918  17.0919
    17.2327  17.2328  17.3011  17.3013  17.4084  17.4085  17.6078  17.6078
    17.6911  17.6912  17.8083  17.8085  18.0233  18.0233  18.0358  18.0358
    18.0840  18.0840  18.1445  18.1446  18.2024  18.2024  18.9791  18.9792
    19.1551  19.1551  19.3470  19.3471  19.4423  19.4423  19.7686  19.7686
    20.0522  20.0522  20.0921  20.0921  20.4159  20.4160  20.4664  20.4665
    20.4714  20.4714  20.6825  20.6826  20.7574  20.7576  20.8760  20.8761
    20.9243

          k =-0.1667 0.3333 0.3333 (  9765 PWs)   bands (ev):

   -68.1357 -68.1357 -52.7342 -52.7190 -52.7165 -52.7082 -52.7064 -52.6993
   -52.6993 -52.6909 -51.7697 -51.7688 -51.7657 -51.7630 -51.7604 -51.7565
   -34.1955 -34.1948 -34.1944 -34.1930 -34.1926 -34.1919 -24.2459 -24.2296
   -24.2114 -24.2023 -24.1901 -24.1818 -24.1809 -24.1617 -24.1462 -24.1445
   -24.1138 -24.0945 -24.0759 -24.0659 -24.0504 -24.0458 -24.0376 -24.0188
   -24.0174 -24.0118 -24.0088 -24.0044 -23.9966 -23.9827 -23.1499 -23.1424
   -23.1264 -23.1080 -23.1065 -23.1023 -23.0968 -23.0883 -23.0665 -23.0648
   -23.0561 -23.0425 -23.0336 -23.0204 -23.0115 -23.0113 -23.0112 -22.9951
    12.6704  13.9638  14.1446  14.7500  15.0775  15.3046  15.3713  15.5312
    15.6425  15.7143  15.7682  15.8006  15.8425  16.0302  16.0797  16.2170
    16.2932  16.4433  16.5181  16.7406  16.8168  16.8607  16.9468  16.9500
    17.0078  17.0285  17.0841  17.2086  17.2611  17.3264  17.5107  17.5187
    17.5408  17.7199  17.7674  17.7868  17.8492  17.8991  17.9203  17.9367
    18.0586  18.0592  18.1185  18.1805  18.2929  18.4004  18.5755  19.0501
    19.1252  19.1810  19.1987  19.3046  19.4345  19.4983  19.6441  19.8868
    19.9430  20.1713  20.2398  20.2928  20.3134  20.4273  20.4724  20.4760
    20.5551  20.5828  20.6125  20.6236  20.6296  20.6786  20.7468  20.8266
    20.8271

          k = 0.1667 0.3333-0.3333 (  9765 PWs)   bands (ev):

   -68.1357 -68.1357 -52.7342 -52.7193 -52.7162 -52.7082 -52.7064 -52.6995
   -52.6990 -52.6909 -51.7697 -51.7688 -51.7657 -51.7630 -51.7604 -51.7565
   -34.1954 -34.1948 -34.1944 -34.1930 -34.1926 -34.1918 -24.2460 -24.2293
   -24.2114 -24.2025 -24.1898 -24.1820 -24.1807 -24.1618 -24.1463 -24.1445
   -24.1138 -24.0945 -24.0762 -24.0659 -24.0502 -24.0457 -24.0376 -24.0188
   -24.0174 -24.0119 -24.0087 -24.0047 -23.9963 -23.9828 -23.1499 -23.1425
   -23.1264 -23.1079 -23.1065 -23.1024 -23.0969 -23.0883 -23.0665 -23.0647
   -23.0561 -23.0425 -23.0337 -23.0204 -23.0115 -23.0113 -23.0111 -22.9951
    12.6704  13.9638  14.1445  14.7500  15.0775  15.3046  15.3713  15.5312
    15.6426  15.7144  15.7681  15.8006  15.8425  16.0302  16.0797  16.2169
    16.2932  16.4433  16.5181  16.7407  16.8167  16.8608  16.9467  16.9500
    17.0078  17.0285  17.0841  17.2086  17.2611  17.3263  17.5107  17.5187
    17.5408  17.7200  17.7673  17.7868  17.8492  17.8993  17.9204  17.9365
    18.0586  18.0592  18.1186  18.1804  18.2929  18.4005  18.5754  19.0502
    19.1253  19.1809  19.1988  19.3045  19.4345  19.4985  19.6441  19.8867
    19.9429  20.1713  20.2398  20.2928  20.3134  20.4274  20.4723  20.4760
    20.5553  20.5828  20.6125  20.6236  20.6295  20.6787  20.7467  20.8267
    20.8269

          k =-0.1667-0.5000 0.3333 (  9772 PWs)   bands (ev):

   -68.1357 -68.1357 -52.7263 -52.7261 -52.7121 -52.7118 -52.7038 -52.7037
   -52.6952 -52.6950 -51.7677 -51.7677 -51.7655 -51.7655 -51.7588 -51.7588
   -34.1953 -34.1953 -34.1937 -34.1937 -34.1920 -34.1920 -24.2192 -24.2191
   -24.2129 -24.2127 -24.1834 -24.1833 -24.1685 -24.1683 -24.1199 -24.1195
   -24.1001 -24.0999 -24.0862 -24.0859 -24.0580 -24.0577 -24.0410 -24.0410
   -24.0205 -24.0204 -24.0118 -24.0116 -23.9913 -23.9911 -23.1300 -23.1300
   -23.1261 -23.1260 -23.1099 -23.1099 -23.0921 -23.0921 -23.0710 -23.0710
   -23.0444 -23.0443 -23.0272 -23.0272 -23.0129 -23.0129 -23.0019 -23.0019
    13.2917  13.2918  14.4298  14.4298  15.2907  15.2907  15.7021  15.7021
    15.8399  15.8400  15.9270  15.9270  15.9536  15.9538  16.0959  16.0959
    16.1609  16.1610  16.7330  16.7330  16.8485  16.8485  16.9094  16.9094
    17.0685  17.0686  17.1235  17.1236  17.3031  17.3031  17.3463  17.3464
    17.5055  17.5056  17.6650  17.6651  17.7959  17.7959  17.9023  17.9023
    17.9656  17.9656  17.9902  17.9904  18.0673  18.0674  18.8921  18.8921
    19.1392  19.1394  19.2590  19.2591  19.4546  19.4547  19.8006  19.8007
    20.1655  20.1655  20.2444  20.2445  20.3752  20.3753  20.4630  20.4630
    20.5026  20.5026  20.6440  20.6441  20.7000  20.7001  20.8098  20.8100
    20.8177

          k =-0.3333 0.3333 0.3333 (  9792 PWs)   bands (ev):

   -68.1358 -68.1357 -52.7289 -52.7152 -52.7149 -52.7113 -52.7038 -52.7035
   -52.7021 -52.6941 -51.7678 -51.7678 -51.7655 -51.7624 -51.7624 -51.7582
   -34.1950 -34.1948 -34.1947 -34.1926 -34.1925 -34.1924 -24.2198 -24.1966
   -24.1965 -24.1840 -24.1837 -24.1815 -24.1600 -24.1450 -24.1448 -24.1239
   -24.1238 -24.1023 -24.0638 -24.0634 -24.0560 -24.0560 -24.0477 -24.0437
   -24.0268 -24.0267 -24.0266 -24.0263 -24.0217 -24.0152 -23.1258 -23.1212
   -23.1212 -23.1087 -23.1086 -23.1055 -23.0872 -23.0872 -23.0584 -23.0564
   -23.0545 -23.0476 -23.0476 -23.0404 -23.0140 -23.0140 -23.0117 -23.0117
    13.0635  14.2108  14.4632  14.4633  15.0401  15.1967  15.1967  15.7694
    15.7695  16.0003  16.0198  16.0198  16.0935  16.0935  16.2434  16.3042
    16.4612  16.4613  16.4955  16.5474  16.8229  16.8229  16.9356  16.9356
    17.0346  17.0347  17.1366  17.1366  17.1599  17.1610  17.4307  17.4668
    17.4668  17.4720  17.4824  17.4826  17.5934  17.6558  17.7188  17.7190
    17.8199  17.8200  17.8486  17.8486  18.0003  18.0004  18.1181  18.8318
    19.1919  19.1919  19.2767  19.2768  19.5092  19.7725  19.7725  20.1200
    20.1995  20.1996  20.2866  20.4227  20.5436  20.5436  20.5521  20.5521
    20.5626  20.5983  20.6340  20.6341  20.6530  20.6531  20.8407  20.9103
    20.9104

          k =-0.3333-0.5000 0.3333 (  9770 PWs)   bands (ev):

   -68.1357 -68.1357 -52.7216 -52.7215 -52.7097 -52.7092 -52.7075 -52.7073
   -52.6987 -52.6985 -51.7665 -51.7665 -51.7651 -51.7651 -51.7604 -51.7604
   -34.1949 -34.1949 -34.1936 -34.1936 -34.1924 -34.1924 -24.1954 -24.1953
   -24.1832 -24.1831 -24.1638 -24.1636 -24.1607 -24.1606 -24.1168 -24.1163
   -24.0980 -24.0979 -24.0806 -24.0805 -24.0759 -24.0756 -24.0473 -24.0471
   -24.0409 -24.0409 -24.0358 -24.0358 -24.0237 -24.0236 -23.1149 -23.1149
   -23.1128 -23.1128 -23.1026 -23.1026 -23.0751 -23.0750 -23.0726 -23.0725
   -23.0526 -23.0526 -23.0401 -23.0401 -23.0234 -23.0234 -23.0132 -23.0132
    13.6563  13.6563  14.7294  14.7294  14.8703  14.8703  15.7205  15.7205
    15.9486  15.9486  16.0461  16.0461  16.2664  16.2665  16.2690  16.2690
    16.3734  16.3735  16.6863  16.6864  16.8817  16.8818  16.9559  16.9559
    16.9748  16.9749  17.0767  17.0767  17.1039  17.1039  17.1876  17.1876
    17.3862  17.3863  17.4956  17.4957  17.5772  17.5773  17.6405  17.6406
    17.6580  17.6581  17.6891  17.6891  17.7606  17.7607  18.3216  18.3216
    19.2575  19.2577  19.2929  19.2931  19.6891  19.6892  20.0360  20.0361
    20.3742  20.3742  20.4112  20.4112  20.5176  20.5176  20.5616  20.5617
    20.5832  20.5833  20.6762  20.6764  20.6841  20.6842  20.7946  20.7946
    20.8276

 ------ SPIN DOWN ----------


          k = 0.0000 0.0000 0.0000 (  9771 PWs)   bands (ev):

   -66.9822 -66.9821 -52.7225 -52.6896 -52.6896 -52.6725 -52.6725 -52.6646
   -51.7870 -51.7870 -51.7863 -51.7761 -51.7693 -51.7693 -51.7686 -51.7524
   -33.0743 -33.0743 -33.0743 -33.0697 -33.0697 -33.0696 -24.2883 -24.2883
   -24.2883 -24.2075 -24.2075 -24.2075 -24.1003 -24.1002 -24.1002 -24.0711
   -24.0711 -24.0711 -23.9744 -23.9744 -23.9744 -23.9306 -23.9306 -23.9306
   -23.2513 -23.2436 -23.2436 -23.2120 -23.2120 -23.2120 -23.1270 -23.1270
   -23.1264 -23.0604 -23.0604 -23.0601 -23.0569 -23.0567 -23.0567 -23.0453
   -23.0396 -23.0396 -23.0182 -23.0180 -23.0180 -22.9753 -22.9751 -22.9751
    11.4221  14.8461  14.9909  14.9909  14.9909  15.0423  15.0423  15.0801
    15.3175  15.3175  15.4270  15.4270  15.4798  15.4798  15.4798  16.8823
    16.8823  16.8823  16.9578  16.9578  16.9578  17.0177  17.0177  17.0178
    17.3349  17.3349  17.3350  17.3570  17.5482  17.5482  17.9731  17.9733
    17.9733  18.4723  18.4723  18.4723  18.5773  18.5773  18.5773  18.6429
    18.6429  18.6429  19.4278  19.4278  19.4281  19.5096  19.5099  19.5099
    19.6080  19.6081  19.6081  20.3313  20.3313  20.3314  20.4780  20.5150
    20.5150  20.5691  20.5691  20.5691  20.5874  20.5874  20.5967  20.6429
    20.6429  20.6486  20.6539  20.6539  20.6612  20.6612  20.6870  20.6872
    20.6872

          k = 0.0000 0.0000 0.1667 (  9767 PWs)   bands (ev):

   -66.9822 -66.9821 -52.7202 -52.6915 -52.6885 -52.6737 -52.6722 -52.6655
   -51.7861 -51.7858 -51.7852 -51.7768 -51.7705 -51.7701 -51.7679 -51.7535
   -33.0740 -33.0740 -33.0739 -33.0700 -33.0700 -33.0699 -24.2765 -24.2765
   -24.2683 -24.2006 -24.1990 -24.1990 -24.1129 -24.1129 -24.1005 -24.0820
   -24.0820 -24.0740 -23.9824 -23.9718 -23.9718 -23.9613 -23.9342 -23.9342
   -23.2421 -23.2243 -23.2217 -23.2013 -23.2006 -23.2005 -23.1344 -23.1273
   -23.1269 -23.0609 -23.0606 -23.0591 -23.0556 -23.0538 -23.0514 -23.0513
   -23.0437 -23.0406 -23.0289 -23.0244 -23.0243 -22.9925 -22.9808 -22.9807
    11.5745  14.5390  14.9199  15.0487  15.0487  15.1056  15.1057  15.1447
    15.2441  15.3883  15.3980  15.4868  15.5141  15.5141  15.9082  16.7430
    16.8397  16.8397  16.9573  16.9574  16.9919  17.0353  17.0780  17.0781
    17.0917  17.1327  17.3890  17.5107  17.5107  17.5280  17.7909  17.7910
    18.4076  18.4499  18.4632  18.4632  18.4821  18.5203  18.5491  18.5491
    18.8420  18.8421  18.9533  18.9533  19.4567  19.5298  19.5514  19.6330
    19.6339  19.6476  19.6476  19.7970  19.7971  20.0255  20.0256  20.2351
    20.2353  20.4527  20.4833  20.5458  20.5458  20.6061  20.6063  20.6069
    20.6395  20.6491  20.6905  20.7227  20.7372  20.8483  20.8577  21.1738
    21.3432

          k = 0.0000 0.0000 0.3333 (  9778 PWs)   bands (ev):

   -66.9822 -66.9821 -52.7138 -52.6971 -52.6854 -52.6768 -52.6712 -52.6675
   -51.7840 -51.7826 -51.7821 -51.7786 -51.7737 -51.7733 -51.7649 -51.7566
   -33.0732 -33.0732 -33.0730 -33.0709 -33.0708 -33.0706 -24.2438 -24.2438
   -24.2120 -24.1810 -24.1755 -24.1755 -24.1489 -24.1489 -24.1201 -24.1089
   -24.1089 -24.0603 -24.0376 -24.0042 -23.9647 -23.9647 -23.9434 -23.9434
   -23.2181 -23.1731 -23.1729 -23.1727 -23.1697 -23.1697 -23.1560 -23.1309
   -23.1306 -23.0846 -23.0616 -23.0613 -23.0613 -23.0560 -23.0524 -23.0474
   -23.0438 -23.0409 -23.0408 -23.0399 -23.0358 -23.0358 -22.9954 -22.9953
    12.0194  13.6019  15.0844  15.2058  15.2058  15.2759  15.2953  15.4276
    15.4430  15.5283  15.5283  15.5631  15.5980  15.6387  15.9812  16.3719
    16.4209  16.6493  16.8120  16.8121  16.9045  16.9045  17.2604  17.3057
    17.3174  17.3176  17.4262  17.5841  17.7465  17.7466  17.9303  17.9304
    18.0344  18.0387  18.2333  18.2334  18.4452  18.4452  18.4823  18.4823
    18.6394  18.6538  18.6612  18.9077  18.9078  19.1517  19.1664  19.2347
    19.2348  19.4605  19.4606  19.8258  19.9018  20.0865  20.0865  20.2382
    20.3273  20.3552  20.3553  20.3706  20.5764  20.6079  20.6302  20.6483
    20.8036  20.8259  20.8898  20.8899  21.0163  21.1758  21.2095  21.2410
    21.2410

          k = 0.0000 0.0000-0.5000 (  9794 PWs)   bands (ev):

   -66.9822 -66.9822 -52.7053 -52.7053 -52.6811 -52.6811 -52.6695 -52.6695
   -51.7813 -51.7812 -51.7786 -51.7779 -51.7777 -51.7774 -51.7608 -51.7607
   -33.0720 -33.0720 -33.0720 -33.0720 -33.0718 -33.0718 -24.1972 -24.1972
   -24.1972 -24.1972 -24.1518 -24.1518 -24.1428 -24.1428 -24.1428 -24.1428
   -24.1297 -24.1297 -24.0329 -24.0329 -23.9546 -23.9546 -23.9546 -23.9546
   -23.1865 -23.1865 -23.1450 -23.1448 -23.1447 -23.1444 -23.1272 -23.1271
   -23.1111 -23.1111 -23.1057 -23.1055 -23.0566 -23.0566 -23.0564 -23.0561
   -23.0520 -23.0520 -23.0484 -23.0483 -23.0153 -23.0153 -23.0152 -23.0152
    12.7191  12.7191  15.2429  15.2429  15.4035  15.4035  15.4035  15.4036
    15.4769  15.4769  15.7800  15.7801  15.8874  15.8874  15.9441  15.9441
    16.0814  16.0814  16.8425  16.8425  16.8425  16.8425  17.6101  17.6101
    17.6358  17.6358  17.7082  17.7083  17.7084  17.7085  17.8549  17.8549
    17.9433  17.9434  18.1503  18.1504  18.1505  18.1507  18.4422  18.4423
    18.4423  18.4423  18.5183  18.5183  18.5183  18.5183  18.8841  18.8841
    19.7584  19.7584  19.9583  19.9584  19.9584  19.9585  20.1088  20.1088
    20.1704  20.1704  20.6182  20.6182  20.6202  20.6202  20.6531  20.6531
    20.6531  20.6531  20.9715  20.9715  20.9806  20.9806  21.3721  21.3721
    21.4631

          k = 0.0000 0.1667 0.1667 (  9783 PWs)   bands (ev):

   -66.9822 -66.9822 -52.7179 -52.6917 -52.6888 -52.6742 -52.6726 -52.6663
   -51.7854 -51.7846 -51.7843 -51.7774 -51.7713 -51.7694 -51.7689 -51.7546
   -33.0743 -33.0737 -33.0731 -33.0707 -33.0702 -33.0697 -24.2660 -24.2654
   -24.2512 -24.1972 -24.1914 -24.1875 -24.1238 -24.1196 -24.1093 -24.0927
   -24.0905 -24.0714 -23.9849 -23.9755 -23.9701 -23.9698 -23.9516 -23.9374
   -23.2364 -23.2097 -23.2060 -23.2021 -23.1885 -23.1795 -23.1403 -23.1299
   -23.1273 -23.0689 -23.0591 -23.0576 -23.0576 -23.0564 -23.0508 -23.0467
   -23.0445 -23.0425 -23.0420 -23.0254 -23.0247 -23.0135 -22.9854 -22.9802
    11.7243  14.5525  14.6865  14.9462  15.0996  15.1545  15.1718  15.2161
    15.2233  15.4218  15.4676  15.4729  15.5616  15.9288  15.9639  16.6348
    16.7662  16.8736  16.9504  17.0165  17.0202  17.0297  17.0369  17.0679
    17.0905  17.2172  17.2529  17.3774  17.4376  17.5727  17.6167  18.1254
    18.1303  18.3172  18.3622  18.3633  18.4156  18.4463  18.6250  18.6575
    18.9434  19.0109  19.0424  19.0523  19.0979  19.1282  19.3353  19.4063
    19.4855  19.6362  19.6405  19.6416  19.6935  19.7316  20.0600  20.0951
    20.3914  20.4737  20.4877  20.5190  20.5253  20.5995  20.6225  20.6475
    20.6496  20.6546  20.6585  20.8935  20.9109  20.9282  21.0130  21.0382
    21.0825

          k = 0.0000 0.1667 0.3333 (  9771 PWs)   bands (ev):

   -66.9822 -66.9821 -52.7119 -52.6962 -52.6862 -52.6772 -52.6719 -52.6684
   -51.7836 -51.7818 -51.7811 -51.7791 -51.7740 -51.7723 -51.7661 -51.7577
   -33.0739 -33.0730 -33.0719 -33.0718 -33.0710 -33.0699 -24.2369 -24.2364
   -24.2040 -24.1802 -24.1705 -24.1604 -24.1545 -24.1532 -24.1275 -24.1134
   -24.1125 -24.0595 -24.0308 -24.0045 -23.9717 -23.9640 -23.9588 -23.9455
   -23.2182 -23.1821 -23.1721 -23.1680 -23.1614 -23.1584 -23.1465 -23.1339
   -23.1311 -23.0873 -23.0773 -23.0718 -23.0654 -23.0585 -23.0565 -23.0541
   -23.0446 -23.0436 -23.0354 -23.0318 -23.0309 -23.0302 -22.9983 -22.9907
    12.1614  13.7049  14.7852  14.9576  15.2866  15.3168  15.4295  15.4844
    15.5140  15.5143  15.6088  15.6805  15.7065  15.9305  16.0408  16.3696
    16.4607  16.5957  16.8465  16.9568  16.9581  16.9710  17.1331  17.2139
    17.2504  17.2656  17.4188  17.4863  17.5109  17.7397  17.8582  17.9343
    17.9842  18.1677  18.1811  18.2519  18.2729  18.3158  18.3441  18.4066
    18.4615  18.5240  18.7716  18.8032  18.8580  18.9183  18.9936  19.1932
    19.3804  19.5100  19.5389  19.8562  19.9163  20.0090  20.0305  20.1377
    20.2850  20.3673  20.3854  20.4646  20.5428  20.6266  20.6364  20.6483
    20.7383  20.7469  20.7534  20.8857  20.9299  21.0586  21.0856  21.1252
    21.1444

          k = 0.0000 0.1667-0.5000 (  9786 PWs)   bands (ev):

   -66.9822 -66.9822 -52.7038 -52.7038 -52.6817 -52.6817 -52.6704 -52.6704
   -51.7815 -51.7813 -51.7781 -51.7777 -51.7767 -51.7766 -51.7620 -51.7618
   -33.0730 -33.0730 -33.0720 -33.0720 -33.0708 -33.0707 -24.1962 -24.1962
   -24.1961 -24.1961 -24.1578 -24.1578 -24.1463 -24.1463 -24.1417 -24.1417
   -24.1086 -24.1086 -24.0329 -24.0329 -23.9647 -23.9647 -23.9554 -23.9553
   -23.1906 -23.1904 -23.1509 -23.1508 -23.1449 -23.1447 -23.1168 -23.1167
   -23.1162 -23.1159 -23.1125 -23.1123 -23.0767 -23.0766 -23.0491 -23.0490
   -23.0488 -23.0486 -23.0374 -23.0371 -23.0153 -23.0153 -23.0099 -23.0097
    12.8462  12.8462  14.9176  14.9176  15.4668  15.4668  15.5079  15.5079
    15.7104  15.7104  15.8568  15.8569  15.9317  15.9317  16.0153  16.0153
    16.1241  16.1241  16.8781  16.8781  16.9065  16.9065  17.4501  17.4502
    17.5070  17.5070  17.5367  17.5367  17.6553  17.6554  17.9289  17.9289
    17.9342  17.9343  18.1731  18.1731  18.1968  18.1969  18.2302  18.2302
    18.2926  18.2926  18.3659  18.3659  18.3751  18.3751  19.0785  19.0785
    19.8410  19.8411  19.8896  19.8897  19.9979  19.9979  20.1471  20.1472
    20.1999  20.1999  20.3761  20.3762  20.5146  20.5146  20.5972  20.5972
    20.6711  20.6711  20.9290  20.9291  20.9366  20.9367  21.1453  21.1453
    21.1617

          k = 0.0000 0.3333 0.3333 (  9751 PWs)   bands (ev):

   -66.9822 -66.9821 -52.7068 -52.6958 -52.6868 -52.6795 -52.6727 -52.6703
   -51.7827 -51.7803 -51.7800 -51.7780 -51.7753 -51.7695 -51.7690 -51.7608
   -33.0741 -33.0729 -33.0726 -33.0714 -33.0707 -33.0695 -24.2190 -24.2185
   -24.1823 -24.1715 -24.1707 -24.1687 -24.1569 -24.1434 -24.1249 -24.1233
   -24.1218 -24.0541 -24.0305 -24.0115 -23.9882 -23.9849 -23.9613 -23.9508
   -23.2121 -23.1767 -23.1739 -23.1620 -23.1576 -23.1411 -23.1350 -23.1319
   -23.1183 -23.1068 -23.0980 -23.0970 -23.0879 -23.0813 -23.0487 -23.0466
   -23.0413 -23.0356 -23.0325 -23.0273 -23.0253 -23.0168 -23.0075 -22.9905
    12.5728  13.9406  14.0352  14.6991  15.5655  15.5905  15.6415  15.6633
    15.7062  15.7308  15.7620  15.8898  15.9143  15.9897  16.1463  16.3091
    16.5053  16.6411  16.7230  16.8790  17.0746  17.0875  17.0986  17.1450
    17.1451  17.2169  17.3316  17.3380  17.4376  17.7849  17.8244  17.8593
    17.8789  17.8900  17.9746  18.0697  18.1316  18.1329  18.1436  18.1620
    18.2367  18.3176  18.4059  18.4928  18.5055  18.7968  18.8893  19.1099
    19.6591  19.7656  19.8017  19.9292  19.9816  20.0042  20.0488  20.2816
    20.2838  20.3104  20.3655  20.4083  20.4497  20.4551  20.5339  20.5688
    20.5982  20.6576  20.6800  20.6901  20.8424  20.8514  20.9043  20.9467
    20.9918

          k = 0.0000 0.3333-0.5000 (  9776 PWs)   bands (ev):

   -66.9822 -66.9822 -52.7003 -52.7003 -52.6837 -52.6837 -52.6720 -52.6720
   -51.7818 -51.7814 -51.7778 -51.7773 -51.7737 -51.7736 -51.7651 -51.7650
   -33.0738 -33.0738 -33.0720 -33.0720 -33.0698 -33.0698 -24.1966 -24.1966
   -24.1942 -24.1941 -24.1603 -24.1603 -24.1448 -24.1447 -24.1395 -24.1395
   -24.0750 -24.0750 -24.0329 -24.0329 -23.9911 -23.9911 -23.9568 -23.9568
   -23.1968 -23.1964 -23.1501 -23.1500 -23.1494 -23.1492 -23.1349 -23.1347
   -23.1135 -23.1134 -23.1104 -23.1101 -23.0947 -23.0944 -23.0415 -23.0414
   -23.0376 -23.0373 -23.0304 -23.0300 -23.0188 -23.0188 -23.0008 -23.0005
    13.2079  13.2079  14.3574  14.3574  15.7578  15.7579  15.7660  15.7660
    15.8459  15.8460  16.0364  16.0364  16.0400  16.0400  16.2208  16.2208
    16.2466  16.2466  16.9377  16.9377  17.0445  17.0445  17.1433  17.1433
    17.1584  17.1584  17.3268  17.3269  17.5518  17.5518  17.7782  17.7782
    17.8013  17.8013  17.9282  17.9282  18.0462  18.0464  18.1288  18.1289
    18.1800  18.1800  18.2246  18.2246  18.3287  18.3287  19.1621  19.1621
    19.7863  19.7863  20.0673  20.0674  20.1117  20.1118  20.1848  20.1848
    20.2272  20.2273  20.2647  20.2648  20.2801  20.2803  20.5234  20.5234
    20.7244  20.7244  20.7324  20.7324  20.7793  20.7793  20.8211  20.8212
    20.9342

          k = 0.0000-0.5000-0.5000 (  9748 PWs)   bands (ev):

   -66.9821 -66.9821 -52.6979 -52.6979 -52.6854 -52.6854 -52.6728 -52.6728
   -51.7819 -51.7815 -51.7777 -51.7772 -51.7696 -51.7696 -51.7692 -51.7689
   -33.0740 -33.0740 -33.0720 -33.0720 -33.0694 -33.0694 -24.1980 -24.1980
   -24.1932 -24.1931 -24.1584 -24.1584 -24.1437 -24.1437 -24.1383 -24.1383
   -24.0497 -24.0497 -24.0317 -24.0317 -24.0162 -24.0162 -23.9575 -23.9575
   -23.1992 -23.1988 -23.1491 -23.1487 -23.1472 -23.1469 -23.1372 -23.1368
   -23.1342 -23.1338 -23.1079 -23.1075 -23.0935 -23.0931 -23.0329 -23.0326
   -23.0297 -23.0294 -23.0282 -23.0280 -23.0278 -23.0277 -22.9969 -22.9965
    13.7052  13.7052  13.7874  13.7874  15.8836  15.8837  15.9454  15.9455
    15.9527  15.9527  16.0971  16.0971  16.1645  16.1646  16.2566  16.2568
    16.5837  16.5838  16.7411  16.7412  16.9437  16.9438  17.0044  17.0045
    17.0269  17.0270  17.3000  17.3001  17.5614  17.5614  17.6203  17.6203
    17.6843  17.6844  17.6961  17.6962  17.9447  17.9449  18.0149  18.0151
    18.1415  18.1416  18.1534  18.1535  18.7505  18.7505  18.8389  18.8391
    19.8337  19.8340  19.9481  19.9484  20.3188  20.3188  20.3190  20.3191
    20.3216  20.3218  20.3509  20.3513  20.3876  20.3878  20.4080  20.4082
    20.4366  20.4368  20.5159  20.5162  20.7445  20.7447  20.7500  20.7500
    20.7720

          k = 0.1667 0.1667 0.1667 (  9765 PWs)   bands (ev):

   -66.9822 -66.9821 -52.7158 -52.6904 -52.6904 -52.6739 -52.6739 -52.6673
   -51.7844 -51.7836 -51.7836 -51.7780 -51.7704 -51.7704 -51.7696 -51.7558
   -33.0739 -33.0739 -33.0725 -33.0713 -33.0699 -33.0699 -24.2599 -24.2439
   -24.2439 -24.1879 -24.1879 -24.1790 -24.1273 -24.1273 -24.1267 -24.0930
   -24.0840 -24.0840 -23.9833 -23.9833 -23.9691 -23.9678 -23.9678 -23.9495
   -23.2299 -23.1962 -23.1962 -23.1903 -23.1903 -23.1602 -23.1411 -23.1411
   -23.1250 -23.0656 -23.0656 -23.0600 -23.0600 -23.0596 -23.0594 -23.0542
   -23.0370 -23.0370 -23.0349 -23.0349 -23.0297 -23.0254 -22.9859 -22.9859
    11.8721  14.5813  14.7677  14.7677  15.0145  15.1505  15.1505  15.2496
    15.3271  15.3271  15.5508  15.5508  15.9139  16.0366  16.0366  16.5491
    16.8464  16.8464  16.8755  17.0246  17.0253  17.0253  17.0590  17.0590
    17.1614  17.1614  17.1911  17.3194  17.4261  17.4261  17.9074  17.9190
    17.9190  18.2564  18.3066  18.3066  18.3421  18.3421  18.7589  18.7589
    18.7898  18.7932  18.9593  18.9593  19.0120  19.1803  19.2054  19.2054
    19.2209  19.3769  19.3769  19.7708  19.7708  19.8413  20.3138  20.3138
    20.3331  20.3830  20.4374  20.4374  20.5714  20.5714  20.5836  20.6296
    20.6296  20.6523  20.6523  20.8713  20.8713  20.9337  21.0047  21.0415
    21.1839

          k = 0.1667 0.1667 0.3333 (  9771 PWs)   bands (ev):

   -66.9822 -66.9821 -52.7100 -52.6952 -52.6869 -52.6774 -52.6730 -52.6694
   -51.7830 -51.7808 -51.7807 -51.7794 -51.7732 -51.7727 -51.7671 -51.7588
   -33.0738 -33.0731 -33.0723 -33.0714 -33.0708 -33.0699 -24.2318 -24.2236
   -24.1996 -24.1754 -24.1597 -24.1587 -24.1583 -24.1516 -24.1387 -24.1156
   -24.1064 -24.0648 -24.0274 -24.0057 -23.9785 -23.9658 -23.9639 -23.9607
   -23.2145 -23.1742 -23.1705 -23.1650 -23.1643 -23.1561 -23.1436 -23.1327
   -23.1270 -23.0867 -23.0774 -23.0741 -23.0716 -23.0708 -23.0615 -23.0502
   -23.0490 -23.0484 -23.0356 -23.0307 -23.0286 -23.0222 -23.0006 -22.9927
    12.3023  13.8113  14.8316  14.9544  15.0428  15.1505  15.4605  15.4992
    15.5468  15.6099  15.7673  15.7863  15.9528  16.0744  16.1150  16.3770
    16.4866  16.6393  16.8502  16.9801  16.9924  17.0227  17.0593  17.1705
    17.1901  17.2138  17.4091  17.4307  17.5667  17.6820  17.7119  17.7598
    18.0310  18.0386  18.1167  18.1723  18.2137  18.2744  18.2898  18.2912
    18.3344  18.3582  18.5543  18.6288  18.6979  18.7390  19.0034  19.0118
    19.5373  19.6055  19.6257  19.9264  19.9783  20.0631  20.1764  20.1914
    20.2346  20.3336  20.4191  20.4847  20.4989  20.5292  20.6377  20.6548
    20.7025  20.7294  20.7615  20.7915  20.7926  20.9852  21.0040  21.1123
    21.1213

          k = 0.1667 0.1667-0.5000 (  9786 PWs)   bands (ev):

   -66.9822 -66.9822 -52.7024 -52.7024 -52.6822 -52.6822 -52.6714 -52.6714
   -51.7815 -51.7810 -51.7775 -51.7769 -51.7766 -51.7763 -51.7630 -51.7629
   -33.0733 -33.0732 -33.0720 -33.0720 -33.0705 -33.0704 -24.1941 -24.1941
   -24.1909 -24.1908 -24.1568 -24.1568 -24.1540 -24.1539 -24.1314 -24.1314
   -24.1012 -24.1012 -24.0358 -24.0358 -23.9708 -23.9708 -23.9632 -23.9632
   -23.1917 -23.1914 -23.1512 -23.1509 -23.1449 -23.1445 -23.1203 -23.1200
   -23.1136 -23.1133 -23.1104 -23.1100 -23.0718 -23.0714 -23.0661 -23.0656
   -23.0418 -23.0417 -23.0355 -23.0352 -23.0184 -23.0183 -23.0064 -23.0061
    12.9741  12.9742  14.9888  14.9889  15.1072  15.1072  15.7620  15.7620
    15.8413  15.8414  15.9351  15.9351  15.9666  15.9666  16.0864  16.0865
    16.1745  16.1745  16.9022  16.9022  16.9669  16.9669  17.3972  17.3973
    17.4420  17.4421  17.4599  17.4600  17.5429  17.5431  17.9137  17.9138
    17.9234  17.9235  18.0269  18.0270  18.1380  18.1381  18.1558  18.1559
    18.1589  18.1590  18.1867  18.1868  18.2270  18.2271  19.1448  19.1448
    19.9432  19.9432  19.9478  19.9480  20.0023  20.0025  20.0689  20.0691
    20.1856  20.1857  20.2181  20.2181  20.5840  20.5840  20.6694  20.6696
    20.7319  20.7320  20.8911  20.8912  20.9063  20.9065  21.0334  21.0335
    21.0455

          k = 0.1667 0.3333 0.3333 (  9765 PWs)   bands (ev):

   -66.9822 -66.9821 -52.7050 -52.6943 -52.6876 -52.6792 -52.6743 -52.6716
   -51.7820 -51.7802 -51.7793 -51.7780 -51.7745 -51.7702 -51.7698 -51.7618
   -33.0738 -33.0730 -33.0727 -33.0711 -33.0706 -33.0698 -24.2111 -24.2050
   -24.1812 -24.1687 -24.1671 -24.1597 -24.1515 -24.1461 -24.1274 -24.1267
   -24.1065 -24.0668 -24.0296 -24.0147 -23.9953 -23.9934 -23.9687 -23.9685
   -23.2044 -23.1748 -23.1654 -23.1567 -23.1528 -23.1523 -23.1349 -23.1251
   -23.1134 -23.1010 -23.0983 -23.0905 -23.0853 -23.0793 -23.0600 -23.0484
   -23.0470 -23.0438 -23.0380 -23.0324 -23.0220 -23.0141 -23.0109 -22.9976
    12.7101  14.0544  14.1549  14.8332  15.1442  15.4242  15.5234  15.7324
    15.7728  15.8571  15.9891  16.0073  16.1149  16.1233  16.3052  16.3604
    16.5590  16.6496  16.6826  16.8867  16.9627  17.0928  17.1079  17.2170
    17.2184  17.2242  17.2448  17.2954  17.4711  17.6869  17.7104  17.7576
    17.8060  17.8150  17.8676  17.9933  18.0028  18.0162  18.0312  18.0865
    18.1193  18.1602  18.1897  18.2692  18.3005  18.5629  18.5870  19.1394
    19.8322  19.8542  19.9035  20.0557  20.0857  20.1064  20.1537  20.1950
    20.3630  20.3789  20.4190  20.4688  20.4733  20.4780  20.5352  20.5757
    20.6222  20.6506  20.6980  20.8351  20.8495  20.9141  20.9302  21.0034
    21.0353

          k = 0.1667 0.3333-0.5000 (  9772 PWs)   bands (ev):

   -66.9822 -66.9822 -52.6987 -52.6987 -52.6838 -52.6838 -52.6735 -52.6735
   -51.7813 -51.7808 -51.7771 -51.7767 -51.7740 -51.7738 -51.7660 -51.7659
   -33.0736 -33.0736 -33.0719 -33.0719 -33.0700 -33.0699 -24.1894 -24.1894
   -24.1839 -24.1839 -24.1549 -24.1549 -24.1497 -24.1497 -24.1283 -24.1283
   -24.0777 -24.0777 -24.0414 -24.0414 -23.9983 -23.9983 -23.9711 -23.9711
   -23.1911 -23.1907 -23.1534 -23.1531 -23.1396 -23.1391 -23.1308 -23.1306
   -23.1100 -23.1098 -23.1034 -23.1033 -23.0934 -23.0932 -23.0526 -23.0523
   -23.0387 -23.0387 -23.0356 -23.0353 -23.0223 -23.0223 -23.0052 -23.0048
    13.3378  13.3378  14.4871  14.4871  15.3801  15.3801  15.9575  15.9575
    15.9900  15.9900  16.0292  16.0292  16.1863  16.1863  16.2932  16.2933
    16.3171  16.3171  16.9724  16.9724  17.0609  17.0609  17.0904  17.0905
    17.1959  17.1960  17.3260  17.3260  17.5075  17.5075  17.6225  17.6225
    17.7221  17.7221  17.8779  17.8779  17.9064  17.9064  17.9680  17.9681
    18.0107  18.0108  18.0740  18.0740  18.1274  18.1274  18.9141  18.9141
    19.9926  19.9926  20.0921  20.0921  20.1941  20.1941  20.2221  20.2221
    20.2846  20.2847  20.3075  20.3075  20.5364  20.5364  20.5615  20.5616
    20.7475  20.7476  20.7807  20.7809  20.8007  20.8009  20.8758  20.8759
    20.9420

          k = 0.1667-0.5000-0.5000 (  9708 PWs)   bands (ev):

   -66.9821 -66.9821 -52.6962 -52.6962 -52.6854 -52.6854 -52.6744 -52.6744
   -51.7812 -51.7808 -51.7771 -51.7767 -51.7703 -51.7701 -51.7699 -51.7695
   -33.0737 -33.0736 -33.0718 -33.0718 -33.0697 -33.0697 -24.1894 -24.1894
   -24.1791 -24.1791 -24.1549 -24.1549 -24.1368 -24.1367 -24.1349 -24.1349
   -24.0541 -24.0541 -24.0428 -24.0428 -24.0256 -24.0256 -23.9746 -23.9746
   -23.1905 -23.1900 -23.1473 -23.1468 -23.1412 -23.1410 -23.1295 -23.1292
   -23.1234 -23.1230 -23.1040 -23.1036 -23.0943 -23.0939 -23.0380 -23.0377
   -23.0360 -23.0357 -23.0353 -23.0349 -23.0334 -23.0331 -23.0049 -23.0045
    13.8342  13.8342  13.9223  13.9223  15.7181  15.7181  15.8467  15.8467
    16.0021  16.0022  16.1343  16.1344  16.4200  16.4201  16.4235  16.4236
    16.6076  16.6077  16.7530  16.7531  16.9333  16.9333  16.9624  16.9625
    17.1135  17.1136  17.3063  17.3064  17.4369  17.4369  17.4756  17.4756
    17.6434  17.6436  17.6565  17.6566  17.8250  17.8252  17.8551  17.8552
    17.9763  17.9764  18.0070  18.0071  18.4599  18.4600  18.4822  18.4823
    20.1353  20.1354  20.1730  20.1732  20.3680  20.3682  20.3753  20.3754
    20.4425  20.4427  20.4561  20.4563  20.4673  20.4676  20.5486  20.5489
    20.5615  20.5618  20.5687  20.5690  20.7370  20.7372  20.7598  20.7600
    20.7901

          k = 0.3333 0.3333 0.3333 (  9792 PWs)   bands (ev):

   -66.9823 -66.9821 -52.7005 -52.6901 -52.6901 -52.6785 -52.6785 -52.6744
   -51.7805 -51.7799 -51.7774 -51.7774 -51.7721 -51.7721 -51.7718 -51.7646
   -33.0732 -33.0730 -33.0730 -33.0706 -33.0706 -33.0704 -24.1858 -24.1784
   -24.1784 -24.1634 -24.1634 -24.1538 -24.1385 -24.1303 -24.1303 -24.1030
   -24.1000 -24.1000 -24.0214 -24.0214 -24.0207 -24.0207 -24.0054 -23.9842
   -23.1876 -23.1662 -23.1662 -23.1505 -23.1505 -23.1284 -23.1284 -23.1195
   -23.1091 -23.1053 -23.0855 -23.0855 -23.0844 -23.0755 -23.0755 -23.0628
   -23.0522 -23.0522 -23.0441 -23.0427 -23.0188 -23.0188 -23.0161 -23.0161
    13.1055  14.3235  14.4822  14.4822  15.1249  15.2868  15.2868  16.0184
    16.0318  16.0318  16.2350  16.2350  16.3281  16.4131  16.4453  16.4453
    16.5502  16.6261  16.7165  16.7165  16.9710  16.9710  17.1787  17.2029
    17.2029  17.3707  17.3707  17.3787  17.3787  17.3929  17.6233  17.6435
    17.6435  17.6527  17.6812  17.6812  17.7333  17.7340  17.7498  17.7498
    17.8778  17.8778  17.9380  17.9380  18.0897  18.1385  18.1385  18.8484
    20.0822  20.0822  20.1173  20.1270  20.3012  20.3529  20.3529  20.3988
    20.3988  20.4669  20.5205  20.5205  20.5333  20.5754  20.5754  20.6807
    20.6807  20.8226  20.8226  20.8247  20.8247  20.8680  20.8695  21.0378
    21.0378

          k = 0.3333 0.3333-0.5000 (  9770 PWs)   bands (ev):

   -66.9822 -66.9822 -52.6948 -52.6948 -52.6843 -52.6843 -52.6770 -52.6770
   -51.7802 -51.7796 -51.7752 -51.7752 -51.7745 -51.7743 -51.7684 -51.7683
   -33.0732 -33.0731 -33.0718 -33.0718 -33.0704 -33.0703 -24.1724 -24.1723
   -24.1652 -24.1651 -24.1434 -24.1434 -24.1423 -24.1423 -24.1155 -24.1155
   -24.0787 -24.0787 -24.0607 -24.0606 -24.0200 -24.0200 -24.0035 -24.0035
   -23.1764 -23.1759 -23.1525 -23.1521 -23.1299 -23.1294 -23.1183 -23.1182
   -23.0990 -23.0987 -23.0986 -23.0980 -23.0858 -23.0854 -23.0681 -23.0676
   -23.0471 -23.0469 -23.0468 -23.0464 -23.0303 -23.0303 -23.0184 -23.0181
    13.7063  13.7063  14.8002  14.8002  14.9130  14.9130  15.8159  15.8159
    16.2633  16.2634  16.2818  16.2818  16.3497  16.3498  16.4923  16.4924
    16.5413  16.5413  17.0040  17.0040  17.0652  17.0653  17.0748  17.0748
    17.1361  17.1362  17.3573  17.3574  17.3827  17.3829  17.4519  17.4520
    17.5317  17.5318  17.6265  17.6266  17.6330  17.6331  17.7073  17.7074
    17.7668  17.7669  17.7691  17.7692  17.8307  17.8309  18.3847  18.3847
    20.2868  20.2869  20.3251  20.3252  20.3894  20.3895  20.4052  20.4053
    20.4482  20.4482  20.5187  20.5188  20.5997  20.5998  20.7345  20.7347
    20.7600  20.7601  20.7815  20.7817  20.8234  20.8235  20.8589  20.8590
    20.8737

          k = 0.3333-0.5000-0.5000 (  9756 PWs)   bands (ev):

   -66.9821 -66.9821 -52.6916 -52.6916 -52.6854 -52.6854 -52.6791 -52.6791
   -51.7795 -51.7789 -51.7757 -51.7752 -51.7722 -51.7716 -51.7715 -51.7710
   -33.0729 -33.0729 -33.0718 -33.0718 -33.0706 -33.0705 -24.1671 -24.1671
   -24.1502 -24.1502 -24.1409 -24.1409 -24.1299 -24.1298 -24.1107 -24.1107
   -24.0704 -24.0704 -24.0650 -24.0650 -24.0516 -24.0515 -24.0194 -24.0194
   -23.1678 -23.1674 -23.1440 -23.1434 -23.1332 -23.1330 -23.1074 -23.1073
   -23.0989 -23.0983 -23.0957 -23.0953 -23.0903 -23.0901 -23.0538 -23.0538
   -23.0527 -23.0524 -23.0497 -23.0494 -23.0464 -23.0464 -23.0275 -23.0272
    14.1979  14.1979  14.3046  14.3046  15.3154  15.3155  15.4302  15.4302
    16.3325  16.3326  16.4444  16.4445  16.6706  16.6707  16.7695  16.7696
    16.7771  16.7772  16.7784  16.7785  16.8503  16.8503  17.0004  17.0006
    17.2376  17.2377  17.2741  17.2741  17.3126  17.3126  17.3368  17.3369
    17.4758  17.4760  17.4906  17.4908  17.5343  17.5344  17.5565  17.5566
    17.6512  17.6512  17.6987  17.6988  17.8902  17.8903  17.9140  17.9141
    20.4411  20.4413  20.4618  20.4620  20.5263  20.5264  20.5586  20.5586
    20.5624  20.5625  20.6305  20.6306  20.7100  20.7102  20.7199  20.7201
    20.7302  20.7303  20.7592  20.7593  20.7804  20.7805  20.8352  20.8353
    21.0244

          k =-0.5000-0.5000-0.5000 (  9808 PWs)   bands (ev):

   -66.9822 -66.9822 -52.6854 -52.6854 -52.6854 -52.6854 -52.6854 -52.6854
   -51.7782 -51.7774 -51.7740 -51.7740 -51.7732 -51.7732 -51.7730 -51.7727
   -33.0718 -33.0718 -33.0718 -33.0718 -33.0718 -33.0718 -24.1493 -24.1493
   -24.1493 -24.1493 -24.1230 -24.1230 -24.0912 -24.0912 -24.0912 -24.0911
   -24.0911 -24.0911 -24.0724 -24.0724 -24.0724 -24.0724 -24.0723 -24.0723
   -23.1425 -23.1425 -23.1421 -23.1419 -23.1419 -23.1413 -23.0997 -23.0990
   -23.0795 -23.0794 -23.0794 -23.0789 -23.0788 -23.0788 -23.0630 -23.0630
   -23.0624 -23.0624 -23.0580 -23.0579 -23.0579 -23.0576 -23.0573 -23.0573
    14.6318  14.6319  14.8578  14.8578  14.8578  14.8579  14.8579  14.8579
    16.7456  16.7456  16.7456  16.7457  16.7458  16.7458  16.7920  16.7921
    16.7921  16.7921  16.7922  16.7922  17.0186  17.0186  17.0187  17.0187
    17.2923  17.2925  17.3575  17.3575  17.3575  17.3576  17.3577  17.3577
    17.3887  17.3888  17.3888  17.3889  17.3890  17.3890  17.4187  17.4187
    17.4188  17.4189  17.4189  17.4190  17.4694  17.4694  17.4696  17.4696
    20.6317  20.6317  20.6320  20.6320  20.6420  20.6422  20.6422  20.6424
    20.6426  20.6426  20.6719  20.6720  20.6720  20.6722  20.6723  20.6723
    20.8348  20.8348  20.8351  20.8351  20.8351  20.8354  21.0522  21.0522
    21.0525

          k = 0.0000 0.1667-0.1667 (  9783 PWs)   bands (ev):

   -66.9822 -66.9822 -52.7179 -52.6917 -52.6888 -52.6742 -52.6726 -52.6663
   -51.7857 -51.7846 -51.7839 -51.7773 -51.7714 -51.7694 -51.7689 -51.7546
   -33.0743 -33.0737 -33.0732 -33.0708 -33.0702 -33.0696 -24.2660 -24.2654
   -24.2512 -24.1972 -24.1914 -24.1875 -24.1238 -24.1196 -24.1093 -24.0927
   -24.0905 -24.0714 -23.9849 -23.9755 -23.9701 -23.9698 -23.9516 -23.9374
   -23.2365 -23.2098 -23.2060 -23.2021 -23.1884 -23.1796 -23.1399 -23.1303
   -23.1274 -23.0689 -23.0591 -23.0579 -23.0573 -23.0564 -23.0504 -23.0466
   -23.0446 -23.0425 -23.0422 -23.0252 -23.0249 -23.0134 -22.9854 -22.9803
    11.7243  14.5525  14.6865  14.9463  15.0996  15.1546  15.1718  15.2161
    15.2232  15.4218  15.4676  15.4729  15.5616  15.9288  15.9639  16.6348
    16.7662  16.8736  16.9504  17.0165  17.0203  17.0295  17.0369  17.0679
    17.0906  17.2172  17.2530  17.3774  17.4376  17.5727  17.6167  18.1254
    18.1303  18.3171  18.3622  18.3634  18.4156  18.4463  18.6250  18.6575
    18.9434  19.0108  19.0425  19.0524  19.0979  19.1281  19.3353  19.4063
    19.4854  19.6362  19.6405  19.6416  19.6932  19.7319  20.0603  20.0949
    20.3914  20.4736  20.4877  20.5190  20.5253  20.5995  20.6227  20.6475
    20.6496  20.6545  20.6585  20.8934  20.9109  20.9282  21.0130  21.0382
    21.0827

          k = 0.0000 0.3333-0.1667 (  9771 PWs)   bands (ev):

   -66.9822 -66.9821 -52.7119 -52.6962 -52.6862 -52.6772 -52.6719 -52.6684
   -51.7840 -51.7816 -51.7809 -51.7790 -51.7741 -51.7724 -51.7661 -51.7577
   -33.0738 -33.0730 -33.0719 -33.0718 -33.0710 -33.0698 -24.2369 -24.2364
   -24.2040 -24.1802 -24.1705 -24.1604 -24.1544 -24.1532 -24.1275 -24.1134
   -24.1125 -24.0596 -24.0308 -24.0045 -23.9717 -23.9640 -23.9588 -23.9455
   -23.2184 -23.1820 -23.1723 -23.1680 -23.1611 -23.1581 -23.1467 -23.1342
   -23.1312 -23.0870 -23.0773 -23.0719 -23.0652 -23.0584 -23.0566 -23.0543
   -23.0446 -23.0433 -23.0352 -23.0319 -23.0308 -23.0305 -22.9983 -22.9909
    12.1614  13.7049  14.7852  14.9576  15.2866  15.3168  15.4295  15.4844
    15.5140  15.5143  15.6088  15.6805  15.7065  15.9306  16.0408  16.3696
    16.4607  16.5957  16.8465  16.9568  16.9582  16.9710  17.1331  17.2139
    17.2504  17.2656  17.4188  17.4863  17.5109  17.7397  17.8582  17.9343
    17.9843  18.1677  18.1811  18.2519  18.2729  18.3159  18.3441  18.4066
    18.4615  18.5240  18.7716  18.8032  18.8580  18.9183  18.9936  19.1932
    19.3803  19.5100  19.5389  19.8562  19.9163  20.0091  20.0305  20.1377
    20.2850  20.3673  20.3854  20.4645  20.5428  20.6266  20.6364  20.6483
    20.7383  20.7469  20.7534  20.8857  20.9298  21.0586  21.0856  21.1252
    21.1444

          k = 0.0000 0.3333-0.3333 (  9751 PWs)   bands (ev):

   -66.9822 -66.9821 -52.7068 -52.6958 -52.6868 -52.6795 -52.6727 -52.6703
   -51.7832 -51.7801 -51.7795 -51.7780 -51.7756 -51.7695 -51.7690 -51.7608
   -33.0741 -33.0729 -33.0726 -33.0714 -33.0707 -33.0694 -24.2190 -24.2186
   -24.1823 -24.1715 -24.1707 -24.1687 -24.1569 -24.1434 -24.1249 -24.1233
   -24.1218 -24.0541 -24.0305 -24.0115 -23.9882 -23.9849 -23.9613 -23.9508
   -23.2124 -23.1763 -23.1738 -23.1623 -23.1573 -23.1413 -23.1347 -23.1322
   -23.1186 -23.1064 -23.0978 -23.0970 -23.0882 -23.0810 -23.0489 -23.0468
   -23.0413 -23.0353 -23.0323 -23.0276 -23.0253 -23.0165 -23.0075 -22.9908
    12.5728  13.9406  14.0352  14.6991  15.5655  15.5905  15.6415  15.6633
    15.7062  15.7308  15.7620  15.8899  15.9142  15.9898  16.1463  16.3091
    16.5053  16.6411  16.7229  16.8790  17.0746  17.0874  17.0988  17.1450
    17.1451  17.2169  17.3317  17.3379  17.4376  17.7850  17.8244  17.8593
    17.8788  17.8901  17.9746  18.0697  18.1315  18.1329  18.1436  18.1620
    18.2367  18.3176  18.4058  18.4928  18.5056  18.7967  18.8894  19.1099
    19.6590  19.7658  19.8017  19.9292  19.9818  20.0040  20.0489  20.2813
    20.2842  20.3104  20.3654  20.4082  20.4498  20.4550  20.5341  20.5685
    20.5982  20.6576  20.6799  20.6901  20.8424  20.8514  20.9044  20.9466
    20.9918

          k =-0.1667 0.1667 0.1667 (  9765 PWs)   bands (ev):

   -66.9822 -66.9821 -52.7158 -52.6904 -52.6904 -52.6739 -52.6739 -52.6673
   -51.7851 -51.7836 -51.7830 -51.7778 -51.7704 -51.7704 -51.7697 -51.7558
   -33.0739 -33.0739 -33.0725 -33.0714 -33.0699 -33.0699 -24.2599 -24.2439
   -24.2439 -24.1879 -24.1879 -24.1790 -24.1273 -24.1273 -24.1266 -24.0930
   -24.0841 -24.0840 -23.9833 -23.9833 -23.9691 -23.9678 -23.9678 -23.9496
   -23.2301 -23.1964 -23.1963 -23.1902 -23.1900 -23.1602 -23.1410 -23.1405
   -23.1255 -23.0658 -23.0655 -23.0599 -23.0596 -23.0594 -23.0593 -23.0544
   -23.0370 -23.0367 -23.0353 -23.0352 -23.0296 -23.0252 -22.9861 -22.9859
    11.8721  14.5813  14.7677  14.7677  15.0146  15.1505  15.1505  15.2496
    15.3270  15.3270  15.5508  15.5509  15.9139  16.0366  16.0366  16.5491
    16.8464  16.8464  16.8756  17.0247  17.0253  17.0253  17.0589  17.0590
    17.1614  17.1615  17.1910  17.3193  17.4261  17.4261  17.9075  17.9190
    17.9190  18.2563  18.3066  18.3067  18.3421  18.3421  18.7589  18.7589
    18.7898  18.7932  18.9593  18.9594  19.0120  19.1802  19.2053  19.2054
    19.2210  19.3769  19.3770  19.7706  19.7708  19.8415  20.3136  20.3137
    20.3333  20.3829  20.4374  20.4374  20.5715  20.5715  20.5837  20.6294
    20.6295  20.6523  20.6523  20.8713  20.8713  20.9338  21.0045  21.0415
    21.1839

          k =-0.1667 0.3333 0.1667 (  9771 PWs)   bands (ev):

   -66.9822 -66.9821 -52.7100 -52.6952 -52.6869 -52.6774 -52.6730 -52.6694
   -51.7834 -51.7809 -51.7803 -51.7792 -51.7732 -51.7727 -51.7671 -51.7588
   -33.0738 -33.0731 -33.0724 -33.0715 -33.0708 -33.0699 -24.2318 -24.2236
   -24.1996 -24.1754 -24.1597 -24.1587 -24.1583 -24.1516 -24.1386 -24.1156
   -24.1064 -24.0648 -24.0274 -24.0057 -23.9785 -23.9658 -23.9639 -23.9607
   -23.2147 -23.1742 -23.1705 -23.1650 -23.1642 -23.1559 -23.1432 -23.1328
   -23.1276 -23.0865 -23.0772 -23.0740 -23.0718 -23.0708 -23.0614 -23.0505
   -23.0492 -23.0483 -23.0358 -23.0305 -23.0284 -23.0221 -23.0007 -22.9928
    12.3023  13.8113  14.8316  14.9545  15.0428  15.1505  15.4605  15.4993
    15.5467  15.6098  15.7673  15.7864  15.9529  16.0744  16.1150  16.3770
    16.4866  16.6393  16.8502  16.9801  16.9924  17.0227  17.0593  17.1704
    17.1901  17.2137  17.4092  17.4306  17.5666  17.6821  17.7118  17.7598
    18.0309  18.0387  18.1167  18.1723  18.2137  18.2744  18.2898  18.2911
    18.3344  18.3582  18.5542  18.6289  18.6979  18.7390  19.0034  19.0118
    19.5373  19.6055  19.6258  19.9263  19.9784  20.0630  20.1765  20.1914
    20.2346  20.3336  20.4189  20.4847  20.4989  20.5292  20.6376  20.6548
    20.7027  20.7293  20.7616  20.7915  20.7926  20.9852  21.0041  21.1122
    21.1214

          k = 0.1667-0.3333 0.1667 (  9771 PWs)   bands (ev):

   -66.9822 -66.9821 -52.7100 -52.6952 -52.6869 -52.6774 -52.6730 -52.6694
   -51.7836 -51.7808 -51.7802 -51.7791 -51.7732 -51.7729 -51.7671 -51.7588
   -33.0738 -33.0731 -33.0724 -33.0715 -33.0708 -33.0699 -24.2318 -24.2236
   -24.1996 -24.1754 -24.1597 -24.1587 -24.1583 -24.1516 -24.1386 -24.1156
   -24.1064 -24.0648 -24.0274 -24.0057 -23.9785 -23.9658 -23.9639 -23.9607
   -23.2148 -23.1739 -23.1708 -23.1651 -23.1639 -23.1558 -23.1435 -23.1328
   -23.1276 -23.0863 -23.0775 -23.0737 -23.0716 -23.0710 -23.0616 -23.0501
   -23.0492 -23.0482 -23.0359 -23.0307 -23.0286 -23.0218 -23.0006 -22.9930
    12.3023  13.8113  14.8316  14.9544  15.0428  15.1505  15.4605  15.4993
    15.5467  15.6098  15.7674  15.7863  15.9528  16.0745  16.1150  16.3770
    16.4866  16.6393  16.8502  16.9801  16.9924  17.0227  17.0593  17.1705
    17.1901  17.2138  17.4091  17.4306  17.5667  17.6821  17.7118  17.7597
    18.0310  18.0386  18.1167  18.1724  18.2137  18.2744  18.2897  18.2912
    18.3344  18.3582  18.5542  18.6288  18.6979  18.7390  19.0035  19.0118
    19.5373  19.6055  19.6258  19.9265  19.9783  20.0630  20.1765  20.1914
    20.2346  20.3336  20.4189  20.4847  20.4989  20.5293  20.6376  20.6548
    20.7025  20.7294  20.7616  20.7914  20.7926  20.9852  21.0041  21.1123
    21.1213

          k =-0.1667-0.5000 0.1667 (  9786 PWs)   bands (ev):

   -66.9822 -66.9822 -52.7024 -52.7024 -52.6822 -52.6822 -52.6714 -52.6714
   -51.7813 -51.7813 -51.7774 -51.7767 -51.7767 -51.7763 -51.7631 -51.7629
   -33.0733 -33.0733 -33.0719 -33.0719 -33.0704 -33.0704 -24.1941 -24.1941
   -24.1909 -24.1908 -24.1568 -24.1568 -24.1540 -24.1540 -24.1314 -24.1314
   -24.1012 -24.1012 -24.0358 -24.0358 -23.9708 -23.9708 -23.9631 -23.9631
   -23.1916 -23.1915 -23.1510 -23.1505 -23.1449 -23.1448 -23.1202 -23.1201
   -23.1134 -23.1134 -23.1105 -23.1102 -23.0718 -23.0715 -23.0662 -23.0657
   -23.0418 -23.0418 -23.0353 -23.0352 -23.0183 -23.0182 -23.0062 -23.0062
    12.9741  12.9742  14.9888  14.9889  15.1072  15.1072  15.7620  15.7621
    15.8413  15.8413  15.9351  15.9351  15.9666  15.9666  16.0864  16.0864
    16.1745  16.1745  16.9022  16.9022  16.9669  16.9669  17.3973  17.3974
    17.4419  17.4420  17.4599  17.4601  17.5428  17.5429  17.9136  17.9138
    17.9235  17.9236  18.0268  18.0269  18.1380  18.1381  18.1559  18.1560
    18.1589  18.1590  18.1868  18.1869  18.2269  18.2270  19.1448  19.1448
    19.9432  19.9433  19.9479  19.9479  20.0024  20.0024  20.0690  20.0690
    20.1856  20.1856  20.2182  20.2182  20.5840  20.5840  20.6696  20.6697
    20.7318  20.7320  20.8911  20.8914  20.9062  20.9064  21.0335  21.0335
    21.0455

          k =-0.1667 0.3333 0.3333 (  9765 PWs)   bands (ev):

   -66.9822 -66.9821 -52.7050 -52.6943 -52.6876 -52.6792 -52.6743 -52.6716
   -51.7822 -51.7801 -51.7793 -51.7777 -51.7745 -51.7702 -51.7699 -51.7618
   -33.0738 -33.0731 -33.0727 -33.0711 -33.0706 -33.0698 -24.2111 -24.2050
   -24.1812 -24.1687 -24.1671 -24.1597 -24.1516 -24.1460 -24.1274 -24.1267
   -24.1065 -24.0668 -24.0297 -24.0147 -23.9953 -23.9934 -23.9688 -23.9684
   -23.2044 -23.1748 -23.1656 -23.1567 -23.1525 -23.1517 -23.1349 -23.1257
   -23.1135 -23.1009 -23.0982 -23.0906 -23.0851 -23.0793 -23.0602 -23.0484
   -23.0472 -23.0438 -23.0382 -23.0323 -23.0216 -23.0141 -23.0110 -22.9976
    12.7101  14.0544  14.1549  14.8332  15.1442  15.4243  15.5234  15.7324
    15.7728  15.8570  15.9891  16.0074  16.1149  16.1233  16.3052  16.3604
    16.5591  16.6496  16.6826  16.8867  16.9626  17.0928  17.1079  17.2170
    17.2184  17.2241  17.2447  17.2954  17.4712  17.6870  17.7104  17.7576
    17.8060  17.8150  17.8676  17.9933  18.0027  18.0162  18.0312  18.0865
    18.1193  18.1603  18.1895  18.2692  18.3005  18.5629  18.5870  19.1394
    19.8322  19.8541  19.9036  20.0557  20.0857  20.1064  20.1538  20.1951
    20.3630  20.3789  20.4190  20.4688  20.4732  20.4780  20.5351  20.5757
    20.6222  20.6505  20.6980  20.8352  20.8495  20.9141  20.9302  21.0035
    21.0352

          k = 0.1667 0.3333-0.3333 (  9765 PWs)   bands (ev):

   -66.9822 -66.9821 -52.7050 -52.6943 -52.6876 -52.6792 -52.6743 -52.6716
   -51.7825 -51.7799 -51.7789 -51.7778 -51.7747 -51.7703 -51.7697 -51.7618
   -33.0738 -33.0731 -33.0727 -33.0711 -33.0706 -33.0698 -24.2111 -24.2050
   -24.1813 -24.1686 -24.1670 -24.1597 -24.1515 -24.1461 -24.1274 -24.1267
   -24.1065 -24.0668 -24.0296 -24.0147 -23.9953 -23.9934 -23.9687 -23.9684
   -23.2047 -23.1744 -23.1655 -23.1566 -23.1529 -23.1522 -23.1346 -23.1258
   -23.1136 -23.1008 -23.0979 -23.0906 -23.0852 -23.0793 -23.0604 -23.0481
   -23.0471 -23.0439 -23.0379 -23.0326 -23.0219 -23.0138 -23.0109 -22.9978
    12.7101  14.0543  14.1549  14.8332  15.1442  15.4243  15.5234  15.7323
    15.7728  15.8570  15.9892  16.0073  16.1150  16.1233  16.3052  16.3604
    16.5591  16.6495  16.6826  16.8867  16.9626  17.0928  17.1079  17.2170
    17.2184  17.2242  17.2448  17.2954  17.4711  17.6870  17.7104  17.7577
    17.8059  17.8151  17.8676  17.9933  18.0027  18.0161  18.0312  18.0865
    18.1193  18.1602  18.1895  18.2693  18.3005  18.5628  18.5871  19.1394
    19.8321  19.8542  19.9035  20.0559  20.0855  20.1065  20.1536  20.1952
    20.3630  20.3789  20.4191  20.4688  20.4730  20.4782  20.5353  20.5755
    20.6222  20.6505  20.6980  20.8351  20.8495  20.9141  20.9302  21.0034
    21.0351

          k =-0.1667-0.5000 0.3333 (  9772 PWs)   bands (ev):

   -66.9822 -66.9822 -52.6987 -52.6987 -52.6838 -52.6838 -52.6735 -52.6735
   -51.7813 -51.7810 -51.7771 -51.7767 -51.7739 -51.7738 -51.7660 -51.7658
   -33.0736 -33.0736 -33.0719 -33.0719 -33.0700 -33.0700 -24.1894 -24.1894
   -24.1839 -24.1839 -24.1549 -24.1549 -24.1497 -24.1496 -24.1283 -24.1283
   -24.0777 -24.0777 -24.0414 -24.0414 -23.9983 -23.9983 -23.9711 -23.9711
   -23.1911 -23.1908 -23.1532 -23.1527 -23.1396 -23.1395 -23.1307 -23.1305
   -23.1099 -23.1098 -23.1035 -23.1035 -23.0934 -23.0931 -23.0527 -23.0525
   -23.0388 -23.0386 -23.0356 -23.0353 -23.0222 -23.0220 -23.0051 -23.0049
    13.3378  13.3378  14.4871  14.4871  15.3801  15.3801  15.9575  15.9576
    15.9900  15.9900  16.0292  16.0292  16.1863  16.1863  16.2932  16.2932
    16.3171  16.3171  16.9724  16.9724  17.0608  17.0609  17.0905  17.0906
    17.1959  17.1959  17.3260  17.3260  17.5075  17.5075  17.6225  17.6225
    17.7221  17.7221  17.8779  17.8780  17.9064  17.9064  17.9680  17.9681
    18.0108  18.0109  18.0740  18.0740  18.1274  18.1274  18.9141  18.9141
    19.9926  19.9926  20.0921  20.0921  20.1941  20.1941  20.2221  20.2222
    20.2846  20.2846  20.3076  20.3076  20.5365  20.5365  20.5615  20.5616
    20.7475  20.7476  20.7807  20.7810  20.8006  20.8008  20.8758  20.8758
    20.9420

          k =-0.3333 0.3333 0.3333 (  9792 PWs)   bands (ev):

   -66.9823 -66.9821 -52.7005 -52.6901 -52.6901 -52.6785 -52.6785 -52.6744
   -51.7810 -51.7797 -51.7774 -51.7767 -51.7727 -51.7721 -51.7715 -51.7646
   -33.0733 -33.0730 -33.0730 -33.0706 -33.0706 -33.0704 -24.1858 -24.1784
   -24.1784 -24.1634 -24.1634 -24.1538 -24.1385 -24.1303 -24.1303 -24.1030
   -24.1000 -24.1000 -24.0214 -24.0214 -24.0207 -24.0207 -24.0054 -23.9842
   -23.1879 -23.1662 -23.1657 -23.1507 -23.1504 -23.1284 -23.1280 -23.1202
   -23.1090 -23.1055 -23.0855 -23.0851 -23.0842 -23.0759 -23.0757 -23.0626
   -23.0526 -23.0524 -23.0441 -23.0425 -23.0188 -23.0184 -23.0163 -23.0161
    13.1055  14.3234  14.4822  14.4823  15.1249  15.2868  15.2868  16.0184
    16.0318  16.0318  16.2350  16.2351  16.3281  16.4131  16.4453  16.4453
    16.5503  16.6261  16.7164  16.7164  16.9709  16.9709  17.1788  17.2029
    17.2029  17.3707  17.3708  17.3787  17.3788  17.3929  17.6233  17.6435
    17.6435  17.6527  17.6811  17.6812  17.7331  17.7338  17.7498  17.7500
    17.8778  17.8779  17.9380  17.9380  18.0898  18.1385  18.1386  18.8484
    20.0821  20.0822  20.1172  20.1271  20.3012  20.3529  20.3531  20.3988
    20.3988  20.4671  20.5205  20.5206  20.5334  20.5752  20.5752  20.6806
    20.6807  20.8226  20.8226  20.8246  20.8246  20.8681  20.8696  21.0378
    21.0379

          k =-0.3333-0.5000 0.3333 (  9770 PWs)   bands (ev):

   -66.9822 -66.9822 -52.6948 -52.6948 -52.6843 -52.6843 -52.6770 -52.6770
   -51.7800 -51.7798 -51.7756 -51.7750 -51.7745 -51.7740 -51.7685 -51.7683
   -33.0732 -33.0732 -33.0718 -33.0718 -33.0704 -33.0704 -24.1724 -24.1723
   -24.1651 -24.1651 -24.1434 -24.1434 -24.1423 -24.1423 -24.1155 -24.1155
   -24.0788 -24.0787 -24.0606 -24.0606 -24.0200 -24.0200 -24.0035 -24.0035
   -23.1762 -23.1761 -23.1522 -23.1517 -23.1301 -23.1300 -23.1181 -23.1180
   -23.0988 -23.0987 -23.0986 -23.0981 -23.0857 -23.0854 -23.0682 -23.0678
   -23.0470 -23.0470 -23.0468 -23.0465 -23.0301 -23.0300 -23.0183 -23.0183
    13.7063  13.7063  14.8002  14.8002  14.9130  14.9131  15.8159  15.8159
    16.2633  16.2633  16.2819  16.2819  16.3497  16.3497  16.4923  16.4923
    16.5413  16.5413  17.0040  17.0042  17.0652  17.0652  17.0748  17.0748
    17.1361  17.1361  17.3573  17.3574  17.3828  17.3829  17.4518  17.4519
    17.5318  17.5318  17.6265  17.6266  17.6330  17.6331  17.7073  17.7074
    17.7668  17.7668  17.7692  17.7692  17.8308  17.8308  18.3847  18.3847
    20.2868  20.2868  20.3251  20.3251  20.3894  20.3895  20.4051  20.4052
    20.4483  20.4483  20.5187  20.5187  20.5998  20.5998  20.7346  20.7348
    20.7601  20.7602  20.7814  20.7815  20.8234  20.8234  20.8590  20.8591
    20.8737

     the Fermi energy is    19.3965 ev

!    total energy              =   -4133.53112060 Ry
     total all-electron energy =    -34515.581686 Ry
     estimated scf accuracy    <       0.00000009 Ry
     smearing contrib. (-TS)   =       0.00111480 Ry
     internal energy E=F+TS    =   -4133.53223540 Ry

     The total energy is F=E-TS. E is the sum of the following terms:
     one-electron contribution =   -1002.34255437 Ry
     hartree contribution      =     641.82574572 Ry
     xc contribution           =    -367.56869022 Ry
     ewald contribution        =   -2200.41328518 Ry
     one-center paw contrib.   =   -1205.03345134 Ry

     total magnetization       =     3.67 Bohr mag/cell
     absolute magnetization    =    14.77 Bohr mag/cell

     convergence has been achieved in  62 iterations


     Computing stress (Cartesian axis) and pressure

          total   stress  (Ry/bohr**3)                   (kbar)     P=       -0.96
  -0.00000650   0.00000007   0.00000007           -0.96        0.01        0.01
   0.00000007  -0.00000650   0.00000007            0.01       -0.96        0.01
   0.00000007   0.00000007  -0.00000650            0.01        0.01       -0.96


     Writing all to output data dir ./tmp/fecr_fe02cr14_h0.00_thr7.save/ :
     XML data file, charge density, pseudopotentials, collected wavefunctions
 
     init_run     :     11.04s CPU      9.73s WALL (       1 calls)
     electrons    :   1074.56s CPU    945.29s WALL (       1 calls)
     stress       :      9.70s CPU      9.38s WALL (       1 calls)

     Called by init_run:
     wfcinit      :      3.08s CPU      3.69s WALL (       1 calls)
     potinit      :      6.99s CPU      4.94s WALL (       1 calls)
     hinit0       :      0.71s CPU      0.72s WALL (       1 calls)

     Called by electrons:
     c_bands      :    579.30s CPU    580.72s WALL (      62 calls)
     sum_band     :     58.75s CPU     58.88s WALL (      62 calls)
     v_of_rho     :      0.89s CPU      0.83s WALL (      63 calls)
     newd         :      3.65s CPU      3.68s WALL (      63 calls)
                                        3.68s GPU  (      63 calls)
     PAW_pot      :    433.06s CPU    300.16s WALL (      63 calls)
     mix_rho      :      4.21s CPU      4.25s WALL (      62 calls)

     Called by c_bands:
     init_us_2    :      4.95s CPU      4.69s WALL (    8064 calls)
     cegterg      :    521.08s CPU    522.48s WALL (    3968 calls)

     Called by *egterg:
     cdiaghg      :    177.05s CPU    178.40s WALL (   21063 calls)
                                      178.32s GPU  (   21063 calls)
     h_psi        :    160.44s CPU    161.13s WALL (   21127 calls)
                                      160.97s GPU  (   21127 calls)
     s_psi        :     10.61s CPU     10.76s WALL (   21127 calls)
     g_psi        :      0.09s CPU      0.90s WALL (   17095 calls)
                                        0.85s GPU  (   17095 calls)

     Called by h_psi:
     h_psi:calbec :      0.78s CPU     35.05s WALL (   21127 calls)
                                       34.97s GPU  (   21127 calls)
     vloc_psi     :     83.10s CPU     82.71s WALL (   21127 calls)
                                       82.64s GPU  (   21127 calls)
     add_vuspsi   :     10.39s CPU     42.23s WALL (   21127 calls)
                                       42.15s GPU  (   21127 calls)

     General routines
     calbec       :      0.96s CPU      1.00s WALL (   25159 calls)
     fft          :      0.72s CPU      0.87s WALL (    1594 calls)
                                        0.20s GPU  (    1468 calls)
     ffts         :      0.26s CPU      0.30s WALL (    1465 calls)
                                        0.06s GPU  (    1339 calls)
     fftw         :      4.67s CPU     77.68s WALL (  222816 calls)
                                       77.13s GPU  (  222816 calls)
     interpolate  :      1.00s CPU      1.00s WALL (     126 calls)
 
     Parallel routines
 
     PWSCF        :  18m16.38s CPU  16m 6.42s WALL

 
   This run was terminated on:   5: 3:43  25May2026            

=------------------------------------------------------------------------------=
   JOB DONE.
=------------------------------------------------------------------------------=
Warning: ieee_divide_by_zero is signaling
Warning: ieee_inexact is signaling
FORTRAN STOP
