--------------------------------------------------------------------------
WARNING: Open MPI tried to bind a process but failed.  This is a
warning only; your job will continue, though performance may
be degraded.

  Local host:        4b82db919bf5
  Application name:  /root/q-e-qe-7.3.1/bin/pw.x
  Error message:     failed to bind memory
  Location:          ../../../../../orte/mca/rtc/hwloc/rtc_hwloc.c:447

--------------------------------------------------------------------------

     Program PWSCF v.7.3.1 starts on 20May2026 at  8:22:54 

     This program is part of the open-source Quantum ESPRESSO suite
     for quantum simulation of materials; please cite
         "P. Giannozzi et al., J. Phys.:Condens. Matter 21 395502 (2009);
         "P. Giannozzi et al., J. Phys.:Condens. Matter 29 465901 (2017);
         "P. Giannozzi et al., J. Chem. Phys. 152 154105 (2020);
          URL http://www.quantum-espresso.org", 
     in publications or presentations arising from this work. More details at
     http://www.quantum-espresso.org/quote

     Parallel version (MPI & OpenMP), running on       8 processor cores
     Number of MPI processes:                 1
     Threads/MPI process:                     8

     MPI processes distributed on     1 nodes
     194915 MiB available memory on the printing compute node when the environment starts
 
     Reading input from inputs/fecr_fe06cr10_h0.01.in

     Current dimensions of program PWSCF are:
     Max number of different atomic species (ntypx) = 10
     Max number of k-points (npk) =  40000
     Max angular momentum in pseudopotentials (lmaxx) =  4
     file Fe.pbe-spn-kjpaw_psl.1.0.0.UPF: wavefunction(s)  3P 3D renormalized
     file Cr.pbe-spn-kjpaw_psl.1.0.0.UPF: wavefunction(s)  3S 3P 3D renormalized
     Found identity + ( -0.5000 -0.5000 -0.5000) symmetry
     This is a supercell, fractional translations are disabled
     Message from routine setup:
     using ibrav=0 with symmetry is DISCOURAGED, use correct ibrav instead
 
     Subspace diagonalization in iterative solution of the eigenvalue problem:
     a serial algorithm will be used

 
     G-vector sticks info
     --------------------
     sticks:   dense  smooth     PW     G-vecs:    dense   smooth      PW
     Sum        4397    2209    621               219799    77605   11753
 
     Using Slab Decomposition
 


     bravais-lattice index     =            0
     lattice parameter (alat)  =      10.7356  a.u.
     unit-cell volume          =    1237.3244 (a.u.)^3
     number of atoms/cell      =           16
     number of atomic types    =            2
     number of electrons       =       236.00
     number of Kohn-Sham states=          142
     kinetic-energy cutoff     =      60.0000  Ry
     charge density cutoff     =     480.0000  Ry
     scf convergence threshold =      1.0E-07
     mixing beta               =       0.3000
     number of iterations used =            8  plain     mixing
     Exchange-correlation= SLA  PW   PBX  PBC
                           (   1   4   3   4   0   0   0)

     GPU acceleration is ACTIVE.  1 visible GPUs per MPI rank


     celldm(1)=  10.735638  celldm(2)=   0.000000  celldm(3)=   0.000000
     celldm(4)=   0.000000  celldm(5)=   0.000000  celldm(6)=   0.000000

     crystal axes: (cart. coord. in units of alat)
               a(1) = (   1.000000   0.000000   0.000000 )  
               a(2) = (   0.000000   1.000000   0.000000 )  
               a(3) = (   0.000000   0.000000   1.000000 )  

     reciprocal axes: (cart. coord. in units 2 pi/alat)
               b(1) = (  1.000000  0.000000  0.000000 )  
               b(2) = (  0.000000  1.000000  0.000000 )  
               b(3) = (  0.000000  0.000000  1.000000 )  


     PseudoPot. # 1 for Fe read from file:
     ./pseudo/Fe.pbe-spn-kjpaw_psl.1.0.0.UPF
     MD5 check sum: fc81f059e5c5069939230b1155715ae8
     Pseudo is Projector augmented-wave + core cor, Zval = 16.0
     Generated using &quot;atomic&quot; code by A. Dal Corso  v.6.3
     Shape of augmentation charge: PSQ
     Using radial grid of 1191 points,  6 beta functions with: 
                l(1) =   0
                l(2) =   0
                l(3) =   1
                l(4) =   1
                l(5) =   2
                l(6) =   2
     Q(r) pseudized with 0 coefficients 


     PseudoPot. # 2 for Cr read from file:
     ./pseudo/Cr.pbe-spn-kjpaw_psl.1.0.0.UPF
     MD5 check sum: 198f1a2427a48552563eee314eba32ba
     Pseudo is Projector augmented-wave + core cor, Zval = 14.0
     Generated using &quot;atomic&quot; code by A. Dal Corso  v.6.3
     Shape of augmentation charge: PSQ
     Using radial grid of 1183 points,  6 beta functions with: 
                l(1) =   0
                l(2) =   0
                l(3) =   1
                l(4) =   1
                l(5) =   2
                l(6) =   2
     Q(r) pseudized with 0 coefficients 


     atomic species   valence    mass     pseudopotential
     Fe               16.00    55.84500     Fe( 1.00)
     Cr               14.00    51.99600     Cr( 1.00)

     Starting magnetic structure 
     atomic species   magnetization
     Fe              0.500
     Cr              0.300

      4 Sym. Ops., with inversion, found



   Cartesian axes

     site n.     atom                  positions (alat units)
         1        Cr     tau(   1) = (   0.0000000   0.0000000   0.0000000  )
         2        Fe     tau(   2) = (   0.2500000   0.2500000   0.2500000  )
         3        Fe     tau(   3) = (   0.0000000   0.0000000   0.5000000  )
         4        Cr     tau(   4) = (   0.2500000   0.2500000   0.7500000  )
         5        Cr     tau(   5) = (   0.0000000   0.5000000   0.0000000  )
         6        Fe     tau(   6) = (   0.2500000   0.7500000   0.2500000  )
         7        Cr     tau(   7) = (   0.0000000   0.5000000   0.5000000  )
         8        Cr     tau(   8) = (   0.2500000   0.7500000   0.7500000  )
         9        Cr     tau(   9) = (   0.5000000   0.0000000   0.0000000  )
        10        Cr     tau(  10) = (   0.7500000   0.2500000   0.2500000  )
        11        Cr     tau(  11) = (   0.5000000   0.0000000   0.5000000  )
        12        Fe     tau(  12) = (   0.7500000   0.2500000   0.7500000  )
        13        Fe     tau(  13) = (   0.5000000   0.5000000   0.0000000  )
        14        Cr     tau(  14) = (   0.7500000   0.7500000   0.2500000  )
        15        Cr     tau(  15) = (   0.5000000   0.5000000   0.5000000  )
        16        Fe     tau(  16) = (   0.7500000   0.7500000   0.7500000  )

     number of k points=    80  Marzari-Vanderbilt smearing, width (Ry)=  0.0200
                       cart. coord. in units 2pi/alat
        k(    1) = (   0.0000000   0.0000000   0.0000000), wk =   0.0046296
        k(    2) = (   0.0000000   0.0000000   0.1666667), wk =   0.0092593
        k(    3) = (   0.0000000   0.0000000   0.3333333), wk =   0.0092593
        k(    4) = (   0.0000000   0.0000000  -0.5000000), wk =   0.0046296
        k(    5) = (   0.0000000   0.1666667   0.1666667), wk =   0.0185185
        k(    6) = (   0.0000000   0.1666667   0.3333333), wk =   0.0185185
        k(    7) = (   0.0000000   0.1666667  -0.5000000), wk =   0.0092593
        k(    8) = (   0.0000000   0.3333333   0.3333333), wk =   0.0185185
        k(    9) = (   0.0000000   0.3333333  -0.5000000), wk =   0.0092593
        k(   10) = (   0.0000000  -0.5000000  -0.5000000), wk =   0.0046296
        k(   11) = (   0.1666667   0.1666667   0.1666667), wk =   0.0185185
        k(   12) = (   0.1666667   0.1666667   0.3333333), wk =   0.0185185
        k(   13) = (   0.1666667   0.1666667  -0.5000000), wk =   0.0185185
        k(   14) = (   0.1666667   0.3333333   0.3333333), wk =   0.0185185
        k(   15) = (   0.1666667   0.3333333  -0.5000000), wk =   0.0185185
        k(   16) = (   0.1666667  -0.5000000  -0.5000000), wk =   0.0092593
        k(   17) = (   0.3333333   0.3333333   0.3333333), wk =   0.0185185
        k(   18) = (   0.3333333   0.3333333  -0.5000000), wk =   0.0185185
        k(   19) = (   0.3333333  -0.5000000  -0.5000000), wk =   0.0092593
        k(   20) = (  -0.5000000  -0.5000000  -0.5000000), wk =   0.0046296
        k(   21) = (   0.1666667   0.0000000   0.0000000), wk =   0.0092593
        k(   22) = (   0.0000000   0.1666667   0.0000000), wk =   0.0092593
        k(   23) = (   0.3333333   0.0000000   0.0000000), wk =   0.0092593
        k(   24) = (   0.0000000   0.3333333   0.0000000), wk =   0.0092593
        k(   25) = (  -0.5000000   0.0000000   0.0000000), wk =   0.0046296
        k(   26) = (   0.0000000  -0.5000000   0.0000000), wk =   0.0046296
        k(   27) = (   0.1666667   0.0000000  -0.1666667), wk =   0.0092593
        k(   28) = (  -0.1666667   0.0000000  -0.1666667), wk =   0.0092593
        k(   29) = (   0.1666667  -0.1666667   0.0000000), wk =   0.0185185
        k(   30) = (   0.1666667   0.0000000  -0.3333333), wk =   0.0092593
        k(   31) = (  -0.1666667   0.0000000  -0.3333333), wk =   0.0092593
        k(   32) = (   0.3333333  -0.1666667   0.0000000), wk =   0.0185185
        k(   33) = (   0.0000000   0.3333333   0.1666667), wk =   0.0185185
        k(   34) = (   0.1666667   0.3333333   0.0000000), wk =   0.0185185
        k(   35) = (   0.3333333   0.0000000   0.1666667), wk =   0.0092593
        k(   36) = (   0.3333333   0.0000000  -0.1666667), wk =   0.0092593
        k(   37) = (   0.1666667   0.0000000   0.5000000), wk =   0.0092593
        k(   38) = (  -0.5000000  -0.1666667   0.0000000), wk =   0.0092593
        k(   39) = (   0.0000000  -0.5000000   0.1666667), wk =   0.0092593
        k(   40) = (   0.1666667  -0.5000000   0.0000000), wk =   0.0092593
        k(   41) = (  -0.5000000   0.0000000   0.1666667), wk =   0.0092593
        k(   42) = (   0.3333333   0.0000000  -0.3333333), wk =   0.0092593
        k(   43) = (  -0.3333333   0.0000000  -0.3333333), wk =   0.0092593
        k(   44) = (   0.3333333  -0.3333333   0.0000000), wk =   0.0185185
        k(   45) = (   0.3333333   0.0000000   0.5000000), wk =   0.0092593
        k(   46) = (  -0.5000000  -0.3333333   0.0000000), wk =   0.0092593
        k(   47) = (   0.0000000  -0.5000000   0.3333333), wk =   0.0092593
        k(   48) = (   0.3333333  -0.5000000   0.0000000), wk =   0.0092593
        k(   49) = (  -0.5000000   0.0000000   0.3333333), wk =   0.0092593
        k(   50) = (  -0.5000000   0.0000000   0.5000000), wk =   0.0046296
        k(   51) = (  -0.5000000   0.5000000   0.0000000), wk =   0.0046296
        k(   52) = (   0.1666667   0.1666667  -0.1666667), wk =   0.0185185
        k(   53) = (   0.1666667   0.1666667  -0.3333333), wk =   0.0185185
        k(   54) = (   0.3333333  -0.1666667   0.1666667), wk =   0.0185185
        k(   55) = (   0.3333333   0.1666667  -0.1666667), wk =   0.0185185
        k(   56) = (  -0.1666667   0.3333333   0.1666667), wk =   0.0185185
        k(   57) = (  -0.1666667  -0.3333333  -0.1666667), wk =   0.0185185
        k(   58) = (  -0.5000000  -0.1666667   0.1666667), wk =   0.0185185
        k(   59) = (  -0.1666667  -0.5000000   0.1666667), wk =   0.0092593
        k(   60) = (  -0.1666667   0.5000000  -0.1666667), wk =   0.0092593
        k(   61) = (   0.3333333   0.1666667  -0.3333333), wk =   0.0185185
        k(   62) = (  -0.3333333  -0.1666667  -0.3333333), wk =   0.0185185
        k(   63) = (   0.3333333  -0.3333333   0.1666667), wk =   0.0185185
        k(   64) = (   0.3333333   0.3333333  -0.1666667), wk =   0.0185185
        k(   65) = (  -0.1666667   0.3333333   0.3333333), wk =   0.0185185
        k(   66) = (   0.3333333   0.1666667   0.5000000), wk =   0.0185185
        k(   67) = (  -0.5000000  -0.3333333   0.1666667), wk =   0.0185185
        k(   68) = (  -0.1666667  -0.5000000   0.3333333), wk =   0.0092593
        k(   69) = (  -0.1666667   0.5000000  -0.3333333), wk =   0.0092593
        k(   70) = (   0.3333333  -0.5000000   0.1666667), wk =   0.0092593
        k(   71) = (   0.3333333   0.5000000  -0.1666667), wk =   0.0092593
        k(   72) = (  -0.5000000   0.1666667   0.3333333), wk =   0.0185185
        k(   73) = (  -0.5000000   0.1666667   0.5000000), wk =   0.0092593
        k(   74) = (  -0.5000000   0.5000000   0.1666667), wk =   0.0092593
        k(   75) = (   0.3333333   0.3333333  -0.3333333), wk =   0.0185185
        k(   76) = (  -0.5000000  -0.3333333   0.3333333), wk =   0.0185185
        k(   77) = (  -0.3333333  -0.5000000   0.3333333), wk =   0.0092593
        k(   78) = (  -0.3333333   0.5000000  -0.3333333), wk =   0.0092593
        k(   79) = (  -0.5000000   0.3333333   0.5000000), wk =   0.0092593
        k(   80) = (  -0.5000000   0.5000000   0.3333333), wk =   0.0092593

     Dense  grid:   219799 G-vectors     FFT dimensions: (  75,  75,  75)

     Smooth grid:    77605 G-vectors     FFT dimensions: (  54,  54,  54)

     Estimated max dynamical RAM per process >       4.22 GB

     Check: negative core charge=   -0.000003
     Generating pointlists ...
     new r_m :   0.1786 (alat units)  1.9176 (a.u.) for type    1
     new r_m :   0.1786 (alat units)  1.9176 (a.u.) for type    2

     Initial potential from superposition of free atoms

     starting charge     235.9896, renormalised to     236.0000
     Starting wfcs are  160 randomized atomic wfcs
     Checking if some PAW data can be deallocated... 

     total cpu time spent up to now is       28.1 secs

     Self-consistent Calculation

     iteration #  1     ecut=    60.00 Ry     beta= 0.30
     Davidson diagonalization with overlap
     ethr =  1.00E-02,  avg # of iterations =  5.1

     negative rho (up, down):  1.363E-01 1.732E+00

     total cpu time spent up to now is       74.9 secs

     total energy              =   -4442.80314477 Ry
     estimated scf accuracy    <     234.75155764 Ry

     total magnetization       =    47.43 Bohr mag/cell
     absolute magnetization    =    66.00 Bohr mag/cell

     iteration #  2     ecut=    60.00 Ry     beta= 0.30
     Davidson diagonalization with overlap
     ethr =  1.00E-02,  avg # of iterations =  5.2

     negative rho (up, down):  9.533E-02 1.308E+00

     total cpu time spent up to now is      120.6 secs

     total energy              =   -4444.05585212 Ry
     estimated scf accuracy    <      75.18490603 Ry

     total magnetization       =    23.56 Bohr mag/cell
     absolute magnetization    =    24.31 Bohr mag/cell

     iteration #  3     ecut=    60.00 Ry     beta= 0.30
     Davidson diagonalization with overlap
     ethr =  1.00E-02,  avg # of iterations =  5.9

     negative rho (up, down):  7.386E-02 1.143E+00

     total cpu time spent up to now is      172.1 secs

     total energy              =   -4445.49128431 Ry
     estimated scf accuracy    <     150.65563824 Ry

     total magnetization       =    23.20 Bohr mag/cell
     absolute magnetization    =    23.56 Bohr mag/cell

     iteration #  4     ecut=    60.00 Ry     beta= 0.30
     Davidson diagonalization with overlap
     ethr =  1.00E-02,  avg # of iterations =  3.9

     negative rho (up, down):  6.037E-02 1.028E+00

     total cpu time spent up to now is      215.6 secs

     total energy              =   -4454.20490278 Ry
     estimated scf accuracy    <      18.53552904 Ry

     total magnetization       =    25.52 Bohr mag/cell
     absolute magnetization    =    26.46 Bohr mag/cell

     iteration #  5     ecut=    60.00 Ry     beta= 0.30
     Davidson diagonalization with overlap
     ethr =  7.85E-03,  avg # of iterations =  2.5

     negative rho (up, down):  2.292E-02 6.772E-01

     total cpu time spent up to now is      255.1 secs

     total energy              =   -4455.38549316 Ry
     estimated scf accuracy    <      17.29686452 Ry

     total magnetization       =    25.52 Bohr mag/cell
     absolute magnetization    =    26.23 Bohr mag/cell

     iteration #  6     ecut=    60.00 Ry     beta= 0.30
     Davidson diagonalization with overlap
     ethr =  7.33E-03,  avg # of iterations =  2.7

     negative rho (up, down):  6.445E-03 3.809E-01

     total cpu time spent up to now is      294.1 secs

     total energy              =   -4456.00039212 Ry
     estimated scf accuracy    <      14.39504846 Ry

     total magnetization       =    25.63 Bohr mag/cell
     absolute magnetization    =    26.26 Bohr mag/cell

     iteration #  7     ecut=    60.00 Ry     beta= 0.30
     Davidson diagonalization with overlap
     ethr =  6.10E-03,  avg # of iterations =  1.2

     negative rho (up, down):  1.207E-03 2.488E-01

     total cpu time spent up to now is      330.1 secs

     total energy              =   -4456.81609957 Ry
     estimated scf accuracy    <       6.96518215 Ry

     total magnetization       =    22.67 Bohr mag/cell
     absolute magnetization    =    23.43 Bohr mag/cell

     iteration #  8     ecut=    60.00 Ry     beta= 0.30
     Davidson diagonalization with overlap
     ethr =  2.95E-03,  avg # of iterations =  1.4

     negative rho (up, down):  0.000E+00 9.991E-02

     total cpu time spent up to now is      366.6 secs

     total energy              =   -4457.11267487 Ry
     estimated scf accuracy    <       3.42934032 Ry

     total magnetization       =    20.62 Bohr mag/cell
     absolute magnetization    =    21.57 Bohr mag/cell

     iteration #  9     ecut=    60.00 Ry     beta= 0.30
     Davidson diagonalization with overlap
     ethr =  1.45E-03,  avg # of iterations =  1.8

     negative rho (up, down):  0.000E+00 2.158E-02

     total cpu time spent up to now is      403.8 secs

     total energy              =   -4457.32619995 Ry
     estimated scf accuracy    <       3.13650051 Ry

     total magnetization       =    19.21 Bohr mag/cell
     absolute magnetization    =    20.31 Bohr mag/cell

     iteration # 10     ecut=    60.00 Ry     beta= 0.30
     Davidson diagonalization with overlap
     ethr =  1.33E-03,  avg # of iterations =  1.9

     negative rho (up, down):  0.000E+00 5.600E-04

     total cpu time spent up to now is      441.5 secs

     total energy              =   -4457.42161497 Ry
     estimated scf accuracy    <       2.75318498 Ry

     total magnetization       =    17.39 Bohr mag/cell
     absolute magnetization    =    18.72 Bohr mag/cell

     iteration # 11     ecut=    60.00 Ry     beta= 0.30
     Davidson diagonalization with overlap
     ethr =  1.17E-03,  avg # of iterations =  1.1

     negative rho (up, down):  0.000E+00 4.125E-04

     total cpu time spent up to now is      476.5 secs

     total energy              =   -4457.50736958 Ry
     estimated scf accuracy    <       0.52118153 Ry

     total magnetization       =    15.16 Bohr mag/cell
     absolute magnetization    =    16.88 Bohr mag/cell

     iteration # 12     ecut=    60.00 Ry     beta= 0.30
     Davidson diagonalization with overlap
     c_bands:  2 eigenvalues not converged
     c_bands:  1 eigenvalues not converged
     ethr =  2.21E-04,  avg # of iterations =  7.8

     negative rho (up, down):  0.000E+00 2.045E-04

     total cpu time spent up to now is      528.2 secs

     total energy              =   -4457.55934835 Ry
     estimated scf accuracy    <       0.43902746 Ry

     total magnetization       =    14.42 Bohr mag/cell
     absolute magnetization    =    16.06 Bohr mag/cell

     iteration # 13     ecut=    60.00 Ry     beta= 0.30
     Davidson diagonalization with overlap
     ethr =  1.86E-04,  avg # of iterations =  1.5

     negative rho (up, down):  0.000E+00 5.209E-05

     total cpu time spent up to now is      564.5 secs

     total energy              =   -4457.58863727 Ry
     estimated scf accuracy    <       0.07200845 Ry

     total magnetization       =    13.85 Bohr mag/cell
     absolute magnetization    =    15.48 Bohr mag/cell

     iteration # 14     ecut=    60.00 Ry     beta= 0.30
     Davidson diagonalization with overlap
     c_bands:  1 eigenvalues not converged
     c_bands:  2 eigenvalues not converged
     c_bands:  3 eigenvalues not converged
     c_bands:  2 eigenvalues not converged
     ethr =  3.05E-05,  avg # of iterations =  9.4

     total cpu time spent up to now is      623.6 secs

     total energy              =   -4457.59459664 Ry
     estimated scf accuracy    <       0.22837839 Ry

     total magnetization       =    13.37 Bohr mag/cell
     absolute magnetization    =    14.93 Bohr mag/cell

     iteration # 15     ecut=    60.00 Ry     beta= 0.30
     Davidson diagonalization with overlap
     ethr =  3.05E-05,  avg # of iterations =  3.0

     total cpu time spent up to now is      664.2 secs

     total energy              =   -4457.60156634 Ry
     estimated scf accuracy    <       0.15803927 Ry

     total magnetization       =    13.21 Bohr mag/cell
     absolute magnetization    =    14.86 Bohr mag/cell

     iteration # 16     ecut=    60.00 Ry     beta= 0.30
     Davidson diagonalization with overlap
     c_bands:  1 eigenvalues not converged
     ethr =  3.05E-05,  avg # of iterations =  2.7

     total cpu time spent up to now is      703.9 secs

     total energy              =   -4457.61210299 Ry
     estimated scf accuracy    <       0.08306782 Ry

     total magnetization       =    12.95 Bohr mag/cell
     absolute magnetization    =    14.57 Bohr mag/cell

     iteration # 17     ecut=    60.00 Ry     beta= 0.30
     Davidson diagonalization with overlap
     ethr =  3.05E-05,  avg # of iterations =  2.0

     total cpu time spent up to now is      742.5 secs

     total energy              =   -4457.61919557 Ry
     estimated scf accuracy    <       0.09551686 Ry

     total magnetization       =    12.62 Bohr mag/cell
     absolute magnetization    =    14.21 Bohr mag/cell

     iteration # 18     ecut=    60.00 Ry     beta= 0.30
     Davidson diagonalization with overlap
     ethr =  3.05E-05,  avg # of iterations =  1.4

     total cpu time spent up to now is      779.2 secs

     total energy              =   -4457.62671710 Ry
     estimated scf accuracy    <       0.03676473 Ry

     total magnetization       =    11.89 Bohr mag/cell
     absolute magnetization    =    13.67 Bohr mag/cell

     iteration # 19     ecut=    60.00 Ry     beta= 0.30
     Davidson diagonalization with overlap
     ethr =  1.56E-05,  avg # of iterations =  2.8

     total cpu time spent up to now is      819.2 secs

     total energy              =   -4457.62925310 Ry
     estimated scf accuracy    <       0.05307590 Ry

     total magnetization       =    11.44 Bohr mag/cell
     absolute magnetization    =    13.34 Bohr mag/cell

     iteration # 20     ecut=    60.00 Ry     beta= 0.30
     Davidson diagonalization with overlap
     ethr =  1.56E-05,  avg # of iterations =  1.2

     total cpu time spent up to now is      855.7 secs

     total energy              =   -4457.63148411 Ry
     estimated scf accuracy    <       0.00922324 Ry

     total magnetization       =    11.27 Bohr mag/cell
     absolute magnetization    =    13.18 Bohr mag/cell

     iteration # 21     ecut=    60.00 Ry     beta= 0.30
     Davidson diagonalization with overlap
     c_bands:  1 eigenvalues not converged
     c_bands:  2 eigenvalues not converged
     ethr =  3.91E-06,  avg # of iterations =  5.2

     total cpu time spent up to now is      901.0 secs

     total energy              =   -4457.63183796 Ry
     estimated scf accuracy    <       0.00214620 Ry

     total magnetization       =    11.21 Bohr mag/cell
     absolute magnetization    =    13.11 Bohr mag/cell

     iteration # 22     ecut=    60.00 Ry     beta= 0.30
     Davidson diagonalization with overlap
     c_bands:  2 eigenvalues not converged
     c_bands:  1 eigenvalues not converged
     c_bands:  1 eigenvalues not converged
     c_bands:  1 eigenvalues not converged
     c_bands:  3 eigenvalues not converged
     ethr =  9.09E-07,  avg # of iterations =  8.8

     total cpu time spent up to now is      962.4 secs

     total energy              =   -4457.63093512 Ry
     estimated scf accuracy    <       0.04155507 Ry

     total magnetization       =    11.12 Bohr mag/cell
     absolute magnetization    =    12.99 Bohr mag/cell

     iteration # 23     ecut=    60.00 Ry     beta= 0.30
     Davidson diagonalization with overlap
     ethr =  9.09E-07,  avg # of iterations =  8.0

     total cpu time spent up to now is     1018.1 secs

     total energy              =   -4457.63266687 Ry
     estimated scf accuracy    <       0.00044821 Ry

     total magnetization       =    11.06 Bohr mag/cell
     absolute magnetization    =    12.95 Bohr mag/cell

     iteration # 24     ecut=    60.00 Ry     beta= 0.30
     Davidson diagonalization with overlap
     ethr =  1.90E-07,  avg # of iterations =  3.7

     total cpu time spent up to now is     1061.0 secs

     total energy              =   -4457.63265339 Ry
     estimated scf accuracy    <       0.00154527 Ry

     total magnetization       =    11.01 Bohr mag/cell
     absolute magnetization    =    12.91 Bohr mag/cell

     iteration # 25     ecut=    60.00 Ry     beta= 0.30
     Davidson diagonalization with overlap
     ethr =  1.90E-07,  avg # of iterations =  3.0

     total cpu time spent up to now is     1101.4 secs

     total energy              =   -4457.63275439 Ry
     estimated scf accuracy    <       0.00040459 Ry

     total magnetization       =    10.96 Bohr mag/cell
     absolute magnetization    =    12.88 Bohr mag/cell

     iteration # 26     ecut=    60.00 Ry     beta= 0.30
     Davidson diagonalization with overlap
     ethr =  1.71E-07,  avg # of iterations =  1.6

     total cpu time spent up to now is     1138.8 secs

     total energy              =   -4457.63279946 Ry
     estimated scf accuracy    <       0.00035997 Ry

     total magnetization       =    10.98 Bohr mag/cell
     absolute magnetization    =    12.87 Bohr mag/cell

     iteration # 27     ecut=    60.00 Ry     beta= 0.30
     Davidson diagonalization with overlap
     ethr =  1.53E-07,  avg # of iterations =  2.6

     total cpu time spent up to now is     1178.9 secs

     total energy              =   -4457.63283644 Ry
     estimated scf accuracy    <       0.00025075 Ry

     total magnetization       =    10.92 Bohr mag/cell
     absolute magnetization    =    12.82 Bohr mag/cell

     iteration # 28     ecut=    60.00 Ry     beta= 0.30
     Davidson diagonalization with overlap
     ethr =  1.06E-07,  avg # of iterations =  1.8

     total cpu time spent up to now is     1217.0 secs

     total energy              =   -4457.63286159 Ry
     estimated scf accuracy    <       0.00021652 Ry

     total magnetization       =    10.93 Bohr mag/cell
     absolute magnetization    =    12.82 Bohr mag/cell

     iteration # 29     ecut=    60.00 Ry     beta= 0.30
     Davidson diagonalization with overlap
     ethr =  9.17E-08,  avg # of iterations =  2.3

     total cpu time spent up to now is     1256.0 secs

     total energy              =   -4457.63287239 Ry
     estimated scf accuracy    <       0.00028950 Ry

     total magnetization       =    10.93 Bohr mag/cell
     absolute magnetization    =    12.81 Bohr mag/cell

     iteration # 30     ecut=    60.00 Ry     beta= 0.30
     Davidson diagonalization with overlap
     ethr =  9.17E-08,  avg # of iterations =  1.4

     total cpu time spent up to now is     1292.2 secs

     total energy              =   -4457.63287979 Ry
     estimated scf accuracy    <       0.00010539 Ry

     total magnetization       =    10.93 Bohr mag/cell
     absolute magnetization    =    12.80 Bohr mag/cell

     iteration # 31     ecut=    60.00 Ry     beta= 0.30
     Davidson diagonalization with overlap
     ethr =  4.47E-08,  avg # of iterations =  4.7

     total cpu time spent up to now is     1336.1 secs

     total energy              =   -4457.63290664 Ry
     estimated scf accuracy    <       0.00011281 Ry

     total magnetization       =    10.92 Bohr mag/cell
     absolute magnetization    =    12.79 Bohr mag/cell

     iteration # 32     ecut=    60.00 Ry     beta= 0.30
     Davidson diagonalization with overlap
     ethr =  4.47E-08,  avg # of iterations =  4.1

     total cpu time spent up to now is     1378.4 secs

     total energy              =   -4457.63291134 Ry
     estimated scf accuracy    <       0.00012405 Ry

     total magnetization       =    10.93 Bohr mag/cell
     absolute magnetization    =    12.77 Bohr mag/cell

     iteration # 33     ecut=    60.00 Ry     beta= 0.30
     Davidson diagonalization with overlap
     ethr =  4.47E-08,  avg # of iterations =  1.5

     total cpu time spent up to now is     1415.9 secs

     total energy              =   -4457.63293022 Ry
     estimated scf accuracy    <       0.00003570 Ry

     total magnetization       =    10.92 Bohr mag/cell
     absolute magnetization    =    12.77 Bohr mag/cell

     iteration # 34     ecut=    60.00 Ry     beta= 0.30
     Davidson diagonalization with overlap
     ethr =  1.51E-08,  avg # of iterations =  6.3

     total cpu time spent up to now is     1465.9 secs

     total energy              =   -4457.63293221 Ry
     estimated scf accuracy    <       0.00012960 Ry

     total magnetization       =    10.94 Bohr mag/cell
     absolute magnetization    =    12.76 Bohr mag/cell

     iteration # 35     ecut=    60.00 Ry     beta= 0.30
     Davidson diagonalization with overlap
     ethr =  1.51E-08,  avg # of iterations =  2.7

     total cpu time spent up to now is     1505.9 secs

     total energy              =   -4457.63294210 Ry
     estimated scf accuracy    <       0.00002605 Ry

     total magnetization       =    10.93 Bohr mag/cell
     absolute magnetization    =    12.76 Bohr mag/cell

     iteration # 36     ecut=    60.00 Ry     beta= 0.30
     Davidson diagonalization with overlap
     ethr =  1.10E-08,  avg # of iterations =  3.7

     total cpu time spent up to now is     1547.9 secs

     total energy              =   -4457.63294901 Ry
     estimated scf accuracy    <       0.00002118 Ry

     total magnetization       =    10.93 Bohr mag/cell
     absolute magnetization    =    12.75 Bohr mag/cell

     iteration # 37     ecut=    60.00 Ry     beta= 0.30
     Davidson diagonalization with overlap
     ethr =  8.97E-09,  avg # of iterations =  4.3

     total cpu time spent up to now is     1590.7 secs

     total energy              =   -4457.63295217 Ry
     estimated scf accuracy    <       0.00002627 Ry

     total magnetization       =    10.94 Bohr mag/cell
     absolute magnetization    =    12.75 Bohr mag/cell

     iteration # 38     ecut=    60.00 Ry     beta= 0.30
     Davidson diagonalization with overlap
     ethr =  8.97E-09,  avg # of iterations =  2.3

     total cpu time spent up to now is     1629.7 secs

     total energy              =   -4457.63295524 Ry
     estimated scf accuracy    <       0.00001785 Ry

     total magnetization       =    10.94 Bohr mag/cell
     absolute magnetization    =    12.75 Bohr mag/cell

     iteration # 39     ecut=    60.00 Ry     beta= 0.30
     Davidson diagonalization with overlap
     ethr =  7.57E-09,  avg # of iterations =  6.1

     total cpu time spent up to now is     1679.5 secs

     total energy              =   -4457.63295790 Ry
     estimated scf accuracy    <       0.00002097 Ry

     total magnetization       =    10.96 Bohr mag/cell
     absolute magnetization    =    12.75 Bohr mag/cell

     iteration # 40     ecut=    60.00 Ry     beta= 0.30
     Davidson diagonalization with overlap
     ethr =  7.57E-09,  avg # of iterations =  2.2

     total cpu time spent up to now is     1717.5 secs

     total energy              =   -4457.63296183 Ry
     estimated scf accuracy    <       0.00001461 Ry

     total magnetization       =    10.95 Bohr mag/cell
     absolute magnetization    =    12.74 Bohr mag/cell

     iteration # 41     ecut=    60.00 Ry     beta= 0.30
     Davidson diagonalization with overlap
     ethr =  6.19E-09,  avg # of iterations =  4.6

     total cpu time spent up to now is     1761.1 secs

     total energy              =   -4457.63296261 Ry
     estimated scf accuracy    <       0.00003471 Ry

     total magnetization       =    10.96 Bohr mag/cell
     absolute magnetization    =    12.75 Bohr mag/cell

     iteration # 42     ecut=    60.00 Ry     beta= 0.30
     Davidson diagonalization with overlap
     ethr =  6.19E-09,  avg # of iterations =  2.7

     total cpu time spent up to now is     1800.4 secs

     total energy              =   -4457.63296291 Ry
     estimated scf accuracy    <       0.00001398 Ry

     total magnetization       =    10.96 Bohr mag/cell
     absolute magnetization    =    12.75 Bohr mag/cell

     iteration # 43     ecut=    60.00 Ry     beta= 0.30
     Davidson diagonalization with overlap
     ethr =  5.92E-09,  avg # of iterations =  2.6

     total cpu time spent up to now is     1839.5 secs

     total energy              =   -4457.63296440 Ry
     estimated scf accuracy    <       0.00000534 Ry

     total magnetization       =    10.96 Bohr mag/cell
     absolute magnetization    =    12.75 Bohr mag/cell

     iteration # 44     ecut=    60.00 Ry     beta= 0.30
     Davidson diagonalization with overlap
     ethr =  2.26E-09,  avg # of iterations =  2.6

     total cpu time spent up to now is     1878.8 secs

     total energy              =   -4457.63296514 Ry
     estimated scf accuracy    <       0.00000442 Ry

     total magnetization       =    10.96 Bohr mag/cell
     absolute magnetization    =    12.75 Bohr mag/cell

     iteration # 45     ecut=    60.00 Ry     beta= 0.30
     Davidson diagonalization with overlap
     ethr =  1.87E-09,  avg # of iterations =  3.7

     total cpu time spent up to now is     1919.6 secs

     total energy              =   -4457.63296551 Ry
     estimated scf accuracy    <       0.00000865 Ry

     total magnetization       =    10.96 Bohr mag/cell
     absolute magnetization    =    12.75 Bohr mag/cell

     iteration # 46     ecut=    60.00 Ry     beta= 0.30
     Davidson diagonalization with overlap
     ethr =  1.87E-09,  avg # of iterations =  2.6

     total cpu time spent up to now is     1957.9 secs

     total energy              =   -4457.63296573 Ry
     estimated scf accuracy    <       0.00000259 Ry

     total magnetization       =    10.96 Bohr mag/cell
     absolute magnetization    =    12.75 Bohr mag/cell

     iteration # 47     ecut=    60.00 Ry     beta= 0.30
     Davidson diagonalization with overlap
     ethr =  1.10E-09,  avg # of iterations =  2.0

     total cpu time spent up to now is     1995.2 secs

     total energy              =   -4457.63296597 Ry
     estimated scf accuracy    <       0.00000192 Ry

     total magnetization       =    10.96 Bohr mag/cell
     absolute magnetization    =    12.75 Bohr mag/cell

     iteration # 48     ecut=    60.00 Ry     beta= 0.30
     Davidson diagonalization with overlap
     ethr =  8.12E-10,  avg # of iterations =  3.2

     total cpu time spent up to now is     2035.0 secs

     total energy              =   -4457.63296614 Ry
     estimated scf accuracy    <       0.00000313 Ry

     total magnetization       =    10.96 Bohr mag/cell
     absolute magnetization    =    12.75 Bohr mag/cell

     iteration # 49     ecut=    60.00 Ry     beta= 0.30
     Davidson diagonalization with overlap
     ethr =  8.12E-10,  avg # of iterations =  1.4

     total cpu time spent up to now is     2071.3 secs

     total energy              =   -4457.63296652 Ry
     estimated scf accuracy    <       0.00000055 Ry

     total magnetization       =    10.97 Bohr mag/cell
     absolute magnetization    =    12.75 Bohr mag/cell

     iteration # 50     ecut=    60.00 Ry     beta= 0.30
     Davidson diagonalization with overlap
     ethr =  2.34E-10,  avg # of iterations =  6.0

     total cpu time spent up to now is     2123.7 secs

     total energy              =   -4457.63296691 Ry
     estimated scf accuracy    <       0.00000229 Ry

     total magnetization       =    10.97 Bohr mag/cell
     absolute magnetization    =    12.75 Bohr mag/cell

     iteration # 51     ecut=    60.00 Ry     beta= 0.30
     Davidson diagonalization with overlap
     ethr =  2.34E-10,  avg # of iterations =  2.9

     total cpu time spent up to now is     2162.6 secs

     total energy              =   -4457.63296686 Ry
     estimated scf accuracy    <       0.00000083 Ry

     total magnetization       =    10.97 Bohr mag/cell
     absolute magnetization    =    12.75 Bohr mag/cell

     iteration # 52     ecut=    60.00 Ry     beta= 0.30
     Davidson diagonalization with overlap
     ethr =  2.34E-10,  avg # of iterations =  2.2

     total cpu time spent up to now is     2199.9 secs

     total energy              =   -4457.63296680 Ry
     estimated scf accuracy    <       0.00000047 Ry

     total magnetization       =    10.97 Bohr mag/cell
     absolute magnetization    =    12.75 Bohr mag/cell

     iteration # 53     ecut=    60.00 Ry     beta= 0.30
     Davidson diagonalization with overlap
     ethr =  2.01E-10,  avg # of iterations =  3.7

     total cpu time spent up to now is     2241.9 secs

     total energy              =   -4457.63296694 Ry
     estimated scf accuracy    <       0.00000101 Ry

     total magnetization       =    10.97 Bohr mag/cell
     absolute magnetization    =    12.75 Bohr mag/cell

     iteration # 54     ecut=    60.00 Ry     beta= 0.30
     Davidson diagonalization with overlap
     ethr =  2.01E-10,  avg # of iterations =  1.8

     total cpu time spent up to now is     2279.5 secs

     total energy              =   -4457.63296713 Ry
     estimated scf accuracy    <       0.00000056 Ry

     total magnetization       =    10.97 Bohr mag/cell
     absolute magnetization    =    12.75 Bohr mag/cell

     iteration # 55     ecut=    60.00 Ry     beta= 0.30
     Davidson diagonalization with overlap
     ethr =  2.01E-10,  avg # of iterations =  4.0

     total cpu time spent up to now is     2322.4 secs

     total energy              =   -4457.63296722 Ry
     estimated scf accuracy    <       0.00000142 Ry

     total magnetization       =    10.97 Bohr mag/cell
     absolute magnetization    =    12.75 Bohr mag/cell

     iteration # 56     ecut=    60.00 Ry     beta= 0.30
     Davidson diagonalization with overlap
     ethr =  2.01E-10,  avg # of iterations =  3.7

     total cpu time spent up to now is     2363.5 secs

     total energy              =   -4457.63296742 Ry
     estimated scf accuracy    <       0.00000058 Ry

     total magnetization       =    10.97 Bohr mag/cell
     absolute magnetization    =    12.75 Bohr mag/cell

     iteration # 57     ecut=    60.00 Ry     beta= 0.30
     Davidson diagonalization with overlap
     ethr =  2.01E-10,  avg # of iterations =  3.9

     total cpu time spent up to now is     2405.0 secs

     total energy              =   -4457.63296758 Ry
     estimated scf accuracy    <       0.00000074 Ry

     total magnetization       =    10.97 Bohr mag/cell
     absolute magnetization    =    12.74 Bohr mag/cell

     iteration # 58     ecut=    60.00 Ry     beta= 0.30
     Davidson diagonalization with overlap
     ethr =  2.01E-10,  avg # of iterations =  3.5

     total cpu time spent up to now is     2445.2 secs

     total energy              =   -4457.63296773 Ry
     estimated scf accuracy    <       0.00000043 Ry

     total magnetization       =    10.97 Bohr mag/cell
     absolute magnetization    =    12.74 Bohr mag/cell

     iteration # 59     ecut=    60.00 Ry     beta= 0.30
     Davidson diagonalization with overlap
     ethr =  1.81E-10,  avg # of iterations =  4.4

     total cpu time spent up to now is     2488.4 secs

     total energy              =   -4457.63296780 Ry
     estimated scf accuracy    <       0.00000068 Ry

     total magnetization       =    10.97 Bohr mag/cell
     absolute magnetization    =    12.74 Bohr mag/cell

     iteration # 60     ecut=    60.00 Ry     beta= 0.30
     Davidson diagonalization with overlap
     ethr =  1.81E-10,  avg # of iterations =  2.4

     total cpu time spent up to now is     2527.2 secs

     total energy              =   -4457.63296786 Ry
     estimated scf accuracy    <       0.00000058 Ry

     total magnetization       =    10.97 Bohr mag/cell
     absolute magnetization    =    12.74 Bohr mag/cell

     iteration # 61     ecut=    60.00 Ry     beta= 0.30
     Davidson diagonalization with overlap
     ethr =  1.81E-10,  avg # of iterations =  1.7

     total cpu time spent up to now is     2563.9 secs

     total energy              =   -4457.63296797 Ry
     estimated scf accuracy    <       0.00000019 Ry

     total magnetization       =    10.97 Bohr mag/cell
     absolute magnetization    =    12.74 Bohr mag/cell

     iteration # 62     ecut=    60.00 Ry     beta= 0.30
     Davidson diagonalization with overlap
     ethr =  7.99E-11,  avg # of iterations =  6.1

     total cpu time spent up to now is     2614.2 secs

     total energy              =   -4457.63296810 Ry
     estimated scf accuracy    <       0.00000054 Ry

     total magnetization       =    10.97 Bohr mag/cell
     absolute magnetization    =    12.74 Bohr mag/cell

     iteration # 63     ecut=    60.00 Ry     beta= 0.30
     Davidson diagonalization with overlap
     ethr =  7.99E-11,  avg # of iterations =  2.0

     total cpu time spent up to now is     2652.1 secs

     total energy              =   -4457.63296817 Ry
     estimated scf accuracy    <       0.00000027 Ry

     total magnetization       =    10.97 Bohr mag/cell
     absolute magnetization    =    12.74 Bohr mag/cell

     iteration # 64     ecut=    60.00 Ry     beta= 0.30
     Davidson diagonalization with overlap
     ethr =  7.99E-11,  avg # of iterations =  2.9

     total cpu time spent up to now is     2691.3 secs

     total energy              =   -4457.63296825 Ry
     estimated scf accuracy    <       0.00000016 Ry

     total magnetization       =    10.97 Bohr mag/cell
     absolute magnetization    =    12.74 Bohr mag/cell

     iteration # 65     ecut=    60.00 Ry     beta= 0.30
     Davidson diagonalization with overlap
     ethr =  6.57E-11,  avg # of iterations =  5.6

     total cpu time spent up to now is     2738.5 secs

     total energy              =   -4457.63296832 Ry
     estimated scf accuracy    <       0.00000021 Ry

     total magnetization       =    10.97 Bohr mag/cell
     absolute magnetization    =    12.74 Bohr mag/cell

     iteration # 66     ecut=    60.00 Ry     beta= 0.30
     Davidson diagonalization with overlap
     ethr =  6.57E-11,  avg # of iterations =  1.0

     total cpu time spent up to now is     2772.5 secs

     total energy              =   -4457.63296838 Ry
     estimated scf accuracy    <       0.00000014 Ry

     total magnetization       =    10.97 Bohr mag/cell
     absolute magnetization    =    12.74 Bohr mag/cell

     iteration # 67     ecut=    60.00 Ry     beta= 0.30
     Davidson diagonalization with overlap
     ethr =  6.13E-11,  avg # of iterations =  3.2

     total cpu time spent up to now is     2813.1 secs

     total energy              =   -4457.63296842 Ry
     estimated scf accuracy    <       0.00000028 Ry

     total magnetization       =    10.97 Bohr mag/cell
     absolute magnetization    =    12.74 Bohr mag/cell

     iteration # 68     ecut=    60.00 Ry     beta= 0.30
     Davidson diagonalization with overlap
     ethr =  6.13E-11,  avg # of iterations =  3.1

     total cpu time spent up to now is     2852.2 secs

     total energy              =   -4457.63296845 Ry
     estimated scf accuracy    <       0.00000014 Ry

     total magnetization       =    10.97 Bohr mag/cell
     absolute magnetization    =    12.74 Bohr mag/cell

     iteration # 69     ecut=    60.00 Ry     beta= 0.30
     Davidson diagonalization with overlap
     ethr =  5.82E-11,  avg # of iterations =  6.4

     total cpu time spent up to now is     2905.0 secs

     total energy              =   -4457.63296852 Ry
     estimated scf accuracy    <       0.00000033 Ry

     total magnetization       =    10.97 Bohr mag/cell
     absolute magnetization    =    12.73 Bohr mag/cell

     iteration # 70     ecut=    60.00 Ry     beta= 0.30
     Davidson diagonalization with overlap
     ethr =  5.82E-11,  avg # of iterations =  5.2

     total cpu time spent up to now is     2951.4 secs

     total energy              =   -4457.63296865 Ry
     estimated scf accuracy    <       0.00000046 Ry

     total magnetization       =    10.97 Bohr mag/cell
     absolute magnetization    =    12.73 Bohr mag/cell

     iteration # 71     ecut=    60.00 Ry     beta= 0.30
     Davidson diagonalization with overlap
     ethr =  5.82E-11,  avg # of iterations =  5.0

     total cpu time spent up to now is     2995.6 secs

     total energy              =   -4457.63296873 Ry
     estimated scf accuracy    <       0.00000023 Ry

     total magnetization       =    10.97 Bohr mag/cell
     absolute magnetization    =    12.73 Bohr mag/cell

     iteration # 72     ecut=    60.00 Ry     beta= 0.30
     Davidson diagonalization with overlap
     ethr =  5.82E-11,  avg # of iterations =  6.3

     total cpu time spent up to now is     3048.5 secs

     total energy              =   -4457.63296900 Ry
     estimated scf accuracy    <       0.00000020 Ry

     total magnetization       =    10.97 Bohr mag/cell
     absolute magnetization    =    12.73 Bohr mag/cell

     iteration # 73     ecut=    60.00 Ry     beta= 0.30
     Davidson diagonalization with overlap
     ethr =  5.82E-11,  avg # of iterations =  1.1

     total cpu time spent up to now is     3083.2 secs

     total energy              =   -4457.63296887 Ry
     estimated scf accuracy    <       0.00000014 Ry

     total magnetization       =    10.97 Bohr mag/cell
     absolute magnetization    =    12.73 Bohr mag/cell

     iteration # 74     ecut=    60.00 Ry     beta= 0.30
     Davidson diagonalization with overlap
     ethr =  5.74E-11,  avg # of iterations =  4.9

     total cpu time spent up to now is     3127.5 secs

     total energy              =   -4457.63296897 Ry
     estimated scf accuracy    <       0.00000017 Ry

     total magnetization       =    10.97 Bohr mag/cell
     absolute magnetization    =    12.73 Bohr mag/cell

     iteration # 75     ecut=    60.00 Ry     beta= 0.30
     Davidson diagonalization with overlap
     ethr =  5.74E-11,  avg # of iterations =  3.7

     total cpu time spent up to now is     3168.2 secs

     total energy              =   -4457.63296805 Ry
     estimated scf accuracy    <       0.00000014 Ry

     total magnetization       =    10.97 Bohr mag/cell
     absolute magnetization    =    12.73 Bohr mag/cell

     iteration # 76     ecut=    60.00 Ry     beta= 0.30
     Davidson diagonalization with overlap
     ethr =  5.74E-11,  avg # of iterations =  7.1

     total cpu time spent up to now is     3223.8 secs

     total energy              =   -4457.63296867 Ry
     estimated scf accuracy    <       0.00000033 Ry

     total magnetization       =    10.97 Bohr mag/cell
     absolute magnetization    =    12.73 Bohr mag/cell

     iteration # 77     ecut=    60.00 Ry     beta= 0.30
     Davidson diagonalization with overlap
     ethr =  5.74E-11,  avg # of iterations =  5.1

     total cpu time spent up to now is     3270.5 secs

     total energy              =   -4457.63296789 Ry
     estimated scf accuracy    <       0.00000073 Ry

     total magnetization       =    10.97 Bohr mag/cell
     absolute magnetization    =    12.73 Bohr mag/cell

     iteration # 78     ecut=    60.00 Ry     beta= 0.30
     Davidson diagonalization with overlap
     ethr =  5.74E-11,  avg # of iterations =  7.2

     total cpu time spent up to now is     3326.6 secs

     total energy              =   -4457.63296845 Ry
     estimated scf accuracy    <       0.00000027 Ry

     total magnetization       =    10.97 Bohr mag/cell
     absolute magnetization    =    12.74 Bohr mag/cell

     iteration # 79     ecut=    60.00 Ry     beta= 0.30
     Davidson diagonalization with overlap
     ethr =  5.74E-11,  avg # of iterations =  5.2

     total cpu time spent up to now is     3373.7 secs

     total energy              =   -4457.63296851 Ry
     estimated scf accuracy    <       0.00000042 Ry

     total magnetization       =    10.97 Bohr mag/cell
     absolute magnetization    =    12.74 Bohr mag/cell

     iteration # 80     ecut=    60.00 Ry     beta= 0.30
     Davidson diagonalization with overlap
     ethr =  5.74E-11,  avg # of iterations =  1.9

     total cpu time spent up to now is     3410.7 secs

     total energy              =   -4457.63296858 Ry
     estimated scf accuracy    <       0.00000037 Ry

     total magnetization       =    10.97 Bohr mag/cell
     absolute magnetization    =    12.74 Bohr mag/cell

     iteration # 81     ecut=    60.00 Ry     beta= 0.30
     Davidson diagonalization with overlap
     ethr =  5.74E-11,  avg # of iterations =  2.5

     total cpu time spent up to now is     3449.9 secs

     total energy              =   -4457.63296855 Ry
     estimated scf accuracy    <       0.00000035 Ry

     total magnetization       =    10.97 Bohr mag/cell
     absolute magnetization    =    12.73 Bohr mag/cell

     iteration # 82     ecut=    60.00 Ry     beta= 0.30
     Davidson diagonalization with overlap
     ethr =  5.74E-11,  avg # of iterations =  2.7

     total cpu time spent up to now is     3489.2 secs

     total energy              =   -4457.63296704 Ry
     estimated scf accuracy    <       0.00000037 Ry

     total magnetization       =    10.97 Bohr mag/cell
     absolute magnetization    =    12.74 Bohr mag/cell

     iteration # 83     ecut=    60.00 Ry     beta= 0.30
     Davidson diagonalization with overlap
     ethr =  5.74E-11,  avg # of iterations = 10.8

     total cpu time spent up to now is     3559.1 secs

     total energy              =   -4457.63296910 Ry
     estimated scf accuracy    <       0.00000063 Ry

     total magnetization       =    10.97 Bohr mag/cell
     absolute magnetization    =    12.72 Bohr mag/cell

     iteration # 84     ecut=    60.00 Ry     beta= 0.30
     Davidson diagonalization with overlap
     ethr =  5.74E-11,  avg # of iterations =  5.6

     total cpu time spent up to now is     3609.2 secs

     total energy              =   -4457.63296894 Ry
     estimated scf accuracy    <       0.00000091 Ry

     total magnetization       =    10.97 Bohr mag/cell
     absolute magnetization    =    12.73 Bohr mag/cell

     iteration # 85     ecut=    60.00 Ry     beta= 0.30
     Davidson diagonalization with overlap
     ethr =  5.74E-11,  avg # of iterations =  7.8

     total cpu time spent up to now is     3667.5 secs

     total energy              =   -4457.63296961 Ry
     estimated scf accuracy    <       0.00000060 Ry

     total magnetization       =    10.97 Bohr mag/cell
     absolute magnetization    =    12.72 Bohr mag/cell

     iteration # 86     ecut=    60.00 Ry     beta= 0.30
     Davidson diagonalization with overlap
     ethr =  5.74E-11,  avg # of iterations =  3.9

     total cpu time spent up to now is     3709.2 secs

     total energy              =   -4457.63296968 Ry
     estimated scf accuracy    <       0.00000034 Ry

     total magnetization       =    10.97 Bohr mag/cell
     absolute magnetization    =    12.72 Bohr mag/cell

     iteration # 87     ecut=    60.00 Ry     beta= 0.30
     Davidson diagonalization with overlap
     ethr =  5.74E-11,  avg # of iterations =  1.8

     total cpu time spent up to now is     3746.2 secs

     total energy              =   -4457.63296910 Ry
     estimated scf accuracy    <       0.00000025 Ry

     total magnetization       =    10.97 Bohr mag/cell
     absolute magnetization    =    12.72 Bohr mag/cell

     iteration # 88     ecut=    60.00 Ry     beta= 0.30
     Davidson diagonalization with overlap
     ethr =  5.74E-11,  avg # of iterations =  6.2

     total cpu time spent up to now is     3798.5 secs

     total energy              =   -4457.63296927 Ry
     estimated scf accuracy    <       0.00000034 Ry

     total magnetization       =    10.97 Bohr mag/cell
     absolute magnetization    =    12.72 Bohr mag/cell

     iteration # 89     ecut=    60.00 Ry     beta= 0.30
     Davidson diagonalization with overlap
     ethr =  5.74E-11,  avg # of iterations =  7.4

     total cpu time spent up to now is     3855.7 secs

     total energy              =   -4457.63296982 Ry
     estimated scf accuracy    <       0.00000118 Ry

     total magnetization       =    10.97 Bohr mag/cell
     absolute magnetization    =    12.72 Bohr mag/cell

     iteration # 90     ecut=    60.00 Ry     beta= 0.30
     Davidson diagonalization with overlap
     ethr =  5.74E-11,  avg # of iterations =  5.4

     total cpu time spent up to now is     3902.0 secs

     total energy              =   -4457.63296994 Ry
     estimated scf accuracy    <       0.00000029 Ry

     total magnetization       =    10.97 Bohr mag/cell
     absolute magnetization    =    12.72 Bohr mag/cell

     iteration # 91     ecut=    60.00 Ry     beta= 0.30
     Davidson diagonalization with overlap
     ethr =  5.74E-11,  avg # of iterations =  5.3

     total cpu time spent up to now is     3948.7 secs

     total energy              =   -4457.63296965 Ry
     estimated scf accuracy    <       0.00000020 Ry

     total magnetization       =    10.97 Bohr mag/cell
     absolute magnetization    =    12.72 Bohr mag/cell

     iteration # 92     ecut=    60.00 Ry     beta= 0.30
     Davidson diagonalization with overlap
     ethr =  5.74E-11,  avg # of iterations =  5.2

     total cpu time spent up to now is     3996.6 secs

     total energy              =   -4457.63296966 Ry
     estimated scf accuracy    <       0.00000027 Ry

     total magnetization       =    10.97 Bohr mag/cell
     absolute magnetization    =    12.72 Bohr mag/cell

     iteration # 93     ecut=    60.00 Ry     beta= 0.30
     Davidson diagonalization with overlap
     ethr =  5.74E-11,  avg # of iterations =  5.0

     total cpu time spent up to now is     4041.3 secs

     total energy              =   -4457.63296943 Ry
     estimated scf accuracy    <       0.00000030 Ry

     total magnetization       =    10.97 Bohr mag/cell
     absolute magnetization    =    12.72 Bohr mag/cell

     iteration # 94     ecut=    60.00 Ry     beta= 0.30
     Davidson diagonalization with overlap
     ethr =  5.74E-11,  avg # of iterations =  5.5

     total cpu time spent up to now is     4090.5 secs

     total energy              =   -4457.63296921 Ry
     estimated scf accuracy    <       0.00000098 Ry

     total magnetization       =    10.97 Bohr mag/cell
     absolute magnetization    =    12.72 Bohr mag/cell

     iteration # 95     ecut=    60.00 Ry     beta= 0.30
     Davidson diagonalization with overlap
     ethr =  5.74E-11,  avg # of iterations =  5.3

     total cpu time spent up to now is     4141.1 secs

     total energy              =   -4457.63296880 Ry
     estimated scf accuracy    <       0.00000055 Ry

     total magnetization       =    10.97 Bohr mag/cell
     absolute magnetization    =    12.73 Bohr mag/cell

     iteration # 96     ecut=    60.00 Ry     beta= 0.30
     Davidson diagonalization with overlap
     ethr =  5.74E-11,  avg # of iterations =  8.7

     total cpu time spent up to now is     4203.2 secs

     total energy              =   -4457.63296983 Ry
     estimated scf accuracy    <       0.00000281 Ry

     total magnetization       =    10.97 Bohr mag/cell
     absolute magnetization    =    12.72 Bohr mag/cell

     iteration # 97     ecut=    60.00 Ry     beta= 0.30
     Davidson diagonalization with overlap
     ethr =  5.74E-11,  avg # of iterations =  5.4

     total cpu time spent up to now is     4250.6 secs

     total energy              =   -4457.63297001 Ry
     estimated scf accuracy    <       0.00000018 Ry

     total magnetization       =    10.97 Bohr mag/cell
     absolute magnetization    =    12.72 Bohr mag/cell

     iteration # 98     ecut=    60.00 Ry     beta= 0.30
     Davidson diagonalization with overlap
     ethr =  5.74E-11,  avg # of iterations =  5.3

     total cpu time spent up to now is     4298.9 secs

     total energy              =   -4457.63297022 Ry
     estimated scf accuracy    <       0.00000021 Ry

     total magnetization       =    10.97 Bohr mag/cell
     absolute magnetization    =    12.72 Bohr mag/cell

     iteration # 99     ecut=    60.00 Ry     beta= 0.30
     Davidson diagonalization with overlap
     ethr =  5.74E-11,  avg # of iterations =  5.1

     total cpu time spent up to now is     4344.8 secs

     total energy              =   -4457.63297033 Ry
     estimated scf accuracy    <       0.00000024 Ry

     total magnetization       =    10.97 Bohr mag/cell
     absolute magnetization    =    12.71 Bohr mag/cell

     iteration #100     ecut=    60.00 Ry     beta= 0.30
     Davidson diagonalization with overlap
     ethr =  5.74E-11,  avg # of iterations =  5.5

     total cpu time spent up to now is     4395.8 secs

     total energy              =   -4457.63295744 Ry
     estimated scf accuracy    <       0.00000022 Ry

     total magnetization       =    10.97 Bohr mag/cell
     absolute magnetization    =    12.71 Bohr mag/cell

     iteration #101     ecut=    60.00 Ry     beta= 0.30
     Davidson diagonalization with overlap
     ethr =  5.74E-11,  avg # of iterations = 12.2

     total cpu time spent up to now is     4473.1 secs

     total energy              =   -4457.63296681 Ry
     estimated scf accuracy    <       0.00000014 Ry

     total magnetization       =    10.98 Bohr mag/cell
     absolute magnetization    =    12.69 Bohr mag/cell

     iteration #102     ecut=    60.00 Ry     beta= 0.30
     Davidson diagonalization with overlap
     ethr =  5.74E-11,  avg # of iterations = 11.2

     total cpu time spent up to now is     4545.7 secs

     total energy              =   -4457.63297150 Ry
     estimated scf accuracy    <       0.00000034 Ry

     total magnetization       =    10.98 Bohr mag/cell
     absolute magnetization    =    12.70 Bohr mag/cell

     iteration #103     ecut=    60.00 Ry     beta= 0.30
     Davidson diagonalization with overlap
     ethr =  5.74E-11,  avg # of iterations =  5.2

     total cpu time spent up to now is     4592.2 secs

     total energy              =   -4457.63297157 Ry
     estimated scf accuracy    <       0.00000016 Ry

     total magnetization       =    10.98 Bohr mag/cell
     absolute magnetization    =    12.70 Bohr mag/cell

     iteration #104     ecut=    60.00 Ry     beta= 0.30
     Davidson diagonalization with overlap
     ethr =  5.74E-11,  avg # of iterations =  5.9

     total cpu time spent up to now is     4644.3 secs

     total energy              =   -4457.63297187 Ry
     estimated scf accuracy    <       0.00000034 Ry

     total magnetization       =    10.98 Bohr mag/cell
     absolute magnetization    =    12.70 Bohr mag/cell

     iteration #105     ecut=    60.00 Ry     beta= 0.30
     Davidson diagonalization with overlap
     ethr =  5.74E-11,  avg # of iterations =  5.4

     total cpu time spent up to now is     4694.1 secs

     total energy              =   -4457.63297203 Ry
     estimated scf accuracy    <       0.00000042 Ry

     total magnetization       =    10.98 Bohr mag/cell
     absolute magnetization    =    12.70 Bohr mag/cell

     iteration #106     ecut=    60.00 Ry     beta= 0.30
     Davidson diagonalization with overlap
     ethr =  5.74E-11,  avg # of iterations =  5.3

     total cpu time spent up to now is     4742.4 secs

     total energy              =   -4457.63297212 Ry
     estimated scf accuracy    <       0.00000075 Ry

     total magnetization       =    10.98 Bohr mag/cell
     absolute magnetization    =    12.70 Bohr mag/cell

     iteration #107     ecut=    60.00 Ry     beta= 0.30
     Davidson diagonalization with overlap
     ethr =  5.74E-11,  avg # of iterations =  3.4

     total cpu time spent up to now is     4783.0 secs

     total energy              =   -4457.63297206 Ry
     estimated scf accuracy    <       0.00000012 Ry

     total magnetization       =    10.98 Bohr mag/cell
     absolute magnetization    =    12.70 Bohr mag/cell

     iteration #108     ecut=    60.00 Ry     beta= 0.30
     Davidson diagonalization with overlap
     ethr =  5.24E-11,  avg # of iterations =  3.7

     total cpu time spent up to now is     4824.9 secs

     total energy              =   -4457.63297214 Ry
     estimated scf accuracy    <       0.00000014 Ry

     total magnetization       =    10.98 Bohr mag/cell
     absolute magnetization    =    12.70 Bohr mag/cell

     iteration #109     ecut=    60.00 Ry     beta= 0.30
     Davidson diagonalization with overlap
     ethr =  5.24E-11,  avg # of iterations =  3.6

     total cpu time spent up to now is     4865.7 secs

     total energy              =   -4457.63297176 Ry
     estimated scf accuracy    <       0.00000014 Ry

     total magnetization       =    10.98 Bohr mag/cell
     absolute magnetization    =    12.70 Bohr mag/cell

     iteration #110     ecut=    60.00 Ry     beta= 0.30
     Davidson diagonalization with overlap
     ethr =  5.24E-11,  avg # of iterations =  5.4

     total cpu time spent up to now is     4914.6 secs

     total energy              =   -4457.63297200 Ry
     estimated scf accuracy    <       0.00000023 Ry

     total magnetization       =    10.98 Bohr mag/cell
     absolute magnetization    =    12.70 Bohr mag/cell

     iteration #111     ecut=    60.00 Ry     beta= 0.30
     Davidson diagonalization with overlap
     ethr =  5.24E-11,  avg # of iterations =  5.0

     total cpu time spent up to now is     4960.0 secs

     total energy              =   -4457.63297208 Ry
     estimated scf accuracy    <       0.00000022 Ry

     total magnetization       =    10.98 Bohr mag/cell
     absolute magnetization    =    12.70 Bohr mag/cell

     iteration #112     ecut=    60.00 Ry     beta= 0.30
     Davidson diagonalization with overlap
     ethr =  5.24E-11,  avg # of iterations =  6.4

     total cpu time spent up to now is     5012.6 secs

     total energy              =   -4457.63297191 Ry
     estimated scf accuracy    <       0.00000057 Ry

     total magnetization       =    10.98 Bohr mag/cell
     absolute magnetization    =    12.70 Bohr mag/cell

     iteration #113     ecut=    60.00 Ry     beta= 0.30
     Davidson diagonalization with overlap
     ethr =  5.24E-11,  avg # of iterations =  5.3

     total cpu time spent up to now is     5061.7 secs

     total energy              =   -4457.63297197 Ry
     estimated scf accuracy    <       0.00000025 Ry

     total magnetization       =    10.98 Bohr mag/cell
     absolute magnetization    =    12.70 Bohr mag/cell

     iteration #114     ecut=    60.00 Ry     beta= 0.30
     Davidson diagonalization with overlap
     ethr =  5.24E-11,  avg # of iterations =  5.3

     total cpu time spent up to now is     5107.0 secs

     total energy              =   -4457.63297204 Ry
     estimated scf accuracy    <       0.00000021 Ry

     total magnetization       =    10.98 Bohr mag/cell
     absolute magnetization    =    12.70 Bohr mag/cell

     iteration #115     ecut=    60.00 Ry     beta= 0.30
     Davidson diagonalization with overlap
     ethr =  5.24E-11,  avg # of iterations =  1.0

     total cpu time spent up to now is     5141.5 secs

     total energy              =   -4457.63297197 Ry
     estimated scf accuracy    <       0.00000022 Ry

     total magnetization       =    10.98 Bohr mag/cell
     absolute magnetization    =    12.70 Bohr mag/cell

     iteration #116     ecut=    60.00 Ry     beta= 0.30
     Davidson diagonalization with overlap
     ethr =  5.24E-11,  avg # of iterations =  5.2

     total cpu time spent up to now is     5186.7 secs

     total energy              =   -4457.63297198 Ry
     estimated scf accuracy    <       0.00000071 Ry

     total magnetization       =    10.98 Bohr mag/cell
     absolute magnetization    =    12.70 Bohr mag/cell

     iteration #117     ecut=    60.00 Ry     beta= 0.30
     Davidson diagonalization with overlap
     ethr =  5.24E-11,  avg # of iterations =  5.5

     total cpu time spent up to now is     5235.3 secs

     total energy              =   -4457.63297211 Ry
     estimated scf accuracy    <       0.00000022 Ry

     total magnetization       =    10.98 Bohr mag/cell
     absolute magnetization    =    12.70 Bohr mag/cell

     iteration #118     ecut=    60.00 Ry     beta= 0.30
     Davidson diagonalization with overlap
     ethr =  5.24E-11,  avg # of iterations =  1.4

     total cpu time spent up to now is     5270.7 secs

     total energy              =   -4457.63297209 Ry
     estimated scf accuracy    <       0.00000014 Ry

     total magnetization       =    10.98 Bohr mag/cell
     absolute magnetization    =    12.70 Bohr mag/cell

     iteration #119     ecut=    60.00 Ry     beta= 0.30
     Davidson diagonalization with overlap
     ethr =  5.24E-11,  avg # of iterations =  1.7

     total cpu time spent up to now is     5308.7 secs

     total energy              =   -4457.63297212 Ry
     estimated scf accuracy    <       0.00000020 Ry

     total magnetization       =    10.98 Bohr mag/cell
     absolute magnetization    =    12.70 Bohr mag/cell

     iteration #120     ecut=    60.00 Ry     beta= 0.30
     Davidson diagonalization with overlap
     ethr =  5.24E-11,  avg # of iterations =  1.8

     total cpu time spent up to now is     5345.5 secs

     total energy              =   -4457.63297213 Ry
     estimated scf accuracy    <       0.00000028 Ry

     total magnetization       =    10.98 Bohr mag/cell
     absolute magnetization    =    12.70 Bohr mag/cell

     iteration #121     ecut=    60.00 Ry     beta= 0.30
     Davidson diagonalization with overlap
     ethr =  5.24E-11,  avg # of iterations =  1.7

     total cpu time spent up to now is     5382.2 secs

     total energy              =   -4457.63297214 Ry
     estimated scf accuracy    <       0.00000018 Ry

     total magnetization       =    10.98 Bohr mag/cell
     absolute magnetization    =    12.70 Bohr mag/cell

     iteration #122     ecut=    60.00 Ry     beta= 0.30
     Davidson diagonalization with overlap
     ethr =  5.24E-11,  avg # of iterations =  1.1

     total cpu time spent up to now is     5417.6 secs

     total energy              =   -4457.63297215 Ry
     estimated scf accuracy    <       0.00000013 Ry

     total magnetization       =    10.98 Bohr mag/cell
     absolute magnetization    =    12.70 Bohr mag/cell

     iteration #123     ecut=    60.00 Ry     beta= 0.30
     Davidson diagonalization with overlap
     ethr =  5.24E-11,  avg # of iterations =  1.1

     total cpu time spent up to now is     5452.0 secs

     total energy              =   -4457.63297217 Ry
     estimated scf accuracy    <       0.00000015 Ry

     total magnetization       =    10.98 Bohr mag/cell
     absolute magnetization    =    12.70 Bohr mag/cell

     iteration #124     ecut=    60.00 Ry     beta= 0.30
     Davidson diagonalization with overlap
     ethr =  5.24E-11,  avg # of iterations =  1.3

     total cpu time spent up to now is     5488.0 secs

     total energy              =   -4457.63297220 Ry
     estimated scf accuracy    <       0.00000013 Ry

     total magnetization       =    10.98 Bohr mag/cell
     absolute magnetization    =    12.70 Bohr mag/cell

     iteration #125     ecut=    60.00 Ry     beta= 0.30
     Davidson diagonalization with overlap
     ethr =  5.24E-11,  avg # of iterations =  4.7

     total cpu time spent up to now is     5531.1 secs

     total energy              =   -4457.63297223 Ry
     estimated scf accuracy    <       0.00000015 Ry

     total magnetization       =    10.98 Bohr mag/cell
     absolute magnetization    =    12.70 Bohr mag/cell

     iteration #126     ecut=    60.00 Ry     beta= 0.30
     Davidson diagonalization with overlap
     ethr =  5.24E-11,  avg # of iterations =  5.9

     total cpu time spent up to now is     5582.5 secs

     total energy              =   -4457.63297237 Ry
     estimated scf accuracy    <       0.00000018 Ry

     total magnetization       =    10.98 Bohr mag/cell
     absolute magnetization    =    12.70 Bohr mag/cell

     iteration #127     ecut=    60.00 Ry     beta= 0.30
     Davidson diagonalization with overlap
     ethr =  5.24E-11,  avg # of iterations =  1.0

     total cpu time spent up to now is     5618.0 secs

     total energy              =   -4457.63297200 Ry
     estimated scf accuracy    <       0.00000014 Ry

     total magnetization       =    10.98 Bohr mag/cell
     absolute magnetization    =    12.70 Bohr mag/cell

     iteration #128     ecut=    60.00 Ry     beta= 0.30
     Davidson diagonalization with overlap
     ethr =  5.24E-11,  avg # of iterations =  5.4

     total cpu time spent up to now is     5668.8 secs

     total energy              =   -4457.63297215 Ry
     estimated scf accuracy    <       0.00000040 Ry

     total magnetization       =    10.98 Bohr mag/cell
     absolute magnetization    =    12.70 Bohr mag/cell

     iteration #129     ecut=    60.00 Ry     beta= 0.30
     Davidson diagonalization with overlap
     ethr =  5.24E-11,  avg # of iterations =  4.2

     total cpu time spent up to now is     5711.2 secs

     total energy              =   -4457.63297220 Ry
     estimated scf accuracy    <       0.00000053 Ry

     total magnetization       =    10.98 Bohr mag/cell
     absolute magnetization    =    12.70 Bohr mag/cell

     iteration #130     ecut=    60.00 Ry     beta= 0.30
     Davidson diagonalization with overlap
     ethr =  5.24E-11,  avg # of iterations =  5.3

     total cpu time spent up to now is     5757.3 secs

     total energy              =   -4457.63297225 Ry
     estimated scf accuracy    <       0.00000037 Ry

     total magnetization       =    10.98 Bohr mag/cell
     absolute magnetization    =    12.70 Bohr mag/cell

     iteration #131     ecut=    60.00 Ry     beta= 0.30
     Davidson diagonalization with overlap
     ethr =  5.24E-11,  avg # of iterations =  2.4

     total cpu time spent up to now is     5795.8 secs

     total energy              =   -4457.63297223 Ry
     estimated scf accuracy    <       0.00000011 Ry

     total magnetization       =    10.98 Bohr mag/cell
     absolute magnetization    =    12.70 Bohr mag/cell

     iteration #132     ecut=    60.00 Ry     beta= 0.30
     Davidson diagonalization with overlap
     ethr =  4.85E-11,  avg # of iterations =  1.8
 
     Magnetic moment per site  (integrated on atomic sphere of radius R)
     atom   1 (R=0.179)  charge= 12.1708  magn=  0.0056
     atom   2 (R=0.179)  charge= 14.4642  magn=  1.7813
     atom   3 (R=0.179)  charge= 14.4477  magn=  1.8605
     atom   4 (R=0.179)  charge= 12.1883  magn=  0.0640
     atom   5 (R=0.179)  charge= 12.1703  magn=  0.0056
     atom   6 (R=0.179)  charge= 14.4642  magn=  1.7813
     atom   7 (R=0.179)  charge= 12.1716  magn=  0.0722
     atom   8 (R=0.179)  charge= 12.1883  magn=  0.0640
     atom   9 (R=0.179)  charge= 12.1714  magn=  0.0722
     atom  10 (R=0.179)  charge= 12.1883  magn=  0.0640
     atom  11 (R=0.179)  charge= 12.1704  magn=  0.0056
     atom  12 (R=0.179)  charge= 14.4642  magn=  1.7813
     atom  13 (R=0.179)  charge= 14.4478  magn=  1.8605
     atom  14 (R=0.179)  charge= 12.1883  magn=  0.0640
     atom  15 (R=0.179)  charge= 12.1702  magn=  0.0054
     atom  16 (R=0.179)  charge= 14.4642  magn=  1.7813

     total cpu time spent up to now is     5832.7 secs

     End of self-consistent calculation

     Number of k-points >= 100: set verbosity='high' to print the bands.

     the Fermi energy is    19.2393 ev

!    total energy              =   -4457.63297228 Ry
     total all-electron energy =    -36290.738956 Ry
     estimated scf accuracy    <       0.00000010 Ry
     smearing contrib. (-TS)   =      -0.00294313 Ry
     internal energy E=F+TS    =   -4457.63002915 Ry

     The total energy is F=E-TS. E is the sum of the following terms:
     one-electron contribution =   -1223.66801318 Ry
     hartree contribution      =     758.54312208 Ry
     xc contribution           =    -389.01427188 Ry
     ewald contribution        =   -2364.26235659 Ry
     one-center paw contrib.   =   -1239.22850958 Ry

     total magnetization       =    10.98 Bohr mag/cell
     absolute magnetization    =    12.70 Bohr mag/cell

     convergence has been achieved in 132 iterations


     Computing stress (Cartesian axis) and pressure

          total   stress  (Ry/bohr**3)                   (kbar)     P=      -26.55
  -0.00024912   0.00000000   0.00017768          -36.65        0.00       26.14
   0.00000000  -0.00004330   0.00000000            0.00       -6.37        0.00
   0.00017768   0.00000000  -0.00024910           26.14        0.00      -36.64


     Writing all to output data dir ./tmp/fecr_fe06cr10_h0.01.save/ :
     XML data file, charge density, pseudopotentials, collected wavefunctions
 
     init_run     :     37.93s CPU     27.68s WALL (       1 calls)
     electrons    :   7470.23s CPU   5804.61s WALL (       1 calls)
     stress       :     24.13s CPU     23.58s WALL (       1 calls)

     Called by init_run:
     wfcinit      :      7.52s CPU      9.14s WALL (       1 calls)
     potinit      :     29.57s CPU     17.58s WALL (       1 calls)
     hinit0       :      0.54s CPU      0.54s WALL (       1 calls)

     Called by electrons:
     c_bands      :   3101.21s CPU   3110.83s WALL (     132 calls)
     sum_band     :    300.71s CPU    300.84s WALL (     132 calls)
     v_of_rho     :      7.96s CPU      6.53s WALL (     133 calls)
     newd         :      5.23s CPU      5.28s WALL (     133 calls)
                                        5.28s GPU  (     133 calls)
     PAW_pot      :   4076.64s CPU   2390.67s WALL (     133 calls)
     mix_rho      :      4.50s CPU      4.51s WALL (     132 calls)

     Called by c_bands:
     init_us_2    :     25.19s CPU     23.80s WALL (   42560 calls)
     cegterg      :   2779.32s CPU   2788.86s WALL (   21120 calls)

     Called by *egterg:
     cdiaghg      :    946.05s CPU    953.64s WALL (  106775 calls)
                                      953.19s GPU  (  106775 calls)
     h_psi        :    856.59s CPU    861.44s WALL (  106935 calls)
                                      860.55s GPU  (  106935 calls)
     s_psi        :     54.43s CPU     55.22s WALL (  106935 calls)
     g_psi        :      0.48s CPU      4.86s WALL (   85655 calls)
                                        4.60s GPU  (   85655 calls)

     Called by h_psi:
     h_psi:calbec :      3.89s CPU    181.10s WALL (  106935 calls)
                                      180.72s GPU  (  106935 calls)
     vloc_psi     :    454.16s CPU    453.19s WALL (  106935 calls)
                                      452.82s GPU  (  106935 calls)
     add_vuspsi   :     52.78s CPU    221.24s WALL (  106935 calls)
                                      220.86s GPU  (  106935 calls)

     General routines
     calbec       :      4.83s CPU      5.03s WALL (  128215 calls)
     fft          :      1.55s CPU      1.87s WALL (    3344 calls)
                                        0.41s GPU  (    3078 calls)
     ffts         :      0.50s CPU      0.51s WALL (     530 calls)
                                        0.01s GPU  (     264 calls)
     fftw         :     25.48s CPU    428.14s WALL ( 1182276 calls)
                                      425.39s GPU  ( 1182276 calls)
     interpolate  :      2.15s CPU      2.15s WALL (     266 calls)
 
     Parallel routines
 
     PWSCF        :      2h 5m CPU      1h37m WALL

 
   This run was terminated on:  10: 0:36  20May2026            

=------------------------------------------------------------------------------=
   JOB DONE.
=------------------------------------------------------------------------------=
Warning: ieee_divide_by_zero is signaling
Warning: ieee_inexact is signaling
FORTRAN STOP
