--------------------------------------------------------------------------
WARNING: Open MPI tried to bind a process but failed.  This is a
warning only; your job will continue, though performance may
be degraded.

  Local host:        4b82db919bf5
  Application name:  /root/q-e-qe-7.3.1/bin/pw.x
  Error message:     failed to bind memory
  Location:          ../../../../../orte/mca/rtc/hwloc/rtc_hwloc.c:447

--------------------------------------------------------------------------

     Program PWSCF v.7.3.1 starts on 21May2026 at  2: 5: 5 

     This program is part of the open-source Quantum ESPRESSO suite
     for quantum simulation of materials; please cite
         "P. Giannozzi et al., J. Phys.:Condens. Matter 21 395502 (2009);
         "P. Giannozzi et al., J. Phys.:Condens. Matter 29 465901 (2017);
         "P. Giannozzi et al., J. Chem. Phys. 152 154105 (2020);
          URL http://www.quantum-espresso.org", 
     in publications or presentations arising from this work. More details at
     http://www.quantum-espresso.org/quote

     Parallel version (MPI & OpenMP), running on       8 processor cores
     Number of MPI processes:                 1
     Threads/MPI process:                     8

     MPI processes distributed on     1 nodes
     195355 MiB available memory on the printing compute node when the environment starts
 
     Reading input from inputs/fecr_fe05cr11_t0.01.in

     Current dimensions of program PWSCF are:
     Max number of different atomic species (ntypx) = 10
     Max number of k-points (npk) =  40000
     Max angular momentum in pseudopotentials (lmaxx) =  4
     file Fe.pbe-spn-kjpaw_psl.1.0.0.UPF: wavefunction(s)  3P 3D renormalized
     file Cr.pbe-spn-kjpaw_psl.1.0.0.UPF: wavefunction(s)  3S 3P 3D renormalized
     Message from routine setup:
     using ibrav=0 with symmetry is DISCOURAGED, use correct ibrav instead
 
     Subspace diagonalization in iterative solution of the eigenvalue problem:
     a serial algorithm will be used

 
     G-vector sticks info
     --------------------
     sticks:   dense  smooth     PW     G-vecs:    dense   smooth      PW
     Sum        4281    2145    609               214675    75837   11477
 
     Using Slab Decomposition
 


     bravais-lattice index     =            0
     lattice parameter (alat)  =      10.5993  a.u.
     unit-cell volume          =    1208.6708 (a.u.)^3
     number of atoms/cell      =           16
     number of atomic types    =            2
     number of electrons       =       234.00
     number of Kohn-Sham states=          140
     kinetic-energy cutoff     =      60.0000  Ry
     charge density cutoff     =     480.0000  Ry
     scf convergence threshold =      1.0E-07
     mixing beta               =       0.3000
     number of iterations used =            8  plain     mixing
     Exchange-correlation= SLA  PW   PBX  PBC
                           (   1   4   3   4   0   0   0)

     GPU acceleration is ACTIVE.  1 visible GPUs per MPI rank


     celldm(1)=  10.599255  celldm(2)=   0.000000  celldm(3)=   0.000000
     celldm(4)=   0.000000  celldm(5)=   0.000000  celldm(6)=   0.000000

     crystal axes: (cart. coord. in units of alat)
               a(1) = (   1.000000   0.000000   0.000000 )  
               a(2) = (   0.000000   1.000000   0.000000 )  
               a(3) = (   0.000000   0.000000   1.015037 )  

     reciprocal axes: (cart. coord. in units 2 pi/alat)
               b(1) = (  1.000000  0.000000  0.000000 )  
               b(2) = (  0.000000  1.000000  0.000000 )  
               b(3) = (  0.000000  0.000000  0.985185 )  


     PseudoPot. # 1 for Fe read from file:
     ./pseudo/Fe.pbe-spn-kjpaw_psl.1.0.0.UPF
     MD5 check sum: fc81f059e5c5069939230b1155715ae8
     Pseudo is Projector augmented-wave + core cor, Zval = 16.0
     Generated using &quot;atomic&quot; code by A. Dal Corso  v.6.3
     Shape of augmentation charge: PSQ
     Using radial grid of 1191 points,  6 beta functions with: 
                l(1) =   0
                l(2) =   0
                l(3) =   1
                l(4) =   1
                l(5) =   2
                l(6) =   2
     Q(r) pseudized with 0 coefficients 


     PseudoPot. # 2 for Cr read from file:
     ./pseudo/Cr.pbe-spn-kjpaw_psl.1.0.0.UPF
     MD5 check sum: 198f1a2427a48552563eee314eba32ba
     Pseudo is Projector augmented-wave + core cor, Zval = 14.0
     Generated using &quot;atomic&quot; code by A. Dal Corso  v.6.3
     Shape of augmentation charge: PSQ
     Using radial grid of 1183 points,  6 beta functions with: 
                l(1) =   0
                l(2) =   0
                l(3) =   1
                l(4) =   1
                l(5) =   2
                l(6) =   2
     Q(r) pseudized with 0 coefficients 


     atomic species   valence    mass     pseudopotential
     Fe               16.00    55.84500     Fe( 1.00)
     Cr               14.00    51.99600     Cr( 1.00)

     Starting magnetic structure 
     atomic species   magnetization
     Fe              0.500
     Cr              0.300

      4 Sym. Ops., with inversion, found



   Cartesian axes

     site n.     atom                  positions (alat units)
         1        Cr     tau(   1) = (   0.0000000   0.0000000   0.0000000  )
         2        Fe     tau(   2) = (   0.2500000   0.2500000   0.2537593  )
         3        Cr     tau(   3) = (   0.0000000   0.0000000   0.5075187  )
         4        Cr     tau(   4) = (   0.2500000   0.2500000   0.7612780  )
         5        Cr     tau(   5) = (   0.0000000   0.5000000   0.0000000  )
         6        Fe     tau(   6) = (   0.2500000   0.7500000   0.2537593  )
         7        Cr     tau(   7) = (   0.0000000   0.5000000   0.5075187  )
         8        Cr     tau(   8) = (   0.2500000   0.7500000   0.7612780  )
         9        Cr     tau(   9) = (   0.5000000   0.0000000   0.0000000  )
        10        Cr     tau(  10) = (   0.7500000   0.2500000   0.2537593  )
        11        Cr     tau(  11) = (   0.5000000   0.0000000   0.5075187  )
        12        Fe     tau(  12) = (   0.7500000   0.2500000   0.7612780  )
        13        Fe     tau(  13) = (   0.5000000   0.5000000   0.0000000  )
        14        Cr     tau(  14) = (   0.7500000   0.7500000   0.2537593  )
        15        Cr     tau(  15) = (   0.5000000   0.5000000   0.5075187  )
        16        Fe     tau(  16) = (   0.7500000   0.7500000   0.7612780  )

     number of k points=    80  Marzari-Vanderbilt smearing, width (Ry)=  0.0200
                       cart. coord. in units 2pi/alat
        k(    1) = (   0.0000000   0.0000000   0.0000000), wk =   0.0046296
        k(    2) = (   0.0000000   0.0000000   0.1641976), wk =   0.0092593
        k(    3) = (   0.0000000   0.0000000   0.3283951), wk =   0.0092593
        k(    4) = (   0.0000000   0.0000000  -0.4925927), wk =   0.0046296
        k(    5) = (   0.0000000   0.1666667   0.0000000), wk =   0.0092593
        k(    6) = (   0.0000000   0.1666667   0.1641976), wk =   0.0185185
        k(    7) = (   0.0000000   0.1666667   0.3283951), wk =   0.0185185
        k(    8) = (   0.0000000   0.1666667  -0.4925927), wk =   0.0092593
        k(    9) = (   0.0000000   0.3333333   0.0000000), wk =   0.0092593
        k(   10) = (   0.0000000   0.3333333   0.1641976), wk =   0.0185185
        k(   11) = (   0.0000000   0.3333333   0.3283951), wk =   0.0185185
        k(   12) = (   0.0000000   0.3333333  -0.4925927), wk =   0.0092593
        k(   13) = (   0.0000000  -0.5000000   0.0000000), wk =   0.0046296
        k(   14) = (   0.0000000  -0.5000000   0.1641976), wk =   0.0092593
        k(   15) = (   0.0000000  -0.5000000   0.3283951), wk =   0.0092593
        k(   16) = (   0.0000000  -0.5000000  -0.4925927), wk =   0.0046296
        k(   17) = (   0.1666667   0.1666667   0.0000000), wk =   0.0185185
        k(   18) = (   0.1666667   0.1666667   0.1641976), wk =   0.0185185
        k(   19) = (   0.1666667   0.1666667   0.3283951), wk =   0.0185185
        k(   20) = (   0.1666667   0.1666667  -0.4925927), wk =   0.0185185
        k(   21) = (   0.1666667   0.3333333   0.0000000), wk =   0.0185185
        k(   22) = (   0.1666667   0.3333333   0.1641976), wk =   0.0185185
        k(   23) = (   0.1666667   0.3333333   0.3283951), wk =   0.0185185
        k(   24) = (   0.1666667   0.3333333  -0.4925927), wk =   0.0185185
        k(   25) = (   0.1666667  -0.5000000   0.0000000), wk =   0.0092593
        k(   26) = (   0.1666667  -0.5000000   0.1641976), wk =   0.0092593
        k(   27) = (   0.1666667  -0.5000000   0.3283951), wk =   0.0092593
        k(   28) = (   0.1666667  -0.5000000  -0.4925927), wk =   0.0092593
        k(   29) = (   0.3333333   0.3333333   0.0000000), wk =   0.0185185
        k(   30) = (   0.3333333   0.3333333   0.1641976), wk =   0.0185185
        k(   31) = (   0.3333333   0.3333333   0.3283951), wk =   0.0185185
        k(   32) = (   0.3333333   0.3333333  -0.4925927), wk =   0.0185185
        k(   33) = (   0.3333333  -0.5000000   0.0000000), wk =   0.0092593
        k(   34) = (   0.3333333  -0.5000000   0.1641976), wk =   0.0092593
        k(   35) = (   0.3333333  -0.5000000   0.3283951), wk =   0.0092593
        k(   36) = (   0.3333333  -0.5000000  -0.4925927), wk =   0.0092593
        k(   37) = (  -0.5000000  -0.5000000   0.0000000), wk =   0.0046296
        k(   38) = (  -0.5000000  -0.5000000   0.1641976), wk =   0.0092593
        k(   39) = (  -0.5000000  -0.5000000   0.3283951), wk =   0.0092593
        k(   40) = (  -0.5000000  -0.5000000  -0.4925927), wk =   0.0046296
        k(   41) = (   0.1666667   0.0000000   0.0000000), wk =   0.0092593
        k(   42) = (   0.1666667   0.0000000  -0.1641976), wk =   0.0092593
        k(   43) = (  -0.1666667   0.0000000  -0.1641976), wk =   0.0092593
        k(   44) = (   0.1666667   0.0000000  -0.3283951), wk =   0.0092593
        k(   45) = (  -0.1666667   0.0000000  -0.3283951), wk =   0.0092593
        k(   46) = (   0.1666667   0.0000000   0.4925927), wk =   0.0092593
        k(   47) = (   0.3333333   0.0000000   0.0000000), wk =   0.0092593
        k(   48) = (   0.3333333   0.0000000  -0.1641976), wk =   0.0092593
        k(   49) = (  -0.3333333   0.0000000  -0.1641976), wk =   0.0092593
        k(   50) = (   0.3333333   0.0000000  -0.3283951), wk =   0.0092593
        k(   51) = (  -0.3333333   0.0000000  -0.3283951), wk =   0.0092593
        k(   52) = (   0.3333333   0.0000000   0.4925927), wk =   0.0092593
        k(   53) = (  -0.5000000   0.0000000   0.0000000), wk =   0.0046296
        k(   54) = (  -0.5000000   0.0000000  -0.1641976), wk =   0.0092593
        k(   55) = (  -0.5000000   0.0000000  -0.3283951), wk =   0.0092593
        k(   56) = (  -0.5000000   0.0000000   0.4925927), wk =   0.0046296
        k(   57) = (   0.1666667   0.1666667  -0.1641976), wk =   0.0185185
        k(   58) = (   0.1666667   0.1666667  -0.3283951), wk =   0.0185185
        k(   59) = (   0.3333333   0.1666667   0.0000000), wk =   0.0185185
        k(   60) = (   0.3333333   0.1666667  -0.1641976), wk =   0.0185185
        k(   61) = (  -0.3333333  -0.1666667  -0.1641976), wk =   0.0185185
        k(   62) = (  -0.1666667  -0.3333333   0.1641976), wk =   0.0185185
        k(   63) = (   0.3333333   0.1666667  -0.3283951), wk =   0.0185185
        k(   64) = (  -0.3333333  -0.1666667  -0.3283951), wk =   0.0185185
        k(   65) = (  -0.1666667  -0.3333333   0.3283951), wk =   0.0185185
        k(   66) = (   0.3333333   0.1666667   0.4925927), wk =   0.0185185
        k(   67) = (  -0.5000000   0.1666667   0.0000000), wk =   0.0092593
        k(   68) = (  -0.5000000   0.1666667  -0.1641976), wk =   0.0185185
        k(   69) = (  -0.1666667   0.5000000   0.1641976), wk =   0.0092593
        k(   70) = (  -0.5000000   0.1666667  -0.3283951), wk =   0.0185185
        k(   71) = (  -0.1666667   0.5000000   0.3283951), wk =   0.0092593
        k(   72) = (  -0.5000000   0.1666667   0.4925927), wk =   0.0092593
        k(   73) = (   0.3333333   0.3333333  -0.1641976), wk =   0.0185185
        k(   74) = (   0.3333333   0.3333333  -0.3283951), wk =   0.0185185
        k(   75) = (  -0.5000000   0.3333333   0.0000000), wk =   0.0092593
        k(   76) = (  -0.5000000   0.3333333  -0.1641976), wk =   0.0185185
        k(   77) = (  -0.3333333   0.5000000   0.1641976), wk =   0.0092593
        k(   78) = (  -0.5000000   0.3333333  -0.3283951), wk =   0.0185185
        k(   79) = (  -0.3333333   0.5000000   0.3283951), wk =   0.0092593
        k(   80) = (  -0.5000000   0.3333333   0.4925927), wk =   0.0092593

     Dense  grid:   214675 G-vectors     FFT dimensions: (  75,  75,  75)

     Smooth grid:    75837 G-vectors     FFT dimensions: (  54,  54,  54)

     Estimated max dynamical RAM per process >       4.08 GB

     Check: negative core charge=   -0.000003
     Generating pointlists ...
     new r_m :   0.1795 (alat units)  1.9028 (a.u.) for type    1
     new r_m :   0.1795 (alat units)  1.9028 (a.u.) for type    2

     Initial potential from superposition of free atoms

     starting charge     233.9893, renormalised to     234.0000
     Starting wfcs are  160 randomized atomic wfcs
     Checking if some PAW data can be deallocated... 

     total cpu time spent up to now is       27.6 secs

     Self-consistent Calculation

     iteration #  1     ecut=    60.00 Ry     beta= 0.30
     Davidson diagonalization with overlap
     ethr =  1.00E-02,  avg # of iterations =  5.2

     negative rho (up, down):  1.667E-01 1.724E+00

     total cpu time spent up to now is       73.1 secs

     total energy              =   -4362.24857658 Ry
     estimated scf accuracy    <     236.89491082 Ry

     total magnetization       =    43.29 Bohr mag/cell
     absolute magnetization    =    62.17 Bohr mag/cell

     iteration #  2     ecut=    60.00 Ry     beta= 0.30
     Davidson diagonalization with overlap
     ethr =  1.00E-02,  avg # of iterations =  5.5

     negative rho (up, down):  1.187E-01 1.293E+00

     total cpu time spent up to now is      119.0 secs

     total energy              =   -4364.95600129 Ry
     estimated scf accuracy    <      65.39144656 Ry

     total magnetization       =    24.31 Bohr mag/cell
     absolute magnetization    =    24.90 Bohr mag/cell

     iteration #  3     ecut=    60.00 Ry     beta= 0.30
     Davidson diagonalization with overlap
     ethr =  1.00E-02,  avg # of iterations =  5.4

     negative rho (up, down):  9.404E-02 1.140E+00

     total cpu time spent up to now is      168.2 secs

     total energy              =   -4365.30428529 Ry
     estimated scf accuracy    <     145.85358468 Ry

     total magnetization       =    21.80 Bohr mag/cell
     absolute magnetization    =    22.19 Bohr mag/cell

     iteration #  4     ecut=    60.00 Ry     beta= 0.30
     Davidson diagonalization with overlap
     ethr =  1.00E-02,  avg # of iterations =  3.5

     negative rho (up, down):  8.139E-02 1.055E+00

     total cpu time spent up to now is      210.4 secs

     total energy              =   -4372.65811627 Ry
     estimated scf accuracy    <      19.95590574 Ry

     total magnetization       =    24.11 Bohr mag/cell
     absolute magnetization    =    24.88 Bohr mag/cell

     iteration #  5     ecut=    60.00 Ry     beta= 0.30
     Davidson diagonalization with overlap
     ethr =  8.53E-03,  avg # of iterations =  4.9

     negative rho (up, down):  4.643E-02 7.652E-01

     total cpu time spent up to now is      252.6 secs

     total energy              =   -4374.67118862 Ry
     estimated scf accuracy    <      16.08584198 Ry

     total magnetization       =    25.89 Bohr mag/cell
     absolute magnetization    =    26.24 Bohr mag/cell

     iteration #  6     ecut=    60.00 Ry     beta= 0.30
     Davidson diagonalization with overlap
     ethr =  6.87E-03,  avg # of iterations =  1.1

     negative rho (up, down):  9.685E-03 3.643E-01

     total cpu time spent up to now is      286.9 secs

     total energy              =   -4375.18741721 Ry
     estimated scf accuracy    <      11.38165808 Ry

     total magnetization       =    23.17 Bohr mag/cell
     absolute magnetization    =    23.66 Bohr mag/cell

     iteration #  7     ecut=    60.00 Ry     beta= 0.30
     Davidson diagonalization with overlap
     ethr =  4.86E-03,  avg # of iterations =  1.8

     negative rho (up, down):  4.982E-05 1.327E-01

     total cpu time spent up to now is      323.3 secs

     total energy              =   -4375.86887834 Ry
     estimated scf accuracy    <       8.03500997 Ry

     total magnetization       =    20.80 Bohr mag/cell
     absolute magnetization    =    21.42 Bohr mag/cell

     iteration #  8     ecut=    60.00 Ry     beta= 0.30
     Davidson diagonalization with overlap
     ethr =  3.43E-03,  avg # of iterations =  1.1

     negative rho (up, down):  0.000E+00 7.464E-02

     total cpu time spent up to now is      356.7 secs

     total energy              =   -4376.21376549 Ry
     estimated scf accuracy    <       3.62725463 Ry

     total magnetization       =    17.81 Bohr mag/cell
     absolute magnetization    =    18.62 Bohr mag/cell

     iteration #  9     ecut=    60.00 Ry     beta= 0.30
     Davidson diagonalization with overlap
     ethr =  1.55E-03,  avg # of iterations =  1.1

     negative rho (up, down):  0.000E+00 2.348E-02

     total cpu time spent up to now is      390.5 secs

     total energy              =   -4376.31209842 Ry
     estimated scf accuracy    <       1.52964607 Ry

     total magnetization       =    16.74 Bohr mag/cell
     absolute magnetization    =    17.67 Bohr mag/cell

     iteration # 10     ecut=    60.00 Ry     beta= 0.30
     Davidson diagonalization with overlap
     ethr =  6.54E-04,  avg # of iterations =  1.9

     negative rho (up, down):  0.000E+00 4.929E-04

     total cpu time spent up to now is      426.5 secs

     total energy              =   -4376.40149645 Ry
     estimated scf accuracy    <       1.46806857 Ry

     total magnetization       =    15.15 Bohr mag/cell
     absolute magnetization    =    16.35 Bohr mag/cell

     iteration # 11     ecut=    60.00 Ry     beta= 0.30
     Davidson diagonalization with overlap
     ethr =  6.27E-04,  avg # of iterations =  1.4

     negative rho (up, down):  0.000E+00 3.405E-04

     total cpu time spent up to now is      461.1 secs

     total energy              =   -4376.46683193 Ry
     estimated scf accuracy    <       0.52532252 Ry

     total magnetization       =    13.07 Bohr mag/cell
     absolute magnetization    =    14.67 Bohr mag/cell

     iteration # 12     ecut=    60.00 Ry     beta= 0.30
     Davidson diagonalization with overlap
     c_bands:  1 eigenvalues not converged
     ethr =  2.24E-04,  avg # of iterations =  5.8

     negative rho (up, down):  0.000E+00 1.615E-04

     total cpu time spent up to now is      507.4 secs

     total energy              =   -4376.51942729 Ry
     estimated scf accuracy    <       0.76955910 Ry

     total magnetization       =    12.10 Bohr mag/cell
     absolute magnetization    =    13.78 Bohr mag/cell

     iteration # 13     ecut=    60.00 Ry     beta= 0.30
     Davidson diagonalization with overlap
     ethr =  2.24E-04,  avg # of iterations =  1.2

     negative rho (up, down):  0.000E+00 4.612E-05

     total cpu time spent up to now is      542.1 secs

     total energy              =   -4376.53160040 Ry
     estimated scf accuracy    <       0.21796338 Ry

     total magnetization       =    11.68 Bohr mag/cell
     absolute magnetization    =    13.23 Bohr mag/cell

     iteration # 14     ecut=    60.00 Ry     beta= 0.30
     Davidson diagonalization with overlap
     c_bands:  4 eigenvalues not converged
     c_bands:  2 eigenvalues not converged
     c_bands:  1 eigenvalues not converged
     c_bands:  2 eigenvalues not converged
     ethr =  9.31E-05,  avg # of iterations =  5.1

     total cpu time spent up to now is      585.7 secs

     total energy              =   -4376.54361778 Ry
     estimated scf accuracy    <       0.27163579 Ry

     total magnetization       =    11.32 Bohr mag/cell
     absolute magnetization    =    12.93 Bohr mag/cell

     iteration # 15     ecut=    60.00 Ry     beta= 0.30
     Davidson diagonalization with overlap
     ethr =  9.31E-05,  avg # of iterations =  1.8

     total cpu time spent up to now is      621.4 secs

     total energy              =   -4376.56162601 Ry
     estimated scf accuracy    <       0.11466118 Ry

     total magnetization       =    11.19 Bohr mag/cell
     absolute magnetization    =    12.78 Bohr mag/cell

     iteration # 16     ecut=    60.00 Ry     beta= 0.30
     Davidson diagonalization with overlap
     c_bands:  2 eigenvalues not converged
     c_bands:  4 eigenvalues not converged
     c_bands:  2 eigenvalues not converged
     ethr =  4.90E-05,  avg # of iterations =  6.9

     total cpu time spent up to now is      668.8 secs

     total energy              =   -4376.56639975 Ry
     estimated scf accuracy    <       0.10946727 Ry

     total magnetization       =    10.53 Bohr mag/cell
     absolute magnetization    =    12.14 Bohr mag/cell

     iteration # 17     ecut=    60.00 Ry     beta= 0.30
     Davidson diagonalization with overlap
     ethr =  4.68E-05,  avg # of iterations =  1.8

     total cpu time spent up to now is      704.4 secs

     total energy              =   -4376.57403449 Ry
     estimated scf accuracy    <       0.02473832 Ry

     total magnetization       =    10.46 Bohr mag/cell
     absolute magnetization    =    12.04 Bohr mag/cell

     iteration # 18     ecut=    60.00 Ry     beta= 0.30
     Davidson diagonalization with overlap
     c_bands:  1 eigenvalues not converged
     c_bands:  1 eigenvalues not converged
     c_bands:  1 eigenvalues not converged
     c_bands:  1 eigenvalues not converged
     c_bands:  1 eigenvalues not converged
     c_bands:  1 eigenvalues not converged
     c_bands:  5 eigenvalues not converged
     c_bands:  1 eigenvalues not converged
     ethr =  1.06E-05,  avg # of iterations = 10.0

     total cpu time spent up to now is      763.0 secs

     total energy              =   -4376.57486989 Ry
     estimated scf accuracy    <       0.14619260 Ry

     total magnetization       =    10.28 Bohr mag/cell
     absolute magnetization    =    11.83 Bohr mag/cell

     iteration # 19     ecut=    60.00 Ry     beta= 0.30
     Davidson diagonalization with overlap
     c_bands:  1 eigenvalues not converged
     c_bands:  3 eigenvalues not converged
     ethr =  1.06E-05,  avg # of iterations = 10.1

     total cpu time spent up to now is      821.7 secs

     total energy              =   -4376.58036948 Ry
     estimated scf accuracy    <       0.09678987 Ry

     total magnetization       =     9.50 Bohr mag/cell
     absolute magnetization    =    11.21 Bohr mag/cell

     iteration # 20     ecut=    60.00 Ry     beta= 0.30
     Davidson diagonalization with overlap
     ethr =  1.06E-05,  avg # of iterations =  2.4

     total cpu time spent up to now is      859.6 secs

     total energy              =   -4376.58360859 Ry
     estimated scf accuracy    <       0.02565404 Ry

     total magnetization       =     9.33 Bohr mag/cell
     absolute magnetization    =    11.01 Bohr mag/cell

     iteration # 21     ecut=    60.00 Ry     beta= 0.30
     Davidson diagonalization with overlap
     ethr =  1.06E-05,  avg # of iterations =  1.4

     total cpu time spent up to now is      894.3 secs

     total energy              =   -4376.58408425 Ry
     estimated scf accuracy    <       0.01162832 Ry

     total magnetization       =     9.25 Bohr mag/cell
     absolute magnetization    =    10.94 Bohr mag/cell

     iteration # 22     ecut=    60.00 Ry     beta= 0.30
     Davidson diagonalization with overlap
     c_bands:  1 eigenvalues not converged
     c_bands:  1 eigenvalues not converged
     c_bands:  2 eigenvalues not converged
     ethr =  4.97E-06,  avg # of iterations =  4.3

     total cpu time spent up to now is      936.7 secs

     total energy              =   -4376.58489370 Ry
     estimated scf accuracy    <       0.00111452 Ry

     total magnetization       =     9.15 Bohr mag/cell
     absolute magnetization    =    10.84 Bohr mag/cell

     iteration # 23     ecut=    60.00 Ry     beta= 0.30
     Davidson diagonalization with overlap
     c_bands:  1 eigenvalues not converged
     c_bands:  1 eigenvalues not converged
     c_bands:  1 eigenvalues not converged
     c_bands:  1 eigenvalues not converged
     c_bands:  1 eigenvalues not converged
     c_bands:  4 eigenvalues not converged
     c_bands:  5 eigenvalues not converged
     c_bands:  3 eigenvalues not converged
     ethr =  4.76E-07,  avg # of iterations =  8.3

     total cpu time spent up to now is      993.1 secs

     total energy              =   -4376.58520598 Ry
     estimated scf accuracy    <       0.00507531 Ry

     total magnetization       =     9.12 Bohr mag/cell
     absolute magnetization    =    10.76 Bohr mag/cell

     iteration # 24     ecut=    60.00 Ry     beta= 0.30
     Davidson diagonalization with overlap
     ethr =  4.76E-07,  avg # of iterations =  2.5

     total cpu time spent up to now is     1031.1 secs

     total energy              =   -4376.58538231 Ry
     estimated scf accuracy    <       0.00126698 Ry

     total magnetization       =     9.09 Bohr mag/cell
     absolute magnetization    =    10.73 Bohr mag/cell

     iteration # 25     ecut=    60.00 Ry     beta= 0.30
     Davidson diagonalization with overlap
     ethr =  4.76E-07,  avg # of iterations =  1.9

     total cpu time spent up to now is     1068.1 secs

     total energy              =   -4376.58538399 Ry
     estimated scf accuracy    <       0.00101112 Ry

     total magnetization       =     9.07 Bohr mag/cell
     absolute magnetization    =    10.71 Bohr mag/cell

     iteration # 26     ecut=    60.00 Ry     beta= 0.30
     Davidson diagonalization with overlap
     ethr =  4.32E-07,  avg # of iterations =  1.5

     total cpu time spent up to now is     1103.1 secs

     total energy              =   -4376.58563155 Ry
     estimated scf accuracy    <       0.00083339 Ry

     total magnetization       =     9.11 Bohr mag/cell
     absolute magnetization    =    10.73 Bohr mag/cell

     iteration # 27     ecut=    60.00 Ry     beta= 0.30
     Davidson diagonalization with overlap
     ethr =  3.56E-07,  avg # of iterations =  5.2

     total cpu time spent up to now is     1147.6 secs

     total energy              =   -4376.58584064 Ry
     estimated scf accuracy    <       0.00119575 Ry

     total magnetization       =     9.08 Bohr mag/cell
     absolute magnetization    =    10.67 Bohr mag/cell

     iteration # 28     ecut=    60.00 Ry     beta= 0.30
     Davidson diagonalization with overlap
     ethr =  3.56E-07,  avg # of iterations =  3.4

     total cpu time spent up to now is     1187.2 secs

     total energy              =   -4376.58589473 Ry
     estimated scf accuracy    <       0.00097988 Ry

     total magnetization       =     9.06 Bohr mag/cell
     absolute magnetization    =    10.64 Bohr mag/cell

     iteration # 29     ecut=    60.00 Ry     beta= 0.30
     Davidson diagonalization with overlap
     ethr =  3.56E-07,  avg # of iterations =  2.4

     total cpu time spent up to now is     1224.8 secs

     total energy              =   -4376.58595530 Ry
     estimated scf accuracy    <       0.00063963 Ry

     total magnetization       =     9.06 Bohr mag/cell
     absolute magnetization    =    10.63 Bohr mag/cell

     iteration # 30     ecut=    60.00 Ry     beta= 0.30
     Davidson diagonalization with overlap
     ethr =  2.73E-07,  avg # of iterations =  2.4

     total cpu time spent up to now is     1263.1 secs

     total energy              =   -4376.58603790 Ry
     estimated scf accuracy    <       0.00040233 Ry

     total magnetization       =     9.05 Bohr mag/cell
     absolute magnetization    =    10.62 Bohr mag/cell

     iteration # 31     ecut=    60.00 Ry     beta= 0.30
     Davidson diagonalization with overlap
     ethr =  1.72E-07,  avg # of iterations =  4.3

     total cpu time spent up to now is     1304.9 secs

     total energy              =   -4376.58615721 Ry
     estimated scf accuracy    <       0.00043819 Ry

     total magnetization       =     9.06 Bohr mag/cell
     absolute magnetization    =    10.61 Bohr mag/cell

     iteration # 32     ecut=    60.00 Ry     beta= 0.30
     Davidson diagonalization with overlap
     c_bands:  1 eigenvalues not converged
     ethr =  1.72E-07,  avg # of iterations =  7.3

     total cpu time spent up to now is     1356.1 secs

     total energy              =   -4376.58627950 Ry
     estimated scf accuracy    <       0.00024602 Ry

     total magnetization       =     9.06 Bohr mag/cell
     absolute magnetization    =    10.61 Bohr mag/cell

     iteration # 33     ecut=    60.00 Ry     beta= 0.30
     Davidson diagonalization with overlap
     ethr =  1.05E-07,  avg # of iterations =  1.7

     total cpu time spent up to now is     1392.0 secs

     total energy              =   -4376.58632374 Ry
     estimated scf accuracy    <       0.00029083 Ry

     total magnetization       =     9.06 Bohr mag/cell
     absolute magnetization    =    10.62 Bohr mag/cell

     iteration # 34     ecut=    60.00 Ry     beta= 0.30
     Davidson diagonalization with overlap
     ethr =  1.05E-07,  avg # of iterations =  2.0

     total cpu time spent up to now is     1428.9 secs

     total energy              =   -4376.58625726 Ry
     estimated scf accuracy    <       0.00025431 Ry

     total magnetization       =     9.06 Bohr mag/cell
     absolute magnetization    =    10.62 Bohr mag/cell

     iteration # 35     ecut=    60.00 Ry     beta= 0.30
     Davidson diagonalization with overlap
     ethr =  1.05E-07,  avg # of iterations =  1.1

     total cpu time spent up to now is     1462.7 secs

     total energy              =   -4376.58627100 Ry
     estimated scf accuracy    <       0.00024155 Ry

     total magnetization       =     9.07 Bohr mag/cell
     absolute magnetization    =    10.63 Bohr mag/cell

     iteration # 36     ecut=    60.00 Ry     beta= 0.30
     Davidson diagonalization with overlap
     ethr =  1.03E-07,  avg # of iterations =  1.0

     total cpu time spent up to now is     1496.9 secs

     total energy              =   -4376.58602898 Ry
     estimated scf accuracy    <       0.00021733 Ry

     total magnetization       =     9.07 Bohr mag/cell
     absolute magnetization    =    10.63 Bohr mag/cell

     iteration # 37     ecut=    60.00 Ry     beta= 0.30
     Davidson diagonalization with overlap
     ethr =  9.29E-08,  avg # of iterations =  5.0

     total cpu time spent up to now is     1540.0 secs

     total energy              =   -4376.58612984 Ry
     estimated scf accuracy    <       0.00032378 Ry

     total magnetization       =     9.05 Bohr mag/cell
     absolute magnetization    =    10.61 Bohr mag/cell

     iteration # 38     ecut=    60.00 Ry     beta= 0.30
     Davidson diagonalization with overlap
     ethr =  9.29E-08,  avg # of iterations =  1.0

     total cpu time spent up to now is     1574.0 secs

     total energy              =   -4376.58583583 Ry
     estimated scf accuracy    <       0.00037460 Ry

     total magnetization       =     9.05 Bohr mag/cell
     absolute magnetization    =    10.61 Bohr mag/cell

     iteration # 39     ecut=    60.00 Ry     beta= 0.30
     Davidson diagonalization with overlap
     ethr =  9.29E-08,  avg # of iterations =  7.5

     total cpu time spent up to now is     1631.5 secs

     total energy              =   -4376.58682172 Ry
     estimated scf accuracy    <       0.00078604 Ry

     total magnetization       =     9.14 Bohr mag/cell
     absolute magnetization    =    10.81 Bohr mag/cell

     iteration # 40     ecut=    60.00 Ry     beta= 0.30
     Davidson diagonalization with overlap
     ethr =  9.29E-08,  avg # of iterations =  6.0

     total cpu time spent up to now is     1682.7 secs

     total energy              =   -4376.58694610 Ry
     estimated scf accuracy    <       0.00014853 Ry

     total magnetization       =     9.17 Bohr mag/cell
     absolute magnetization    =    10.96 Bohr mag/cell

     iteration # 41     ecut=    60.00 Ry     beta= 0.30
     Davidson diagonalization with overlap
     ethr =  6.35E-08,  avg # of iterations =  4.6

     total cpu time spent up to now is     1724.8 secs

     total energy              =   -4376.58669948 Ry
     estimated scf accuracy    <       0.00034493 Ry

     total magnetization       =     9.16 Bohr mag/cell
     absolute magnetization    =    10.90 Bohr mag/cell

     iteration # 42     ecut=    60.00 Ry     beta= 0.30
     Davidson diagonalization with overlap
     ethr =  6.35E-08,  avg # of iterations =  5.5

     total cpu time spent up to now is     1772.3 secs

     total energy              =   -4376.58663755 Ry
     estimated scf accuracy    <       0.00057768 Ry

     total magnetization       =     9.16 Bohr mag/cell
     absolute magnetization    =    10.81 Bohr mag/cell

     iteration # 43     ecut=    60.00 Ry     beta= 0.30
     Davidson diagonalization with overlap
     ethr =  6.35E-08,  avg # of iterations =  4.1

     total cpu time spent up to now is     1815.2 secs

     total energy              =   -4376.58650900 Ry
     estimated scf accuracy    <       0.00042470 Ry

     total magnetization       =     9.14 Bohr mag/cell
     absolute magnetization    =    10.75 Bohr mag/cell

     iteration # 44     ecut=    60.00 Ry     beta= 0.30
     Davidson diagonalization with overlap
     ethr =  6.35E-08,  avg # of iterations =  7.8

     total cpu time spent up to now is     1872.3 secs

     total energy              =   -4376.58656711 Ry
     estimated scf accuracy    <       0.00082156 Ry

     total magnetization       =     9.18 Bohr mag/cell
     absolute magnetization    =    10.99 Bohr mag/cell

     iteration # 45     ecut=    60.00 Ry     beta= 0.30
     Davidson diagonalization with overlap
     ethr =  6.35E-08,  avg # of iterations =  6.2

     total cpu time spent up to now is     1924.9 secs

     total energy              =   -4376.58647529 Ry
     estimated scf accuracy    <       0.00043980 Ry

     total magnetization       =     9.16 Bohr mag/cell
     absolute magnetization    =    10.85 Bohr mag/cell

     iteration # 46     ecut=    60.00 Ry     beta= 0.30
     Davidson diagonalization with overlap
     ethr =  6.35E-08,  avg # of iterations =  7.9

     total cpu time spent up to now is     1983.6 secs

     total energy              =   -4376.58724567 Ry
     estimated scf accuracy    <       0.00024288 Ry

     total magnetization       =     9.19 Bohr mag/cell
     absolute magnetization    =    11.17 Bohr mag/cell

     iteration # 47     ecut=    60.00 Ry     beta= 0.30
     Davidson diagonalization with overlap
     ethr =  6.35E-08,  avg # of iterations =  4.2

     total cpu time spent up to now is     2024.6 secs

     total energy              =   -4376.58727355 Ry
     estimated scf accuracy    <       0.00013489 Ry

     total magnetization       =     9.18 Bohr mag/cell
     absolute magnetization    =    11.12 Bohr mag/cell

     iteration # 48     ecut=    60.00 Ry     beta= 0.30
     Davidson diagonalization with overlap
     ethr =  5.76E-08,  avg # of iterations =  1.2

     total cpu time spent up to now is     2059.0 secs

     total energy              =   -4376.58703809 Ry
     estimated scf accuracy    <       0.00018277 Ry

     total magnetization       =     9.19 Bohr mag/cell
     absolute magnetization    =    11.12 Bohr mag/cell

     iteration # 49     ecut=    60.00 Ry     beta= 0.30
     Davidson diagonalization with overlap
     ethr =  5.76E-08,  avg # of iterations =  5.8

     total cpu time spent up to now is     2106.9 secs

     total energy              =   -4376.58714096 Ry
     estimated scf accuracy    <       0.00030906 Ry

     total magnetization       =     9.19 Bohr mag/cell
     absolute magnetization    =    11.00 Bohr mag/cell

     iteration # 50     ecut=    60.00 Ry     beta= 0.30
     Davidson diagonalization with overlap
     ethr =  5.76E-08,  avg # of iterations =  6.1

     total cpu time spent up to now is     2157.7 secs

     total energy              =   -4376.58734307 Ry
     estimated scf accuracy    <       0.00048981 Ry

     total magnetization       =     9.19 Bohr mag/cell
     absolute magnetization    =    11.21 Bohr mag/cell

     iteration # 51     ecut=    60.00 Ry     beta= 0.30
     Davidson diagonalization with overlap
     ethr =  5.76E-08,  avg # of iterations =  5.0

     total cpu time spent up to now is     2199.9 secs

     total energy              =   -4376.58735553 Ry
     estimated scf accuracy    <       0.00032472 Ry

     total magnetization       =     9.19 Bohr mag/cell
     absolute magnetization    =    11.19 Bohr mag/cell

     iteration # 52     ecut=    60.00 Ry     beta= 0.30
     Davidson diagonalization with overlap
     ethr =  5.76E-08,  avg # of iterations =  1.9

     total cpu time spent up to now is     2236.5 secs

     total energy              =   -4376.58741296 Ry
     estimated scf accuracy    <       0.00011657 Ry

     total magnetization       =     9.19 Bohr mag/cell
     absolute magnetization    =    11.19 Bohr mag/cell

     iteration # 53     ecut=    60.00 Ry     beta= 0.30
     Davidson diagonalization with overlap
     ethr =  4.98E-08,  avg # of iterations =  5.5

     total cpu time spent up to now is     2281.9 secs

     total energy              =   -4376.58748035 Ry
     estimated scf accuracy    <       0.00038212 Ry

     total magnetization       =     9.21 Bohr mag/cell
     absolute magnetization    =    11.26 Bohr mag/cell

     iteration # 54     ecut=    60.00 Ry     beta= 0.30
     Davidson diagonalization with overlap
     ethr =  4.98E-08,  avg # of iterations =  5.8

     total cpu time spent up to now is     2332.0 secs

     total energy              =   -4376.58756397 Ry
     estimated scf accuracy    <       0.00070410 Ry

     total magnetization       =     9.22 Bohr mag/cell
     absolute magnetization    =    11.37 Bohr mag/cell

     iteration # 55     ecut=    60.00 Ry     beta= 0.30
     Davidson diagonalization with overlap
     ethr =  4.98E-08,  avg # of iterations =  5.4

     total cpu time spent up to now is     2376.8 secs

     total energy              =   -4376.58756516 Ry
     estimated scf accuracy    <       0.00051692 Ry

     total magnetization       =     9.21 Bohr mag/cell
     absolute magnetization    =    11.41 Bohr mag/cell

     iteration # 56     ecut=    60.00 Ry     beta= 0.30
     Davidson diagonalization with overlap
     c_bands:  1 eigenvalues not converged
     ethr =  4.98E-08,  avg # of iterations =  4.9

     total cpu time spent up to now is     2420.7 secs

     total energy              =   -4376.58749498 Ry
     estimated scf accuracy    <       0.00060398 Ry

     total magnetization       =     9.22 Bohr mag/cell
     absolute magnetization    =    11.42 Bohr mag/cell

     iteration # 57     ecut=    60.00 Ry     beta= 0.30
     Davidson diagonalization with overlap
     ethr =  4.98E-08,  avg # of iterations =  5.1

     total cpu time spent up to now is     2464.0 secs

     total energy              =   -4376.58750319 Ry
     estimated scf accuracy    <       0.00018774 Ry

     total magnetization       =     9.21 Bohr mag/cell
     absolute magnetization    =    11.35 Bohr mag/cell

     iteration # 58     ecut=    60.00 Ry     beta= 0.30
     Davidson diagonalization with overlap
     ethr =  4.98E-08,  avg # of iterations =  2.7

     total cpu time spent up to now is     2501.5 secs

     total energy              =   -4376.58749583 Ry
     estimated scf accuracy    <       0.00015002 Ry

     total magnetization       =     9.20 Bohr mag/cell
     absolute magnetization    =    11.33 Bohr mag/cell

     iteration # 59     ecut=    60.00 Ry     beta= 0.30
     Davidson diagonalization with overlap
     ethr =  4.98E-08,  avg # of iterations =  1.5

     total cpu time spent up to now is     2536.9 secs

     total energy              =   -4376.58749250 Ry
     estimated scf accuracy    <       0.00010997 Ry

     total magnetization       =     9.20 Bohr mag/cell
     absolute magnetization    =    11.32 Bohr mag/cell

     iteration # 60     ecut=    60.00 Ry     beta= 0.30
     Davidson diagonalization with overlap
     ethr =  4.70E-08,  avg # of iterations =  2.2

     total cpu time spent up to now is     2573.8 secs

     total energy              =   -4376.58750570 Ry
     estimated scf accuracy    <       0.00018579 Ry

     total magnetization       =     9.20 Bohr mag/cell
     absolute magnetization    =    11.32 Bohr mag/cell

     iteration # 61     ecut=    60.00 Ry     beta= 0.30
     Davidson diagonalization with overlap
     ethr =  4.70E-08,  avg # of iterations =  1.2

     total cpu time spent up to now is     2608.7 secs

     total energy              =   -4376.58754525 Ry
     estimated scf accuracy    <       0.00013326 Ry

     total magnetization       =     9.20 Bohr mag/cell
     absolute magnetization    =    11.33 Bohr mag/cell

     iteration # 62     ecut=    60.00 Ry     beta= 0.30
     Davidson diagonalization with overlap
     ethr =  4.70E-08,  avg # of iterations =  2.4

     total cpu time spent up to now is     2646.0 secs

     total energy              =   -4376.58756494 Ry
     estimated scf accuracy    <       0.00017447 Ry

     total magnetization       =     9.20 Bohr mag/cell
     absolute magnetization    =    11.36 Bohr mag/cell

     iteration # 63     ecut=    60.00 Ry     beta= 0.30
     Davidson diagonalization with overlap
     ethr =  4.70E-08,  avg # of iterations =  3.0

     total cpu time spent up to now is     2684.9 secs

     total energy              =   -4376.58755251 Ry
     estimated scf accuracy    <       0.00012115 Ry

     total magnetization       =     9.20 Bohr mag/cell
     absolute magnetization    =    11.38 Bohr mag/cell

     iteration # 64     ecut=    60.00 Ry     beta= 0.30
     Davidson diagonalization with overlap
     c_bands:  1 eigenvalues not converged
     ethr =  4.70E-08,  avg # of iterations =  7.3

     total cpu time spent up to now is     2739.7 secs

     total energy              =   -4376.58778492 Ry
     estimated scf accuracy    <       0.00071027 Ry

     total magnetization       =     9.21 Bohr mag/cell
     absolute magnetization    =    11.61 Bohr mag/cell

     iteration # 65     ecut=    60.00 Ry     beta= 0.30
     Davidson diagonalization with overlap
     ethr =  4.70E-08,  avg # of iterations =  6.2

     total cpu time spent up to now is     2791.2 secs

     total energy              =   -4376.58789014 Ry
     estimated scf accuracy    <       0.00032166 Ry

     total magnetization       =     9.23 Bohr mag/cell
     absolute magnetization    =    11.80 Bohr mag/cell

     iteration # 66     ecut=    60.00 Ry     beta= 0.30
     Davidson diagonalization with overlap
     ethr =  4.70E-08,  avg # of iterations =  5.6

     total cpu time spent up to now is     2835.8 secs

     total energy              =   -4376.58792626 Ry
     estimated scf accuracy    <       0.00062079 Ry

     total magnetization       =     9.23 Bohr mag/cell
     absolute magnetization    =    11.77 Bohr mag/cell

     iteration # 67     ecut=    60.00 Ry     beta= 0.30
     Davidson diagonalization with overlap
     ethr =  4.70E-08,  avg # of iterations =  5.4

     total cpu time spent up to now is     2883.9 secs

     total energy              =   -4376.58796584 Ry
     estimated scf accuracy    <       0.00066577 Ry

     total magnetization       =     9.23 Bohr mag/cell
     absolute magnetization    =    11.86 Bohr mag/cell

     iteration # 68     ecut=    60.00 Ry     beta= 0.30
     Davidson diagonalization with overlap
     ethr =  4.70E-08,  avg # of iterations =  5.7

     total cpu time spent up to now is     2933.7 secs

     total energy              =   -4376.58658127 Ry
     estimated scf accuracy    <       0.00019220 Ry

     total magnetization       =     9.24 Bohr mag/cell
     absolute magnetization    =    12.05 Bohr mag/cell

     iteration # 69     ecut=    60.00 Ry     beta= 0.30
     Davidson diagonalization with overlap
     ethr =  4.70E-08,  avg # of iterations =  8.8

     total cpu time spent up to now is     2995.9 secs

     total energy              =   -4376.58772416 Ry
     estimated scf accuracy    <       0.00039891 Ry

     total magnetization       =     9.20 Bohr mag/cell
     absolute magnetization    =    11.50 Bohr mag/cell

     iteration # 70     ecut=    60.00 Ry     beta= 0.30
     Davidson diagonalization with overlap
     ethr =  4.70E-08,  avg # of iterations =  5.2

     total cpu time spent up to now is     3040.4 secs

     total energy              =   -4376.58780826 Ry
     estimated scf accuracy    <       0.00017220 Ry

     total magnetization       =     9.21 Bohr mag/cell
     absolute magnetization    =    11.59 Bohr mag/cell

     iteration # 71     ecut=    60.00 Ry     beta= 0.30
     Davidson diagonalization with overlap
     ethr =  4.70E-08,  avg # of iterations =  5.1

     total cpu time spent up to now is     3085.2 secs

     total energy              =   -4376.58778615 Ry
     estimated scf accuracy    <       0.00013183 Ry

     total magnetization       =     9.21 Bohr mag/cell
     absolute magnetization    =    11.69 Bohr mag/cell

     iteration # 72     ecut=    60.00 Ry     beta= 0.30
     Davidson diagonalization with overlap
     ethr =  4.70E-08,  avg # of iterations =  6.6

     total cpu time spent up to now is     3138.0 secs

     total energy              =   -4376.58786063 Ry
     estimated scf accuracy    <       0.00011696 Ry

     total magnetization       =     9.22 Bohr mag/cell
     absolute magnetization    =    11.96 Bohr mag/cell

     iteration # 73     ecut=    60.00 Ry     beta= 0.30
     Davidson diagonalization with overlap
     ethr =  4.70E-08,  avg # of iterations =  5.1

     total cpu time spent up to now is     3184.1 secs

     total energy              =   -4376.58798474 Ry
     estimated scf accuracy    <       0.00009245 Ry

     total magnetization       =     9.22 Bohr mag/cell
     absolute magnetization    =    11.81 Bohr mag/cell

     iteration # 74     ecut=    60.00 Ry     beta= 0.30
     Davidson diagonalization with overlap
     ethr =  3.95E-08,  avg # of iterations =  5.0

     total cpu time spent up to now is     3227.7 secs

     total energy              =   -4376.58797073 Ry
     estimated scf accuracy    <       0.00008651 Ry

     total magnetization       =     9.22 Bohr mag/cell
     absolute magnetization    =    11.91 Bohr mag/cell

     iteration # 75     ecut=    60.00 Ry     beta= 0.30
     Davidson diagonalization with overlap
     ethr =  3.70E-08,  avg # of iterations =  6.9

     total cpu time spent up to now is     3281.8 secs

     total energy              =   -4376.58686405 Ry
     estimated scf accuracy    <       0.00019107 Ry

     total magnetization       =     9.23 Bohr mag/cell
     absolute magnetization    =    12.14 Bohr mag/cell

     iteration # 76     ecut=    60.00 Ry     beta= 0.30
     Davidson diagonalization with overlap
     c_bands:  1 eigenvalues not converged
     c_bands:  1 eigenvalues not converged
     c_bands:  1 eigenvalues not converged
     c_bands:  1 eigenvalues not converged
     c_bands:  1 eigenvalues not converged
     ethr =  3.70E-08,  avg # of iterations = 10.4

     total cpu time spent up to now is     3350.0 secs

     total energy              =   -4376.58820358 Ry
     estimated scf accuracy    <       0.00047853 Ry

     total magnetization       =     9.24 Bohr mag/cell
     absolute magnetization    =    12.82 Bohr mag/cell

     iteration # 77     ecut=    60.00 Ry     beta= 0.30
     Davidson diagonalization with overlap
     c_bands:  1 eigenvalues not converged
     ethr =  3.70E-08,  avg # of iterations =  7.8

     total cpu time spent up to now is     3408.1 secs

     total energy              =   -4376.58681201 Ry
     estimated scf accuracy    <       0.00022273 Ry

     total magnetization       =     9.25 Bohr mag/cell
     absolute magnetization    =    13.14 Bohr mag/cell

     iteration # 78     ecut=    60.00 Ry     beta= 0.30
     Davidson diagonalization with overlap
     ethr =  3.70E-08,  avg # of iterations =  9.8

     total cpu time spent up to now is     3475.0 secs

     total energy              =   -4376.58788816 Ry
     estimated scf accuracy    <       0.00012909 Ry

     total magnetization       =     9.23 Bohr mag/cell
     absolute magnetization    =    12.47 Bohr mag/cell

     iteration # 79     ecut=    60.00 Ry     beta= 0.30
     Davidson diagonalization with overlap
     ethr =  3.70E-08,  avg # of iterations =  7.9

     total cpu time spent up to now is     3533.6 secs

     total energy              =   -4376.58825841 Ry
     estimated scf accuracy    <       0.00029495 Ry

     total magnetization       =     9.25 Bohr mag/cell
     absolute magnetization    =    12.91 Bohr mag/cell

     iteration # 80     ecut=    60.00 Ry     beta= 0.30
     Davidson diagonalization with overlap
     ethr =  3.70E-08,  avg # of iterations =  8.0

     total cpu time spent up to now is     3591.0 secs

     total energy              =   -4376.58857901 Ry
     estimated scf accuracy    <       0.00010068 Ry

     total magnetization       =     9.24 Bohr mag/cell
     absolute magnetization    =    13.20 Bohr mag/cell

     iteration # 81     ecut=    60.00 Ry     beta= 0.30
     Davidson diagonalization with overlap
     ethr =  3.70E-08,  avg # of iterations =  2.0

     total cpu time spent up to now is     3626.9 secs

     total energy              =   -4376.58857626 Ry
     estimated scf accuracy    <       0.00004013 Ry

     total magnetization       =     9.24 Bohr mag/cell
     absolute magnetization    =    13.17 Bohr mag/cell

     iteration # 82     ecut=    60.00 Ry     beta= 0.30
     Davidson diagonalization with overlap
     ethr =  1.71E-08,  avg # of iterations =  5.4

     total cpu time spent up to now is     3673.0 secs

     total energy              =   -4376.58860179 Ry
     estimated scf accuracy    <       0.00001026 Ry

     total magnetization       =     9.24 Bohr mag/cell
     absolute magnetization    =    13.25 Bohr mag/cell

     iteration # 83     ecut=    60.00 Ry     beta= 0.30
     Davidson diagonalization with overlap
     c_bands:  1 eigenvalues not converged
     c_bands:  1 eigenvalues not converged
     ethr =  4.38E-09,  avg # of iterations =  5.8

     total cpu time spent up to now is     3723.3 secs

     total energy              =   -4376.58861282 Ry
     estimated scf accuracy    <       0.00003106 Ry

     total magnetization       =     9.24 Bohr mag/cell
     absolute magnetization    =    13.29 Bohr mag/cell

     iteration # 84     ecut=    60.00 Ry     beta= 0.30
     Davidson diagonalization with overlap
     ethr =  4.38E-09,  avg # of iterations =  3.2

     total cpu time spent up to now is     3763.0 secs

     total energy              =   -4376.58861369 Ry
     estimated scf accuracy    <       0.00001051 Ry

     total magnetization       =     9.24 Bohr mag/cell
     absolute magnetization    =    13.30 Bohr mag/cell

     iteration # 85     ecut=    60.00 Ry     beta= 0.30
     Davidson diagonalization with overlap
     ethr =  4.38E-09,  avg # of iterations =  1.3

     total cpu time spent up to now is     3797.4 secs

     total energy              =   -4376.58860604 Ry
     estimated scf accuracy    <       0.00001094 Ry

     total magnetization       =     9.24 Bohr mag/cell
     absolute magnetization    =    13.29 Bohr mag/cell

     iteration # 86     ecut=    60.00 Ry     beta= 0.30
     Davidson diagonalization with overlap
     ethr =  4.38E-09,  avg # of iterations =  5.6

     total cpu time spent up to now is     3844.7 secs

     total energy              =   -4376.58856476 Ry
     estimated scf accuracy    <       0.00001690 Ry

     total magnetization       =     9.24 Bohr mag/cell
     absolute magnetization    =    13.25 Bohr mag/cell

     iteration # 87     ecut=    60.00 Ry     beta= 0.30
     Davidson diagonalization with overlap
     ethr =  4.38E-09,  avg # of iterations =  7.5

     total cpu time spent up to now is     3901.7 secs

     total energy              =   -4376.58862936 Ry
     estimated scf accuracy    <       0.00003315 Ry

     total magnetization       =     9.23 Bohr mag/cell
     absolute magnetization    =    13.37 Bohr mag/cell

     iteration # 88     ecut=    60.00 Ry     beta= 0.30
     Davidson diagonalization with overlap
     ethr =  4.38E-09,  avg # of iterations =  5.3

     total cpu time spent up to now is     3947.3 secs

     total energy              =   -4376.58861321 Ry
     estimated scf accuracy    <       0.00002620 Ry

     total magnetization       =     9.23 Bohr mag/cell
     absolute magnetization    =    13.37 Bohr mag/cell

     iteration # 89     ecut=    60.00 Ry     beta= 0.30
     Davidson diagonalization with overlap
     ethr =  4.38E-09,  avg # of iterations =  6.4

     total cpu time spent up to now is     3999.1 secs

     total energy              =   -4376.58863595 Ry
     estimated scf accuracy    <       0.00000830 Ry

     total magnetization       =     9.22 Bohr mag/cell
     absolute magnetization    =    13.43 Bohr mag/cell

     iteration # 90     ecut=    60.00 Ry     beta= 0.30
     Davidson diagonalization with overlap
     ethr =  3.55E-09,  avg # of iterations =  5.5

     total cpu time spent up to now is     4047.9 secs

     total energy              =   -4376.58864051 Ry
     estimated scf accuracy    <       0.00003041 Ry

     total magnetization       =     9.22 Bohr mag/cell
     absolute magnetization    =    13.45 Bohr mag/cell

     iteration # 91     ecut=    60.00 Ry     beta= 0.30
     Davidson diagonalization with overlap
     ethr =  3.55E-09,  avg # of iterations =  5.4

     total cpu time spent up to now is     4092.9 secs

     total energy              =   -4376.58864300 Ry
     estimated scf accuracy    <       0.00000910 Ry

     total magnetization       =     9.21 Bohr mag/cell
     absolute magnetization    =    13.46 Bohr mag/cell

     iteration # 92     ecut=    60.00 Ry     beta= 0.30
     Davidson diagonalization with overlap
     ethr =  3.55E-09,  avg # of iterations =  2.9

     total cpu time spent up to now is     4131.4 secs

     total energy              =   -4376.58864357 Ry
     estimated scf accuracy    <       0.00000153 Ry

     total magnetization       =     9.21 Bohr mag/cell
     absolute magnetization    =    13.47 Bohr mag/cell

     iteration # 93     ecut=    60.00 Ry     beta= 0.30
     Davidson diagonalization with overlap
     ethr =  6.53E-10,  avg # of iterations =  6.1

     total cpu time spent up to now is     4181.6 secs

     total energy              =   -4376.58864289 Ry
     estimated scf accuracy    <       0.00000360 Ry

     total magnetization       =     9.21 Bohr mag/cell
     absolute magnetization    =    13.48 Bohr mag/cell

     iteration # 94     ecut=    60.00 Ry     beta= 0.30
     Davidson diagonalization with overlap
     ethr =  6.53E-10,  avg # of iterations =  5.5

     total cpu time spent up to now is     4229.6 secs

     total energy              =   -4376.58863973 Ry
     estimated scf accuracy    <       0.00000596 Ry

     total magnetization       =     9.21 Bohr mag/cell
     absolute magnetization    =    13.47 Bohr mag/cell

     iteration # 95     ecut=    60.00 Ry     beta= 0.30
     Davidson diagonalization with overlap
     ethr =  6.53E-10,  avg # of iterations =  6.9

     total cpu time spent up to now is     4284.4 secs

     total energy              =   -4376.58864457 Ry
     estimated scf accuracy    <       0.00000270 Ry

     total magnetization       =     9.21 Bohr mag/cell
     absolute magnetization    =    13.49 Bohr mag/cell

     iteration # 96     ecut=    60.00 Ry     beta= 0.30
     Davidson diagonalization with overlap
     ethr =  6.53E-10,  avg # of iterations =  3.2

     total cpu time spent up to now is     4324.6 secs

     total energy              =   -4376.58864475 Ry
     estimated scf accuracy    <       0.00000156 Ry

     total magnetization       =     9.21 Bohr mag/cell
     absolute magnetization    =    13.49 Bohr mag/cell

     iteration # 97     ecut=    60.00 Ry     beta= 0.30
     Davidson diagonalization with overlap
     ethr =  6.53E-10,  avg # of iterations =  1.8

     total cpu time spent up to now is     4361.4 secs

     total energy              =   -4376.58864473 Ry
     estimated scf accuracy    <       0.00000119 Ry

     total magnetization       =     9.21 Bohr mag/cell
     absolute magnetization    =    13.49 Bohr mag/cell

     iteration # 98     ecut=    60.00 Ry     beta= 0.30
     Davidson diagonalization with overlap
     ethr =  5.08E-10,  avg # of iterations =  5.0

     total cpu time spent up to now is     4405.4 secs

     total energy              =   -4376.58864369 Ry
     estimated scf accuracy    <       0.00000248 Ry

     total magnetization       =     9.21 Bohr mag/cell
     absolute magnetization    =    13.49 Bohr mag/cell

     iteration # 99     ecut=    60.00 Ry     beta= 0.30
     Davidson diagonalization with overlap
     ethr =  5.08E-10,  avg # of iterations =  5.1

     total cpu time spent up to now is     4451.2 secs

     total energy              =   -4376.58864225 Ry
     estimated scf accuracy    <       0.00000235 Ry

     total magnetization       =     9.21 Bohr mag/cell
     absolute magnetization    =    13.48 Bohr mag/cell

     iteration #100     ecut=    60.00 Ry     beta= 0.30
     Davidson diagonalization with overlap
     ethr =  5.08E-10,  avg # of iterations =  6.0

     total cpu time spent up to now is     4502.0 secs

     total energy              =   -4376.58864449 Ry
     estimated scf accuracy    <       0.00000184 Ry

     total magnetization       =     9.21 Bohr mag/cell
     absolute magnetization    =    13.50 Bohr mag/cell

     iteration #101     ecut=    60.00 Ry     beta= 0.30
     Davidson diagonalization with overlap
     ethr =  5.08E-10,  avg # of iterations =  5.1

     total cpu time spent up to now is     4547.8 secs

     total energy              =   -4376.58864432 Ry
     estimated scf accuracy    <       0.00000025 Ry

     total magnetization       =     9.21 Bohr mag/cell
     absolute magnetization    =    13.51 Bohr mag/cell

     iteration #102     ecut=    60.00 Ry     beta= 0.30
     Davidson diagonalization with overlap
     ethr =  1.05E-10,  avg # of iterations =  7.0

     total cpu time spent up to now is     4602.1 secs

     total energy              =   -4376.58864456 Ry
     estimated scf accuracy    <       0.00000072 Ry

     total magnetization       =     9.21 Bohr mag/cell
     absolute magnetization    =    13.50 Bohr mag/cell

     iteration #103     ecut=    60.00 Ry     beta= 0.30
     Davidson diagonalization with overlap
     ethr =  1.05E-10,  avg # of iterations =  6.8

     total cpu time spent up to now is     4655.1 secs

     total energy              =   -4376.58864525 Ry
     estimated scf accuracy    <       0.00000011 Ry

     total magnetization       =     9.21 Bohr mag/cell
     absolute magnetization    =    13.51 Bohr mag/cell

     iteration #104     ecut=    60.00 Ry     beta= 0.30
     Davidson diagonalization with overlap
     ethr =  4.50E-11,  avg # of iterations =  1.8
 
     Magnetic moment per site  (integrated on atomic sphere of radius R)
     atom   1 (R=0.180)  charge= 12.1571  magn=  0.4846
     atom   2 (R=0.180)  charge= 14.4679  magn=  1.4385
     atom   3 (R=0.180)  charge= 12.1589  magn=  0.5368
     atom   4 (R=0.180)  charge= 12.1812  magn= -0.4470
     atom   5 (R=0.180)  charge= 12.1534  magn=  0.4399
     atom   6 (R=0.180)  charge= 14.4679  magn=  1.4385
     atom   7 (R=0.180)  charge= 12.1560  magn=  0.4396
     atom   8 (R=0.180)  charge= 12.1812  magn= -0.4470
     atom   9 (R=0.180)  charge= 12.1553  magn=  0.5085
     atom  10 (R=0.180)  charge= 12.1812  magn= -0.4470
     atom  11 (R=0.180)  charge= 12.1571  magn=  0.4910
     atom  12 (R=0.180)  charge= 14.4679  magn=  1.4385
     atom  13 (R=0.180)  charge= 14.4208  magn=  2.0322
     atom  14 (R=0.180)  charge= 12.1812  magn= -0.4470
     atom  15 (R=0.180)  charge= 12.1542  magn=  0.4516
     atom  16 (R=0.180)  charge= 14.4679  magn=  1.4385

     total cpu time spent up to now is     4691.0 secs

     End of self-consistent calculation

     Number of k-points >= 100: set verbosity='high' to print the bands.

     the Fermi energy is    19.8356 ev

!    total energy              =   -4376.58864521 Ry
     total all-electron energy =    -35846.930775 Ry
     estimated scf accuracy    <       0.00000010 Ry
     smearing contrib. (-TS)   =      -0.00141897 Ry
     internal energy E=F+TS    =   -4376.58722625 Ry

     The total energy is F=E-TS. E is the sum of the following terms:
     one-electron contribution =   -1139.64692056 Ry
     hartree contribution      =     719.96571034 Ry
     xc contribution           =    -383.96941976 Ry
     ewald contribution        =   -2342.24440570 Ry
     one-center paw contrib.   =   -1230.69219056 Ry

     total magnetization       =     9.21 Bohr mag/cell
     absolute magnetization    =    13.51 Bohr mag/cell

     convergence has been achieved in 104 iterations


     Computing stress (Cartesian axis) and pressure

          total   stress  (Ry/bohr**3)                   (kbar)     P=       39.44
   0.00026627   0.00000000   0.00005699           39.17        0.00        8.38
   0.00000000   0.00046826   0.00000000            0.00       68.88        0.00
   0.00005699   0.00000000   0.00006986            8.38        0.00       10.28


     Writing all to output data dir ./tmp/fecr_fe05cr11_t0.01.save/ :
     XML data file, charge density, pseudopotentials, collected wavefunctions
 
     init_run     :     37.26s CPU     27.15s WALL (       1 calls)
     electrons    :   5907.45s CPU   4663.37s WALL (       1 calls)
     stress       :     23.21s CPU     22.93s WALL (       1 calls)

     Called by init_run:
     wfcinit      :      7.36s CPU      8.93s WALL (       1 calls)
     potinit      :     29.07s CPU     17.28s WALL (       1 calls)
     hinit0       :      0.55s CPU      0.55s WALL (       1 calls)

     Called by electrons:
     c_bands      :   2614.18s CPU   2621.46s WALL (     104 calls)
     sum_band     :    230.24s CPU    230.56s WALL (     104 calls)
     v_of_rho     :      5.63s CPU      4.68s WALL (     105 calls)
     newd         :      4.10s CPU      4.13s WALL (     105 calls)
                                        4.13s GPU  (     105 calls)
     PAW_pot      :   3076.15s CPU   1813.62s WALL (     105 calls)
     mix_rho      :      3.44s CPU      3.44s WALL (     104 calls)

     Called by c_bands:
     init_us_2    :     19.64s CPU     18.62s WALL (   33600 calls)
     cegterg      :   2373.25s CPU   2380.68s WALL (   16640 calls)

     Called by *egterg:
     cdiaghg      :    831.67s CPU    837.80s WALL (   93635 calls)
                                      837.40s GPU  (   93635 calls)
     h_psi        :    713.37s CPU    717.48s WALL (   93795 calls)
                                      716.76s GPU  (   93795 calls)
     s_psi        :     47.23s CPU     47.93s WALL (   93795 calls)
     g_psi        :      0.42s CPU      4.01s WALL (   76995 calls)
                                        3.78s GPU  (   76995 calls)

     Called by h_psi:
     h_psi:calbec :      3.35s CPU    150.99s WALL (   93795 calls)
                                      150.64s GPU  (   93795 calls)
     vloc_psi     :    375.19s CPU    374.44s WALL (   93795 calls)
                                      374.12s GPU  (   93795 calls)
     add_vuspsi   :     46.03s CPU    187.01s WALL (   93795 calls)
                                      186.65s GPU  (   93795 calls)

     General routines
     calbec       :      4.02s CPU      4.19s WALL (  110595 calls)
     fft          :      1.21s CPU      1.46s WALL (    2644 calls)
                                        0.33s GPU  (    2434 calls)
     ffts         :      0.40s CPU      0.40s WALL (     418 calls)
                                        0.01s GPU  (     208 calls)
     fftw         :     21.23s CPU    350.11s WALL (  978852 calls)
                                      347.73s GPU  (  978852 calls)
     interpolate  :      1.67s CPU      1.68s WALL (     210 calls)
 
     Parallel routines
 
     PWSCF        :      1h39m CPU      1h18m WALL

 
   This run was terminated on:   3:23:44  21May2026            

=------------------------------------------------------------------------------=
   JOB DONE.
=------------------------------------------------------------------------------=
Warning: ieee_divide_by_zero is signaling
Warning: ieee_inexact is signaling
FORTRAN STOP
