--------------------------------------------------------------------------
WARNING: Open MPI tried to bind a process but failed.  This is a
warning only; your job will continue, though performance may
be degraded.

  Local host:        4b82db919bf5
  Application name:  /root/q-e-qe-7.3.1/bin/pw.x
  Error message:     failed to bind memory
  Location:          ../../../../../orte/mca/rtc/hwloc/rtc_hwloc.c:447

--------------------------------------------------------------------------

     Program PWSCF v.7.3.1 starts on 19May2026 at 11:32:32 

     This program is part of the open-source Quantum ESPRESSO suite
     for quantum simulation of materials; please cite
         "P. Giannozzi et al., J. Phys.:Condens. Matter 21 395502 (2009);
         "P. Giannozzi et al., J. Phys.:Condens. Matter 29 465901 (2017);
         "P. Giannozzi et al., J. Chem. Phys. 152 154105 (2020);
          URL http://www.quantum-espresso.org", 
     in publications or presentations arising from this work. More details at
     http://www.quantum-espresso.org/quote

     Parallel version (MPI & OpenMP), running on       8 processor cores
     Number of MPI processes:                 1
     Threads/MPI process:                     8

     MPI processes distributed on     1 nodes
     217698 MiB available memory on the printing compute node when the environment starts
 
     Reading input from inputs/fecr_fe07cr09_s-0.01.in

     Current dimensions of program PWSCF are:
     Max number of different atomic species (ntypx) = 10
     Max number of k-points (npk) =  40000
     Max angular momentum in pseudopotentials (lmaxx) =  4
     file Fe.pbe-spn-kjpaw_psl.1.0.0.UPF: wavefunction(s)  3P 3D renormalized
     file Cr.pbe-spn-kjpaw_psl.1.0.0.UPF: wavefunction(s)  3S 3P 3D renormalized
     Message from routine setup:
     using ibrav=0 with symmetry is DISCOURAGED, use correct ibrav instead
 
     Subspace diagonalization in iterative solution of the eigenvalue problem:
     a serial algorithm will be used

 
     G-vector sticks info
     --------------------
     sticks:   dense  smooth     PW     G-vecs:    dense   smooth      PW
     Sum        4349    2177    615               215339    76157   11515
 
     Using Slab Decomposition
 


     bravais-lattice index     =            0
     lattice parameter (alat)  =      10.6646  a.u.
     unit-cell volume          =    1212.6078 (a.u.)^3
     number of atoms/cell      =           16
     number of atomic types    =            2
     number of electrons       =       238.00
     number of Kohn-Sham states=          143
     kinetic-energy cutoff     =      60.0000  Ry
     charge density cutoff     =     480.0000  Ry
     scf convergence threshold =      1.0E-08
     mixing beta               =       0.3000
     number of iterations used =            8  plain     mixing
     Exchange-correlation= SLA  PW   PBX  PBC
                           (   1   4   3   4   0   0   0)

     GPU acceleration is ACTIVE.  1 visible GPUs per MPI rank


     celldm(1)=  10.664561  celldm(2)=   0.000000  celldm(3)=   0.000000
     celldm(4)=   0.000000  celldm(5)=   0.000000  celldm(6)=   0.000000

     crystal axes: (cart. coord. in units of alat)
               a(1) = (   0.999950  -0.010000   0.000000 )  
               a(2) = (  -0.010000   0.999950   0.000000 )  
               a(3) = (   0.000000   0.000000   0.999950 )  

     reciprocal axes: (cart. coord. in units 2 pi/alat)
               b(1) = (  1.000150  0.010002 -0.000000 )  
               b(2) = (  0.010002  1.000150 -0.000000 )  
               b(3) = ( -0.000000 -0.000000  1.000050 )  


     PseudoPot. # 1 for Fe read from file:
     ./pseudo/Fe.pbe-spn-kjpaw_psl.1.0.0.UPF
     MD5 check sum: fc81f059e5c5069939230b1155715ae8
     Pseudo is Projector augmented-wave + core cor, Zval = 16.0
     Generated using &quot;atomic&quot; code by A. Dal Corso  v.6.3
     Shape of augmentation charge: PSQ
     Using radial grid of 1191 points,  6 beta functions with: 
                l(1) =   0
                l(2) =   0
                l(3) =   1
                l(4) =   1
                l(5) =   2
                l(6) =   2
     Q(r) pseudized with 0 coefficients 


     PseudoPot. # 2 for Cr read from file:
     ./pseudo/Cr.pbe-spn-kjpaw_psl.1.0.0.UPF
     MD5 check sum: 198f1a2427a48552563eee314eba32ba
     Pseudo is Projector augmented-wave + core cor, Zval = 14.0
     Generated using &quot;atomic&quot; code by A. Dal Corso  v.6.3
     Shape of augmentation charge: PSQ
     Using radial grid of 1183 points,  6 beta functions with: 
                l(1) =   0
                l(2) =   0
                l(3) =   1
                l(4) =   1
                l(5) =   2
                l(6) =   2
     Q(r) pseudized with 0 coefficients 


     atomic species   valence    mass     pseudopotential
     Fe               16.00    55.84500     Fe( 1.00)
     Cr               14.00    51.99600     Cr( 1.00)

     Starting magnetic structure 
     atomic species   magnetization
     Fe              0.500
     Cr              0.300

      2 Sym. Ops., with inversion, found ( 1 have fractional translation)



   Cartesian axes

     site n.     atom                  positions (alat units)
         1        Cr     tau(   1) = (   0.0000000   0.0000000   0.0000000  )
         2        Fe     tau(   2) = (   0.2474876   0.2474876   0.2499875  )
         3        Fe     tau(   3) = (   0.0000000   0.0000000   0.4999750  )
         4        Cr     tau(   4) = (   0.2474876   0.2474876   0.7499625  )
         5        Cr     tau(   5) = (  -0.0049998   0.4999750   0.0000000  )
         6        Fe     tau(   6) = (   0.2424878   0.7474626   0.2499875  )
         7        Cr     tau(   7) = (  -0.0049998   0.4999750   0.4999750  )
         8        Cr     tau(   8) = (   0.2424878   0.7474626   0.7499625  )
         9        Cr     tau(   9) = (   0.4999750  -0.0049998   0.0000000  )
        10        Fe     tau(  10) = (   0.7474626   0.2424878   0.2499875  )
        11        Cr     tau(  11) = (   0.4999750  -0.0049998   0.4999750  )
        12        Fe     tau(  12) = (   0.7474626   0.2424878   0.7499625  )
        13        Fe     tau(  13) = (   0.4949752   0.4949752   0.0000000  )
        14        Cr     tau(  14) = (   0.7424628   0.7424628   0.2499875  )
        15        Cr     tau(  15) = (   0.4949752   0.4949752   0.4999750  )
        16        Fe     tau(  16) = (   0.7424628   0.7424628   0.7499625  )

     number of k points=   112  Marzari-Vanderbilt smearing, width (Ry)=  0.0200

     Number of k-points >= 100: set verbosity='high' to print them.

     Dense  grid:   215339 G-vectors     FFT dimensions: (  80,  80,  80)

     Smooth grid:    76157 G-vectors     FFT dimensions: (  54,  54,  54)

     Estimated max dynamical RAM per process >       5.47 GB

     Check: negative core charge=   -0.000003
     Generating pointlists ...
     new r_m :   0.1774 (alat units)  1.8921 (a.u.) for type    1
     new r_m :   0.1774 (alat units)  1.8921 (a.u.) for type    2

     Initial potential from superposition of free atoms

     starting charge     237.9900, renormalised to     238.0000
     Starting wfcs are  160 randomized atomic wfcs
     Checking if some PAW data can be deallocated... 

     total cpu time spent up to now is       31.9 secs

     Self-consistent Calculation

     iteration #  1     ecut=    60.00 Ry     beta= 0.30
     Davidson diagonalization with overlap
     ethr =  1.00E-02,  avg # of iterations =  3.3

     negative rho (up, down):  0.000E+00 1.380E-01

     total cpu time spent up to now is       84.8 secs

     total energy              =   -4531.81644408 Ry
     estimated scf accuracy    <      15.19466280 Ry

     total magnetization       =    47.77 Bohr mag/cell
     absolute magnetization    =    51.26 Bohr mag/cell

     iteration #  2     ecut=    60.00 Ry     beta= 0.30
     Davidson diagonalization with overlap
     ethr =  6.38E-03,  avg # of iterations =  4.8

     negative rho (up, down):  0.000E+00 1.133E-01

     total cpu time spent up to now is      142.5 secs

     total energy              =   -4532.37544833 Ry
     estimated scf accuracy    <      59.37795606 Ry

     total magnetization       =    23.31 Bohr mag/cell
     absolute magnetization    =    24.22 Bohr mag/cell

     iteration #  3     ecut=    60.00 Ry     beta= 0.30
     Davidson diagonalization with overlap
     ethr =  6.38E-03,  avg # of iterations =  2.0

     negative rho (up, down):  0.000E+00 7.356E-02

     total cpu time spent up to now is      187.5 secs

     total energy              =   -4536.07765073 Ry
     estimated scf accuracy    <       3.81379023 Ry

     total magnetization       =    36.75 Bohr mag/cell
     absolute magnetization    =    37.08 Bohr mag/cell

     iteration #  4     ecut=    60.00 Ry     beta= 0.30
     Davidson diagonalization with overlap
     ethr =  1.60E-03,  avg # of iterations =  5.1

     negative rho (up, down):  0.000E+00 6.113E-02

     total cpu time spent up to now is      244.2 secs

     total energy              =   -4536.25133684 Ry
     estimated scf accuracy    <       9.51655747 Ry

     total magnetization       =    32.89 Bohr mag/cell
     absolute magnetization    =    33.44 Bohr mag/cell

     iteration #  5     ecut=    60.00 Ry     beta= 0.30
     Davidson diagonalization with overlap
     ethr =  1.60E-03,  avg # of iterations =  2.2

     negative rho (up, down):  0.000E+00 1.582E-02

     total cpu time spent up to now is      290.1 secs

     total energy              =   -4537.64719516 Ry
     estimated scf accuracy    <       2.77837676 Ry

     total magnetization       =    31.61 Bohr mag/cell
     absolute magnetization    =    32.08 Bohr mag/cell

     iteration #  6     ecut=    60.00 Ry     beta= 0.30
     Davidson diagonalization with overlap
     ethr =  1.17E-03,  avg # of iterations =  2.4

     negative rho (up, down):  0.000E+00 7.623E-03

     total cpu time spent up to now is      337.6 secs

     total energy              =   -4537.78263742 Ry
     estimated scf accuracy    <       5.11717571 Ry

     total magnetization       =    25.68 Bohr mag/cell
     absolute magnetization    =    26.43 Bohr mag/cell

     iteration #  7     ecut=    60.00 Ry     beta= 0.30
     Davidson diagonalization with overlap
     ethr =  1.17E-03,  avg # of iterations =  1.2

     negative rho (up, down):  0.000E+00 2.253E-03

     total cpu time spent up to now is      379.6 secs

     total energy              =   -4538.30004485 Ry
     estimated scf accuracy    <       1.44839803 Ry

     total magnetization       =    21.91 Bohr mag/cell
     absolute magnetization    =    23.13 Bohr mag/cell

     iteration #  8     ecut=    60.00 Ry     beta= 0.30
     Davidson diagonalization with overlap
     ethr =  6.09E-04,  avg # of iterations =  2.8

     negative rho (up, down):  0.000E+00 1.901E-03

     total cpu time spent up to now is      428.3 secs

     total energy              =   -4538.45749256 Ry
     estimated scf accuracy    <       2.39270738 Ry

     total magnetization       =    18.11 Bohr mag/cell
     absolute magnetization    =    19.71 Bohr mag/cell

     iteration #  9     ecut=    60.00 Ry     beta= 0.30
     Davidson diagonalization with overlap
     ethr =  6.09E-04,  avg # of iterations =  1.2

     negative rho (up, down):  0.000E+00 1.625E-03

     total cpu time spent up to now is      470.1 secs

     total energy              =   -4538.58587042 Ry
     estimated scf accuracy    <       0.27979155 Ry

     total magnetization       =    15.44 Bohr mag/cell
     absolute magnetization    =    17.35 Bohr mag/cell

     iteration # 10     ecut=    60.00 Ry     beta= 0.30
     Davidson diagonalization with overlap
     c_bands:  1 eigenvalues not converged
     ethr =  1.18E-04,  avg # of iterations =  6.5

     negative rho (up, down):  0.000E+00 1.336E-03

     total cpu time spent up to now is      532.7 secs

     total energy              =   -4538.60500477 Ry
     estimated scf accuracy    <       0.70388030 Ry

     total magnetization       =    14.04 Bohr mag/cell
     absolute magnetization    =    16.03 Bohr mag/cell

     iteration # 11     ecut=    60.00 Ry     beta= 0.30
     Davidson diagonalization with overlap
     ethr =  1.18E-04,  avg # of iterations =  1.5

     negative rho (up, down):  0.000E+00 9.333E-04

     total cpu time spent up to now is      576.2 secs

     total energy              =   -4538.63361535 Ry
     estimated scf accuracy    <       0.16300674 Ry

     total magnetization       =    13.27 Bohr mag/cell
     absolute magnetization    =    15.37 Bohr mag/cell

     iteration # 12     ecut=    60.00 Ry     beta= 0.30
     Davidson diagonalization with overlap
     c_bands:  1 eigenvalues not converged
     ethr =  6.85E-05,  avg # of iterations =  2.2

     negative rho (up, down):  0.000E+00 8.396E-04

     total cpu time spent up to now is      622.1 secs

     total energy              =   -4538.63705949 Ry
     estimated scf accuracy    <       0.11751441 Ry

     total magnetization       =    13.52 Bohr mag/cell
     absolute magnetization    =    15.43 Bohr mag/cell

     iteration # 13     ecut=    60.00 Ry     beta= 0.30
     Davidson diagonalization with overlap
     c_bands:  1 eigenvalues not converged
     c_bands:  3 eigenvalues not converged
     c_bands:  2 eigenvalues not converged
     c_bands:  1 eigenvalues not converged
     c_bands:  3 eigenvalues not converged
     ethr =  4.94E-05,  avg # of iterations =  2.5

     negative rho (up, down):  0.000E+00 5.452E-04

     total cpu time spent up to now is      667.9 secs

     total energy              =   -4538.64634917 Ry
     estimated scf accuracy    <       0.01455680 Ry

     total magnetization       =    13.37 Bohr mag/cell
     absolute magnetization    =    15.29 Bohr mag/cell

     iteration # 14     ecut=    60.00 Ry     beta= 0.30
     Davidson diagonalization with overlap
     c_bands:  1 eigenvalues not converged
     c_bands:  1 eigenvalues not converged
     c_bands:  1 eigenvalues not converged
     c_bands:  1 eigenvalues not converged
     c_bands:  1 eigenvalues not converged
     c_bands:  1 eigenvalues not converged
     c_bands:  1 eigenvalues not converged
     c_bands:  2 eigenvalues not converged
     c_bands:  3 eigenvalues not converged
     c_bands:  3 eigenvalues not converged
     c_bands:  1 eigenvalues not converged
     c_bands:  1 eigenvalues not converged
     c_bands:  1 eigenvalues not converged
     c_bands:  1 eigenvalues not converged
     c_bands:  1 eigenvalues not converged
     c_bands:  4 eigenvalues not converged
     c_bands:  1 eigenvalues not converged
     c_bands:  1 eigenvalues not converged
     c_bands:  3 eigenvalues not converged
     c_bands:  1 eigenvalues not converged
     c_bands:  1 eigenvalues not converged
     c_bands:  1 eigenvalues not converged
     c_bands:  1 eigenvalues not converged
     c_bands:  3 eigenvalues not converged
     c_bands:  1 eigenvalues not converged
     c_bands:  2 eigenvalues not converged
     c_bands:  1 eigenvalues not converged
     c_bands:  1 eigenvalues not converged
     c_bands:  1 eigenvalues not converged
     c_bands:  1 eigenvalues not converged
     c_bands:  1 eigenvalues not converged
     c_bands:  2 eigenvalues not converged
     c_bands:  2 eigenvalues not converged
     c_bands:  2 eigenvalues not converged
     c_bands:  3 eigenvalues not converged
     c_bands:  1 eigenvalues not converged
     c_bands:  2 eigenvalues not converged
     c_bands:  4 eigenvalues not converged
     c_bands:  1 eigenvalues not converged
     c_bands:  2 eigenvalues not converged
     c_bands:  2 eigenvalues not converged
     c_bands:  2 eigenvalues not converged
     c_bands:  2 eigenvalues not converged
     c_bands:  1 eigenvalues not converged
     c_bands:  2 eigenvalues not converged
     c_bands:  1 eigenvalues not converged
     c_bands:  1 eigenvalues not converged
     c_bands:  1 eigenvalues not converged
     c_bands:  1 eigenvalues not converged
     c_bands:  1 eigenvalues not converged
     c_bands:  1 eigenvalues not converged
     c_bands:  2 eigenvalues not converged
     c_bands:  1 eigenvalues not converged
     c_bands:  1 eigenvalues not converged
     c_bands:  2 eigenvalues not converged
     c_bands:  1 eigenvalues not converged
     c_bands:  2 eigenvalues not converged
     c_bands:  2 eigenvalues not converged
     c_bands:  1 eigenvalues not converged
     c_bands:  1 eigenvalues not converged
     c_bands:  1 eigenvalues not converged
     c_bands:  2 eigenvalues not converged
     c_bands:  1 eigenvalues not converged
     c_bands:  2 eigenvalues not converged
     c_bands:  2 eigenvalues not converged
     c_bands:  1 eigenvalues not converged
     c_bands:  1 eigenvalues not converged
     c_bands:  2 eigenvalues not converged
     c_bands:  1 eigenvalues not converged
     c_bands:  5 eigenvalues not converged
     c_bands:  3 eigenvalues not converged
     c_bands:  1 eigenvalues not converged
     c_bands:  1 eigenvalues not converged
     c_bands:  1 eigenvalues not converged
     ethr =  6.12E-06,  avg # of iterations = 14.4

     negative rho (up, down):  0.000E+00 3.649E-04

     total cpu time spent up to now is      762.7 secs

     total energy              =   -4538.65029231 Ry
     estimated scf accuracy    <       0.05271227 Ry

     total magnetization       =    13.17 Bohr mag/cell
     absolute magnetization    =    15.02 Bohr mag/cell

     iteration # 15     ecut=    60.00 Ry     beta= 0.30
     Davidson diagonalization with overlap
     c_bands:  1 eigenvalues not converged
     c_bands:  1 eigenvalues not converged
     c_bands:  2 eigenvalues not converged
     ethr =  6.12E-06,  avg # of iterations =  2.8

     negative rho (up, down):  0.000E+00 2.911E-04

     total cpu time spent up to now is      810.7 secs

     total energy              =   -4538.65305401 Ry
     estimated scf accuracy    <       0.00791129 Ry

     total magnetization       =    13.04 Bohr mag/cell
     absolute magnetization    =    14.86 Bohr mag/cell

     iteration # 16     ecut=    60.00 Ry     beta= 0.30
     Davidson diagonalization with overlap
     c_bands:  1 eigenvalues not converged
     c_bands:  2 eigenvalues not converged
     c_bands:  3 eigenvalues not converged
     c_bands:  1 eigenvalues not converged
     c_bands:  1 eigenvalues not converged
     c_bands:  1 eigenvalues not converged
     c_bands:  4 eigenvalues not converged
     c_bands:  1 eigenvalues not converged
     c_bands:  1 eigenvalues not converged
     c_bands:  1 eigenvalues not converged
     c_bands:  1 eigenvalues not converged
     c_bands:  1 eigenvalues not converged
     ethr =  3.32E-06,  avg # of iterations =  4.1

     negative rho (up, down):  0.000E+00 1.398E-04

     total cpu time spent up to now is      862.9 secs

     total energy              =   -4538.65496350 Ry
     estimated scf accuracy    <       0.00924631 Ry

     total magnetization       =    13.03 Bohr mag/cell
     absolute magnetization    =    14.84 Bohr mag/cell

     iteration # 17     ecut=    60.00 Ry     beta= 0.30
     Davidson diagonalization with overlap
     c_bands:  2 eigenvalues not converged
     c_bands:  1 eigenvalues not converged
     c_bands:  1 eigenvalues not converged
     c_bands:  1 eigenvalues not converged
     c_bands:  2 eigenvalues not converged
     c_bands:  2 eigenvalues not converged
     ethr =  3.32E-06,  avg # of iterations =  5.1

     negative rho (up, down):  0.000E+00 2.419E-04

     total cpu time spent up to now is      918.7 secs

     total energy              =   -4538.65337635 Ry
     estimated scf accuracy    <       0.01736951 Ry

     total magnetization       =    12.78 Bohr mag/cell
     absolute magnetization    =    14.59 Bohr mag/cell

     iteration # 18     ecut=    60.00 Ry     beta= 0.30
     Davidson diagonalization with overlap
     c_bands:  2 eigenvalues not converged
     ethr =  3.32E-06,  avg # of iterations =  4.7

     negative rho (up, down):  0.000E+00 5.864E-05

     total cpu time spent up to now is      972.6 secs

     total energy              =   -4538.65538144 Ry
     estimated scf accuracy    <       0.02180232 Ry

     total magnetization       =    12.97 Bohr mag/cell
     absolute magnetization    =    14.72 Bohr mag/cell

     iteration # 19     ecut=    60.00 Ry     beta= 0.30
     Davidson diagonalization with overlap
     ethr =  3.32E-06,  avg # of iterations =  2.6

     negative rho (up, down):  0.000E+00 5.520E-05

     total cpu time spent up to now is     1020.8 secs

     total energy              =   -4538.65682527 Ry
     estimated scf accuracy    <       0.00196533 Ry

     total magnetization       =    12.68 Bohr mag/cell
     absolute magnetization    =    14.47 Bohr mag/cell

     iteration # 20     ecut=    60.00 Ry     beta= 0.30
     Davidson diagonalization with overlap
     c_bands:  1 eigenvalues not converged
     c_bands:  1 eigenvalues not converged
     c_bands:  1 eigenvalues not converged
     c_bands:  1 eigenvalues not converged
     ethr =  8.26E-07,  avg # of iterations =  6.8

     negative rho (up, down):  0.000E+00 5.155E-05

     total cpu time spent up to now is     1083.4 secs

     total energy              =   -4538.65696795 Ry
     estimated scf accuracy    <       0.00381062 Ry

     total magnetization       =    12.65 Bohr mag/cell
     absolute magnetization    =    14.42 Bohr mag/cell

     iteration # 21     ecut=    60.00 Ry     beta= 0.30
     Davidson diagonalization with overlap
     c_bands:  1 eigenvalues not converged
     c_bands:  1 eigenvalues not converged
     ethr =  8.26E-07,  avg # of iterations =  2.0

     negative rho (up, down):  0.000E+00 6.170E-05

     total cpu time spent up to now is     1128.4 secs

     total energy              =   -4538.65692626 Ry
     estimated scf accuracy    <       0.00169707 Ry

     total magnetization       =    12.62 Bohr mag/cell
     absolute magnetization    =    14.39 Bohr mag/cell

     iteration # 22     ecut=    60.00 Ry     beta= 0.30
     Davidson diagonalization with overlap
     ethr =  7.13E-07,  avg # of iterations =  3.4

     negative rho (up, down):  0.000E+00 4.701E-05

     total cpu time spent up to now is     1179.3 secs

     total energy              =   -4538.65693954 Ry
     estimated scf accuracy    <       0.00514982 Ry

     total magnetization       =    12.64 Bohr mag/cell
     absolute magnetization    =    14.39 Bohr mag/cell

     iteration # 23     ecut=    60.00 Ry     beta= 0.30
     Davidson diagonalization with overlap
     ethr =  7.13E-07,  avg # of iterations =  2.4

     negative rho (up, down):  0.000E+00 4.718E-05

     total cpu time spent up to now is     1225.7 secs

     total energy              =   -4538.65718414 Ry
     estimated scf accuracy    <       0.00071539 Ry

     total magnetization       =    12.56 Bohr mag/cell
     absolute magnetization    =    14.31 Bohr mag/cell

     iteration # 24     ecut=    60.00 Ry     beta= 0.30
     Davidson diagonalization with overlap
     ethr =  3.01E-07,  avg # of iterations =  2.8

     negative rho (up, down):  0.000E+00 5.706E-05

     total cpu time spent up to now is     1273.2 secs

     total energy              =   -4538.65710592 Ry
     estimated scf accuracy    <       0.00187384 Ry

     total magnetization       =    12.55 Bohr mag/cell
     absolute magnetization    =    14.30 Bohr mag/cell

     iteration # 25     ecut=    60.00 Ry     beta= 0.30
     Davidson diagonalization with overlap
     ethr =  3.01E-07,  avg # of iterations =  2.0

     negative rho (up, down):  0.000E+00 5.737E-05

     total cpu time spent up to now is     1318.0 secs

     total energy              =   -4538.65721089 Ry
     estimated scf accuracy    <       0.00079914 Ry

     total magnetization       =    12.60 Bohr mag/cell
     absolute magnetization    =    14.34 Bohr mag/cell

     iteration # 26     ecut=    60.00 Ry     beta= 0.30
     Davidson diagonalization with overlap
     ethr =  3.01E-07,  avg # of iterations =  1.4

     negative rho (up, down):  0.000E+00 5.473E-05

     total cpu time spent up to now is     1360.7 secs

     total energy              =   -4538.65723603 Ry
     estimated scf accuracy    <       0.00085947 Ry

     total magnetization       =    12.55 Bohr mag/cell
     absolute magnetization    =    14.29 Bohr mag/cell

     iteration # 27     ecut=    60.00 Ry     beta= 0.30
     Davidson diagonalization with overlap
     ethr =  3.01E-07,  avg # of iterations =  1.5

     negative rho (up, down):  0.000E+00 5.585E-05

     total cpu time spent up to now is     1403.5 secs

     total energy              =   -4538.65728423 Ry
     estimated scf accuracy    <       0.00033024 Ry

     total magnetization       =    12.52 Bohr mag/cell
     absolute magnetization    =    14.26 Bohr mag/cell

     iteration # 28     ecut=    60.00 Ry     beta= 0.30
     Davidson diagonalization with overlap
     ethr =  1.39E-07,  avg # of iterations =  1.4

     negative rho (up, down):  0.000E+00 5.964E-05

     total cpu time spent up to now is     1445.8 secs

     total energy              =   -4538.65731716 Ry
     estimated scf accuracy    <       0.00004423 Ry

     total magnetization       =    12.51 Bohr mag/cell
     absolute magnetization    =    14.25 Bohr mag/cell

     iteration # 29     ecut=    60.00 Ry     beta= 0.30
     Davidson diagonalization with overlap
     ethr =  1.86E-08,  avg # of iterations =  8.2

     negative rho (up, down):  0.000E+00 6.001E-05

     total cpu time spent up to now is     1515.8 secs

     total energy              =   -4538.65732490 Ry
     estimated scf accuracy    <       0.00014729 Ry

     total magnetization       =    12.51 Bohr mag/cell
     absolute magnetization    =    14.24 Bohr mag/cell

     iteration # 30     ecut=    60.00 Ry     beta= 0.30
     Davidson diagonalization with overlap
     ethr =  1.86E-08,  avg # of iterations =  2.4

     negative rho (up, down):  0.000E+00 6.065E-05

     total cpu time spent up to now is     1562.7 secs

     total energy              =   -4538.65733202 Ry
     estimated scf accuracy    <       0.00008846 Ry

     total magnetization       =    12.50 Bohr mag/cell
     absolute magnetization    =    14.24 Bohr mag/cell

     iteration # 31     ecut=    60.00 Ry     beta= 0.30
     Davidson diagonalization with overlap
     ethr =  1.86E-08,  avg # of iterations =  1.1

     negative rho (up, down):  0.000E+00 6.251E-05

     total cpu time spent up to now is     1604.0 secs

     total energy              =   -4538.65734447 Ry
     estimated scf accuracy    <       0.00003227 Ry

     total magnetization       =    12.50 Bohr mag/cell
     absolute magnetization    =    14.23 Bohr mag/cell

     iteration # 32     ecut=    60.00 Ry     beta= 0.30
     Davidson diagonalization with overlap
     ethr =  1.36E-08,  avg # of iterations =  2.2

     negative rho (up, down):  0.000E+00 6.498E-05

     total cpu time spent up to now is     1648.4 secs

     total energy              =   -4538.65735642 Ry
     estimated scf accuracy    <       0.00004892 Ry

     total magnetization       =    12.50 Bohr mag/cell
     absolute magnetization    =    14.22 Bohr mag/cell

     iteration # 33     ecut=    60.00 Ry     beta= 0.30
     Davidson diagonalization with overlap
     ethr =  1.36E-08,  avg # of iterations =  3.1

     negative rho (up, down):  0.000E+00 6.977E-05

     total cpu time spent up to now is     1697.8 secs

     total energy              =   -4538.65737185 Ry
     estimated scf accuracy    <       0.00003281 Ry

     total magnetization       =    12.49 Bohr mag/cell
     absolute magnetization    =    14.21 Bohr mag/cell

     iteration # 34     ecut=    60.00 Ry     beta= 0.30
     Davidson diagonalization with overlap
     ethr =  1.36E-08,  avg # of iterations =  5.5

     negative rho (up, down):  0.000E+00 7.037E-05

     total cpu time spent up to now is     1758.4 secs

     total energy              =   -4538.65738797 Ry
     estimated scf accuracy    <       0.00006933 Ry

     total magnetization       =    12.47 Bohr mag/cell
     absolute magnetization    =    14.19 Bohr mag/cell

     iteration # 35     ecut=    60.00 Ry     beta= 0.30
     Davidson diagonalization with overlap
     ethr =  1.36E-08,  avg # of iterations =  2.4

     negative rho (up, down):  0.000E+00 6.972E-05

     total cpu time spent up to now is     1805.0 secs

     total energy              =   -4538.65739000 Ry
     estimated scf accuracy    <       0.00004673 Ry

     total magnetization       =    12.47 Bohr mag/cell
     absolute magnetization    =    14.18 Bohr mag/cell

     iteration # 36     ecut=    60.00 Ry     beta= 0.30
     Davidson diagonalization with overlap
     ethr =  1.36E-08,  avg # of iterations =  2.4

     negative rho (up, down):  0.000E+00 7.050E-05

     total cpu time spent up to now is     1850.6 secs

     total energy              =   -4538.65739459 Ry
     estimated scf accuracy    <       0.00007311 Ry

     total magnetization       =    12.47 Bohr mag/cell
     absolute magnetization    =    14.18 Bohr mag/cell

     iteration # 37     ecut=    60.00 Ry     beta= 0.30
     Davidson diagonalization with overlap
     ethr =  1.36E-08,  avg # of iterations =  2.2

     negative rho (up, down):  0.000E+00 7.266E-05

     total cpu time spent up to now is     1896.3 secs

     total energy              =   -4538.65740201 Ry
     estimated scf accuracy    <       0.00005315 Ry

     total magnetization       =    12.46 Bohr mag/cell
     absolute magnetization    =    14.17 Bohr mag/cell

     iteration # 38     ecut=    60.00 Ry     beta= 0.30
     Davidson diagonalization with overlap
     ethr =  1.36E-08,  avg # of iterations =  3.3

     negative rho (up, down):  0.000E+00 7.241E-05

     total cpu time spent up to now is     1945.3 secs

     total energy              =   -4538.65740857 Ry
     estimated scf accuracy    <       0.00001030 Ry

     total magnetization       =    12.46 Bohr mag/cell
     absolute magnetization    =    14.17 Bohr mag/cell

     iteration # 39     ecut=    60.00 Ry     beta= 0.30
     Davidson diagonalization with overlap
     ethr =  4.33E-09,  avg # of iterations =  5.3

     negative rho (up, down):  0.000E+00 7.228E-05

     total cpu time spent up to now is     2002.3 secs

     total energy              =   -4538.65741477 Ry
     estimated scf accuracy    <       0.00002324 Ry

     total magnetization       =    12.45 Bohr mag/cell
     absolute magnetization    =    14.16 Bohr mag/cell

     iteration # 40     ecut=    60.00 Ry     beta= 0.30
     Davidson diagonalization with overlap
     ethr =  4.33E-09,  avg # of iterations =  3.2

     negative rho (up, down):  0.000E+00 7.265E-05

     total cpu time spent up to now is     2052.1 secs

     total energy              =   -4538.65741715 Ry
     estimated scf accuracy    <       0.00002201 Ry

     total magnetization       =    12.45 Bohr mag/cell
     absolute magnetization    =    14.15 Bohr mag/cell

     iteration # 41     ecut=    60.00 Ry     beta= 0.30
     Davidson diagonalization with overlap
     ethr =  4.33E-09,  avg # of iterations =  1.5

     negative rho (up, down):  0.000E+00 7.259E-05

     total cpu time spent up to now is     2095.1 secs

     total energy              =   -4538.65741919 Ry
     estimated scf accuracy    <       0.00000984 Ry

     total magnetization       =    12.45 Bohr mag/cell
     absolute magnetization    =    14.15 Bohr mag/cell

     iteration # 42     ecut=    60.00 Ry     beta= 0.30
     Davidson diagonalization with overlap
     ethr =  4.13E-09,  avg # of iterations =  1.1

     negative rho (up, down):  0.000E+00 7.267E-05

     total cpu time spent up to now is     2136.6 secs

     total energy              =   -4538.65742329 Ry
     estimated scf accuracy    <       0.00000918 Ry

     total magnetization       =    12.45 Bohr mag/cell
     absolute magnetization    =    14.15 Bohr mag/cell

     iteration # 43     ecut=    60.00 Ry     beta= 0.30
     Davidson diagonalization with overlap
     ethr =  3.86E-09,  avg # of iterations =  4.5

     negative rho (up, down):  0.000E+00 7.185E-05

     total cpu time spent up to now is     2188.8 secs

     total energy              =   -4538.65742895 Ry
     estimated scf accuracy    <       0.00001197 Ry

     total magnetization       =    12.45 Bohr mag/cell
     absolute magnetization    =    14.15 Bohr mag/cell

     iteration # 44     ecut=    60.00 Ry     beta= 0.30
     Davidson diagonalization with overlap
     ethr =  3.86E-09,  avg # of iterations =  5.6

     negative rho (up, down):  0.000E+00 7.185E-05

     total cpu time spent up to now is     2253.9 secs

     total energy              =   -4538.65743595 Ry
     estimated scf accuracy    <       0.00002159 Ry

     total magnetization       =    12.44 Bohr mag/cell
     absolute magnetization    =    14.13 Bohr mag/cell

     iteration # 45     ecut=    60.00 Ry     beta= 0.30
     Davidson diagonalization with overlap
     ethr =  3.86E-09,  avg # of iterations =  2.6

     negative rho (up, down):  0.000E+00 7.082E-05

     total cpu time spent up to now is     2300.9 secs

     total energy              =   -4538.65743805 Ry
     estimated scf accuracy    <       0.00002336 Ry

     total magnetization       =    12.44 Bohr mag/cell
     absolute magnetization    =    14.14 Bohr mag/cell

     iteration # 46     ecut=    60.00 Ry     beta= 0.30
     Davidson diagonalization with overlap
     ethr =  3.86E-09,  avg # of iterations =  5.8

     negative rho (up, down):  0.000E+00 7.044E-05

     total cpu time spent up to now is     2366.4 secs

     total energy              =   -4538.65745967 Ry
     estimated scf accuracy    <       0.00004713 Ry

     total magnetization       =    12.44 Bohr mag/cell
     absolute magnetization    =    14.13 Bohr mag/cell

     iteration # 47     ecut=    60.00 Ry     beta= 0.30
     Davidson diagonalization with overlap
     ethr =  3.86E-09,  avg # of iterations =  3.4

     negative rho (up, down):  0.000E+00 7.129E-05

     total cpu time spent up to now is     2415.5 secs

     total energy              =   -4538.65745959 Ry
     estimated scf accuracy    <       0.00003013 Ry

     total magnetization       =    12.43 Bohr mag/cell
     absolute magnetization    =    14.12 Bohr mag/cell

     iteration # 48     ecut=    60.00 Ry     beta= 0.30
     Davidson diagonalization with overlap
     ethr =  3.86E-09,  avg # of iterations =  4.1

     negative rho (up, down):  0.000E+00 7.117E-05

     total cpu time spent up to now is     2467.4 secs

     total energy              =   -4538.65746378 Ry
     estimated scf accuracy    <       0.00001695 Ry

     total magnetization       =    12.43 Bohr mag/cell
     absolute magnetization    =    14.12 Bohr mag/cell

     iteration # 49     ecut=    60.00 Ry     beta= 0.30
     Davidson diagonalization with overlap
     ethr =  3.86E-09,  avg # of iterations =  3.7

     negative rho (up, down):  0.000E+00 7.096E-05

     total cpu time spent up to now is     2518.3 secs

     total energy              =   -4538.65746649 Ry
     estimated scf accuracy    <       0.00000785 Ry

     total magnetization       =    12.43 Bohr mag/cell
     absolute magnetization    =    14.12 Bohr mag/cell

     iteration # 50     ecut=    60.00 Ry     beta= 0.30
     Davidson diagonalization with overlap
     ethr =  3.30E-09,  avg # of iterations =  4.8

     negative rho (up, down):  0.000E+00 7.078E-05

     total cpu time spent up to now is     2573.1 secs

     total energy              =   -4538.65746869 Ry
     estimated scf accuracy    <       0.00003088 Ry

     total magnetization       =    12.43 Bohr mag/cell
     absolute magnetization    =    14.12 Bohr mag/cell

     iteration # 51     ecut=    60.00 Ry     beta= 0.30
     Davidson diagonalization with overlap
     ethr =  3.30E-09,  avg # of iterations =  5.5

     negative rho (up, down):  0.000E+00 7.040E-05

     total cpu time spent up to now is     2634.4 secs

     total energy              =   -4538.65747403 Ry
     estimated scf accuracy    <       0.00000772 Ry

     total magnetization       =    12.42 Bohr mag/cell
     absolute magnetization    =    14.11 Bohr mag/cell

     iteration # 52     ecut=    60.00 Ry     beta= 0.30
     Davidson diagonalization with overlap
     ethr =  3.24E-09,  avg # of iterations =  5.6

     negative rho (up, down):  0.000E+00 7.051E-05

     total cpu time spent up to now is     2699.1 secs

     total energy              =   -4538.65748378 Ry
     estimated scf accuracy    <       0.00001573 Ry

     total magnetization       =    12.41 Bohr mag/cell
     absolute magnetization    =    14.11 Bohr mag/cell

     iteration # 53     ecut=    60.00 Ry     beta= 0.30
     Davidson diagonalization with overlap
     ethr =  3.24E-09,  avg # of iterations =  1.2

     negative rho (up, down):  0.000E+00 7.063E-05

     total cpu time spent up to now is     2740.4 secs

     total energy              =   -4538.65747926 Ry
     estimated scf accuracy    <       0.00000581 Ry

     total magnetization       =    12.41 Bohr mag/cell
     absolute magnetization    =    14.11 Bohr mag/cell

     iteration # 54     ecut=    60.00 Ry     beta= 0.30
     Davidson diagonalization with overlap
     ethr =  2.44E-09,  avg # of iterations =  5.0

     negative rho (up, down):  0.000E+00 7.063E-05

     total cpu time spent up to now is     2796.6 secs

     total energy              =   -4538.65748118 Ry
     estimated scf accuracy    <       0.00001526 Ry

     total magnetization       =    12.42 Bohr mag/cell
     absolute magnetization    =    14.11 Bohr mag/cell

     iteration # 55     ecut=    60.00 Ry     beta= 0.30
     Davidson diagonalization with overlap
     ethr =  2.44E-09,  avg # of iterations =  1.5

     negative rho (up, down):  0.000E+00 7.073E-05

     total cpu time spent up to now is     2839.9 secs

     total energy              =   -4538.65747595 Ry
     estimated scf accuracy    <       0.00000899 Ry

     total magnetization       =    12.42 Bohr mag/cell
     absolute magnetization    =    14.11 Bohr mag/cell

     iteration # 56     ecut=    60.00 Ry     beta= 0.30
     Davidson diagonalization with overlap
     ethr =  2.44E-09,  avg # of iterations =  4.2

     negative rho (up, down):  0.000E+00 7.108E-05

     total cpu time spent up to now is     2892.8 secs

     total energy              =   -4538.65744983 Ry
     estimated scf accuracy    <       0.00000918 Ry

     total magnetization       =    12.42 Bohr mag/cell
     absolute magnetization    =    14.11 Bohr mag/cell

     iteration # 57     ecut=    60.00 Ry     beta= 0.30
     Davidson diagonalization with overlap
     ethr =  2.44E-09,  avg # of iterations =  7.3

     negative rho (up, down):  0.000E+00 7.061E-05

     total cpu time spent up to now is     2964.9 secs

     total energy              =   -4538.65745141 Ry
     estimated scf accuracy    <       0.00000635 Ry

     total magnetization       =    12.43 Bohr mag/cell
     absolute magnetization    =    14.12 Bohr mag/cell

     iteration # 58     ecut=    60.00 Ry     beta= 0.30
     Davidson diagonalization with overlap
     ethr =  2.44E-09,  avg # of iterations =  7.8

     negative rho (up, down):  0.000E+00 7.065E-05

     total cpu time spent up to now is     3040.8 secs

     total energy              =   -4538.65747904 Ry
     estimated scf accuracy    <       0.00001325 Ry

     total magnetization       =    12.42 Bohr mag/cell
     absolute magnetization    =    14.11 Bohr mag/cell

     iteration # 59     ecut=    60.00 Ry     beta= 0.30
     Davidson diagonalization with overlap
     ethr =  2.44E-09,  avg # of iterations =  4.7

     negative rho (up, down):  0.000E+00 7.080E-05

     total cpu time spent up to now is     3095.2 secs

     total energy              =   -4538.65745916 Ry
     estimated scf accuracy    <       0.00002031 Ry

     total magnetization       =    12.42 Bohr mag/cell
     absolute magnetization    =    14.11 Bohr mag/cell

     iteration # 60     ecut=    60.00 Ry     beta= 0.30
     Davidson diagonalization with overlap
     ethr =  2.44E-09,  avg # of iterations =  6.3

     negative rho (up, down):  0.000E+00 7.044E-05

     total cpu time spent up to now is     3162.6 secs

     total energy              =   -4538.65746506 Ry
     estimated scf accuracy    <       0.00002120 Ry

     total magnetization       =    12.43 Bohr mag/cell
     absolute magnetization    =    14.12 Bohr mag/cell

     iteration # 61     ecut=    60.00 Ry     beta= 0.30
     Davidson diagonalization with overlap
     ethr =  2.44E-09,  avg # of iterations =  7.3

     negative rho (up, down):  0.000E+00 7.038E-05

     total cpu time spent up to now is     3234.8 secs

     total energy              =   -4538.65748668 Ry
     estimated scf accuracy    <       0.00001503 Ry

     total magnetization       =    12.42 Bohr mag/cell
     absolute magnetization    =    14.11 Bohr mag/cell

     iteration # 62     ecut=    60.00 Ry     beta= 0.30
     Davidson diagonalization with overlap
     ethr =  2.44E-09,  avg # of iterations =  5.0

     negative rho (up, down):  0.000E+00 7.043E-05

     total cpu time spent up to now is     3291.2 secs

     total energy              =   -4538.65748491 Ry
     estimated scf accuracy    <       0.00001123 Ry

     total magnetization       =    12.41 Bohr mag/cell
     absolute magnetization    =    14.11 Bohr mag/cell

     iteration # 63     ecut=    60.00 Ry     beta= 0.30
     Davidson diagonalization with overlap
     ethr =  2.44E-09,  avg # of iterations =  4.0

     negative rho (up, down):  0.000E+00 7.027E-05

     total cpu time spent up to now is     3342.6 secs

     total energy              =   -4538.65748875 Ry
     estimated scf accuracy    <       0.00001202 Ry

     total magnetization       =    12.42 Bohr mag/cell
     absolute magnetization    =    14.11 Bohr mag/cell

     iteration # 64     ecut=    60.00 Ry     beta= 0.30
     Davidson diagonalization with overlap
     ethr =  2.44E-09,  avg # of iterations =  4.5

     negative rho (up, down):  0.000E+00 6.957E-05

     total cpu time spent up to now is     3395.5 secs

     total energy              =   -4538.65746901 Ry
     estimated scf accuracy    <       0.00000792 Ry

     total magnetization       =    12.41 Bohr mag/cell
     absolute magnetization    =    14.11 Bohr mag/cell

     iteration # 65     ecut=    60.00 Ry     beta= 0.30
     Davidson diagonalization with overlap
     ethr =  2.44E-09,  avg # of iterations =  8.2

     negative rho (up, down):  0.000E+00 6.968E-05

     total cpu time spent up to now is     3474.7 secs

     total energy              =   -4538.65750360 Ry
     estimated scf accuracy    <       0.00001000 Ry

     total magnetization       =    12.40 Bohr mag/cell
     absolute magnetization    =    14.11 Bohr mag/cell

     iteration # 66     ecut=    60.00 Ry     beta= 0.30
     Davidson diagonalization with overlap
     ethr =  2.44E-09,  avg # of iterations =  3.5

     negative rho (up, down):  0.000E+00 7.002E-05

     total cpu time spent up to now is     3524.5 secs

     total energy              =   -4538.65748166 Ry
     estimated scf accuracy    <       0.00001705 Ry

     total magnetization       =    12.40 Bohr mag/cell
     absolute magnetization    =    14.11 Bohr mag/cell

     iteration # 67     ecut=    60.00 Ry     beta= 0.30
     Davidson diagonalization with overlap
     ethr =  2.44E-09,  avg # of iterations =  6.8

     negative rho (up, down):  0.000E+00 6.959E-05

     total cpu time spent up to now is     3594.5 secs

     total energy              =   -4538.65749329 Ry
     estimated scf accuracy    <       0.00001455 Ry

     total magnetization       =    12.41 Bohr mag/cell
     absolute magnetization    =    14.11 Bohr mag/cell

     iteration # 68     ecut=    60.00 Ry     beta= 0.30
     Davidson diagonalization with overlap
     ethr =  2.44E-09,  avg # of iterations =  6.2

     negative rho (up, down):  0.000E+00 6.955E-05

     total cpu time spent up to now is     3661.0 secs

     total energy              =   -4538.65750434 Ry
     estimated scf accuracy    <       0.00000754 Ry

     total magnetization       =    12.40 Bohr mag/cell
     absolute magnetization    =    14.11 Bohr mag/cell

     iteration # 69     ecut=    60.00 Ry     beta= 0.30
     Davidson diagonalization with overlap
     ethr =  2.44E-09,  avg # of iterations =  2.2

     negative rho (up, down):  0.000E+00 6.880E-05

     total cpu time spent up to now is     3706.4 secs

     total energy              =   -4538.65748340 Ry
     estimated scf accuracy    <       0.00001397 Ry

     total magnetization       =    12.40 Bohr mag/cell
     absolute magnetization    =    14.11 Bohr mag/cell

     iteration # 70     ecut=    60.00 Ry     beta= 0.30
     Davidson diagonalization with overlap
     ethr =  2.44E-09,  avg # of iterations =  8.2

     negative rho (up, down):  0.000E+00 6.884E-05

     total cpu time spent up to now is     3783.8 secs

     total energy              =   -4538.65751673 Ry
     estimated scf accuracy    <       0.00000862 Ry

     total magnetization       =    12.39 Bohr mag/cell
     absolute magnetization    =    14.12 Bohr mag/cell

     iteration # 71     ecut=    60.00 Ry     beta= 0.30
     Davidson diagonalization with overlap
     ethr =  2.44E-09,  avg # of iterations =  1.4

     negative rho (up, down):  0.000E+00 6.884E-05

     total cpu time spent up to now is     3826.1 secs

     total energy              =   -4538.65751656 Ry
     estimated scf accuracy    <       0.00000682 Ry

     total magnetization       =    12.39 Bohr mag/cell
     absolute magnetization    =    14.12 Bohr mag/cell

     iteration # 72     ecut=    60.00 Ry     beta= 0.30
     Davidson diagonalization with overlap
     ethr =  2.44E-09,  avg # of iterations =  1.3

     negative rho (up, down):  0.000E+00 6.850E-05

     total cpu time spent up to now is     3867.8 secs

     total energy              =   -4538.65751772 Ry
     estimated scf accuracy    <       0.00000547 Ry

     total magnetization       =    12.39 Bohr mag/cell
     absolute magnetization    =    14.12 Bohr mag/cell

     iteration # 73     ecut=    60.00 Ry     beta= 0.30
     Davidson diagonalization with overlap
     ethr =  2.30E-09,  avg # of iterations =  4.8

     negative rho (up, down):  0.000E+00 6.855E-05

     total cpu time spent up to now is     3923.8 secs

     total energy              =   -4538.65751698 Ry
     estimated scf accuracy    <       0.00004017 Ry

     total magnetization       =    12.39 Bohr mag/cell
     absolute magnetization    =    14.12 Bohr mag/cell

     iteration # 74     ecut=    60.00 Ry     beta= 0.30
     Davidson diagonalization with overlap
     ethr =  2.30E-09,  avg # of iterations =  4.0

     negative rho (up, down):  0.000E+00 6.830E-05

     total cpu time spent up to now is     3975.7 secs

     total energy              =   -4538.65751970 Ry
     estimated scf accuracy    <       0.00000423 Ry

     total magnetization       =    12.39 Bohr mag/cell
     absolute magnetization    =    14.12 Bohr mag/cell

     iteration # 75     ecut=    60.00 Ry     beta= 0.30
     Davidson diagonalization with overlap
     ethr =  1.78E-09,  avg # of iterations =  5.7

     negative rho (up, down):  0.000E+00 6.828E-05

     total cpu time spent up to now is     4035.3 secs

     total energy              =   -4538.65752162 Ry
     estimated scf accuracy    <       0.00000619 Ry

     total magnetization       =    12.39 Bohr mag/cell
     absolute magnetization    =    14.13 Bohr mag/cell

     iteration # 76     ecut=    60.00 Ry     beta= 0.30
     Davidson diagonalization with overlap
     ethr =  1.78E-09,  avg # of iterations =  1.9

     negative rho (up, down):  0.000E+00 6.770E-05

     total cpu time spent up to now is     4080.5 secs

     total energy              =   -4538.65752045 Ry
     estimated scf accuracy    <       0.00001159 Ry

     total magnetization       =    12.39 Bohr mag/cell
     absolute magnetization    =    14.13 Bohr mag/cell

     iteration # 77     ecut=    60.00 Ry     beta= 0.30
     Davidson diagonalization with overlap
     ethr =  1.78E-09,  avg # of iterations =  6.2

     negative rho (up, down):  0.000E+00 6.797E-05

     total cpu time spent up to now is     4146.1 secs

     total energy              =   -4538.65752085 Ry
     estimated scf accuracy    <       0.00001359 Ry

     total magnetization       =    12.38 Bohr mag/cell
     absolute magnetization    =    14.13 Bohr mag/cell

     iteration # 78     ecut=    60.00 Ry     beta= 0.30
     Davidson diagonalization with overlap
     ethr =  1.78E-09,  avg # of iterations =  4.9

     negative rho (up, down):  0.000E+00 6.704E-05

     total cpu time spent up to now is     4202.7 secs

     total energy              =   -4538.65751864 Ry
     estimated scf accuracy    <       0.00000842 Ry

     total magnetization       =    12.39 Bohr mag/cell
     absolute magnetization    =    14.13 Bohr mag/cell

     iteration # 79     ecut=    60.00 Ry     beta= 0.30
     Davidson diagonalization with overlap
     ethr =  1.78E-09,  avg # of iterations =  6.1

     negative rho (up, down):  0.000E+00 6.661E-05

     total cpu time spent up to now is     4268.8 secs

     total energy              =   -4538.65752471 Ry
     estimated scf accuracy    <       0.00001324 Ry

     total magnetization       =    12.38 Bohr mag/cell
     absolute magnetization    =    14.14 Bohr mag/cell

     iteration # 80     ecut=    60.00 Ry     beta= 0.30
     Davidson diagonalization with overlap
     ethr =  1.78E-09,  avg # of iterations =  6.9

     negative rho (up, down):  0.000E+00 6.736E-05

     total cpu time spent up to now is     4338.5 secs

     total energy              =   -4538.65750774 Ry
     estimated scf accuracy    <       0.00000437 Ry

     total magnetization       =    12.37 Bohr mag/cell
     absolute magnetization    =    14.15 Bohr mag/cell

     iteration # 81     ecut=    60.00 Ry     beta= 0.30
     Davidson diagonalization with overlap
     ethr =  1.78E-09,  avg # of iterations =  7.8

     negative rho (up, down):  0.000E+00 6.684E-05

     total cpu time spent up to now is     4413.3 secs

     total energy              =   -4538.65752774 Ry
     estimated scf accuracy    <       0.00001113 Ry

     total magnetization       =    12.38 Bohr mag/cell
     absolute magnetization    =    14.14 Bohr mag/cell

     iteration # 82     ecut=    60.00 Ry     beta= 0.30
     Davidson diagonalization with overlap
     ethr =  1.78E-09,  avg # of iterations =  5.1

     negative rho (up, down):  0.000E+00 6.586E-05

     total cpu time spent up to now is     4472.2 secs

     total energy              =   -4538.65744070 Ry
     estimated scf accuracy    <       0.00001748 Ry

     total magnetization       =    12.38 Bohr mag/cell
     absolute magnetization    =    14.14 Bohr mag/cell

     iteration # 83     ecut=    60.00 Ry     beta= 0.30
     Davidson diagonalization with overlap
     ethr =  1.78E-09,  avg # of iterations = 11.2

     negative rho (up, down):  0.000E+00 6.634E-05

     total cpu time spent up to now is     4566.6 secs

     total energy              =   -4538.65750424 Ry
     estimated scf accuracy    <       0.00001041 Ry

     total magnetization       =    12.36 Bohr mag/cell
     absolute magnetization    =    14.19 Bohr mag/cell

     iteration # 84     ecut=    60.00 Ry     beta= 0.30
     Davidson diagonalization with overlap
     ethr =  1.78E-09,  avg # of iterations =  8.3

     negative rho (up, down):  0.000E+00 6.631E-05

     total cpu time spent up to now is     4646.3 secs

     total energy              =   -4538.65753787 Ry
     estimated scf accuracy    <       0.00000295 Ry

     total magnetization       =    12.37 Bohr mag/cell
     absolute magnetization    =    14.16 Bohr mag/cell

     iteration # 85     ecut=    60.00 Ry     beta= 0.30
     Davidson diagonalization with overlap
     ethr =  1.24E-09,  avg # of iterations =  1.0

     negative rho (up, down):  0.000E+00 6.592E-05

     total cpu time spent up to now is     4687.6 secs

     total energy              =   -4538.65752685 Ry
     estimated scf accuracy    <       0.00000284 Ry

     total magnetization       =    12.37 Bohr mag/cell
     absolute magnetization    =    14.16 Bohr mag/cell

     iteration # 86     ecut=    60.00 Ry     beta= 0.30
     Davidson diagonalization with overlap
     ethr =  1.19E-09,  avg # of iterations =  7.5

     negative rho (up, down):  0.000E+00 6.589E-05

     total cpu time spent up to now is     4762.0 secs

     total energy              =   -4538.65754214 Ry
     estimated scf accuracy    <       0.00000373 Ry

     total magnetization       =    12.36 Bohr mag/cell
     absolute magnetization    =    14.18 Bohr mag/cell

     iteration # 87     ecut=    60.00 Ry     beta= 0.30
     Davidson diagonalization with overlap
     ethr =  1.19E-09,  avg # of iterations =  1.0

     negative rho (up, down):  0.000E+00 6.610E-05

     total cpu time spent up to now is     4802.6 secs

     total energy              =   -4538.65753631 Ry
     estimated scf accuracy    <       0.00000105 Ry

     total magnetization       =    12.36 Bohr mag/cell
     absolute magnetization    =    14.18 Bohr mag/cell

     iteration # 88     ecut=    60.00 Ry     beta= 0.30
     Davidson diagonalization with overlap
     ethr =  4.40E-10,  avg # of iterations =  7.0

     negative rho (up, down):  0.000E+00 6.560E-05

     total cpu time spent up to now is     4874.4 secs

     total energy              =   -4538.65752290 Ry
     estimated scf accuracy    <       0.00000604 Ry

     total magnetization       =    12.36 Bohr mag/cell
     absolute magnetization    =    14.17 Bohr mag/cell

     iteration # 89     ecut=    60.00 Ry     beta= 0.30
     Davidson diagonalization with overlap
     ethr =  4.40E-10,  avg # of iterations = 10.5

     negative rho (up, down):  0.000E+00 6.585E-05

     total cpu time spent up to now is     4966.5 secs

     total energy              =   -4538.65753756 Ry
     estimated scf accuracy    <       0.00000144 Ry

     total magnetization       =    12.35 Bohr mag/cell
     absolute magnetization    =    14.20 Bohr mag/cell

     iteration # 90     ecut=    60.00 Ry     beta= 0.30
     Davidson diagonalization with overlap
     ethr =  4.40E-10,  avg # of iterations =  7.4

     negative rho (up, down):  0.000E+00 6.546E-05

     total cpu time spent up to now is     5040.4 secs

     total energy              =   -4538.65753001 Ry
     estimated scf accuracy    <       0.00000101 Ry

     total magnetization       =    12.36 Bohr mag/cell
     absolute magnetization    =    14.18 Bohr mag/cell

     iteration # 91     ecut=    60.00 Ry     beta= 0.30
     Davidson diagonalization with overlap
     ethr =  4.26E-10,  avg # of iterations =  9.9

     negative rho (up, down):  0.000E+00 6.538E-05

     total cpu time spent up to now is     5128.5 secs

     total energy              =   -4538.65754503 Ry
     estimated scf accuracy    <       0.00000101 Ry

     total magnetization       =    12.35 Bohr mag/cell
     absolute magnetization    =    14.21 Bohr mag/cell

     iteration # 92     ecut=    60.00 Ry     beta= 0.30
     Davidson diagonalization with overlap
     ethr =  4.26E-10,  avg # of iterations =  5.3

     negative rho (up, down):  0.000E+00 6.551E-05

     total cpu time spent up to now is     5187.4 secs

     total energy              =   -4538.65754418 Ry
     estimated scf accuracy    <       0.00000035 Ry

     total magnetization       =    12.35 Bohr mag/cell
     absolute magnetization    =    14.21 Bohr mag/cell

     iteration # 93     ecut=    60.00 Ry     beta= 0.30
     Davidson diagonalization with overlap
     ethr =  1.49E-10,  avg # of iterations =  7.0

     negative rho (up, down):  0.000E+00 6.522E-05

     total cpu time spent up to now is     5257.8 secs

     total energy              =   -4538.65753269 Ry
     estimated scf accuracy    <       0.00000090 Ry

     total magnetization       =    12.35 Bohr mag/cell
     absolute magnetization    =    14.20 Bohr mag/cell

     iteration # 94     ecut=    60.00 Ry     beta= 0.30
     Davidson diagonalization with overlap
     ethr =  1.49E-10,  avg # of iterations = 11.1

     negative rho (up, down):  0.000E+00 6.535E-05

     total cpu time spent up to now is     5355.3 secs

     total energy              =   -4538.65754467 Ry
     estimated scf accuracy    <       0.00000040 Ry

     total magnetization       =    12.34 Bohr mag/cell
     absolute magnetization    =    14.23 Bohr mag/cell

     iteration # 95     ecut=    60.00 Ry     beta= 0.30
     Davidson diagonalization with overlap
     ethr =  1.49E-10,  avg # of iterations =  7.6

     negative rho (up, down):  0.000E+00 6.538E-05

     total cpu time spent up to now is     5429.8 secs

     total energy              =   -4538.65754629 Ry
     estimated scf accuracy    <       0.00000059 Ry

     total magnetization       =    12.34 Bohr mag/cell
     absolute magnetization    =    14.22 Bohr mag/cell

     iteration # 96     ecut=    60.00 Ry     beta= 0.30
     Davidson diagonalization with overlap
     ethr =  1.49E-10,  avg # of iterations =  1.2

     negative rho (up, down):  0.000E+00 6.539E-05

     total cpu time spent up to now is     5472.0 secs

     total energy              =   -4538.65754599 Ry
     estimated scf accuracy    <       0.00000047 Ry

     total magnetization       =    12.34 Bohr mag/cell
     absolute magnetization    =    14.22 Bohr mag/cell

     iteration # 97     ecut=    60.00 Ry     beta= 0.30
     Davidson diagonalization with overlap
     ethr =  1.49E-10,  avg # of iterations =  6.3

     negative rho (up, down):  0.000E+00 6.536E-05

     total cpu time spent up to now is     5537.4 secs

     total energy              =   -4538.65753897 Ry
     estimated scf accuracy    <       0.00000054 Ry

     total magnetization       =    12.34 Bohr mag/cell
     absolute magnetization    =    14.22 Bohr mag/cell

     iteration # 98     ecut=    60.00 Ry     beta= 0.30
     Davidson diagonalization with overlap
     ethr =  1.49E-10,  avg # of iterations = 11.0

     negative rho (up, down):  0.000E+00 6.544E-05

     total cpu time spent up to now is     5631.9 secs

     total energy              =   -4538.65754684 Ry
     estimated scf accuracy    <       0.00000043 Ry

     total magnetization       =    12.33 Bohr mag/cell
     absolute magnetization    =    14.24 Bohr mag/cell

     iteration # 99     ecut=    60.00 Ry     beta= 0.30
     Davidson diagonalization with overlap
     ethr =  1.49E-10,  avg # of iterations =  3.4

     negative rho (up, down):  0.000E+00 6.542E-05

     total cpu time spent up to now is     5682.5 secs

     total energy              =   -4538.65754684 Ry
     estimated scf accuracy    <       0.00000034 Ry

     total magnetization       =    12.33 Bohr mag/cell
     absolute magnetization    =    14.24 Bohr mag/cell

     iteration #100     ecut=    60.00 Ry     beta= 0.30
     Davidson diagonalization with overlap
     ethr =  1.42E-10,  avg # of iterations =  3.6

     negative rho (up, down):  0.000E+00 6.548E-05

     total cpu time spent up to now is     5732.2 secs

     total energy              =   -4538.65754690 Ry
     estimated scf accuracy    <       0.00000048 Ry

     total magnetization       =    12.33 Bohr mag/cell
     absolute magnetization    =    14.24 Bohr mag/cell

     iteration #101     ecut=    60.00 Ry     beta= 0.30
     Davidson diagonalization with overlap
     ethr =  1.42E-10,  avg # of iterations =  2.5

     negative rho (up, down):  0.000E+00 6.558E-05

     total cpu time spent up to now is     5779.9 secs

     total energy              =   -4538.65754693 Ry
     estimated scf accuracy    <       0.00000038 Ry

     total magnetization       =    12.33 Bohr mag/cell
     absolute magnetization    =    14.24 Bohr mag/cell

     iteration #102     ecut=    60.00 Ry     beta= 0.30
     Davidson diagonalization with overlap
     ethr =  1.42E-10,  avg # of iterations =  1.9

     negative rho (up, down):  0.000E+00 6.563E-05

     total cpu time spent up to now is     5825.4 secs

     total energy              =   -4538.65754600 Ry
     estimated scf accuracy    <       0.00000047 Ry

     total magnetization       =    12.33 Bohr mag/cell
     absolute magnetization    =    14.24 Bohr mag/cell

     iteration #103     ecut=    60.00 Ry     beta= 0.30
     Davidson diagonalization with overlap
     ethr =  1.42E-10,  avg # of iterations =  7.1

     negative rho (up, down):  0.000E+00 6.555E-05

     total cpu time spent up to now is     5897.4 secs

     total energy              =   -4538.65754549 Ry
     estimated scf accuracy    <       0.00000034 Ry

     total magnetization       =    12.33 Bohr mag/cell
     absolute magnetization    =    14.25 Bohr mag/cell

     iteration #104     ecut=    60.00 Ry     beta= 0.30
     Davidson diagonalization with overlap
     ethr =  1.42E-10,  avg # of iterations =  7.5

     negative rho (up, down):  0.000E+00 6.559E-05

     total cpu time spent up to now is     5971.7 secs

     total energy              =   -4538.65754685 Ry
     estimated scf accuracy    <       0.00000022 Ry

     total magnetization       =    12.33 Bohr mag/cell
     absolute magnetization    =    14.24 Bohr mag/cell

     iteration #105     ecut=    60.00 Ry     beta= 0.30
     Davidson diagonalization with overlap
     ethr =  9.45E-11,  avg # of iterations =  5.0

     negative rho (up, down):  0.000E+00 6.569E-05

     total cpu time spent up to now is     6027.3 secs

     total energy              =   -4538.65754669 Ry
     estimated scf accuracy    <       0.00000013 Ry

     total magnetization       =    12.33 Bohr mag/cell
     absolute magnetization    =    14.24 Bohr mag/cell

     iteration #106     ecut=    60.00 Ry     beta= 0.30
     Davidson diagonalization with overlap
     ethr =  5.53E-11,  avg # of iterations =  6.3

     negative rho (up, down):  0.000E+00 6.568E-05

     total cpu time spent up to now is     6095.2 secs

     total energy              =   -4538.65754691 Ry
     estimated scf accuracy    <       0.00000018 Ry

     total magnetization       =    12.33 Bohr mag/cell
     absolute magnetization    =    14.25 Bohr mag/cell

     iteration #107     ecut=    60.00 Ry     beta= 0.30
     Davidson diagonalization with overlap
     ethr =  5.53E-11,  avg # of iterations =  5.0

     negative rho (up, down):  0.000E+00 6.576E-05

     total cpu time spent up to now is     6151.0 secs

     total energy              =   -4538.65754695 Ry
     estimated scf accuracy    <       0.00000019 Ry

     total magnetization       =    12.33 Bohr mag/cell
     absolute magnetization    =    14.25 Bohr mag/cell

     iteration #108     ecut=    60.00 Ry     beta= 0.30
     Davidson diagonalization with overlap
     ethr =  5.53E-11,  avg # of iterations =  3.3

     negative rho (up, down):  0.000E+00 6.571E-05

     total cpu time spent up to now is     6200.5 secs

     total energy              =   -4538.65754695 Ry
     estimated scf accuracy    <       0.00000010 Ry

     total magnetization       =    12.33 Bohr mag/cell
     absolute magnetization    =    14.25 Bohr mag/cell

     iteration #109     ecut=    60.00 Ry     beta= 0.30
     Davidson diagonalization with overlap
     ethr =  4.30E-11,  avg # of iterations =  3.4

     negative rho (up, down):  0.000E+00 6.578E-05

     total cpu time spent up to now is     6250.3 secs

     total energy              =   -4538.65754696 Ry
     estimated scf accuracy    <       0.00000009 Ry

     total magnetization       =    12.33 Bohr mag/cell
     absolute magnetization    =    14.25 Bohr mag/cell

     iteration #110     ecut=    60.00 Ry     beta= 0.30
     Davidson diagonalization with overlap
     ethr =  3.66E-11,  avg # of iterations =  4.9

     negative rho (up, down):  0.000E+00 6.578E-05

     total cpu time spent up to now is     6304.5 secs

     total energy              =   -4538.65754698 Ry
     estimated scf accuracy    <       0.00000017 Ry

     total magnetization       =    12.33 Bohr mag/cell
     absolute magnetization    =    14.25 Bohr mag/cell

     iteration #111     ecut=    60.00 Ry     beta= 0.30
     Davidson diagonalization with overlap
     ethr =  3.66E-11,  avg # of iterations =  2.1

     negative rho (up, down):  0.000E+00 6.587E-05

     total cpu time spent up to now is     6349.8 secs

     total energy              =   -4538.65754696 Ry
     estimated scf accuracy    <       0.00000015 Ry

     total magnetization       =    12.33 Bohr mag/cell
     absolute magnetization    =    14.25 Bohr mag/cell

     iteration #112     ecut=    60.00 Ry     beta= 0.30
     Davidson diagonalization with overlap
     ethr =  3.66E-11,  avg # of iterations =  4.9

     negative rho (up, down):  0.000E+00 6.586E-05

     total cpu time spent up to now is     6405.6 secs

     total energy              =   -4538.65754698 Ry
     estimated scf accuracy    <       0.00000010 Ry

     total magnetization       =    12.33 Bohr mag/cell
     absolute magnetization    =    14.25 Bohr mag/cell

     iteration #113     ecut=    60.00 Ry     beta= 0.30
     Davidson diagonalization with overlap
     ethr =  3.66E-11,  avg # of iterations =  1.6

     negative rho (up, down):  0.000E+00 6.585E-05

     total cpu time spent up to now is     6448.8 secs

     total energy              =   -4538.65754698 Ry
     estimated scf accuracy    <       0.00000007 Ry

     total magnetization       =    12.33 Bohr mag/cell
     absolute magnetization    =    14.25 Bohr mag/cell

     iteration #114     ecut=    60.00 Ry     beta= 0.30
     Davidson diagonalization with overlap
     ethr =  2.79E-11,  avg # of iterations =  2.4

     negative rho (up, down):  0.000E+00 6.583E-05

     total cpu time spent up to now is     6496.1 secs

     total energy              =   -4538.65754698 Ry
     estimated scf accuracy    <       0.00000014 Ry

     total magnetization       =    12.33 Bohr mag/cell
     absolute magnetization    =    14.25 Bohr mag/cell

     iteration #115     ecut=    60.00 Ry     beta= 0.30
     Davidson diagonalization with overlap
     ethr =  2.79E-11,  avg # of iterations =  3.1

     negative rho (up, down):  0.000E+00 6.588E-05

     total cpu time spent up to now is     6545.1 secs

     total energy              =   -4538.65754699 Ry
     estimated scf accuracy    <       0.00000009 Ry

     total magnetization       =    12.33 Bohr mag/cell
     absolute magnetization    =    14.25 Bohr mag/cell

     iteration #116     ecut=    60.00 Ry     beta= 0.30
     Davidson diagonalization with overlap
     ethr =  2.79E-11,  avg # of iterations =  1.3

     negative rho (up, down):  0.000E+00 6.592E-05

     total cpu time spent up to now is     6587.1 secs

     total energy              =   -4538.65754699 Ry
     estimated scf accuracy    <       0.00000005 Ry

     total magnetization       =    12.33 Bohr mag/cell
     absolute magnetization    =    14.25 Bohr mag/cell

     iteration #117     ecut=    60.00 Ry     beta= 0.30
     Davidson diagonalization with overlap
     ethr =  2.27E-11,  avg # of iterations =  2.4

     negative rho (up, down):  0.000E+00 6.589E-05

     total cpu time spent up to now is     6633.5 secs

     total energy              =   -4538.65754699 Ry
     estimated scf accuracy    <       0.00000006 Ry

     total magnetization       =    12.33 Bohr mag/cell
     absolute magnetization    =    14.25 Bohr mag/cell

     iteration #118     ecut=    60.00 Ry     beta= 0.30
     Davidson diagonalization with overlap
     ethr =  2.27E-11,  avg # of iterations =  1.4

     negative rho (up, down):  0.000E+00 6.591E-05

     total cpu time spent up to now is     6675.3 secs

     total energy              =   -4538.65754700 Ry
     estimated scf accuracy    <       0.00000002 Ry

     total magnetization       =    12.33 Bohr mag/cell
     absolute magnetization    =    14.25 Bohr mag/cell

     iteration #119     ecut=    60.00 Ry     beta= 0.30
     Davidson diagonalization with overlap
     ethr =  7.70E-12,  avg # of iterations =  2.1

     negative rho (up, down):  0.000E+00 6.593E-05

     total cpu time spent up to now is     6720.2 secs

     total energy              =   -4538.65754700 Ry
     estimated scf accuracy    <       0.00000003 Ry

     total magnetization       =    12.33 Bohr mag/cell
     absolute magnetization    =    14.25 Bohr mag/cell

     iteration #120     ecut=    60.00 Ry     beta= 0.30
     Davidson diagonalization with overlap
     ethr =  7.70E-12,  avg # of iterations =  2.0

     negative rho (up, down):  0.000E+00 6.596E-05

     total cpu time spent up to now is     6764.7 secs

     total energy              =   -4538.65754700 Ry
     estimated scf accuracy    <       0.00000003 Ry

     total magnetization       =    12.33 Bohr mag/cell
     absolute magnetization    =    14.25 Bohr mag/cell

     iteration #121     ecut=    60.00 Ry     beta= 0.30
     Davidson diagonalization with overlap
     ethr =  7.70E-12,  avg # of iterations =  3.6

     negative rho (up, down):  0.000E+00 6.597E-05

     total cpu time spent up to now is     6815.5 secs

     total energy              =   -4538.65754700 Ry
     estimated scf accuracy    <       0.00000006 Ry

     total magnetization       =    12.33 Bohr mag/cell
     absolute magnetization    =    14.25 Bohr mag/cell

     iteration #122     ecut=    60.00 Ry     beta= 0.30
     Davidson diagonalization with overlap
     ethr =  7.70E-12,  avg # of iterations =  1.9

     negative rho (up, down):  0.000E+00 6.593E-05

     total cpu time spent up to now is     6860.2 secs

     total energy              =   -4538.65754700 Ry
     estimated scf accuracy    <       0.00000002 Ry

     total magnetization       =    12.33 Bohr mag/cell
     absolute magnetization    =    14.25 Bohr mag/cell

     iteration #123     ecut=    60.00 Ry     beta= 0.30
     Davidson diagonalization with overlap
     ethr =  7.70E-12,  avg # of iterations =  2.2

     negative rho (up, down):  0.000E+00 6.598E-05

     total cpu time spent up to now is     6905.6 secs

     total energy              =   -4538.65754700 Ry
     estimated scf accuracy    <       0.00000002 Ry

     total magnetization       =    12.33 Bohr mag/cell
     absolute magnetization    =    14.25 Bohr mag/cell

     iteration #124     ecut=    60.00 Ry     beta= 0.30
     Davidson diagonalization with overlap
     ethr =  7.70E-12,  avg # of iterations =  2.3

     negative rho (up, down):  0.000E+00 6.601E-05

     total cpu time spent up to now is     6953.6 secs

     total energy              =   -4538.65754701 Ry
     estimated scf accuracy    <       0.00000003 Ry

     total magnetization       =    12.33 Bohr mag/cell
     absolute magnetization    =    14.25 Bohr mag/cell

     iteration #125     ecut=    60.00 Ry     beta= 0.30
     Davidson diagonalization with overlap
     ethr =  7.70E-12,  avg # of iterations =  3.8

     negative rho (up, down):  0.000E+00 6.602E-05

     total cpu time spent up to now is     7006.5 secs

     total energy              =   -4538.65754701 Ry
     estimated scf accuracy    <       0.00000007 Ry

     total magnetization       =    12.33 Bohr mag/cell
     absolute magnetization    =    14.25 Bohr mag/cell

     iteration #126     ecut=    60.00 Ry     beta= 0.30
     Davidson diagonalization with overlap
     ethr =  7.70E-12,  avg # of iterations =  2.2

     negative rho (up, down):  0.000E+00 6.606E-05

     total cpu time spent up to now is     7052.6 secs

     total energy              =   -4538.65754701 Ry
     estimated scf accuracy    <       0.00000003 Ry

     total magnetization       =    12.33 Bohr mag/cell
     absolute magnetization    =    14.25 Bohr mag/cell

     iteration #127     ecut=    60.00 Ry     beta= 0.30
     Davidson diagonalization with overlap
     ethr =  7.70E-12,  avg # of iterations =  2.9

     negative rho (up, down):  0.000E+00 6.602E-05

     total cpu time spent up to now is     7101.4 secs

     total energy              =   -4538.65754701 Ry
     estimated scf accuracy    <       0.00000001 Ry

     total magnetization       =    12.33 Bohr mag/cell
     absolute magnetization    =    14.25 Bohr mag/cell

     iteration #128     ecut=    60.00 Ry     beta= 0.30
     Davidson diagonalization with overlap
     ethr =  4.59E-12,  avg # of iterations =  4.0

     negative rho (up, down):  0.000E+00 6.607E-05

     total cpu time spent up to now is     7155.2 secs

     total energy              =   -4538.65754701 Ry
     estimated scf accuracy    <       0.00000003 Ry

     total magnetization       =    12.33 Bohr mag/cell
     absolute magnetization    =    14.25 Bohr mag/cell

     iteration #129     ecut=    60.00 Ry     beta= 0.30
     Davidson diagonalization with overlap
     ethr =  4.59E-12,  avg # of iterations =  4.6

     negative rho (up, down):  0.000E+00 6.610E-05

     total cpu time spent up to now is     7211.6 secs

     total energy              =   -4538.65754701 Ry
     estimated scf accuracy    <       0.00000004 Ry

     total magnetization       =    12.33 Bohr mag/cell
     absolute magnetization    =    14.25 Bohr mag/cell

     iteration #130     ecut=    60.00 Ry     beta= 0.30
     Davidson diagonalization with overlap
     ethr =  4.59E-12,  avg # of iterations =  3.3

     negative rho (up, down):  0.000E+00 6.611E-05
 
     Magnetic moment per site  (integrated on atomic sphere of radius R)
     atom   1 (R=0.177)  charge= 12.1037  magn= -0.0094
     atom   2 (R=0.177)  charge= 14.4038  magn=  1.7813
     atom   3 (R=0.177)  charge= 14.3816  magn=  1.8988
     atom   4 (R=0.177)  charge= 12.1310  magn=  0.0850
     atom   5 (R=0.177)  charge= 12.1027  magn= -0.0168
     atom   6 (R=0.177)  charge= 14.4088  magn=  1.6812
     atom   7 (R=0.177)  charge= 12.1034  magn=  0.0237
     atom   8 (R=0.177)  charge= 12.1339  magn=  0.0247
     atom   9 (R=0.177)  charge= 12.1034  magn=  0.0237
     atom  10 (R=0.177)  charge= 14.4038  magn=  1.7172
     atom  11 (R=0.177)  charge= 12.1027  magn= -0.0168
     atom  12 (R=0.177)  charge= 14.4055  magn=  1.7283
     atom  13 (R=0.177)  charge= 14.3816  magn=  1.8988
     atom  14 (R=0.177)  charge= 12.1293  magn=  0.1028
     atom  15 (R=0.177)  charge= 12.1037  magn= -0.0094
     atom  16 (R=0.177)  charge= 14.4070  magn=  1.7425

     total cpu time spent up to now is     7261.4 secs

     End of self-consistent calculation

     Number of k-points >= 100: set verbosity='high' to print the bands.

     the Fermi energy is    19.6362 ev

!    total energy              =   -4538.65754701 Ry
     total all-electron energy =    -36734.527385 Ry
     estimated scf accuracy    <          5.4E-09 Ry
     smearing contrib. (-TS)   =      -0.00473203 Ry
     internal energy E=F+TS    =   -4538.65281499 Ry

     The total energy is F=E-TS. E is the sum of the following terms:
     one-electron contribution =   -1254.94043490 Ry
     hartree contribution      =     779.50768683 Ry
     xc contribution           =    -394.69566120 Ry
     ewald contribution        =   -2420.73969602 Ry
     one-center paw contrib.   =   -1247.78470970 Ry

     total magnetization       =    12.33 Bohr mag/cell
     absolute magnetization    =    14.25 Bohr mag/cell

     convergence has been achieved in 130 iterations


     Computing stress (Cartesian axis) and pressure


     negative rho (up, down):  0.000E+00 6.611E-05
          total   stress  (Ry/bohr**3)                   (kbar)     P=       18.55
   0.00008559   0.00020399   0.00014991           12.59       30.01       22.05
   0.00020399   0.00020293   0.00003665           30.01       29.85        5.39
   0.00014991   0.00003665   0.00008975           22.05        5.39       13.20


     Writing all to output data dir ./tmp/fecr_fe07cr09_s-0.01.save/ :
     XML data file, charge density, pseudopotentials, collected wavefunctions
 
     init_run     :     41.49s CPU     31.43s WALL (       1 calls)
     electrons    :   8823.44s CPU   7229.51s WALL (       1 calls)
     stress       :     33.07s CPU     32.71s WALL (       1 calls)

     Called by init_run:
     wfcinit      :     10.35s CPU     12.42s WALL (       1 calls)
     potinit      :     30.24s CPU     18.01s WALL (       1 calls)
     hinit0       :      0.56s CPU      0.56s WALL (       1 calls)

     Called by electrons:
     c_bands      :   4497.65s CPU   4509.49s WALL (     130 calls)
     sum_band     :    407.80s CPU    408.19s WALL (     130 calls)
     v_of_rho     :      6.96s CPU      5.78s WALL (     131 calls)
     newd         :      5.11s CPU      5.15s WALL (     131 calls)
                                        5.15s GPU  (     131 calls)
     PAW_pot      :   3926.48s CPU   2309.24s WALL (     131 calls)
     mix_rho      :      4.35s CPU      4.40s WALL (     130 calls)

     Called by c_bands:
     init_us_2    :     34.36s CPU     32.54s WALL (   58688 calls)
     cegterg      :   4065.60s CPU   4077.99s WALL (   29120 calls)

     Called by *egterg:
     cdiaghg      :   1386.54s CPU   1397.03s WALL (  153666 calls)
                                     1396.33s GPU  (  153666 calls)
     h_psi        :   1240.27s CPU   1246.82s WALL (  153890 calls)
                                     1245.53s GPU  (  153890 calls)
     s_psi        :     77.97s CPU     79.05s WALL (  153890 calls)
     g_psi        :      0.68s CPU      7.18s WALL (  124546 calls)
                                        6.81s GPU  (  124546 calls)

     Called by h_psi:
     h_psi:calbec :      5.62s CPU    261.61s WALL (  153890 calls)
                                      261.04s GPU  (  153890 calls)
     vloc_psi     :    658.98s CPU    657.68s WALL (  153890 calls)
                                      657.13s GPU  (  153890 calls)
     add_vuspsi   :     75.87s CPU    319.12s WALL (  153890 calls)
                                      318.54s GPU  (  153890 calls)

     General routines
     calbec       :      6.82s CPU      7.09s WALL (  183234 calls)
     fft          :      3.10s CPU      3.37s WALL (    3294 calls)
                                        0.33s GPU  (    3032 calls)
     ffts         :      0.49s CPU      0.50s WALL (     522 calls)
                                        0.01s GPU  (     260 calls)
     fftw         :     36.73s CPU    618.10s WALL ( 1698202 calls)
                                      614.16s GPU  ( 1698202 calls)
     interpolate  :      3.74s CPU      3.75s WALL (     262 calls)
 
     Parallel routines
 
     PWSCF        :      2h28m CPU      2h 1m WALL

 
   This run was terminated on:  13:34:16  19May2026            

=------------------------------------------------------------------------------=
   JOB DONE.
=------------------------------------------------------------------------------=
Warning: ieee_divide_by_zero is signaling
Warning: ieee_inexact is signaling
FORTRAN STOP
