--------------------------------------------------------------------------
WARNING: Open MPI tried to bind a process but failed.  This is a
warning only; your job will continue, though performance may
be degraded.

  Local host:        4b82db919bf5
  Application name:  /root/q-e-qe-7.3.1/bin/pw.x
  Error message:     failed to bind memory
  Location:          ../../../../../orte/mca/rtc/hwloc/rtc_hwloc.c:447

--------------------------------------------------------------------------

     Program PWSCF v.7.3.1 starts on 24May2026 at  9:26:20 

     This program is part of the open-source Quantum ESPRESSO suite
     for quantum simulation of materials; please cite
         "P. Giannozzi et al., J. Phys.:Condens. Matter 21 395502 (2009);
         "P. Giannozzi et al., J. Phys.:Condens. Matter 29 465901 (2017);
         "P. Giannozzi et al., J. Chem. Phys. 152 154105 (2020);
          URL http://www.quantum-espresso.org", 
     in publications or presentations arising from this work. More details at
     http://www.quantum-espresso.org/quote

     Parallel version (MPI & OpenMP), running on       8 processor cores
     Number of MPI processes:                 1
     Threads/MPI process:                     8

     MPI processes distributed on     1 nodes
     136855 MiB available memory on the printing compute node when the environment starts
 
     Reading input from inputs/fecr_fe02cr14_h0.00.in

     Current dimensions of program PWSCF are:
     Max number of different atomic species (ntypx) = 10
     Max number of k-points (npk) =  40000
     Max angular momentum in pseudopotentials (lmaxx) =  4
     file Fe.pbe-spn-kjpaw_psl.1.0.0.UPF: wavefunction(s)  3P 3D renormalized
     file Cr.pbe-spn-kjpaw_psl.1.0.0.UPF: wavefunction(s)  3S 3P 3D renormalized
     file Cr.pbe-spn-kjpaw_psl.1.0.0.UPF: wavefunction(s)  3S 3P 3D renormalized
     Found identity + ( -0.5000 -0.5000 -0.5000) symmetry
     This is a supercell, fractional translations are disabled
     Message from routine setup:
     using ibrav=0 with symmetry is DISCOURAGED, use correct ibrav instead
 
     Subspace diagonalization in iterative solution of the eigenvalue problem:
     a serial algorithm will be used

 
     G-vector sticks info
     --------------------
     sticks:   dense  smooth     PW     G-vecs:    dense   smooth      PW
     Sum        4421    2217    621               221119    78205   11753
 
     Using Slab Decomposition
 


     bravais-lattice index     =            0
     lattice parameter (alat)  =      10.7569  a.u.
     unit-cell volume          =    1244.6825 (a.u.)^3
     number of atoms/cell      =           16
     number of atomic types    =            3
     number of electrons       =       228.00
     number of Kohn-Sham states=          137
     kinetic-energy cutoff     =      60.0000  Ry
     charge density cutoff     =     480.0000  Ry
     scf convergence threshold =      1.0E-05
     mixing beta               =       0.1000
     number of iterations used =           16  local-TF  mixing
     Exchange-correlation= SLA  PW   PBX  PBC
                           (   1   4   3   4   0   0   0)

     GPU acceleration is ACTIVE.  1 visible GPUs per MPI rank


     celldm(1)=  10.756877  celldm(2)=   0.000000  celldm(3)=   0.000000
     celldm(4)=   0.000000  celldm(5)=   0.000000  celldm(6)=   0.000000

     crystal axes: (cart. coord. in units of alat)
               a(1) = (   1.000000   0.000000   0.000000 )  
               a(2) = (   0.000000   1.000000   0.000000 )  
               a(3) = (   0.000000   0.000000   1.000000 )  

     reciprocal axes: (cart. coord. in units 2 pi/alat)
               b(1) = (  1.000000  0.000000  0.000000 )  
               b(2) = (  0.000000  1.000000  0.000000 )  
               b(3) = (  0.000000  0.000000  1.000000 )  


     PseudoPot. # 1 for Fe read from file:
     ./pseudo/Fe.pbe-spn-kjpaw_psl.1.0.0.UPF
     MD5 check sum: fc81f059e5c5069939230b1155715ae8
     Pseudo is Projector augmented-wave + core cor, Zval = 16.0
     Generated using &quot;atomic&quot; code by A. Dal Corso  v.6.3
     Shape of augmentation charge: PSQ
     Using radial grid of 1191 points,  6 beta functions with: 
                l(1) =   0
                l(2) =   0
                l(3) =   1
                l(4) =   1
                l(5) =   2
                l(6) =   2
     Q(r) pseudized with 0 coefficients 


     PseudoPot. # 2 for Cr read from file:
     ./pseudo/Cr.pbe-spn-kjpaw_psl.1.0.0.UPF
     MD5 check sum: 198f1a2427a48552563eee314eba32ba
     Pseudo is Projector augmented-wave + core cor, Zval = 14.0
     Generated using &quot;atomic&quot; code by A. Dal Corso  v.6.3
     Shape of augmentation charge: PSQ
     Using radial grid of 1183 points,  6 beta functions with: 
                l(1) =   0
                l(2) =   0
                l(3) =   1
                l(4) =   1
                l(5) =   2
                l(6) =   2
     Q(r) pseudized with 0 coefficients 


     PseudoPot. # 3 for Cr read from file:
     ./pseudo/Cr.pbe-spn-kjpaw_psl.1.0.0.UPF
     MD5 check sum: 198f1a2427a48552563eee314eba32ba
     Pseudo is Projector augmented-wave + core cor, Zval = 14.0
     Generated using &quot;atomic&quot; code by A. Dal Corso  v.6.3
     Shape of augmentation charge: PSQ
     Using radial grid of 1183 points,  6 beta functions with: 
                l(1) =   0
                l(2) =   0
                l(3) =   1
                l(4) =   1
                l(5) =   2
                l(6) =   2
     Q(r) pseudized with 0 coefficients 


     atomic species   valence    mass     pseudopotential
     Fe               16.00    55.84500     Fe( 1.00)
     CrA              14.00    51.99600     Cr( 1.00)
     CrB              14.00    51.99600     Cr( 1.00)

     Starting magnetic structure 
     atomic species   magnetization
     Fe              0.500
     CrA             0.500
     CrB            -0.500

     12 Sym. Ops., with inversion, found



   Cartesian axes

     site n.     atom                  positions (alat units)
         1        CrA    tau(   1) = (   0.0000000   0.0000000   0.0000000  )
         2        Fe     tau(   2) = (   0.2500000   0.2500000   0.2500000  )
         3        CrA    tau(   3) = (   0.0000000   0.0000000   0.5000000  )
         4        CrB    tau(   4) = (   0.2500000   0.2500000   0.7500000  )
         5        CrA    tau(   5) = (   0.0000000   0.5000000   0.0000000  )
         6        CrB    tau(   6) = (   0.2500000   0.7500000   0.2500000  )
         7        CrA    tau(   7) = (   0.0000000   0.5000000   0.5000000  )
         8        CrB    tau(   8) = (   0.2500000   0.7500000   0.7500000  )
         9        CrA    tau(   9) = (   0.5000000   0.0000000   0.0000000  )
        10        CrB    tau(  10) = (   0.7500000   0.2500000   0.2500000  )
        11        CrA    tau(  11) = (   0.5000000   0.0000000   0.5000000  )
        12        CrB    tau(  12) = (   0.7500000   0.2500000   0.7500000  )
        13        CrA    tau(  13) = (   0.5000000   0.5000000   0.0000000  )
        14        CrB    tau(  14) = (   0.7500000   0.7500000   0.2500000  )
        15        CrA    tau(  15) = (   0.5000000   0.5000000   0.5000000  )
        16        Fe     tau(  16) = (   0.7500000   0.7500000   0.7500000  )

     number of k points=    32  Marzari-Vanderbilt smearing, width (Ry)=  0.0200
                       cart. coord. in units 2pi/alat
        k(    1) = (   0.0000000   0.0000000   0.0000000), wk =   0.0046296
        k(    2) = (   0.0000000   0.0000000   0.1666667), wk =   0.0277778
        k(    3) = (   0.0000000   0.0000000   0.3333333), wk =   0.0277778
        k(    4) = (   0.0000000   0.0000000  -0.5000000), wk =   0.0138889
        k(    5) = (   0.0000000   0.1666667   0.1666667), wk =   0.0277778
        k(    6) = (   0.0000000   0.1666667   0.3333333), wk =   0.0555556
        k(    7) = (   0.0000000   0.1666667  -0.5000000), wk =   0.0555556
        k(    8) = (   0.0000000   0.3333333   0.3333333), wk =   0.0277778
        k(    9) = (   0.0000000   0.3333333  -0.5000000), wk =   0.0555556
        k(   10) = (   0.0000000  -0.5000000  -0.5000000), wk =   0.0138889
        k(   11) = (   0.1666667   0.1666667   0.1666667), wk =   0.0092593
        k(   12) = (   0.1666667   0.1666667   0.3333333), wk =   0.0277778
        k(   13) = (   0.1666667   0.1666667  -0.5000000), wk =   0.0277778
        k(   14) = (   0.1666667   0.3333333   0.3333333), wk =   0.0277778
        k(   15) = (   0.1666667   0.3333333  -0.5000000), wk =   0.0555556
        k(   16) = (   0.1666667  -0.5000000  -0.5000000), wk =   0.0277778
        k(   17) = (   0.3333333   0.3333333   0.3333333), wk =   0.0092593
        k(   18) = (   0.3333333   0.3333333  -0.5000000), wk =   0.0277778
        k(   19) = (   0.3333333  -0.5000000  -0.5000000), wk =   0.0277778
        k(   20) = (  -0.5000000  -0.5000000  -0.5000000), wk =   0.0046296
        k(   21) = (   0.0000000   0.1666667  -0.1666667), wk =   0.0277778
        k(   22) = (   0.0000000   0.3333333  -0.1666667), wk =   0.0555556
        k(   23) = (   0.0000000   0.3333333  -0.3333333), wk =   0.0277778
        k(   24) = (  -0.1666667   0.1666667   0.1666667), wk =   0.0277778
        k(   25) = (  -0.1666667   0.3333333   0.1666667), wk =   0.0555556
        k(   26) = (   0.1666667  -0.3333333   0.1666667), wk =   0.0277778
        k(   27) = (  -0.1666667  -0.5000000   0.1666667), wk =   0.0277778
        k(   28) = (  -0.1666667   0.3333333   0.3333333), wk =   0.0277778
        k(   29) = (   0.1666667   0.3333333  -0.3333333), wk =   0.0555556
        k(   30) = (  -0.1666667  -0.5000000   0.3333333), wk =   0.0555556
        k(   31) = (  -0.3333333   0.3333333   0.3333333), wk =   0.0277778
        k(   32) = (  -0.3333333  -0.5000000   0.3333333), wk =   0.0277778

     Dense  grid:   221119 G-vectors     FFT dimensions: (  75,  75,  75)

     Smooth grid:    78205 G-vectors     FFT dimensions: (  54,  54,  54)

     Estimated max dynamical RAM per process >       2.33 GB

     Check: negative core charge=   -0.000003
     Generating pointlists ...
     new r_m :   0.1786 (alat units)  1.9214 (a.u.) for type    1
     new r_m :   0.1786 (alat units)  1.9214 (a.u.) for type    2
     new r_m :   0.1786 (alat units)  1.9214 (a.u.) for type    3

     Initial potential from superposition of free atoms

     starting charge     227.9883, renormalised to     228.0000
     Starting wfcs are  160 randomized atomic wfcs
     Checking if some PAW data can be deallocated... 

     total cpu time spent up to now is       24.0 secs

     Self-consistent Calculation

     iteration #  1     ecut=    60.00 Ry     beta= 0.10
     Davidson diagonalization with overlap
     ethr =  1.00E-02,  avg # of iterations =  5.8

     negative rho (up, down):  0.000E+00 9.287E-01

     total cpu time spent up to now is       55.1 secs

     total energy              =   -4113.06132697 Ry
     estimated scf accuracy    <     394.61705007 Ry

     total magnetization       =    15.44 Bohr mag/cell
     absolute magnetization    =    94.05 Bohr mag/cell

     iteration #  2     ecut=    60.00 Ry     beta= 0.10
     Davidson diagonalization with overlap
     ethr =  1.00E-02,  avg # of iterations =  3.8

     negative rho (up, down):  0.000E+00 8.004E-01

     total cpu time spent up to now is       81.0 secs

     total energy              =   -4129.31807119 Ry
     estimated scf accuracy    <       8.46172102 Ry

     total magnetization       =    15.86 Bohr mag/cell
     absolute magnetization    =    55.64 Bohr mag/cell

     iteration #  3     ecut=    60.00 Ry     beta= 0.10
     Davidson diagonalization with overlap
     ethr =  3.71E-03,  avg # of iterations =  1.6

     negative rho (up, down):  0.000E+00 3.086E-01

     total cpu time spent up to now is      106.1 secs

     total energy              =   -4131.14259585 Ry
     estimated scf accuracy    <       7.02290705 Ry

     total magnetization       =    15.40 Bohr mag/cell
     absolute magnetization    =    54.16 Bohr mag/cell

     iteration #  4     ecut=    60.00 Ry     beta= 0.10
     Davidson diagonalization with overlap
     ethr =  3.08E-03,  avg # of iterations =  2.1

     negative rho (up, down):  0.000E+00 3.099E-01

     total cpu time spent up to now is      132.2 secs

     total energy              =   -4131.49589854 Ry
     estimated scf accuracy    <       4.12425731 Ry

     total magnetization       =     9.23 Bohr mag/cell
     absolute magnetization    =    44.72 Bohr mag/cell

     iteration #  5     ecut=    60.00 Ry     beta= 0.10
     Davidson diagonalization with overlap
     ethr =  1.81E-03,  avg # of iterations =  1.5

     negative rho (up, down):  0.000E+00 2.872E-01

     total cpu time spent up to now is      157.4 secs

     total energy              =   -4131.64815410 Ry
     estimated scf accuracy    <       4.17303923 Ry

     total magnetization       =     9.22 Bohr mag/cell
     absolute magnetization    =    44.46 Bohr mag/cell

     iteration #  6     ecut=    60.00 Ry     beta= 0.10
     Davidson diagonalization with overlap
     ethr =  1.81E-03,  avg # of iterations =  1.2

     negative rho (up, down):  0.000E+00 1.783E-03

     total cpu time spent up to now is      182.8 secs

     total energy              =   -4132.57141196 Ry
     estimated scf accuracy    <       5.35272600 Ry

     total magnetization       =     8.21 Bohr mag/cell
     absolute magnetization    =    43.06 Bohr mag/cell

     iteration #  7     ecut=    60.00 Ry     beta= 0.10
     Davidson diagonalization with overlap
     ethr =  1.81E-03,  avg # of iterations =  2.2

     negative rho (up, down):  0.000E+00 1.902E-03

     total cpu time spent up to now is      208.8 secs

     total energy              =   -4133.01592829 Ry
     estimated scf accuracy    <       0.71586011 Ry

     total magnetization       =     7.48 Bohr mag/cell
     absolute magnetization    =    37.72 Bohr mag/cell

     iteration #  8     ecut=    60.00 Ry     beta= 0.10
     Davidson diagonalization with overlap
     ethr =  3.14E-04,  avg # of iterations =  7.3

     total cpu time spent up to now is      241.1 secs

     total energy              =   -4133.61781563 Ry
     estimated scf accuracy    <       5.81214987 Ry

     total magnetization       =     4.02 Bohr mag/cell
     absolute magnetization    =    28.47 Bohr mag/cell

     iteration #  9     ecut=    60.00 Ry     beta= 0.10
     Davidson diagonalization with overlap
     ethr =  3.14E-04,  avg # of iterations =  2.0

     negative rho (up, down):  0.000E+00 3.753E-02

     total cpu time spent up to now is      267.1 secs

     total energy              =   -4132.72220301 Ry
     estimated scf accuracy    <       8.58251611 Ry

     total magnetization       =     3.86 Bohr mag/cell
     absolute magnetization    =    29.08 Bohr mag/cell

     iteration # 10     ecut=    60.00 Ry     beta= 0.10
     Davidson diagonalization with overlap
     ethr =  3.14E-04,  avg # of iterations =  6.7

     negative rho (up, down):  0.000E+00 2.624E-02

     total cpu time spent up to now is      298.9 secs

     total energy              =   -4133.31296413 Ry
     estimated scf accuracy    <       0.69112553 Ry

     total magnetization       =     4.35 Bohr mag/cell
     absolute magnetization    =    25.34 Bohr mag/cell

     iteration # 11     ecut=    60.00 Ry     beta= 0.10
     Davidson diagonalization with overlap
     ethr =  3.03E-04,  avg # of iterations =  1.5

     negative rho (up, down):  0.000E+00 2.248E-02

     total cpu time spent up to now is      324.9 secs

     total energy              =   -4133.38130868 Ry
     estimated scf accuracy    <       0.15698015 Ry

     total magnetization       =     3.63 Bohr mag/cell
     absolute magnetization    =    23.51 Bohr mag/cell

     iteration # 12     ecut=    60.00 Ry     beta= 0.10
     Davidson diagonalization with overlap
     ethr =  6.89E-05,  avg # of iterations =  5.7

     negative rho (up, down):  0.000E+00 8.146E-03

     total cpu time spent up to now is      353.5 secs

     total energy              =   -4133.41582795 Ry
     estimated scf accuracy    <       0.12977304 Ry

     total magnetization       =     3.63 Bohr mag/cell
     absolute magnetization    =    23.04 Bohr mag/cell

     iteration # 13     ecut=    60.00 Ry     beta= 0.10
     Davidson diagonalization with overlap
     ethr =  5.69E-05,  avg # of iterations =  4.9

     total cpu time spent up to now is      381.2 secs

     total energy              =   -4133.45065307 Ry
     estimated scf accuracy    <       0.37705873 Ry

     total magnetization       =     3.60 Bohr mag/cell
     absolute magnetization    =    23.49 Bohr mag/cell

     iteration # 14     ecut=    60.00 Ry     beta= 0.10
     Davidson diagonalization with overlap
     c_bands:  1 eigenvalues not converged
     ethr =  5.69E-05,  avg # of iterations =  7.3

     total cpu time spent up to now is      412.3 secs

     total energy              =   -4133.46150728 Ry
     estimated scf accuracy    <       0.36738648 Ry

     total magnetization       =     3.27 Bohr mag/cell
     absolute magnetization    =    20.50 Bohr mag/cell

     iteration # 15     ecut=    60.00 Ry     beta= 0.10
     Davidson diagonalization with overlap
     ethr =  5.69E-05,  avg # of iterations =  4.5

     total cpu time spent up to now is      440.6 secs

     total energy              =   -4133.48398445 Ry
     estimated scf accuracy    <       0.08870661 Ry

     total magnetization       =     3.75 Bohr mag/cell
     absolute magnetization    =    21.04 Bohr mag/cell

     iteration # 16     ecut=    60.00 Ry     beta= 0.10
     Davidson diagonalization with overlap
     ethr =  3.89E-05,  avg # of iterations =  3.4

     total cpu time spent up to now is      467.5 secs

     total energy              =   -4133.49977929 Ry
     estimated scf accuracy    <       0.03735183 Ry

     total magnetization       =     3.73 Bohr mag/cell
     absolute magnetization    =    21.69 Bohr mag/cell

     iteration # 17     ecut=    60.00 Ry     beta= 0.10
     Davidson diagonalization with overlap
     ethr =  1.64E-05,  avg # of iterations =  6.3

     total cpu time spent up to now is      497.2 secs

     total energy              =   -4133.50647236 Ry
     estimated scf accuracy    <       0.08360977 Ry

     total magnetization       =     3.74 Bohr mag/cell
     absolute magnetization    =    21.17 Bohr mag/cell

     iteration # 18     ecut=    60.00 Ry     beta= 0.10
     Davidson diagonalization with overlap
     c_bands:  1 eigenvalues not converged
     ethr =  1.64E-05,  avg # of iterations =  4.0

     total cpu time spent up to now is      524.2 secs

     total energy              =   -4133.50913685 Ry
     estimated scf accuracy    <       0.05973705 Ry

     total magnetization       =     3.68 Bohr mag/cell
     absolute magnetization    =    19.95 Bohr mag/cell

     iteration # 19     ecut=    60.00 Ry     beta= 0.10
     Davidson diagonalization with overlap
     ethr =  1.64E-05,  avg # of iterations =  2.7

     total cpu time spent up to now is      550.5 secs

     total energy              =   -4133.51748002 Ry
     estimated scf accuracy    <       0.01989501 Ry

     total magnetization       =     3.51 Bohr mag/cell
     absolute magnetization    =    19.59 Bohr mag/cell

     iteration # 20     ecut=    60.00 Ry     beta= 0.10
     Davidson diagonalization with overlap
     ethr =  8.73E-06,  avg # of iterations =  3.9

     total cpu time spent up to now is      578.1 secs

     total energy              =   -4133.51728108 Ry
     estimated scf accuracy    <       0.02379427 Ry

     total magnetization       =     3.49 Bohr mag/cell
     absolute magnetization    =    19.27 Bohr mag/cell

     iteration # 21     ecut=    60.00 Ry     beta= 0.10
     Davidson diagonalization with overlap
     c_bands:  1 eigenvalues not converged
     c_bands:  1 eigenvalues not converged
     ethr =  8.73E-06,  avg # of iterations =  6.9

     total cpu time spent up to now is      608.0 secs

     total energy              =   -4133.52148599 Ry
     estimated scf accuracy    <       0.00733940 Ry

     total magnetization       =     3.54 Bohr mag/cell
     absolute magnetization    =    18.50 Bohr mag/cell

     iteration # 22     ecut=    60.00 Ry     beta= 0.10
     Davidson diagonalization with overlap
     c_bands:  1 eigenvalues not converged
     c_bands:  1 eigenvalues not converged
     ethr =  3.22E-06,  avg # of iterations =  7.8

     total cpu time spent up to now is      638.7 secs

     total energy              =   -4133.52280409 Ry
     estimated scf accuracy    <       0.00327940 Ry

     total magnetization       =     3.50 Bohr mag/cell
     absolute magnetization    =    18.20 Bohr mag/cell

     iteration # 23     ecut=    60.00 Ry     beta= 0.10
     Davidson diagonalization with overlap
     c_bands:  1 eigenvalues not converged
     c_bands:  1 eigenvalues not converged
     ethr =  1.44E-06,  avg # of iterations =  3.8

     total cpu time spent up to now is      665.7 secs

     total energy              =   -4133.52330043 Ry
     estimated scf accuracy    <       0.00580776 Ry

     total magnetization       =     3.51 Bohr mag/cell
     absolute magnetization    =    18.32 Bohr mag/cell

     iteration # 24     ecut=    60.00 Ry     beta= 0.10
     Davidson diagonalization with overlap
     ethr =  1.44E-06,  avg # of iterations =  2.5

     total cpu time spent up to now is      691.3 secs

     total energy              =   -4133.52429453 Ry
     estimated scf accuracy    <       0.00110956 Ry

     total magnetization       =     3.55 Bohr mag/cell
     absolute magnetization    =    18.35 Bohr mag/cell

     iteration # 25     ecut=    60.00 Ry     beta= 0.10
     Davidson diagonalization with overlap
     ethr =  4.87E-07,  avg # of iterations =  4.9

     total cpu time spent up to now is      719.6 secs

     total energy              =   -4133.52459205 Ry
     estimated scf accuracy    <       0.00105220 Ry

     total magnetization       =     3.54 Bohr mag/cell
     absolute magnetization    =    18.29 Bohr mag/cell

     iteration # 26     ecut=    60.00 Ry     beta= 0.10
     Davidson diagonalization with overlap
     c_bands:  1 eigenvalues not converged
     ethr =  4.61E-07,  avg # of iterations =  2.6

     total cpu time spent up to now is      745.4 secs

     total energy              =   -4133.52521535 Ry
     estimated scf accuracy    <       0.00109881 Ry

     total magnetization       =     3.56 Bohr mag/cell
     absolute magnetization    =    18.39 Bohr mag/cell

     iteration # 27     ecut=    60.00 Ry     beta= 0.10
     Davidson diagonalization with overlap
     c_bands:  1 eigenvalues not converged
     c_bands:  1 eigenvalues not converged
     ethr =  4.61E-07,  avg # of iterations =  4.1

     total cpu time spent up to now is      772.7 secs

     total energy              =   -4133.52588893 Ry
     estimated scf accuracy    <       0.00138573 Ry

     total magnetization       =     3.57 Bohr mag/cell
     absolute magnetization    =    18.36 Bohr mag/cell

     iteration # 28     ecut=    60.00 Ry     beta= 0.10
     Davidson diagonalization with overlap
     ethr =  4.61E-07,  avg # of iterations =  3.2

     total cpu time spent up to now is      799.2 secs

     total energy              =   -4133.52618411 Ry
     estimated scf accuracy    <       0.00374359 Ry

     total magnetization       =     3.57 Bohr mag/cell
     absolute magnetization    =    18.27 Bohr mag/cell

     iteration # 29     ecut=    60.00 Ry     beta= 0.10
     Davidson diagonalization with overlap
     ethr =  4.61E-07,  avg # of iterations =  1.0

     total cpu time spent up to now is      823.8 secs

     total energy              =   -4133.52654099 Ry
     estimated scf accuracy    <       0.00362364 Ry

     total magnetization       =     3.57 Bohr mag/cell
     absolute magnetization    =    18.29 Bohr mag/cell

     iteration # 30     ecut=    60.00 Ry     beta= 0.10
     Davidson diagonalization with overlap
     ethr =  4.61E-07,  avg # of iterations =  1.0

     total cpu time spent up to now is      848.2 secs

     total energy              =   -4133.52645275 Ry
     estimated scf accuracy    <       0.00325428 Ry

     total magnetization       =     3.57 Bohr mag/cell
     absolute magnetization    =    18.24 Bohr mag/cell

     iteration # 31     ecut=    60.00 Ry     beta= 0.10
     Davidson diagonalization with overlap
     ethr =  4.61E-07,  avg # of iterations =  1.8

     total cpu time spent up to now is      873.5 secs

     total energy              =   -4133.52696130 Ry
     estimated scf accuracy    <       0.00115601 Ry

     total magnetization       =     3.56 Bohr mag/cell
     absolute magnetization    =    18.25 Bohr mag/cell

     iteration # 32     ecut=    60.00 Ry     beta= 0.10
     Davidson diagonalization with overlap
     ethr =  4.61E-07,  avg # of iterations =  3.6

     total cpu time spent up to now is      900.3 secs

     total energy              =   -4133.52727671 Ry
     estimated scf accuracy    <       0.00179868 Ry

     total magnetization       =     3.57 Bohr mag/cell
     absolute magnetization    =    18.10 Bohr mag/cell

     iteration # 33     ecut=    60.00 Ry     beta= 0.10
     Davidson diagonalization with overlap
     ethr =  4.61E-07,  avg # of iterations =  1.0

     total cpu time spent up to now is      925.1 secs

     total energy              =   -4133.52757686 Ry
     estimated scf accuracy    <       0.00170839 Ry

     total magnetization       =     3.58 Bohr mag/cell
     absolute magnetization    =    18.09 Bohr mag/cell

     iteration # 34     ecut=    60.00 Ry     beta= 0.10
     Davidson diagonalization with overlap
     ethr =  4.61E-07,  avg # of iterations =  3.0

     total cpu time spent up to now is      952.1 secs

     total energy              =   -4133.52784942 Ry
     estimated scf accuracy    <       0.00080621 Ry

     total magnetization       =     3.60 Bohr mag/cell
     absolute magnetization    =    17.98 Bohr mag/cell

     iteration # 35     ecut=    60.00 Ry     beta= 0.10
     Davidson diagonalization with overlap
     ethr =  3.54E-07,  avg # of iterations =  1.9

     total cpu time spent up to now is      977.3 secs

     total energy              =   -4133.52819785 Ry
     estimated scf accuracy    <       0.00103114 Ry

     total magnetization       =     3.61 Bohr mag/cell
     absolute magnetization    =    17.95 Bohr mag/cell

     iteration # 36     ecut=    60.00 Ry     beta= 0.10
     Davidson diagonalization with overlap
     ethr =  3.54E-07,  avg # of iterations =  5.2

     total cpu time spent up to now is     1005.7 secs

     total energy              =   -4133.52869849 Ry
     estimated scf accuracy    <       0.00156152 Ry

     total magnetization       =     3.61 Bohr mag/cell
     absolute magnetization    =    17.63 Bohr mag/cell

     iteration # 37     ecut=    60.00 Ry     beta= 0.10
     Davidson diagonalization with overlap
     ethr =  3.54E-07,  avg # of iterations =  3.5

     total cpu time spent up to now is     1033.0 secs

     total energy              =   -4133.52907867 Ry
     estimated scf accuracy    <       0.00055001 Ry

     total magnetization       =     3.60 Bohr mag/cell
     absolute magnetization    =    17.49 Bohr mag/cell

     iteration # 38     ecut=    60.00 Ry     beta= 0.10
     Davidson diagonalization with overlap
     ethr =  2.41E-07,  avg # of iterations =  4.9

     total cpu time spent up to now is     1062.1 secs

     total energy              =   -4133.52870853 Ry
     estimated scf accuracy    <       0.00084723 Ry

     total magnetization       =     3.61 Bohr mag/cell
     absolute magnetization    =    17.31 Bohr mag/cell

     iteration # 39     ecut=    60.00 Ry     beta= 0.10
     Davidson diagonalization with overlap
     ethr =  2.41E-07,  avg # of iterations =  5.0

     total cpu time spent up to now is     1090.3 secs

     total energy              =   -4133.52918747 Ry
     estimated scf accuracy    <       0.00178712 Ry

     total magnetization       =     3.56 Bohr mag/cell
     absolute magnetization    =    17.35 Bohr mag/cell

     iteration # 40     ecut=    60.00 Ry     beta= 0.10
     Davidson diagonalization with overlap
     ethr =  2.41E-07,  avg # of iterations =  5.0

     total cpu time spent up to now is     1119.2 secs

     total energy              =   -4133.52959824 Ry
     estimated scf accuracy    <       0.00118796 Ry

     total magnetization       =     3.60 Bohr mag/cell
     absolute magnetization    =    17.21 Bohr mag/cell

     iteration # 41     ecut=    60.00 Ry     beta= 0.10
     Davidson diagonalization with overlap
     ethr =  2.41E-07,  avg # of iterations =  5.2

     total cpu time spent up to now is     1147.3 secs

     total energy              =   -4133.52830718 Ry
     estimated scf accuracy    <       0.00127566 Ry

     total magnetization       =     3.60 Bohr mag/cell
     absolute magnetization    =    17.00 Bohr mag/cell

     iteration # 42     ecut=    60.00 Ry     beta= 0.10
     Davidson diagonalization with overlap
     ethr =  2.41E-07,  avg # of iterations =  5.2

     total cpu time spent up to now is     1176.4 secs

     total energy              =   -4133.52849738 Ry
     estimated scf accuracy    <       0.00095367 Ry

     total magnetization       =     3.59 Bohr mag/cell
     absolute magnetization    =    17.48 Bohr mag/cell

     iteration # 43     ecut=    60.00 Ry     beta= 0.10
     Davidson diagonalization with overlap
     ethr =  2.41E-07,  avg # of iterations =  3.2

     total cpu time spent up to now is     1202.8 secs

     total energy              =   -4133.52882473 Ry
     estimated scf accuracy    <       0.00162203 Ry

     total magnetization       =     3.57 Bohr mag/cell
     absolute magnetization    =    17.63 Bohr mag/cell

     iteration # 44     ecut=    60.00 Ry     beta= 0.10
     Davidson diagonalization with overlap
     ethr =  2.41E-07,  avg # of iterations =  5.6

     total cpu time spent up to now is     1232.7 secs

     total energy              =   -4133.52672012 Ry
     estimated scf accuracy    <       0.00041852 Ry

     total magnetization       =     3.59 Bohr mag/cell
     absolute magnetization    =    17.07 Bohr mag/cell

     iteration # 45     ecut=    60.00 Ry     beta= 0.10
     Davidson diagonalization with overlap
     c_bands:  1 eigenvalues not converged
     ethr =  1.84E-07,  avg # of iterations =  9.2

     total cpu time spent up to now is     1268.7 secs

     total energy              =   -4133.53087067 Ry
     estimated scf accuracy    <       0.00013236 Ry

     total magnetization       =     3.62 Bohr mag/cell
     absolute magnetization    =    15.71 Bohr mag/cell

     iteration # 46     ecut=    60.00 Ry     beta= 0.10
     Davidson diagonalization with overlap
     ethr =  5.81E-08,  avg # of iterations =  4.0

     total cpu time spent up to now is     1295.2 secs

     total energy              =   -4133.53062025 Ry
     estimated scf accuracy    <       0.00007828 Ry

     total magnetization       =     3.63 Bohr mag/cell
     absolute magnetization    =    15.67 Bohr mag/cell

     iteration # 47     ecut=    60.00 Ry     beta= 0.10
     Davidson diagonalization with overlap
     ethr =  3.43E-08,  avg # of iterations =  7.4

     total cpu time spent up to now is     1327.8 secs

     total energy              =   -4133.53093497 Ry
     estimated scf accuracy    <       0.00002186 Ry

     total magnetization       =     3.65 Bohr mag/cell
     absolute magnetization    =    15.28 Bohr mag/cell

     iteration # 48     ecut=    60.00 Ry     beta= 0.10
     Davidson diagonalization with overlap
     c_bands:  1 eigenvalues not converged
     ethr =  9.59E-09,  avg # of iterations =  6.5

     total cpu time spent up to now is     1359.4 secs

     total energy              =   -4133.52971730 Ry
     estimated scf accuracy    <       0.00007028 Ry

     total magnetization       =     3.64 Bohr mag/cell
     absolute magnetization    =    15.42 Bohr mag/cell

     iteration # 49     ecut=    60.00 Ry     beta= 0.10
     Davidson diagonalization with overlap
     c_bands:  1 eigenvalues not converged
     ethr =  9.59E-09,  avg # of iterations = 11.3

     total cpu time spent up to now is     1398.7 secs

     total energy              =   -4133.53105934 Ry
     estimated scf accuracy    <       0.00048744 Ry

     total magnetization       =     3.67 Bohr mag/cell
     absolute magnetization    =    14.71 Bohr mag/cell

     iteration # 50     ecut=    60.00 Ry     beta= 0.10
     Davidson diagonalization with overlap
     ethr =  9.59E-09,  avg # of iterations =  6.3

     total cpu time spent up to now is     1430.9 secs

     total energy              =   -4133.53108296 Ry
     estimated scf accuracy    <       0.00005410 Ry

     total magnetization       =     3.67 Bohr mag/cell
     absolute magnetization    =    14.76 Bohr mag/cell

     iteration # 51     ecut=    60.00 Ry     beta= 0.10
     Davidson diagonalization with overlap
     ethr =  9.59E-09,  avg # of iterations =  5.2

     total cpu time spent up to now is     1460.2 secs

     total energy              =   -4133.53110646 Ry
     estimated scf accuracy    <       0.00003943 Ry

     total magnetization       =     3.67 Bohr mag/cell
     absolute magnetization    =    14.69 Bohr mag/cell

     iteration # 52     ecut=    60.00 Ry     beta= 0.10
     Davidson diagonalization with overlap
     ethr =  9.59E-09,  avg # of iterations =  3.0
 
     Magnetic moment per site  (integrated on atomic sphere of radius R)
     atom   1 (R=0.179)  charge= 12.2020  magn=  0.8453
     atom   2 (R=0.179)  charge= 14.5123  magn=  0.9935
     atom   3 (R=0.179)  charge= 12.2018  magn=  0.8448
     atom   4 (R=0.179)  charge= 12.2201  magn= -0.8438
     atom   5 (R=0.179)  charge= 12.2018  magn=  0.8448
     atom   6 (R=0.179)  charge= 12.2201  magn= -0.8438
     atom   7 (R=0.179)  charge= 12.2009  magn=  0.8432
     atom   8 (R=0.179)  charge= 12.2201  magn= -0.8438
     atom   9 (R=0.179)  charge= 12.2018  magn=  0.8448
     atom  10 (R=0.179)  charge= 12.2201  magn= -0.8438
     atom  11 (R=0.179)  charge= 12.2009  magn=  0.8432
     atom  12 (R=0.179)  charge= 12.2201  magn= -0.8438
     atom  13 (R=0.179)  charge= 12.2009  magn=  0.8432
     atom  14 (R=0.179)  charge= 12.2201  magn= -0.8438
     atom  15 (R=0.179)  charge= 12.2017  magn=  0.8464
     atom  16 (R=0.179)  charge= 14.5123  magn=  0.9935

     total cpu time spent up to now is     1486.2 secs

     End of self-consistent calculation

 ------ SPIN UP ------------


          k = 0.0000 0.0000 0.0000 (  9771 PWs)   bands (ev):

   -68.1430 -68.1429 -52.7521 -52.7132 -52.7122 -52.7122 -52.6961 -52.6951
   -52.6951 -52.6792 -51.7821 -51.7821 -51.7645 -51.7644 -51.7644 -51.7562
   -34.2031 -34.2031 -34.2030 -34.1988 -34.1988 -34.1987 -24.3189 -24.3189
   -24.3184 -24.2342 -24.2340 -24.2340 -24.1560 -24.1475 -24.1475 -24.1183
   -24.1182 -24.1182 -24.0436 -24.0430 -24.0430 -23.9725 -23.9720 -23.9720
   -23.9683 -23.9683 -23.9678 -23.9583 -23.9518 -23.9518 -23.2259 -23.2259
   -23.2258 -23.1450 -23.1450 -23.1450 -23.0533 -23.0531 -23.0531 -23.0363
   -23.0363 -23.0363 -23.0214 -23.0214 -23.0214 -22.9807 -22.9807 -22.9806
    11.3869  14.7176  14.7894  14.7894  14.9682  14.9682  14.9683  15.0228
    15.0228  15.1531  15.2569  15.2570  15.2570  15.4243  15.4243  16.7136
    16.7137  16.7137  16.7785  16.7786  16.7786  16.9490  16.9490  16.9493
    17.0567  17.0567  17.0567  17.2161  17.2161  17.3485  17.3485  17.3489
    17.9310  18.3314  18.3314  18.3315  18.6294  18.6294  18.6295  18.6383
    18.6383  18.6389  18.6701  18.6705  18.6705  19.0524  19.0524  19.4847
    19.4847  19.4847  19.6732  19.6732  19.8172  20.2558  20.2558  20.2560
    20.2696  20.2697  20.2697  20.3743  20.3743  20.3744  20.5354  20.5787
    20.5787  20.5792  20.5918  20.5918  20.5922  20.6531  20.6532  20.6823
    20.6825

          k = 0.0000 0.0000 0.1667 (  9767 PWs)   bands (ev):

   -68.1430 -68.1429 -52.7495 -52.7153 -52.7117 -52.7111 -52.6969 -52.6962
   -52.6942 -52.6803 -51.7809 -51.7808 -51.7656 -51.7656 -51.7638 -51.7568
   -34.2028 -34.2028 -34.2027 -34.1991 -34.1991 -34.1990 -24.3075 -24.3033
   -24.3031 -24.2292 -24.2222 -24.2220 -24.1592 -24.1585 -24.1441 -24.1302
   -24.1302 -24.1079 -24.0508 -24.0393 -24.0389 -23.9946 -23.9940 -23.9766
   -23.9765 -23.9711 -23.9671 -23.9661 -23.9561 -23.9528 -23.2102 -23.2076
   -23.2076 -23.1365 -23.1351 -23.1351 -23.0507 -23.0492 -23.0491 -23.0444
   -23.0410 -23.0410 -23.0321 -23.0321 -23.0231 -22.9958 -22.9867 -22.9866
    11.5389  14.4819  14.7910  14.8489  14.8877  15.0188  15.0189  15.0928
    15.0994  15.1113  15.2995  15.3091  15.3092  15.4368  15.7418  16.6229
    16.7077  16.7078  16.7200  16.7304  16.7305  16.7921  16.9015  16.9855
    16.9857  17.0359  17.1293  17.1989  17.1990  17.3588  17.3590  17.5638
    18.0981  18.3210  18.3211  18.3577  18.3658  18.3661  18.3821  18.5261
    18.5263  18.7984  18.8707  18.8763  18.8774  18.9628  18.9629  19.0216
    19.4524  19.5220  19.5223  19.6409  19.6409  19.8634  19.8636  19.9304
    20.0033  20.0184  20.2722  20.2920  20.2988  20.2991  20.4886  20.5828
    20.5828  20.5832  20.5866  20.5959  20.6187  20.6500  20.6698  20.6838
    20.7471

          k = 0.0000 0.0000 0.3333 (  9778 PWs)   bands (ev):

   -68.1430 -68.1429 -52.7424 -52.7226 -52.7086 -52.7080 -52.7000 -52.6993
   -52.6914 -52.6833 -51.7776 -51.7775 -51.7688 -51.7687 -51.7623 -51.7582
   -34.2020 -34.2020 -34.2019 -34.2000 -34.1999 -34.1997 -24.2765 -24.2624
   -24.2622 -24.2154 -24.1911 -24.1866 -24.1863 -24.1744 -24.1633 -24.1633
   -24.1255 -24.0777 -24.0714 -24.0559 -24.0553 -24.0275 -24.0272 -23.9956
   -23.9918 -23.9916 -23.9681 -23.9640 -23.9598 -23.9558 -23.1675 -23.1627
   -23.1627 -23.1129 -23.1099 -23.1099 -23.0689 -23.0632 -23.0631 -23.0558
   -23.0558 -23.0446 -23.0378 -23.0377 -23.0351 -23.0288 -23.0021 -23.0020
    11.9827  13.5553  14.9685  15.0124  15.1531  15.1531  15.1780  15.3243
    15.3252  15.3608  15.3750  15.3750  15.3968  15.4441  15.7725  16.1646
    16.2290  16.4882  16.6628  16.6628  16.7209  16.7209  17.0222  17.1203
    17.1580  17.1583  17.2913  17.3187  17.3190  17.6631  17.6632  17.6955
    17.8595  18.0128  18.0132  18.1419  18.2406  18.2913  18.2914  18.4158
    18.4159  18.4836  18.5324  18.5715  18.5719  18.8750  19.0515  19.0943
    19.1074  19.1077  19.2682  19.3559  19.3709  19.3710  19.8044  20.0153
    20.0154  20.0979  20.0982  20.2910  20.2979  20.3139  20.4199  20.5506
    20.6067  20.6354  20.7210  20.7265  20.8413  20.9620  20.9911  20.9911
    21.0157

          k = 0.0000 0.0000-0.5000 (  9794 PWs)   bands (ev):

   -68.1430 -68.1430 -52.7326 -52.7325 -52.7052 -52.7047 -52.7034 -52.7027
   -52.6874 -52.6873 -51.7732 -51.7732 -51.7730 -51.7730 -51.7603 -51.7603
   -34.2010 -34.2010 -34.2009 -34.2009 -34.2008 -34.2008 -24.2343 -24.2340
   -24.2105 -24.2104 -24.2101 -24.2101 -24.1958 -24.1954 -24.1284 -24.1284
   -24.1276 -24.1267 -24.0989 -24.0985 -24.0367 -24.0362 -24.0105 -24.0104
   -24.0103 -24.0096 -23.9645 -23.9640 -23.9603 -23.9600 -23.1127 -23.1127
   -23.1096 -23.1095 -23.1095 -23.1094 -23.0802 -23.0802 -23.0802 -23.0801
   -23.0790 -23.0790 -23.0369 -23.0368 -23.0210 -23.0210 -23.0210 -23.0209
    12.6794  12.6795  15.1874  15.1874  15.2286  15.2287  15.3094  15.3094
    15.3095  15.3096  15.5369  15.5372  15.6873  15.6874  15.7526  15.7528
    15.9502  15.9502  16.6807  16.6807  16.6808  16.6809  17.3882  17.3883
    17.4592  17.4594  17.4599  17.4603  17.4811  17.4812  17.7007  17.7008
    17.7845  17.7847  17.7852  17.7858  18.1746  18.1747  18.2223  18.2224
    18.2226  18.2228  18.4924  18.4927  18.4930  18.4934  18.7748  18.7749
    18.7764  18.7764  19.6121  19.6121  19.7803  19.7803  19.7805  19.7808
    19.8655  19.8656  20.3515  20.3517  20.4257  20.4258  20.4951  20.4951
    20.4952  20.4953  20.6217  20.6220  20.8849  20.8850  20.9504  20.9506
    21.0003

          k = 0.0000 0.1667 0.1667 (  9783 PWs)   bands (ev):

   -68.1430 -68.1429 -52.7470 -52.7142 -52.7138 -52.7102 -52.6979 -52.6957
   -52.6951 -52.6814 -51.7798 -51.7797 -51.7666 -51.7655 -51.7644 -51.7573
   -34.2031 -34.2025 -34.2020 -34.1998 -34.1994 -34.1988 -24.2997 -24.2882
   -24.2881 -24.2197 -24.2152 -24.2111 -24.1677 -24.1557 -24.1553 -24.1335
   -24.1293 -24.1087 -24.0542 -24.0391 -24.0351 -24.0044 -24.0001 -23.9942
   -23.9808 -23.9754 -23.9733 -23.9693 -23.9647 -23.9558 -23.2016 -23.1936
   -23.1922 -23.1278 -23.1264 -23.1263 -23.0578 -23.0536 -23.0514 -23.0457
   -23.0452 -23.0414 -23.0403 -23.0305 -23.0216 -23.0178 -22.9917 -22.9841
    11.6885  14.4799  14.6435  14.8219  14.9267  14.9585  15.0859  15.1427
    15.1444  15.1875  15.1952  15.3741  15.4181  15.7535  15.7934  16.5004
    16.6151  16.7013  16.7039  16.7611  16.7815  16.7985  16.8221  16.9827
    16.9924  17.0255  17.1205  17.1888  17.2522  17.2715  17.2798  17.7877
    17.9950  18.0987  18.2265  18.2927  18.3454  18.3583  18.5121  18.5419
    18.5957  18.6382  18.6453  18.8453  18.8643  19.0003  19.0555  19.1155
    19.2280  19.2622  19.3295  19.4172  19.5402  19.6578  19.7208  19.7414
    19.8886  20.1322  20.1455  20.2016  20.2519  20.2968  20.4868  20.5251
    20.5647  20.6446  20.6601  20.6714  20.6934  20.7702  20.7990  20.8495
    20.8713

          k = 0.0000 0.1667 0.3333 (  9771 PWs)   bands (ev):

   -68.1430 -68.1429 -52.7402 -52.7211 -52.7106 -52.7072 -52.7011 -52.6985
   -52.6925 -52.6844 -51.7769 -51.7766 -51.7693 -51.7682 -51.7632 -51.7589
   -34.2027 -34.2019 -34.2009 -34.2008 -34.2000 -34.1990 -24.2725 -24.2553
   -24.2484 -24.2059 -24.1935 -24.1835 -24.1800 -24.1780 -24.1640 -24.1552
   -24.1258 -24.0825 -24.0718 -24.0563 -24.0508 -24.0302 -24.0245 -24.0043
   -23.9975 -23.9904 -23.9803 -23.9705 -23.9701 -23.9598 -23.1729 -23.1596
   -23.1538 -23.1102 -23.1044 -23.1005 -23.0887 -23.0770 -23.0681 -23.0579
   -23.0577 -23.0423 -23.0414 -23.0361 -23.0276 -23.0211 -23.0053 -22.9940
    12.1242  13.6558  14.7254  14.8506  15.1029  15.2380  15.2770  15.2777
    15.4131  15.4426  15.4468  15.4726  15.4937  15.7315  15.8382  16.2040
    16.2353  16.4386  16.6906  16.7650  16.7828  16.7881  16.8562  16.9984
    17.0958  17.1787  17.2125  17.2606  17.3960  17.4318  17.5152  17.7840
    17.8536  17.9727  18.0520  18.0983  18.1395  18.1726  18.1997  18.2109
    18.3457  18.4196  18.4441  18.7006  18.7344  18.7874  18.8496  18.8695
    19.1351  19.1745  19.2140  19.2452  19.3681  19.5022  19.5946  19.9445
    19.9641  19.9746  19.9792  20.3110  20.3493  20.4018  20.4288  20.5551
    20.5761  20.6316  20.6672  20.6820  20.7588  20.7799  20.7958  20.8686
    20.9434

          k = 0.0000 0.1667-0.5000 (  9786 PWs)   bands (ev):

   -68.1430 -68.1430 -52.7308 -52.7307 -52.7063 -52.7060 -52.7028 -52.7024
   -52.6885 -52.6884 -51.7731 -51.7731 -51.7724 -51.7724 -51.7611 -51.7611
   -34.2019 -34.2019 -34.2010 -34.2009 -34.1999 -34.1998 -24.2329 -24.2326
   -24.2182 -24.2176 -24.1991 -24.1987 -24.1861 -24.1859 -24.1262 -24.1259
   -24.1235 -24.1229 -24.0938 -24.0931 -24.0408 -24.0404 -24.0169 -24.0166
   -24.0078 -24.0074 -23.9759 -23.9755 -23.9652 -23.9648 -23.1310 -23.1309
   -23.1154 -23.1154 -23.1082 -23.1081 -23.0893 -23.0893 -23.0786 -23.0786
   -23.0689 -23.0688 -23.0271 -23.0271 -23.0218 -23.0217 -23.0121 -23.0120
    12.8056  12.8057  14.8363  14.8364  15.3147  15.3147  15.4295  15.4296
    15.5196  15.5198  15.6187  15.6188  15.7551  15.7553  15.8133  15.8134
    15.9879  15.9880  16.7125  16.7126  16.7422  16.7423  17.1759  17.1760
    17.2757  17.2757  17.4180  17.4181  17.4493  17.4494  17.6824  17.6825
    17.7846  17.7848  17.8196  17.8197  18.0868  18.0868  18.1477  18.1478
    18.2147  18.2147  18.2315  18.2315  18.3742  18.3742  18.8885  18.8887
    19.0032  19.0034  19.4669  19.4671  19.6503  19.6504  19.6749  19.6751
    19.9695  19.9697  20.2323  20.2324  20.3827  20.3828  20.4514  20.4515
    20.4540  20.4542  20.6554  20.6556  20.8007  20.8008  20.9504  20.9505
    20.9563

          k = 0.0000 0.3333 0.3333 (  9751 PWs)   bands (ev):

   -68.1430 -68.1429 -52.7341 -52.7182 -52.7156 -52.7058 -52.7035 -52.6959
   -52.6952 -52.6874 -51.7753 -51.7740 -51.7709 -51.7677 -51.7646 -51.7607
   -34.2029 -34.2018 -34.2015 -34.2004 -34.1998 -34.1987 -24.2547 -24.2422
   -24.2126 -24.2079 -24.1947 -24.1940 -24.1803 -24.1530 -24.1483 -24.1473
   -24.1154 -24.0816 -24.0777 -24.0697 -24.0460 -24.0358 -24.0340 -24.0179
   -24.0074 -24.0032 -24.0018 -23.9889 -23.9764 -23.9654 -23.1659 -23.1548
   -23.1317 -23.1147 -23.1104 -23.1077 -23.0965 -23.0908 -23.0828 -23.0720
   -23.0639 -23.0320 -23.0312 -23.0231 -23.0162 -23.0159 -23.0135 -22.9920
    12.5337  13.8507  14.0272  14.6165  15.3554  15.4341  15.4714  15.5852
    15.6053  15.6142  15.6392  15.6779  15.6899  15.7720  15.9332  16.1703
    16.2890  16.3680  16.5383  16.7717  16.8480  16.8489  16.9441  16.9452
    16.9548  17.0283  17.1654  17.2348  17.3103  17.3420  17.5292  17.6014
    17.7006  17.8126  17.8637  17.9325  17.9522  17.9762  18.0431  18.0651
    18.1379  18.2255  18.3175  18.3591  18.5153  18.5918  18.9041  18.9799
    19.0418  19.1443  19.1452  19.3450  19.3739  19.4362  19.7075  19.7409
    19.7577  19.9909  20.1330  20.3277  20.3277  20.3507  20.4333  20.4408
    20.5404  20.5426  20.5804  20.5818  20.6063  20.6542  20.7691  20.8035
    20.8269

          k = 0.0000 0.3333-0.5000 (  9776 PWs)   bands (ev):

   -68.1430 -68.1430 -52.7258 -52.7256 -52.7111 -52.7109 -52.6999 -52.6996
   -52.6915 -52.6914 -51.7730 -51.7730 -51.7704 -51.7704 -51.7630 -51.7630
   -34.2026 -34.2026 -34.2010 -34.2010 -34.1990 -34.1989 -24.2273 -24.2269
   -24.2237 -24.2235 -24.1881 -24.1878 -24.1717 -24.1713 -24.1123 -24.1118
   -24.1059 -24.1057 -24.0843 -24.0837 -24.0486 -24.0482 -24.0357 -24.0355
   -24.0126 -24.0124 -23.9993 -23.9989 -23.9725 -23.9720 -23.1416 -23.1415
   -23.1361 -23.1361 -23.1149 -23.1149 -23.1055 -23.1055 -23.0755 -23.0754
   -23.0445 -23.0445 -23.0233 -23.0233 -23.0134 -23.0134 -23.0025 -23.0024
    13.1626  13.1627  14.3006  14.3006  15.5410  15.5411  15.6611  15.6613
    15.7391  15.7393  15.8066  15.8067  15.8651  15.8652  16.0279  16.0280
    16.0792  16.0793  16.7218  16.7219  16.8566  16.8566  16.8819  16.8822
    17.0943  17.0945  17.0962  17.0963  17.3866  17.3868  17.4426  17.4427
    17.6282  17.6285  17.7711  17.7713  17.8425  17.8426  18.0683  18.0684
    18.1603  18.1606  18.1925  18.1926  18.2034  18.2034  19.0641  19.0644
    19.2429  19.2431  19.2712  19.2715  19.3262  19.3265  19.5569  19.5571
    20.0538  20.0540  20.2000  20.2001  20.2409  20.2410  20.4227  20.4229
    20.4720  20.4721  20.6294  20.6297  20.7085  20.7085  20.7208  20.7210
    20.8175

          k = 0.0000-0.5000-0.5000 (  9748 PWs)   bands (ev):

   -68.1429 -68.1429 -52.7208 -52.7202 -52.7165 -52.7159 -52.6961 -52.6958
   -52.6953 -52.6953 -51.7730 -51.7730 -51.7688 -51.7688 -51.7646 -51.7646
   -34.2028 -34.2028 -34.2009 -34.2009 -34.1987 -34.1986 -24.2288 -24.2282
   -24.2164 -24.2158 -24.1977 -24.1971 -24.1544 -24.1538 -24.1026 -24.1019
   -24.0888 -24.0881 -24.0690 -24.0681 -24.0611 -24.0604 -24.0466 -24.0458
   -24.0430 -24.0423 -23.9959 -23.9953 -23.9774 -23.9767 -23.1453 -23.1453
   -23.1359 -23.1358 -23.1348 -23.1348 -23.1043 -23.1042 -23.0738 -23.0737
   -23.0322 -23.0321 -23.0240 -23.0240 -23.0110 -23.0110 -22.9983 -22.9982
    13.6116  13.6117  13.7875  13.7877  15.6115  15.6118  15.8239  15.8243
    15.8835  15.8838  15.9492  15.9495  15.9717  15.9717  16.1399  16.1399
    16.2059  16.2061  16.5771  16.5773  16.7887  16.7889  16.8242  16.8245
    16.8769  16.8773  17.1141  17.1144  17.2785  17.2785  17.4053  17.4056
    17.4846  17.4850  17.5935  17.5939  17.6704  17.6708  18.0130  18.0131
    18.1134  18.1136  18.1225  18.1230  18.5554  18.5558  18.8668  18.8673
    19.1357  19.1360  19.2221  19.2225  19.4589  19.4594  19.5204  19.5206
    19.9432  19.9434  20.3298  20.3300  20.3874  20.3876  20.3948  20.3952
    20.3972  20.3975  20.5261  20.5263  20.5910  20.5915  20.6544  20.6546
    20.7565

          k = 0.1667 0.1667 0.1667 (  9765 PWs)   bands (ev):

   -68.1430 -68.1429 -52.7446 -52.7130 -52.7130 -52.7124 -52.6972 -52.6964
   -52.6964 -52.6825 -51.7788 -51.7788 -51.7669 -51.7655 -51.7655 -51.7579
   -34.2027 -34.2027 -34.2014 -34.2003 -34.1991 -34.1991 -24.2905 -24.2749
   -24.2749 -24.2074 -24.2065 -24.2065 -24.1654 -24.1654 -24.1640 -24.1302
   -24.1200 -24.1200 -24.0500 -24.0500 -24.0287 -24.0071 -24.0071 -23.9978
   -23.9867 -23.9867 -23.9864 -23.9715 -23.9667 -23.9667 -23.1873 -23.1873
   -23.1814 -23.1215 -23.1215 -23.1139 -23.0700 -23.0700 -23.0564 -23.0440
   -23.0356 -23.0356 -23.0348 -23.0348 -23.0342 -23.0282 -22.9902 -22.9902
    11.8359  14.4989  14.7195  14.7195  14.9016  14.9776  14.9776  15.1888
    15.1888  15.2254  15.2871  15.2871  15.8265  15.8265  15.8355  16.4063
    16.6287  16.6287  16.7470  16.7470  16.7942  16.7942  16.8702  16.8949
    17.0139  17.1066  17.1078  17.1078  17.1333  17.1333  17.6362  17.6362
    17.8687  17.9967  18.1930  18.1930  18.2847  18.2847  18.5174  18.5174
    18.6016  18.6016  18.6089  18.7302  18.7785  18.7785  19.0104  19.0662
    19.2159  19.2789  19.2789  19.3104  19.3104  19.4346  19.4346  19.8092
    20.0492  20.1841  20.1841  20.2423  20.2423  20.2758  20.5235  20.5235
    20.6026  20.6026  20.6542  20.6542  20.6578  20.6949  20.7964  20.7964
    20.8955

          k = 0.1667 0.1667 0.3333 (  9771 PWs)   bands (ev):

   -68.1430 -68.1429 -52.7380 -52.7196 -52.7095 -52.7093 -52.7002 -52.6998
   -52.6937 -52.6855 -51.7761 -51.7759 -51.7692 -51.7683 -51.7640 -51.7596
   -34.2027 -34.2020 -34.2012 -34.2004 -34.1999 -34.1991 -24.2647 -24.2440
   -24.2408 -24.1945 -24.1921 -24.1858 -24.1795 -24.1689 -24.1658 -24.1519
   -24.1225 -24.0893 -24.0702 -24.0520 -24.0513 -24.0380 -24.0199 -24.0042
   -24.0021 -24.0002 -23.9867 -23.9854 -23.9737 -23.9724 -23.1667 -23.1542
   -23.1523 -23.1072 -23.1032 -23.0992 -23.0893 -23.0892 -23.0753 -23.0568
   -23.0540 -23.0509 -23.0441 -23.0244 -23.0234 -23.0232 -23.0064 -22.9954
    12.2647  13.7598  14.7712  14.8880  14.9441  15.0157  15.2796  15.3521
    15.4059  15.5030  15.5133  15.5736  15.7949  15.8741  15.9160  16.2349
    16.2488  16.4744  16.7016  16.7154  16.7856  16.8527  16.8816  16.9641
    16.9945  17.1131  17.2143  17.2805  17.3393  17.3493  17.4691  17.6875
    17.7864  17.8846  17.9840  18.0193  18.0291  18.0946  18.1050  18.2148
    18.2194  18.2849  18.2936  18.5199  18.6362  18.6896  18.8397  18.9474
    18.9652  19.0897  19.1547  19.3669  19.4421  19.4885  19.6189  19.8091
    20.0263  20.0304  20.0779  20.2669  20.3939  20.4427  20.4490  20.4619
    20.5248  20.5702  20.6385  20.6893  20.7053  20.7355  20.8441  20.8623
    20.8926

          k = 0.1667 0.1667-0.5000 (  9786 PWs)   bands (ev):

   -68.1430 -68.1430 -52.7290 -52.7288 -52.7057 -52.7056 -52.7038 -52.7037
   -52.6897 -52.6895 -51.7726 -51.7726 -51.7721 -51.7721 -51.7618 -51.7618
   -34.2022 -34.2021 -34.2010 -34.2010 -34.1996 -34.1995 -24.2287 -24.2285
   -24.2131 -24.2124 -24.1962 -24.1958 -24.1784 -24.1781 -24.1304 -24.1292
   -24.1136 -24.1119 -24.0915 -24.0904 -24.0453 -24.0449 -24.0213 -24.0202
   -24.0101 -24.0099 -23.9802 -23.9799 -23.9797 -23.9792 -23.1338 -23.1338
   -23.1174 -23.1174 -23.1140 -23.1138 -23.0873 -23.0873 -23.0780 -23.0779
   -23.0632 -23.0631 -23.0328 -23.0328 -23.0181 -23.0180 -23.0082 -23.0081
    12.9326  12.9327  14.9138  14.9139  15.0081  15.0082  15.5926  15.5929
    15.6467  15.6468  15.7142  15.7143  15.8404  15.8406  15.8621  15.8622
    16.0312  16.0313  16.7357  16.7359  16.7947  16.7947  17.0902  17.0906
    17.2312  17.2315  17.3003  17.3011  17.4083  17.4091  17.6060  17.6061
    17.6901  17.6905  17.8083  17.8087  18.0226  18.0228  18.0359  18.0361
    18.0834  18.0837  18.1435  18.1437  18.2023  18.2026  18.9767  18.9772
    19.1554  19.1558  19.3463  19.3465  19.4410  19.4412  19.7669  19.7672
    20.0510  20.0512  20.0891  20.0895  20.4155  20.4161  20.4646  20.4648
    20.4697  20.4701  20.6813  20.6817  20.7569  20.7574  20.8754  20.8759
    20.9226

          k = 0.1667 0.3333 0.3333 (  9765 PWs)   bands (ev):

   -68.1430 -68.1429 -52.7322 -52.7167 -52.7144 -52.7064 -52.7038 -52.6972
   -52.6968 -52.6886 -51.7745 -51.7736 -51.7705 -51.7678 -51.7653 -51.7613
   -34.2026 -34.2019 -34.2016 -34.2002 -34.1996 -34.1990 -24.2440 -24.2279
   -24.2102 -24.2001 -24.1879 -24.1797 -24.1785 -24.1600 -24.1441 -24.1419
   -24.1114 -24.0920 -24.0734 -24.0642 -24.0483 -24.0432 -24.0350 -24.0168
   -24.0148 -24.0092 -24.0061 -24.0018 -23.9943 -23.9801 -23.1544 -23.1468
   -23.1305 -23.1122 -23.1107 -23.1068 -23.1012 -23.0925 -23.0704 -23.0687
   -23.0602 -23.0469 -23.0377 -23.0242 -23.0155 -23.0155 -23.0151 -22.9990
    12.6705  13.9637  14.1448  14.7498  15.0774  15.3043  15.3708  15.5302
    15.6414  15.7141  15.7676  15.8001  15.8408  16.0293  16.0794  16.2176
    16.2919  16.4417  16.5181  16.7403  16.8175  16.8595  16.9456  16.9476
    17.0074  17.0270  17.0833  17.2084  17.2592  17.3262  17.5096  17.5180
    17.5395  17.7182  17.7676  17.7861  17.8492  17.8992  17.9199  17.9368
    18.0581  18.0596  18.1184  18.1792  18.2929  18.3994  18.5759  19.0481
    19.1234  19.1812  19.1981  19.3032  19.4328  19.4979  19.6432  19.8861
    19.9416  20.1688  20.2377  20.2921  20.3114  20.4260  20.4703  20.4744
    20.5554  20.5810  20.6107  20.6234  20.6281  20.6777  20.7458  20.8261
    20.8270

          k = 0.1667 0.3333-0.5000 (  9772 PWs)   bands (ev):

   -68.1430 -68.1430 -52.7241 -52.7239 -52.7099 -52.7096 -52.7015 -52.7014
   -52.6929 -52.6927 -51.7725 -51.7725 -51.7704 -51.7704 -51.7636 -51.7636
   -34.2025 -34.2024 -34.2009 -34.2009 -34.1992 -34.1991 -24.2173 -24.2171
   -24.2112 -24.2107 -24.1818 -24.1813 -24.1665 -24.1661 -24.1183 -24.1172
   -24.0982 -24.0971 -24.0841 -24.0833 -24.0555 -24.0552 -24.0389 -24.0380
   -24.0180 -24.0177 -24.0095 -24.0092 -23.9889 -23.9885 -23.1344 -23.1344
   -23.1305 -23.1305 -23.1143 -23.1142 -23.0962 -23.0961 -23.0752 -23.0751
   -23.0484 -23.0483 -23.0315 -23.0315 -23.0169 -23.0168 -23.0058 -23.0057
    13.2918  13.2919  14.4298  14.4298  15.2904  15.2905  15.7006  15.7009
    15.8397  15.8398  15.9260  15.9261  15.9535  15.9536  16.0955  16.0957
    16.1596  16.1597  16.7321  16.7322  16.8473  16.8476  16.9083  16.9085
    17.0683  17.0690  17.1227  17.1229  17.3014  17.3014  17.3450  17.3454
    17.5050  17.5053  17.6654  17.6656  17.7957  17.7958  17.9011  17.9012
    17.9650  17.9651  17.9900  17.9904  18.0672  18.0675  18.8925  18.8925
    19.1369  19.1375  19.2570  19.2576  19.4539  19.4540  19.7991  19.7996
    20.1638  20.1639  20.2427  20.2428  20.3737  20.3740  20.4618  20.4621
    20.5010  20.5012  20.6431  20.6434  20.6992  20.6992  20.8083  20.8085
    20.8169

          k = 0.1667-0.5000-0.5000 (  9708 PWs)   bands (ev):

   -68.1429 -68.1429 -52.7192 -52.7186 -52.7153 -52.7146 -52.6977 -52.6972
   -52.6970 -52.6966 -51.7724 -51.7724 -51.7688 -51.7688 -51.7652 -51.7652
   -34.2025 -34.2024 -34.2008 -34.2008 -34.1989 -34.1989 -24.2136 -24.2130
   -24.2042 -24.2036 -24.1884 -24.1878 -24.1481 -24.1476 -24.1066 -24.1052
   -24.0837 -24.0830 -24.0691 -24.0685 -24.0658 -24.0644 -24.0547 -24.0540
   -24.0519 -24.0512 -24.0072 -24.0066 -23.9953 -23.9946 -23.1364 -23.1364
   -23.1262 -23.1261 -23.1241 -23.1241 -23.0999 -23.0998 -23.0740 -23.0740
   -23.0377 -23.0377 -23.0300 -23.0300 -23.0179 -23.0178 -23.0062 -23.0061
    13.7410  13.7412  13.9213  13.9215  15.6095  15.6097  15.7259  15.7260
    15.7742  15.7744  16.0019  16.0022  16.2179  16.2180  16.2186  16.2188
    16.3023  16.3023  16.5987  16.5989  16.7767  16.7769  16.8183  16.8187
    16.9014  16.9018  17.1403  17.1405  17.1663  17.1666  17.3204  17.3206
    17.3543  17.3547  17.4954  17.4958  17.6248  17.6252  17.8560  17.8561
    17.9179  17.9182  17.9453  17.9455  18.3051  18.3054  18.4747  18.4749
    19.2065  19.2071  19.2547  19.2553  19.5598  19.5601  19.7896  19.7902
    20.2361  20.2362  20.3815  20.3817  20.4486  20.4489  20.5197  20.5199
    20.5662  20.5665  20.5705  20.5708  20.5917  20.5918  20.6655  20.6658
    20.7603

          k = 0.3333 0.3333 0.3333 (  9792 PWs)   bands (ev):

   -68.1430 -68.1429 -52.7268 -52.7126 -52.7126 -52.7099 -52.7009 -52.7009
   -52.7005 -52.6918 -51.7726 -51.7726 -51.7703 -51.7672 -51.7672 -51.7630
   -34.2021 -34.2020 -34.2020 -34.1998 -34.1998 -34.1995 -24.2177 -24.1953
   -24.1953 -24.1817 -24.1817 -24.1792 -24.1583 -24.1425 -24.1425 -24.1215
   -24.1215 -24.0998 -24.0610 -24.0610 -24.0543 -24.0543 -24.0462 -24.0409
   -24.0242 -24.0242 -24.0236 -24.0236 -24.0193 -24.0127 -23.1300 -23.1255
   -23.1255 -23.1129 -23.1129 -23.1099 -23.0915 -23.0915 -23.0623 -23.0608
   -23.0587 -23.0517 -23.0517 -23.0442 -23.0180 -23.0180 -23.0156 -23.0156
    13.0637  14.2106  14.4634  14.4634  15.0401  15.1965  15.1965  15.7682
    15.7682  16.0001  16.0193  16.0193  16.0913  16.0913  16.2444  16.3035
    16.4613  16.4613  16.4937  16.5475  16.8224  16.8224  16.9341  16.9341
    17.0329  17.0329  17.1357  17.1357  17.1589  17.1601  17.4292  17.4664
    17.4664  17.4714  17.4821  17.4821  17.5938  17.6557  17.7189  17.7189
    17.8196  17.8196  17.8483  17.8483  17.9997  17.9997  18.1183  18.8324
    19.1899  19.1899  19.2752  19.2752  19.5083  19.7717  19.7717  20.1190
    20.1986  20.1986  20.2846  20.4206  20.5421  20.5421  20.5505  20.5505
    20.5625  20.5966  20.6335  20.6335  20.6518  20.6518  20.8399  20.9088
    20.9088

          k = 0.3333 0.3333-0.5000 (  9770 PWs)   bands (ev):

   -68.1429 -68.1429 -52.7196 -52.7193 -52.7078 -52.7064 -52.7058 -52.7047
   -52.6964 -52.6961 -51.7713 -51.7713 -51.7699 -51.7699 -51.7652 -51.7652
   -34.2021 -34.2020 -34.2009 -34.2009 -34.1995 -34.1994 -24.1934 -24.1932
   -24.1819 -24.1810 -24.1620 -24.1616 -24.1585 -24.1583 -24.1154 -24.1140
   -24.0963 -24.0950 -24.0787 -24.0775 -24.0738 -24.0733 -24.0454 -24.0440
   -24.0384 -24.0381 -24.0339 -24.0332 -24.0215 -24.0209 -23.1194 -23.1193
   -23.1171 -23.1170 -23.1069 -23.1068 -23.0792 -23.0792 -23.0768 -23.0767
   -23.0567 -23.0566 -23.0443 -23.0443 -23.0274 -23.0273 -23.0172 -23.0171
    13.6564  13.6565  14.7293  14.7294  14.8702  14.8705  15.7203  15.7205
    15.9467  15.9470  16.0444  16.0447  16.2661  16.2664  16.2688  16.2690
    16.3724  16.3725  16.6850  16.6852  16.8805  16.8809  16.9546  16.9548
    16.9742  16.9749  17.0755  17.0759  17.1030  17.1033  17.1866  17.1867
    17.3856  17.3861  17.4950  17.4951  17.5771  17.5775  17.6398  17.6402
    17.6575  17.6579  17.6890  17.6890  17.7603  17.7608  18.3216  18.3217
    19.2554  19.2563  19.2909  19.2917  19.6885  19.6885  20.0346  20.0355
    20.3728  20.3730  20.4104  20.4106  20.5157  20.5158  20.5599  20.5603
    20.5817  20.5817  20.6751  20.6755  20.6825  20.6832  20.7929  20.8263
    20.8268

          k = 0.3333-0.5000-0.5000 (  9756 PWs)   bands (ev):

   -68.1429 -68.1429 -52.7147 -52.7141 -52.7119 -52.7110 -52.7021 -52.7015
   -52.7008 -52.7000 -51.7709 -51.7709 -51.7688 -51.7688 -51.7667 -51.7667
   -34.2018 -34.2018 -34.2008 -34.2008 -34.1997 -34.1997 -24.1721 -24.1714
   -24.1708 -24.1703 -24.1626 -24.1619 -24.1314 -24.1310 -24.1127 -24.1111
   -24.0891 -24.0885 -24.0856 -24.0851 -24.0758 -24.0750 -24.0702 -24.0695
   -24.0642 -24.0631 -24.0391 -24.0381 -24.0302 -24.0297 -23.1147 -23.1147
   -23.1018 -23.1016 -23.0967 -23.0966 -23.0881 -23.0880 -23.0751 -23.0751
   -23.0530 -23.0529 -23.0451 -23.0451 -23.0370 -23.0370 -23.0287 -23.0286
    14.1034  14.1035  14.2989  14.2991  15.2545  15.2545  15.3707  15.3707
    16.0195  16.0198  16.2458  16.2462  16.3311  16.3314  16.5228  16.5229
    16.6117  16.6120  16.6751  16.6752  16.7438  16.7439  16.8004  16.8010
    16.9499  16.9502  16.9616  16.9619  17.1238  17.1240  17.1649  17.1652
    17.2241  17.2242  17.3893  17.3897  17.4769  17.4770  17.5065  17.5068
    17.5727  17.5730  17.5863  17.5867  17.7927  17.7930  17.8748  17.8749
    19.3072  19.3081  19.3209  19.3217  19.8253  19.8254  20.0632  20.0641
    20.4127  20.4128  20.4832  20.4834  20.6010  20.6016  20.6486  20.6487
    20.7071  20.7073  20.7161  20.7163  20.7320  20.7325  20.7527  20.7527
    20.9415

          k =-0.5000-0.5000-0.5000 (  9808 PWs)   bands (ev):

   -68.1430 -68.1430 -52.7096 -52.7088 -52.7088 -52.7080 -52.7068 -52.7068
   -52.7047 -52.7028 -51.7688 -51.7688 -51.7688 -51.7688 -51.7688 -51.7688
   -34.2008 -34.2008 -34.2008 -34.2008 -34.2007 -34.2007 -24.1264 -24.1264
   -24.1260 -24.1260 -24.1260 -24.1252 -24.1252 -24.1240 -24.1240 -24.1237
   -24.1084 -24.1084 -24.1083 -24.1067 -24.1067 -24.1065 -24.1059 -24.1040
   -24.0524 -24.0521 -24.0521 -24.0511 -24.0498 -24.0498 -23.0970 -23.0969
   -23.0781 -23.0781 -23.0780 -23.0780 -23.0780 -23.0779 -23.0654 -23.0654
   -23.0652 -23.0652 -23.0577 -23.0576 -23.0576 -23.0575 -23.0574 -23.0574
    14.5014  14.5017  14.8375  14.8376  14.8376  14.8377  14.8380  14.8380
    16.2606  16.2606  16.2610  16.2610  16.6601  16.6601  16.6602  16.6606
    16.6606  16.6609  16.7885  16.7885  16.7887  16.7891  16.7891  16.7895
    16.9311  16.9311  16.9311  16.9315  16.9320  16.9320  17.3398  17.3407
    17.3465  17.3465  17.3473  17.3474  17.3677  17.3677  17.3679  17.3681
    17.3681  17.3682  17.3685  17.3685  17.3688  17.3691  17.3691  17.3694
    19.3541  19.3541  19.3551  19.3551  20.1296  20.1296  20.1299  20.1308
    20.1308  20.1308  20.6569  20.6569  20.6569  20.6576  20.6576  20.6580
    20.7758  20.7759  20.7759  20.7763  20.7766  20.7766  20.9789  20.9791
    20.9796

          k = 0.0000 0.1667-0.1667 (  9783 PWs)   bands (ev):

   -68.1430 -68.1429 -52.7470 -52.7149 -52.7131 -52.7102 -52.6979 -52.6957
   -52.6951 -52.6814 -51.7798 -51.7797 -51.7666 -51.7655 -51.7644 -51.7573
   -34.2030 -34.2025 -34.2020 -34.1999 -34.1994 -34.1988 -24.2999 -24.2882
   -24.2876 -24.2198 -24.2151 -24.2111 -24.1679 -24.1559 -24.1553 -24.1333
   -24.1293 -24.1087 -24.0546 -24.0388 -24.0351 -24.0043 -23.9999 -23.9943
   -23.9810 -23.9760 -23.9726 -23.9693 -23.9648 -23.9558 -23.2015 -23.1937
   -23.1922 -23.1278 -23.1264 -23.1263 -23.0579 -23.0537 -23.0513 -23.0457
   -23.0452 -23.0414 -23.0404 -23.0305 -23.0216 -23.0179 -22.9917 -22.9840
    11.6885  14.4800  14.6434  14.8219  14.9267  14.9585  15.0857  15.1427
    15.1443  15.1877  15.1952  15.3741  15.4181  15.7536  15.7934  16.5005
    16.6151  16.7013  16.7040  16.7611  16.7814  16.7984  16.8223  16.9828
    16.9924  17.0253  17.1206  17.1888  17.2522  17.2714  17.2797  17.7878
    17.9948  18.0989  18.2266  18.2928  18.3451  18.3585  18.5120  18.5420
    18.5957  18.6387  18.6455  18.8453  18.8642  18.9999  19.0552  19.1157
    19.2281  19.2625  19.3293  19.4172  19.5403  19.6579  19.7207  19.7411
    19.8887  20.1322  20.1453  20.2016  20.2520  20.2967  20.4868  20.5251
    20.5648  20.6446  20.6600  20.6714  20.6934  20.7703  20.7990  20.8499
    20.8714

          k = 0.0000 0.3333-0.1667 (  9771 PWs)   bands (ev):

   -68.1430 -68.1429 -52.7401 -52.7212 -52.7105 -52.7072 -52.7012 -52.6985
   -52.6925 -52.6844 -51.7769 -51.7766 -51.7693 -51.7682 -51.7632 -51.7589
   -34.2026 -34.2019 -34.2009 -34.2009 -34.2000 -34.1990 -24.2727 -24.2548
   -24.2483 -24.2060 -24.1936 -24.1838 -24.1799 -24.1781 -24.1639 -24.1552
   -24.1258 -24.0826 -24.0722 -24.0560 -24.0505 -24.0300 -24.0244 -24.0043
   -23.9976 -23.9907 -23.9803 -23.9705 -23.9699 -23.9599 -23.1728 -23.1596
   -23.1539 -23.1102 -23.1044 -23.1006 -23.0888 -23.0771 -23.0681 -23.0579
   -23.0577 -23.0423 -23.0414 -23.0361 -23.0277 -23.0211 -23.0053 -22.9939
    12.1243  13.6558  14.7254  14.8506  15.1028  15.2380  15.2768  15.2778
    15.4132  15.4426  15.4468  15.4726  15.4937  15.7316  15.8381  16.2040
    16.2353  16.4386  16.6906  16.7650  16.7828  16.7881  16.8561  16.9984
    17.0958  17.1786  17.2125  17.2606  17.3961  17.4318  17.5151  17.7841
    17.8536  17.9728  18.0519  18.0983  18.1396  18.1727  18.1996  18.2108
    18.3457  18.4197  18.4441  18.7005  18.7348  18.7873  18.8495  18.8696
    19.1350  19.1746  19.2140  19.2452  19.3683  19.5020  19.5944  19.9445
    19.9640  19.9746  19.9791  20.3110  20.3494  20.4019  20.4288  20.5552
    20.5762  20.6316  20.6672  20.6823  20.7586  20.7799  20.7957  20.8685
    20.9436

          k = 0.0000 0.3333-0.3333 (  9751 PWs)   bands (ev):

   -68.1430 -68.1429 -52.7340 -52.7189 -52.7150 -52.7059 -52.7036 -52.6959
   -52.6953 -52.6874 -51.7753 -51.7740 -51.7709 -51.7677 -51.7646 -51.7607
   -34.2029 -34.2018 -34.2015 -34.2004 -34.1998 -34.1986 -24.2549 -24.2416
   -24.2124 -24.2084 -24.1942 -24.1940 -24.1808 -24.1532 -24.1481 -24.1478
   -24.1152 -24.0817 -24.0783 -24.0693 -24.0454 -24.0360 -24.0338 -24.0176
   -24.0074 -24.0035 -24.0017 -23.9895 -23.9757 -23.9656 -23.1658 -23.1548
   -23.1318 -23.1146 -23.1105 -23.1077 -23.0966 -23.0907 -23.0828 -23.0720
   -23.0639 -23.0320 -23.0312 -23.0231 -23.0161 -23.0160 -23.0134 -22.9919
    12.5337  13.8508  14.0270  14.6166  15.3553  15.4342  15.4712  15.5853
    15.6053  15.6144  15.6392  15.6779  15.6899  15.7722  15.9330  16.1703
    16.2891  16.3680  16.5382  16.7717  16.8481  16.8491  16.9443  16.9451
    16.9548  17.0282  17.1652  17.2347  17.3103  17.3418  17.5292  17.6016
    17.7007  17.8128  17.8634  17.9326  17.9523  17.9763  18.0432  18.0647
    18.1381  18.2254  18.3176  18.3589  18.5154  18.5922  18.9035  18.9803
    19.0416  19.1444  19.1451  19.3447  19.3744  19.4364  19.7076  19.7408
    19.7575  19.9908  20.1331  20.3276  20.3278  20.3510  20.4331  20.4407
    20.5407  20.5427  20.5804  20.5819  20.6063  20.6541  20.7689  20.8036
    20.8266

          k =-0.1667 0.1667 0.1667 (  9765 PWs)   bands (ev):

   -68.1430 -68.1429 -52.7446 -52.7139 -52.7130 -52.7115 -52.6974 -52.6964
   -52.6963 -52.6825 -51.7788 -51.7788 -51.7669 -51.7655 -51.7655 -51.7579
   -34.2027 -34.2027 -34.2014 -34.2004 -34.1991 -34.1990 -24.2909 -24.2747
   -24.2744 -24.2072 -24.2067 -24.2067 -24.1656 -24.1654 -24.1643 -24.1298
   -24.1200 -24.1200 -24.0506 -24.0500 -24.0283 -24.0071 -24.0069 -23.9972
   -23.9869 -23.9869 -23.9864 -23.9715 -23.9667 -23.9667 -23.1873 -23.1872
   -23.1815 -23.1215 -23.1215 -23.1140 -23.0701 -23.0701 -23.0563 -23.0440
   -23.0357 -23.0356 -23.0347 -23.0347 -23.0343 -23.0282 -22.9902 -22.9901
    11.8359  14.4990  14.7194  14.7195  14.9016  14.9776  14.9777  15.1885
    15.1887  15.2253  15.2872  15.2873  15.8266  15.8266  15.8355  16.4064
    16.6287  16.6287  16.7468  16.7470  16.7941  16.7943  16.8700  16.8950
    17.0136  17.1065  17.1078  17.1081  17.1333  17.1334  17.6360  17.6363
    17.8684  17.9970  18.1931  18.1932  18.2842  18.2848  18.5174  18.5174
    18.6017  18.6019  18.6087  18.7300  18.7790  18.7792  19.0100  19.0666
    19.2156  19.2786  19.2787  19.3104  19.3107  19.4342  19.4345  19.8091
    20.0490  20.1842  20.1843  20.2421  20.2424  20.2757  20.5234  20.5235
    20.6026  20.6027  20.6542  20.6542  20.6579  20.6950  20.7966  20.7967
    20.8953

          k =-0.1667 0.3333 0.1667 (  9771 PWs)   bands (ev):

   -68.1430 -68.1429 -52.7380 -52.7197 -52.7102 -52.7086 -52.7005 -52.6995
   -52.6937 -52.6855 -51.7761 -51.7759 -51.7692 -51.7683 -51.7640 -51.7596
   -34.2026 -34.2019 -34.2013 -34.2005 -34.1998 -34.1991 -24.2650 -24.2436
   -24.2405 -24.1948 -24.1922 -24.1860 -24.1791 -24.1693 -24.1660 -24.1520
   -24.1223 -24.0895 -24.0704 -24.0516 -24.0511 -24.0383 -24.0195 -24.0041
   -24.0023 -24.0003 -23.9868 -23.9852 -23.9738 -23.9725 -23.1666 -23.1543
   -23.1522 -23.1072 -23.1032 -23.0993 -23.0893 -23.0892 -23.0753 -23.0567
   -23.0540 -23.0508 -23.0441 -23.0245 -23.0233 -23.0233 -23.0063 -22.9954
    12.2647  13.7598  14.7712  14.8879  14.9441  15.0157  15.2796  15.3520
    15.4058  15.5029  15.5135  15.5737  15.7951  15.8741  15.9160  16.2349
    16.2487  16.4744  16.7016  16.7155  16.7856  16.8527  16.8816  16.9638
    16.9947  17.1128  17.2145  17.2804  17.3393  17.3493  17.4690  17.6872
    17.7868  17.8847  17.9837  18.0194  18.0289  18.0945  18.1050  18.2150
    18.2192  18.2851  18.2939  18.5197  18.6364  18.6896  18.8400  18.9475
    18.9651  19.0904  19.1545  19.3665  19.4420  19.4885  19.6187  19.8089
    20.0263  20.0304  20.0779  20.2668  20.3940  20.4427  20.4489  20.4619
    20.5248  20.5702  20.6385  20.6897  20.7053  20.7356  20.8442  20.8620
    20.8928

          k = 0.1667-0.3333 0.1667 (  9771 PWs)   bands (ev):

   -68.1430 -68.1429 -52.7380 -52.7199 -52.7095 -52.7091 -52.7003 -52.6998
   -52.6937 -52.6855 -51.7761 -51.7759 -51.7692 -51.7683 -51.7640 -51.7596
   -34.2026 -34.2020 -34.2013 -34.2005 -34.1999 -34.1990 -24.2651 -24.2436
   -24.2403 -24.1948 -24.1920 -24.1865 -24.1793 -24.1692 -24.1656 -24.1521
   -24.1224 -24.0896 -24.0708 -24.0513 -24.0511 -24.0379 -24.0196 -24.0044
   -24.0022 -24.0003 -23.9867 -23.9852 -23.9739 -23.9724 -23.1666 -23.1543
   -23.1522 -23.1072 -23.1032 -23.0993 -23.0893 -23.0893 -23.0753 -23.0568
   -23.0540 -23.0509 -23.0441 -23.0245 -23.0233 -23.0233 -23.0064 -22.9953
    12.2647  13.7598  14.7711  14.8879  14.9441  15.0157  15.2796  15.3519
    15.4058  15.5031  15.5136  15.5736  15.7951  15.8742  15.9160  16.2349
    16.2486  16.4744  16.7016  16.7152  16.7856  16.8526  16.8816  16.9641
    16.9947  17.1129  17.2142  17.2803  17.3393  17.3495  17.4690  17.6872
    17.7867  17.8847  17.9838  18.0195  18.0291  18.0946  18.1047  18.2150
    18.2192  18.2851  18.2940  18.5197  18.6362  18.6898  18.8401  18.9473
    18.9651  19.0904  19.1546  19.3667  19.4418  19.4886  19.6186  19.8089
    20.0264  20.0301  20.0777  20.2670  20.3941  20.4427  20.4491  20.4619
    20.5248  20.5702  20.6384  20.6898  20.7052  20.7355  20.8441  20.8623
    20.8928

          k =-0.1667-0.5000 0.1667 (  9786 PWs)   bands (ev):

   -68.1430 -68.1430 -52.7290 -52.7288 -52.7062 -52.7051 -52.7045 -52.7031
   -52.6897 -52.6895 -51.7726 -51.7726 -51.7721 -51.7721 -51.7618 -51.7618
   -34.2021 -34.2021 -34.2009 -34.2009 -34.1996 -34.1996 -24.2288 -24.2286
   -24.2127 -24.2125 -24.1962 -24.1958 -24.1787 -24.1783 -24.1302 -24.1287
   -24.1135 -24.1126 -24.0909 -24.0906 -24.0453 -24.0447 -24.0212 -24.0209
   -24.0102 -24.0095 -23.9803 -23.9799 -23.9796 -23.9792 -23.1338 -23.1338
   -23.1175 -23.1174 -23.1140 -23.1139 -23.0873 -23.0872 -23.0779 -23.0778
   -23.0632 -23.0632 -23.0328 -23.0328 -23.0180 -23.0180 -23.0082 -23.0082
    12.9326  12.9327  14.9138  14.9139  15.0081  15.0081  15.5928  15.5929
    15.6467  15.6468  15.7142  15.7143  15.8405  15.8405  15.8621  15.8622
    16.0312  16.0313  16.7357  16.7357  16.7947  16.7948  17.0903  17.0909
    17.2312  17.2316  17.3002  17.3008  17.4082  17.4086  17.6060  17.6060
    17.6903  17.6905  17.8085  17.8091  18.0227  18.0229  18.0358  18.0360
    18.0835  18.0838  18.1436  18.1436  18.2021  18.2023  18.9768  18.9771
    19.1557  19.1558  19.3462  19.3465  19.4410  19.4410  19.7671  19.7671
    20.0510  20.0511  20.0891  20.0893  20.4156  20.4157  20.4646  20.4649
    20.4699  20.4700  20.6813  20.6818  20.7569  20.7572  20.8755  20.8759
    20.9225

          k =-0.1667 0.3333 0.3333 (  9765 PWs)   bands (ev):

   -68.1430 -68.1429 -52.7321 -52.7167 -52.7146 -52.7062 -52.7038 -52.6971
   -52.6968 -52.6886 -51.7745 -51.7736 -51.7705 -51.7678 -51.7653 -51.7613
   -34.2026 -34.2020 -34.2015 -34.2001 -34.1997 -34.1990 -24.2442 -24.2278
   -24.2095 -24.2001 -24.1883 -24.1798 -24.1790 -24.1595 -24.1443 -24.1422
   -24.1114 -24.0921 -24.0734 -24.0637 -24.0481 -24.0437 -24.0350 -24.0162
   -24.0149 -24.0092 -24.0065 -24.0019 -23.9943 -23.9801 -23.1544 -23.1468
   -23.1304 -23.1123 -23.1107 -23.1068 -23.1013 -23.0925 -23.0703 -23.0688
   -23.0602 -23.0468 -23.0377 -23.0242 -23.0155 -23.0155 -23.0152 -22.9990
    12.6705  13.9638  14.1448  14.7498  15.0773  15.3043  15.3708  15.5302
    15.6412  15.7140  15.7677  15.8003  15.8409  16.0294  16.0793  16.2176
    16.2920  16.4416  16.5180  16.7400  16.8175  16.8595  16.9456  16.9477
    17.0074  17.0270  17.0833  17.2084  17.2593  17.3262  17.5099  17.5180
    17.5395  17.7181  17.7675  17.7861  17.8494  17.8988  17.9199  17.9368
    18.0584  18.0595  18.1183  18.1794  18.2928  18.3996  18.5759  19.0483
    19.1240  19.1814  19.1978  19.3031  19.4327  19.4974  19.6431  19.8859
    19.9416  20.1687  20.2376  20.2919  20.3115  20.4259  20.4704  20.4743
    20.5551  20.5812  20.6106  20.6234  20.6283  20.6779  20.7461  20.8258
    20.8270

          k = 0.1667 0.3333-0.3333 (  9765 PWs)   bands (ev):

   -68.1430 -68.1429 -52.7321 -52.7174 -52.7138 -52.7063 -52.7038 -52.6974
   -52.6965 -52.6886 -51.7745 -51.7736 -51.7705 -51.7678 -51.7653 -51.7613
   -34.2026 -34.2020 -34.2016 -34.2002 -34.1997 -34.1989 -24.2443 -24.2273
   -24.2096 -24.2006 -24.1877 -24.1802 -24.1788 -24.1597 -24.1443 -24.1424
   -24.1113 -24.0921 -24.0740 -24.0636 -24.0477 -24.0432 -24.0352 -24.0163
   -24.0149 -24.0095 -24.0061 -24.0025 -23.9937 -23.9803 -23.1543 -23.1468
   -23.1305 -23.1122 -23.1108 -23.1068 -23.1013 -23.0925 -23.0703 -23.0688
   -23.0602 -23.0469 -23.0376 -23.0242 -23.0156 -23.0155 -23.0152 -22.9989
    12.6705  13.9639  14.1446  14.7499  15.0774  15.3043  15.3708  15.5300
    15.6413  15.7142  15.7676  15.8002  15.8411  16.0293  16.0794  16.2176
    16.2919  16.4416  16.5179  16.7403  16.8173  16.8596  16.9455  16.9478
    17.0074  17.0272  17.0833  17.2082  17.2592  17.3260  17.5099  17.5180
    17.5397  17.7183  17.7673  17.7861  17.8494  17.8991  17.9200  17.9365
    18.0584  18.0595  18.1185  18.1791  18.2930  18.3998  18.5757  19.0485
    19.1239  19.1810  19.1981  19.3029  19.4327  19.4978  19.6431  19.8858
    19.9415  20.1687  20.2376  20.2921  20.3115  20.4262  20.4702  20.4742
    20.5556  20.5812  20.6106  20.6234  20.6282  20.6781  20.7459  20.8259
    20.8267

          k =-0.1667-0.5000 0.3333 (  9772 PWs)   bands (ev):

   -68.1430 -68.1430 -52.7241 -52.7239 -52.7100 -52.7097 -52.7016 -52.7011
   -52.6928 -52.6927 -51.7725 -51.7725 -51.7704 -51.7704 -51.7636 -51.7636
   -34.2025 -34.2024 -34.2009 -34.2009 -34.1992 -34.1991 -24.2174 -24.2172
   -24.2110 -24.2107 -24.1815 -24.1814 -24.1668 -24.1664 -24.1182 -24.1168
   -24.0981 -24.0973 -24.0839 -24.0833 -24.0556 -24.0551 -24.0388 -24.0384
   -24.0181 -24.0178 -24.0095 -24.0091 -23.9890 -23.9884 -23.1345 -23.1344
   -23.1305 -23.1305 -23.1143 -23.1142 -23.0961 -23.0961 -23.0752 -23.0751
   -23.0484 -23.0483 -23.0315 -23.0314 -23.0169 -23.0168 -23.0059 -23.0058
    13.2918  13.2919  14.4297  14.4299  15.2904  15.2905  15.7007  15.7008
    15.8397  15.8398  15.9260  15.9260  15.9534  15.9536  16.0955  16.0956
    16.1596  16.1598  16.7321  16.7323  16.8474  16.8475  16.9083  16.9086
    17.0682  17.0686  17.1227  17.1230  17.3013  17.3014  17.3451  17.3455
    17.5051  17.5053  17.6655  17.6656  17.7957  17.7957  17.9010  17.9012
    17.9649  17.9651  17.9901  17.9904  18.0673  18.0675  18.8925  18.8925
    19.1370  19.1375  19.2574  19.2578  19.4536  19.4539  19.7992  19.7995
    20.1637  20.1638  20.2426  20.2428  20.3738  20.3740  20.4618  20.4620
    20.5010  20.5012  20.6432  20.6436  20.6989  20.6991  20.8083  20.8087
    20.8168

          k =-0.3333 0.3333 0.3333 (  9792 PWs)   bands (ev):

   -68.1430 -68.1429 -52.7267 -52.7134 -52.7126 -52.7090 -52.7019 -52.7009
   -52.6996 -52.6919 -51.7726 -51.7726 -51.7703 -51.7672 -51.7672 -51.7630
   -34.2021 -34.2020 -34.2019 -34.1998 -34.1997 -34.1996 -24.2181 -24.1948
   -24.1945 -24.1822 -24.1817 -24.1795 -24.1579 -24.1431 -24.1428 -24.1217
   -24.1215 -24.0998 -24.0617 -24.0609 -24.0536 -24.0535 -24.0452 -24.0414
   -24.0246 -24.0243 -24.0242 -24.0237 -24.0191 -24.0127 -23.1300 -23.1255
   -23.1254 -23.1130 -23.1129 -23.1100 -23.0914 -23.0914 -23.0623 -23.0607
   -23.0588 -23.0516 -23.0516 -23.0442 -23.0180 -23.0179 -23.0157 -23.0157
    13.0637  14.2108  14.4632  14.4634  15.0402  15.1964  15.1965  15.7679
    15.7681  16.0000  16.0194  16.0195  16.0915  16.0916  16.2444  16.3034
    16.4611  16.4612  16.4938  16.5473  16.8223  16.8224  16.9340  16.9341
    17.0328  17.0330  17.1359  17.1361  17.1588  17.1598  17.4293  17.4663
    17.4665  17.4718  17.4818  17.4821  17.5935  17.6555  17.7185  17.7189
    17.8197  17.8199  17.8483  17.8483  18.0001  18.0002  18.1181  18.8324
    19.1903  19.1904  19.2749  19.2751  19.5083  19.7715  19.7717  20.1188
    20.1983  20.1985  20.2844  20.4204  20.5419  20.5420  20.5507  20.5508
    20.5623  20.5967  20.6334  20.6336  20.6521  20.6522  20.8397  20.9086
    20.9088

          k =-0.3333-0.5000 0.3333 (  9770 PWs)   bands (ev):

   -68.1429 -68.1429 -52.7195 -52.7193 -52.7083 -52.7065 -52.7059 -52.7040
   -52.6963 -52.6963 -51.7713 -51.7713 -51.7699 -51.7699 -51.7652 -51.7652
   -34.2020 -34.2020 -34.2008 -34.2008 -34.1995 -34.1995 -24.1936 -24.1934
   -24.1812 -24.1811 -24.1620 -24.1614 -24.1590 -24.1586 -24.1152 -24.1134
   -24.0961 -24.0956 -24.0785 -24.0777 -24.0738 -24.0728 -24.0454 -24.0445
   -24.0388 -24.0384 -24.0334 -24.0331 -24.0213 -24.0209 -23.1194 -23.1193
   -23.1171 -23.1171 -23.1068 -23.1068 -23.0791 -23.0791 -23.0768 -23.0767
   -23.0567 -23.0566 -23.0442 -23.0442 -23.0274 -23.0273 -23.0172 -23.0171
    13.6564  13.6564  14.7293  14.7296  14.8702  14.8703  15.7204  15.7205
    15.9468  15.9470  16.0444  16.0445  16.2663  16.2663  16.2688  16.2688
    16.3725  16.3727  16.6851  16.6855  16.8805  16.8807  16.9547  16.9548
    16.9742  16.9746  17.0756  17.0759  17.1030  17.1032  17.1867  17.1867
    17.3855  17.3861  17.4951  17.4954  17.5771  17.5772  17.6398  17.6403
    17.6575  17.6579  17.6889  17.6890  17.7605  17.7606  18.3216  18.3216
    19.2555  19.2562  19.2911  19.2918  19.6883  19.6884  20.0347  20.0353
    20.3728  20.3729  20.4104  20.4104  20.5158  20.5159  20.5602  20.5603
    20.5816  20.5817  20.6752  20.6757  20.6824  20.6829  20.7928  20.7930
    20.8266

 ------ SPIN DOWN ----------


          k = 0.0000 0.0000 0.0000 (  9771 PWs)   bands (ev):

   -66.9735 -66.9734 -52.7205 -52.6874 -52.6874 -52.6704 -52.6704 -52.6624
   -51.7912 -51.7912 -51.7903 -51.7801 -51.7736 -51.7736 -51.7726 -51.7566
   -33.0659 -33.0659 -33.0658 -33.0612 -33.0612 -33.0612 -24.2868 -24.2867
   -24.2867 -24.2061 -24.2061 -24.2060 -24.0978 -24.0977 -24.0977 -24.0689
   -24.0689 -24.0689 -23.9721 -23.9720 -23.9720 -23.9280 -23.9280 -23.9279
   -23.2547 -23.2477 -23.2477 -23.2159 -23.2159 -23.2158 -23.1300 -23.1300
   -23.1292 -23.0641 -23.0641 -23.0636 -23.0612 -23.0608 -23.0608 -23.0486
   -23.0437 -23.0437 -23.0214 -23.0210 -23.0210 -22.9788 -22.9786 -22.9786
    11.4217  14.8456  14.9911  14.9912  14.9912  15.0419  15.0419  15.0805
    15.3176  15.3176  15.4280  15.4280  15.4783  15.4784  15.4784  16.8846
    16.8846  16.8847  16.9575  16.9577  16.9577  17.0190  17.0190  17.0191
    17.3323  17.3323  17.3324  17.3593  17.5516  17.5516  17.9699  17.9701
    17.9701  18.4734  18.4734  18.4734  18.5822  18.5823  18.5823  18.6453
    18.6453  18.6453  19.4241  19.4241  19.4244  19.5055  19.5060  19.5060
    19.6115  19.6117  19.6117  20.3308  20.3308  20.3308  20.4778  20.5199
    20.5199  20.5686  20.5688  20.5688  20.5889  20.5889  20.6469  20.6469
    20.6510  20.6533  20.6533  20.6567  20.6567  20.6858  20.6862  20.6862
    21.3613

          k = 0.0000 0.0000 0.1667 (  9767 PWs)   bands (ev):

   -66.9735 -66.9735 -52.7181 -52.6894 -52.6863 -52.6715 -52.6700 -52.6633
   -51.7904 -51.7900 -51.7892 -51.7808 -51.7748 -51.7742 -51.7721 -51.7577
   -33.0656 -33.0656 -33.0655 -33.0616 -33.0615 -33.0615 -24.2749 -24.2749
   -24.2668 -24.1991 -24.1975 -24.1975 -24.1105 -24.1104 -24.0982 -24.0799
   -24.0799 -24.0717 -23.9801 -23.9695 -23.9695 -23.9588 -23.9316 -23.9316
   -23.2454 -23.2284 -23.2257 -23.2051 -23.2044 -23.2042 -23.1374 -23.1303
   -23.1298 -23.0646 -23.0642 -23.0628 -23.0598 -23.0575 -23.0555 -23.0553
   -23.0475 -23.0448 -23.0320 -23.0276 -23.0274 -22.9961 -22.9843 -22.9842
    11.5741  14.5387  14.9194  15.0489  15.0490  15.1053  15.1061  15.1443
    15.2445  15.3885  15.3981  15.4877  15.5128  15.5129  15.9079  16.7452
    16.8413  16.8413  16.9575  16.9576  16.9927  17.0351  17.0788  17.0789
    17.0930  17.1304  17.3912  17.5088  17.5089  17.5310  17.7892  17.7893
    18.4117  18.4516  18.4643  18.4643  18.4810  18.5214  18.5522  18.5522
    18.8424  18.8425  18.9542  18.9542  19.4594  19.5317  19.5482  19.6299
    19.6349  19.6446  19.6446  19.7961  19.7961  20.0248  20.0250  20.2352
    20.2353  20.4525  20.4872  20.5453  20.5474  20.6052  20.6054  20.6092
    20.6435  20.6528  20.6903  20.7216  20.7340  20.8446  20.8539  21.1758
    21.3442

          k = 0.0000 0.0000 0.3333 (  9778 PWs)   bands (ev):

   -66.9735 -66.9734 -52.7118 -52.6950 -52.6832 -52.6746 -52.6690 -52.6653
   -51.7882 -51.7868 -51.7861 -51.7827 -51.7780 -51.7774 -51.7691 -51.7608
   -33.0648 -33.0647 -33.0646 -33.0625 -33.0624 -33.0621 -24.2420 -24.2420
   -24.2104 -24.1795 -24.1740 -24.1739 -24.1466 -24.1466 -24.1181 -24.1070
   -24.1070 -24.0579 -24.0355 -24.0018 -23.9624 -23.9623 -23.9409 -23.9408
   -23.2213 -23.1770 -23.1764 -23.1762 -23.1736 -23.1733 -23.1591 -23.1340
   -23.1336 -23.0885 -23.0653 -23.0648 -23.0644 -23.0596 -23.0566 -23.0510
   -23.0479 -23.0442 -23.0441 -23.0434 -23.0398 -23.0396 -22.9989 -22.9989
    12.0191  13.6015  15.0841  15.2058  15.2059  15.2756  15.2955  15.4282
    15.4426  15.5275  15.5275  15.5637  15.5983  15.6385  15.9810  16.3735
    16.4213  16.6476  16.8130  16.8130  16.9050  16.9051  17.2604  17.3073
    17.3179  17.3181  17.4278  17.5868  17.7452  17.7454  17.9290  17.9291
    18.0373  18.0395  18.2339  18.2340  18.4464  18.4464  18.4840  18.4840
    18.6416  18.6550  18.6625  18.9063  18.9064  19.1510  19.1683  19.2339
    19.2341  19.4612  19.4613  19.8237  19.9004  20.0843  20.0843  20.2379
    20.3267  20.3546  20.3548  20.3726  20.5782  20.6112  20.6341  20.6512
    20.8033  20.8244  20.8894  20.8896  21.0144  21.1760  21.2066  21.2395
    21.2395

          k = 0.0000 0.0000-0.5000 (  9794 PWs)   bands (ev):

   -66.9735 -66.9735 -52.7032 -52.7032 -52.6789 -52.6789 -52.6673 -52.6673
   -51.7854 -51.7854 -51.7824 -51.7824 -51.7818 -51.7817 -51.7650 -51.7649
   -33.0636 -33.0636 -33.0636 -33.0636 -33.0634 -33.0634 -24.1953 -24.1953
   -24.1952 -24.1952 -24.1501 -24.1501 -24.1410 -24.1410 -24.1410 -24.1410
   -24.1279 -24.1279 -24.0305 -24.0305 -23.9522 -23.9522 -23.9522 -23.9522
   -23.1898 -23.1895 -23.1482 -23.1480 -23.1479 -23.1476 -23.1312 -23.1308
   -23.1146 -23.1143 -23.1095 -23.1092 -23.0602 -23.0599 -23.0599 -23.0596
   -23.0557 -23.0555 -23.0527 -23.0523 -23.0191 -23.0191 -23.0189 -23.0188
    12.7187  12.7188  15.2428  15.2428  15.4032  15.4033  15.4033  15.4033
    15.4770  15.4770  15.7798  15.7800  15.8884  15.8884  15.9445  15.9445
    16.0803  16.0804  16.8431  16.8432  16.8432  16.8432  17.6105  17.6105
    17.6379  17.6379  17.7086  17.7086  17.7087  17.7088  17.8561  17.8563
    17.9458  17.9458  18.1492  18.1492  18.1492  18.1494  18.4436  18.4436
    18.4436  18.4436  18.5174  18.5174  18.5175  18.5176  18.8855  18.8856
    19.7578  19.7579  19.9583  19.9583  19.9584  19.9585  20.1075  20.1076
    20.1707  20.1708  20.6219  20.6219  20.6224  20.6224  20.6512  20.6513
    20.6514  20.6514  20.9713  20.9714  20.9786  20.9788  21.3706  21.3707
    21.4626

          k = 0.0000 0.1667 0.1667 (  9783 PWs)   bands (ev):

   -66.9735 -66.9735 -52.7159 -52.6895 -52.6867 -52.6720 -52.6704 -52.6642
   -51.7895 -51.7889 -51.7884 -51.7815 -51.7755 -51.7737 -51.7729 -51.7588
   -33.0659 -33.0653 -33.0647 -33.0623 -33.0618 -33.0613 -24.2644 -24.2638
   -24.2496 -24.1957 -24.1899 -24.1860 -24.1214 -24.1174 -24.1069 -24.0907
   -24.0885 -24.0691 -23.9826 -23.9732 -23.9678 -23.9674 -23.9491 -23.9348
   -23.2397 -23.2137 -23.2099 -23.2060 -23.1922 -23.1831 -23.1434 -23.1329
   -23.1303 -23.0728 -23.0626 -23.0616 -23.0612 -23.0599 -23.0547 -23.0507
   -23.0485 -23.0465 -23.0452 -23.0287 -23.0279 -23.0171 -22.9889 -22.9836
    11.7240  14.5523  14.6862  14.9460  15.0994  15.1548  15.1722  15.2159
    15.2229  15.4223  15.4678  15.4731  15.5605  15.9285  15.9638  16.6363
    16.7667  16.8757  16.9511  17.0163  17.0202  17.0301  17.0379  17.0691
    17.0917  17.2180  17.2512  17.3769  17.4395  17.5706  17.6159  18.1254
    18.1315  18.3201  18.3632  18.3648  18.4171  18.4474  18.6257  18.6588
    18.9462  19.0123  19.0426  19.0528  19.0985  19.1286  19.3362  19.4072
    19.4845  19.6333  19.6404  19.6409  19.6908  19.7286  20.0588  20.0933
    20.3905  20.4750  20.4882  20.5205  20.5253  20.5996  20.6215  20.6509
    20.6532  20.6535  20.6583  20.8911  20.9116  20.9300  21.0140  21.0351
    21.0796

          k = 0.0000 0.1667 0.3333 (  9771 PWs)   bands (ev):

   -66.9735 -66.9734 -52.7098 -52.6941 -52.6840 -52.6750 -52.6697 -52.6662
   -51.7877 -51.7860 -51.7853 -51.7832 -51.7782 -51.7765 -51.7703 -51.7619
   -33.0655 -33.0646 -33.0635 -33.0634 -33.0625 -33.0615 -24.2351 -24.2347
   -24.2023 -24.1786 -24.1689 -24.1587 -24.1522 -24.1512 -24.1255 -24.1114
   -24.1106 -24.0571 -24.0287 -24.0021 -23.9693 -23.9616 -23.9563 -23.9430
   -23.2216 -23.1859 -23.1759 -23.1716 -23.1646 -23.1620 -23.1500 -23.1370
   -23.1342 -23.0912 -23.0811 -23.0751 -23.0690 -23.0622 -23.0600 -23.0578
   -23.0485 -23.0475 -23.0387 -23.0357 -23.0347 -23.0338 -23.0020 -22.9942
    12.1611  13.7045  14.7850  14.9574  15.2863  15.3170  15.4294  15.4850
    15.5138  15.5142  15.6082  15.6808  15.7064  15.9305  16.0407  16.3711
    16.4611  16.5948  16.8478  16.9574  16.9582  16.9714  17.1336  17.2142
    17.2515  17.2661  17.4206  17.4862  17.5117  17.7393  17.8566  17.9354
    17.9845  18.1684  18.1822  18.2532  18.2739  18.3171  18.3447  18.4078
    18.4627  18.5256  18.7704  18.8036  18.8596  18.9183  18.9925  19.1964
    19.3804  19.5103  19.5391  19.8541  19.9147  20.0055  20.0282  20.1369
    20.2849  20.3677  20.3847  20.4649  20.5445  20.6252  20.6391  20.6520
    20.7408  20.7455  20.7533  20.8863  20.9279  21.0578  21.0852  21.1232
    21.1445

          k = 0.0000 0.1667-0.5000 (  9786 PWs)   bands (ev):

   -66.9735 -66.9735 -52.7017 -52.7017 -52.6795 -52.6795 -52.6682 -52.6682
   -51.7857 -51.7853 -51.7822 -51.7819 -51.7809 -51.7808 -51.7661 -51.7660
   -33.0646 -33.0645 -33.0636 -33.0636 -33.0623 -33.0623 -24.1943 -24.1942
   -24.1942 -24.1942 -24.1561 -24.1560 -24.1446 -24.1446 -24.1399 -24.1399
   -24.1066 -24.1066 -24.0305 -24.0305 -23.9622 -23.9622 -23.9529 -23.9529
   -23.1940 -23.1936 -23.1545 -23.1543 -23.1482 -23.1479 -23.1205 -23.1203
   -23.1199 -23.1195 -23.1161 -23.1157 -23.0804 -23.0804 -23.0530 -23.0527
   -23.0522 -23.0519 -23.0411 -23.0408 -23.0191 -23.0189 -23.0135 -23.0132
    12.8459  12.8459  14.9174  14.9174  15.4666  15.4666  15.5077  15.5078
    15.7103  15.7103  15.8567  15.8568  15.9327  15.9327  16.0157  16.0157
    16.1232  16.1233  16.8790  16.8790  16.9071  16.9071  17.4510  17.4510
    17.5070  17.5071  17.5376  17.5376  17.6562  17.6563  17.9307  17.9308
    17.9351  17.9351  18.1721  18.1722  18.1971  18.1972  18.2311  18.2311
    18.2922  18.2922  18.3673  18.3673  18.3739  18.3739  19.0809  19.0810
    19.8405  19.8406  19.8893  19.8895  19.9975  19.9976  20.1462  20.1462
    20.1998  20.1999  20.3734  20.3735  20.5128  20.5129  20.5992  20.5992
    20.6744  20.6744  20.9289  20.9290  20.9347  20.9349  21.1462  21.1462
    21.1604

          k = 0.0000 0.3333 0.3333 (  9751 PWs)   bands (ev):

   -66.9735 -66.9734 -52.7047 -52.6937 -52.6847 -52.6773 -52.6705 -52.6681
   -51.7869 -51.7845 -51.7842 -51.7821 -51.7795 -51.7738 -51.7731 -51.7650
   -33.0657 -33.0644 -33.0641 -33.0629 -33.0623 -33.0611 -24.2174 -24.2167
   -24.1807 -24.1698 -24.1686 -24.1670 -24.1552 -24.1416 -24.1229 -24.1214
   -24.1199 -24.0516 -24.0282 -24.0092 -23.9856 -23.9824 -23.9589 -23.9484
   -23.2155 -23.1801 -23.1778 -23.1660 -23.1611 -23.1442 -23.1384 -23.1352
   -23.1216 -23.1108 -23.1019 -23.1009 -23.0912 -23.0847 -23.0525 -23.0499
   -23.0453 -23.0395 -23.0358 -23.0308 -23.0291 -23.0204 -23.0111 -22.9939
    12.5725  13.9403  14.0349  14.6989  15.5649  15.5909  15.6413  15.6639
    15.7060  15.7303  15.7617  15.8902  15.9143  15.9896  16.1466  16.3105
    16.5043  16.6412  16.7233  16.8805  17.0753  17.0885  17.0977  17.1449
    17.1457  17.2173  17.3324  17.3388  17.4393  17.7853  17.8230  17.8603
    17.8798  17.8901  17.9759  18.0705  18.1311  18.1333  18.1455  18.1635
    18.2378  18.3190  18.4046  18.4935  18.5038  18.8002  18.8903  19.1127
    19.6592  19.7653  19.8015  19.9279  19.9795  20.0030  20.0471  20.2790
    20.2814  20.3106  20.3630  20.4079  20.4511  20.4555  20.5323  20.5674
    20.6002  20.6560  20.6837  20.6900  20.8449  20.8512  20.9057  20.9478
    20.9895

          k = 0.0000 0.3333-0.5000 (  9776 PWs)   bands (ev):

   -66.9735 -66.9735 -52.6982 -52.6982 -52.6815 -52.6815 -52.6698 -52.6698
   -51.7860 -51.7855 -51.7819 -51.7814 -51.7778 -51.7778 -51.7693 -51.7692
   -33.0654 -33.0653 -33.0636 -33.0636 -33.0614 -33.0613 -24.1950 -24.1950
   -24.1921 -24.1921 -24.1587 -24.1586 -24.1430 -24.1430 -24.1377 -24.1377
   -24.0728 -24.0728 -24.0304 -24.0304 -23.9886 -23.9886 -23.9544 -23.9544
   -23.2003 -23.1997 -23.1539 -23.1538 -23.1529 -23.1526 -23.1388 -23.1387
   -23.1173 -23.1172 -23.1138 -23.1133 -23.0981 -23.0977 -23.0454 -23.0452
   -23.0409 -23.0404 -23.0341 -23.0336 -23.0226 -23.0224 -23.0042 -23.0039
    13.2075  13.2076  14.3571  14.3571  15.7574  15.7574  15.7661  15.7661
    15.8457  15.8458  16.0375  16.0375  16.0400  16.0400  16.2203  16.2204
    16.2465  16.2466  16.9388  16.9389  17.0444  17.0445  17.1431  17.1432
    17.1593  17.1593  17.3275  17.3276  17.5526  17.5526  17.7795  17.7795
    17.8030  17.8031  17.9290  17.9290  18.0444  18.0447  18.1270  18.1272
    18.1808  18.1809  18.2260  18.2261  18.3302  18.3302  19.1657  19.1657
    19.7852  19.7852  20.0671  20.0672  20.1078  20.1080  20.1838  20.1840
    20.2261  20.2263  20.2637  20.2638  20.2795  20.2797  20.5247  20.5247
    20.7229  20.7229  20.7357  20.7358  20.7773  20.7774  20.8212  20.8213
    20.9357

          k = 0.0000-0.5000-0.5000 (  9748 PWs)   bands (ev):

   -66.9735 -66.9735 -52.6958 -52.6958 -52.6832 -52.6832 -52.6706 -52.6706
   -51.7862 -51.7856 -51.7818 -51.7813 -51.7739 -51.7738 -51.7733 -51.7731
   -33.0656 -33.0656 -33.0636 -33.0636 -33.0610 -33.0610 -24.1965 -24.1965
   -24.1911 -24.1911 -24.1568 -24.1568 -24.1419 -24.1419 -24.1365 -24.1365
   -24.0473 -24.0473 -24.0293 -24.0293 -24.0136 -24.0136 -23.9551 -23.9550
   -23.2028 -23.2022 -23.1527 -23.1521 -23.1514 -23.1510 -23.1409 -23.1403
   -23.1383 -23.1379 -23.1112 -23.1107 -23.0968 -23.0962 -23.0362 -23.0357
   -23.0337 -23.0332 -23.0320 -23.0316 -23.0314 -23.0313 -23.0002 -22.9999
    13.7048  13.7048  13.7870  13.7871  15.8835  15.8835  15.9457  15.9457
    15.9522  15.9523  16.0983  16.0984  16.1634  16.1636  16.2570  16.2572
    16.5834  16.5835  16.7413  16.7414  16.9441  16.9443  17.0061  17.0062
    17.0261  17.0264  17.3006  17.3008  17.5626  17.5626  17.6231  17.6232
    17.6859  17.6861  17.6960  17.6961  17.9426  17.9429  18.0129  18.0132
    18.1421  18.1422  18.1555  18.1555  18.7538  18.7540  18.8400  18.8402
    19.8325  19.8328  19.9464  19.9467  20.3166  20.3171  20.3194  20.3197
    20.3205  20.3207  20.3484  20.3489  20.3867  20.3870  20.4093  20.4095
    20.4350  20.4353  20.5143  20.5146  20.7452  20.7454  20.7535  20.7537
    20.7709

          k = 0.1667 0.1667 0.1667 (  9765 PWs)   bands (ev):

   -66.9735 -66.9734 -52.7138 -52.6883 -52.6883 -52.6717 -52.6717 -52.6651
   -51.7885 -51.7878 -51.7878 -51.7820 -51.7747 -51.7747 -51.7736 -51.7600
   -33.0655 -33.0655 -33.0640 -33.0629 -33.0615 -33.0615 -24.2583 -24.2422
   -24.2422 -24.1864 -24.1864 -24.1774 -24.1251 -24.1251 -24.1244 -24.0909
   -24.0818 -24.0818 -23.9809 -23.9809 -23.9667 -23.9654 -23.9654 -23.9470
   -23.2333 -23.2000 -23.2000 -23.1942 -23.1942 -23.1636 -23.1442 -23.1442
   -23.1278 -23.0693 -23.0693 -23.0639 -23.0638 -23.0638 -23.0628 -23.0577
   -23.0408 -23.0408 -23.0384 -23.0384 -23.0333 -23.0286 -22.9894 -22.9894
    11.8717  14.5810  14.7674  14.7674  15.0143  15.1506  15.1506  15.2496
    15.3269  15.3269  15.5510  15.5510  15.9133  16.0366  16.0366  16.5501
    16.8478  16.8478  16.8759  17.0245  17.0264  17.0264  17.0597  17.0597
    17.1619  17.1619  17.1923  17.3182  17.4244  17.4244  17.9076  17.9202
    17.9202  18.2595  18.3072  18.3072  18.3431  18.3431  18.7609  18.7609
    18.7915  18.7934  18.9599  18.9599  19.0119  19.1804  19.2061  19.2061
    19.2207  19.3770  19.3770  19.7683  19.7683  19.8383  20.3128  20.3128
    20.3322  20.3821  20.4379  20.4379  20.5717  20.5717  20.5828  20.6291
    20.6291  20.6556  20.6556  20.8722  20.8722  20.9336  21.0031  21.0396
    21.1817

          k = 0.1667 0.1667 0.3333 (  9771 PWs)   bands (ev):

   -66.9735 -66.9734 -52.7080 -52.6930 -52.6848 -52.6752 -52.6708 -52.6672
   -51.7870 -51.7851 -51.7849 -51.7835 -51.7775 -51.7767 -51.7713 -51.7630
   -33.0654 -33.0647 -33.0639 -33.0630 -33.0624 -33.0615 -24.2301 -24.2219
   -24.1979 -24.1738 -24.1577 -24.1569 -24.1566 -24.1495 -24.1368 -24.1137
   -24.1044 -24.0624 -24.0252 -24.0033 -23.9761 -23.9634 -23.9614 -23.9582
   -23.2179 -23.1779 -23.1740 -23.1689 -23.1676 -23.1599 -23.1469 -23.1360
   -23.1299 -23.0905 -23.0808 -23.0779 -23.0753 -23.0747 -23.0649 -23.0540
   -23.0525 -23.0523 -23.0391 -23.0341 -23.0323 -23.0259 -23.0043 -22.9962
    12.3020  13.8109  14.8314  14.9542  15.0426  15.1505  15.4605  15.4994
    15.5467  15.6097  15.7676  15.7863  15.9525  16.0745  16.1148  16.3782
    16.4871  16.6385  16.8512  16.9806  16.9927  17.0234  17.0599  17.1714
    17.1903  17.2148  17.4095  17.4317  17.5655  17.6823  17.7129  17.7591
    18.0326  18.0386  18.1179  18.1732  18.2146  18.2746  18.2909  18.2923
    18.3354  18.3594  18.5543  18.6289  18.6975  18.7386  19.0057  19.0144
    19.5375  19.6059  19.6256  19.9244  19.9765  20.0604  20.1743  20.1904
    20.2343  20.3339  20.4180  20.4847  20.4996  20.5277  20.6403  20.6581
    20.7024  20.7281  20.7612  20.7919  20.7935  20.9855  21.0039  21.1120
    21.1194

          k = 0.1667 0.1667-0.5000 (  9786 PWs)   bands (ev):

   -66.9735 -66.9735 -52.7003 -52.7003 -52.6800 -52.6800 -52.6693 -52.6693
   -51.7856 -51.7851 -51.7813 -51.7813 -51.7810 -51.7804 -51.7672 -51.7671
   -33.0649 -33.0648 -33.0636 -33.0636 -33.0620 -33.0620 -24.1923 -24.1922
   -24.1890 -24.1890 -24.1551 -24.1551 -24.1522 -24.1522 -24.1295 -24.1295
   -24.0992 -24.0992 -24.0334 -24.0333 -23.9684 -23.9684 -23.9607 -23.9607
   -23.1952 -23.1947 -23.1546 -23.1544 -23.1485 -23.1478 -23.1242 -23.1239
   -23.1172 -23.1167 -23.1139 -23.1134 -23.0752 -23.0751 -23.0698 -23.0695
   -23.0454 -23.0453 -23.0391 -23.0388 -23.0223 -23.0220 -23.0099 -23.0095
    12.9738  12.9738  14.9886  14.9887  15.1070  15.1070  15.7618  15.7619
    15.8412  15.8413  15.9349  15.9350  15.9675  15.9675  16.0868  16.0870
    16.1736  16.1737  16.9029  16.9030  16.9676  16.9677  17.3974  17.3974
    17.4433  17.4434  17.4602  17.4602  17.5436  17.5438  17.9147  17.9147
    17.9252  17.9252  18.0265  18.0266  18.1387  18.1388  18.1555  18.1556
    18.1588  18.1588  18.1862  18.1862  18.2281  18.2282  19.1482  19.1483
    19.9424  19.9425  19.9474  19.9476  20.0021  20.0023  20.0654  20.0657
    20.1848  20.1849  20.2177  20.2178  20.5858  20.5858  20.6697  20.6697
    20.7331  20.7332  20.8909  20.8910  20.9045  20.9048  21.0335  21.0337
    21.0454

          k = 0.1667 0.3333 0.3333 (  9765 PWs)   bands (ev):

   -66.9735 -66.9734 -52.7030 -52.6921 -52.6854 -52.6771 -52.6721 -52.6694
   -51.7860 -51.7843 -51.7835 -51.7822 -51.7787 -51.7745 -51.7739 -51.7660
   -33.0654 -33.0646 -33.0643 -33.0627 -33.0621 -33.0614 -24.2094 -24.2032
   -24.1796 -24.1669 -24.1651 -24.1579 -24.1498 -24.1442 -24.1255 -24.1247
   -24.1044 -24.0644 -24.0274 -24.0124 -23.9928 -23.9910 -23.9663 -23.9660
   -23.2077 -23.1782 -23.1692 -23.1602 -23.1568 -23.1558 -23.1386 -23.1281
   -23.1165 -23.1049 -23.1022 -23.0944 -23.0886 -23.0827 -23.0636 -23.0524
   -23.0510 -23.0473 -23.0413 -23.0359 -23.0256 -23.0177 -23.0145 -23.0010
    12.7098  14.0540  14.1546  14.8330  15.1439  15.4241  15.5234  15.7322
    15.7727  15.8569  15.9895  16.0075  16.1148  16.1230  16.3055  16.3618
    16.5581  16.6498  16.6828  16.8875  16.9637  17.0932  17.1089  17.2178
    17.2186  17.2252  17.2439  17.2962  17.4720  17.6856  17.7112  17.7579
    17.8075  17.8152  17.8684  17.9936  18.0041  18.0173  18.0321  18.0873
    18.1199  18.1603  18.1903  18.2681  18.3009  18.5652  18.5878  19.1430
    19.8327  19.8544  19.9028  20.0535  20.0830  20.1050  20.1523  20.1930
    20.3622  20.3795  20.4196  20.4685  20.4715  20.4765  20.5343  20.5753
    20.6239  20.6502  20.7010  20.8367  20.8494  20.9149  20.9304  21.0012
    21.0356

          k = 0.1667 0.3333-0.5000 (  9772 PWs)   bands (ev):

   -66.9735 -66.9735 -52.6966 -52.6966 -52.6816 -52.6816 -52.6713 -52.6713
   -51.7855 -51.7849 -51.7812 -51.7808 -51.7783 -51.7781 -51.7701 -51.7700
   -33.0652 -33.0651 -33.0635 -33.0635 -33.0616 -33.0615 -24.1878 -24.1877
   -24.1819 -24.1819 -24.1532 -24.1532 -24.1479 -24.1479 -24.1264 -24.1264
   -24.0755 -24.0754 -24.0390 -24.0390 -23.9958 -23.9958 -23.9687 -23.9687
   -23.1947 -23.1941 -23.1569 -23.1567 -23.1432 -23.1425 -23.1348 -23.1346
   -23.1135 -23.1133 -23.1069 -23.1069 -23.0969 -23.0966 -23.0563 -23.0560
   -23.0422 -23.0421 -23.0393 -23.0389 -23.0261 -23.0259 -23.0086 -23.0083
    13.3374  13.3375  14.4867  14.4868  15.3799  15.3799  15.9573  15.9574
    15.9903  15.9904  16.0291  16.0291  16.1864  16.1865  16.2935  16.2936
    16.3168  16.3169  16.9735  16.9735  17.0610  17.0611  17.0905  17.0905
    17.1968  17.1969  17.3266  17.3266  17.5082  17.5082  17.6230  17.6230
    17.7235  17.7235  17.8782  17.8782  17.9060  17.9061  17.9671  17.9673
    18.0114  18.0115  18.0751  18.0752  18.1286  18.1286  18.9167  18.9167
    19.9916  19.9917  20.0903  20.0904  20.1932  20.1932  20.2213  20.2214
    20.2842  20.2843  20.3070  20.3071  20.5370  20.5370  20.5605  20.5606
    20.7481  20.7482  20.7812  20.7812  20.8005  20.8007  20.8752  20.8754
    20.9426

          k = 0.1667-0.5000-0.5000 (  9708 PWs)   bands (ev):

   -66.9734 -66.9734 -52.6941 -52.6941 -52.6832 -52.6832 -52.6723 -52.6723
   -51.7854 -51.7849 -51.7813 -51.7807 -51.7746 -51.7744 -51.7739 -51.7737
   -33.0653 -33.0652 -33.0634 -33.0634 -33.0613 -33.0612 -24.1878 -24.1878
   -24.1771 -24.1771 -24.1533 -24.1532 -24.1350 -24.1350 -24.1331 -24.1331
   -24.0517 -24.0517 -24.0405 -24.0404 -24.0231 -24.0230 -23.9722 -23.9722
   -23.1940 -23.1934 -23.1508 -23.1503 -23.1451 -23.1450 -23.1332 -23.1328
   -23.1275 -23.1271 -23.1073 -23.1068 -23.0976 -23.0970 -23.0413 -23.0409
   -23.0398 -23.0394 -23.0393 -23.0386 -23.0369 -23.0367 -23.0082 -23.0079
    13.8339  13.8339  13.9219  13.9220  15.7179  15.7179  15.8467  15.8468
    16.0019  16.0020  16.1343  16.1344  16.4203  16.4205  16.4236  16.4237
    16.6073  16.6074  16.7531  16.7533  16.9336  16.9336  16.9629  16.9631
    17.1141  17.1142  17.3069  17.3070  17.4378  17.4378  17.4776  17.4776
    17.6450  17.6452  17.6564  17.6565  17.8240  17.8242  17.8537  17.8539
    17.9768  17.9769  18.0088  18.0088  18.4621  18.4623  18.4829  18.4831
    20.1346  20.1348  20.1724  20.1727  20.3668  20.3670  20.3754  20.3757
    20.4414  20.4417  20.4574  20.4576  20.4662  20.4666  20.5468  20.5472
    20.5599  20.5602  20.5663  20.5667  20.7376  20.7378  20.7588  20.7928
    20.7929

          k = 0.3333 0.3333 0.3333 (  9792 PWs)   bands (ev):

   -66.9736 -66.9734 -52.6984 -52.6879 -52.6879 -52.6763 -52.6763 -52.6722
   -51.7844 -51.7841 -51.7816 -51.7816 -51.7764 -51.7764 -51.7758 -51.7687
   -33.0648 -33.0646 -33.0646 -33.0622 -33.0622 -33.0619 -24.1840 -24.1767
   -24.1767 -24.1616 -24.1616 -24.1519 -24.1367 -24.1283 -24.1283 -24.1009
   -24.0979 -24.0979 -24.0191 -24.0191 -24.0184 -24.0184 -24.0030 -23.9817
   -23.1909 -23.1698 -23.1698 -23.1540 -23.1540 -23.1323 -23.1323 -23.1224
   -23.1131 -23.1084 -23.0891 -23.0891 -23.0878 -23.0792 -23.0792 -23.0669
   -23.0559 -23.0559 -23.0476 -23.0462 -23.0224 -23.0224 -23.0197 -23.0197
    13.1052  14.3231  14.4819  14.4819  15.1246  15.2867  15.2867  16.0182
    16.0317  16.0317  16.2354  16.2354  16.3285  16.4134  16.4452  16.4452
    16.5502  16.6250  16.7171  16.7171  16.9723  16.9723  17.1788  17.2039
    17.2039  17.3700  17.3700  17.3792  17.3792  17.3939  17.6235  17.6447
    17.6447  17.6523  17.6813  17.6813  17.7341  17.7360  17.7498  17.7498
    17.8779  17.8779  17.9391  17.9391  18.0898  18.1400  18.1400  18.8509
    20.0826  20.0826  20.1147  20.1261  20.3002  20.3518  20.3518  20.3984
    20.3984  20.4650  20.5210  20.5210  20.5324  20.5746  20.5746  20.6828
    20.6828  20.8224  20.8224  20.8252  20.8252  20.8674  20.8686  21.0363
    21.0364

          k = 0.3333 0.3333-0.5000 (  9770 PWs)   bands (ev):

   -66.9735 -66.9735 -52.6926 -52.6926 -52.6821 -52.6821 -52.6748 -52.6748
   -51.7843 -51.7837 -51.7794 -51.7790 -51.7790 -51.7786 -51.7726 -51.7724
   -33.0648 -33.0647 -33.0634 -33.0634 -33.0620 -33.0619 -24.1707 -24.1706
   -24.1634 -24.1634 -24.1416 -24.1416 -24.1404 -24.1404 -24.1135 -24.1135
   -24.0766 -24.0765 -24.0584 -24.0584 -24.0177 -24.0177 -24.0011 -24.0011
   -23.1799 -23.1793 -23.1560 -23.1558 -23.1334 -23.1327 -23.1222 -23.1221
   -23.1026 -23.1022 -23.1017 -23.1012 -23.0893 -23.0891 -23.0718 -23.0715
   -23.0506 -23.0504 -23.0503 -23.0501 -23.0340 -23.0339 -23.0219 -23.0215
    13.7059  13.7060  14.7999  14.7999  14.9127  14.9128  15.8158  15.8159
    16.2632  16.2632  16.2816  16.2816  16.3495  16.3496  16.4928  16.4929
    16.5414  16.5414  17.0039  17.0040  17.0657  17.0658  17.0757  17.0758
    17.1370  17.1371  17.3577  17.3578  17.3831  17.3831  17.4523  17.4524
    17.5313  17.5314  17.6269  17.6269  17.6345  17.6345  17.7076  17.7076
    17.7676  17.7676  17.7690  17.7691  17.8324  17.8326  18.3861  18.3861
    20.2866  20.2867  20.3250  20.3252  20.3884  20.3886  20.4047  20.4049
    20.4477  20.4478  20.5171  20.5173  20.6006  20.6006  20.7343  20.7343
    20.7610  20.7610  20.7798  20.7801  20.8228  20.8230  20.8587  20.8588
    20.8735

          k = 0.3333-0.5000-0.5000 (  9756 PWs)   bands (ev):

   -66.9734 -66.9734 -52.6895 -52.6895 -52.6832 -52.6832 -52.6769 -52.6769
   -51.7836 -51.7831 -51.7798 -51.7793 -51.7764 -51.7758 -51.7757 -51.7751
   -33.0645 -33.0644 -33.0634 -33.0634 -33.0622 -33.0621 -24.1655 -24.1655
   -24.1485 -24.1485 -24.1389 -24.1389 -24.1280 -24.1280 -24.1087 -24.1087
   -24.0682 -24.0682 -24.0627 -24.0627 -24.0493 -24.0492 -24.0172 -24.0171
   -23.1714 -23.1708 -23.1473 -23.1470 -23.1368 -23.1365 -23.1111 -23.1111
   -23.1018 -23.1017 -23.0996 -23.0992 -23.0938 -23.0936 -23.0573 -23.0572
   -23.0565 -23.0560 -23.0536 -23.0531 -23.0500 -23.0499 -23.0310 -23.0306
    14.1976  14.1976  14.3042  14.3042  15.3151  15.3152  15.4300  15.4300
    16.3324  16.3325  16.4445  16.4446  16.6704  16.6704  16.7698  16.7700
    16.7774  16.7775  16.7784  16.7785  16.8503  16.8503  17.0012  17.0013
    17.2385  17.2387  17.2745  17.2745  17.3142  17.3142  17.3372  17.3374
    17.4754  17.4756  17.4904  17.4906  17.5357  17.5359  17.5567  17.5568
    17.6516  17.6517  17.7000  17.7000  17.8909  17.8910  17.9153  17.9154
    20.4416  20.4419  20.4613  20.4614  20.5258  20.5258  20.5576  20.5576
    20.5638  20.5638  20.6299  20.6299  20.7104  20.7106  20.7188  20.7190
    20.7287  20.7288  20.7577  20.7579  20.7819  20.7820  20.8347  20.8348
    21.0233

          k =-0.5000-0.5000-0.5000 (  9808 PWs)   bands (ev):

   -66.9735 -66.9735 -52.6832 -52.6832 -52.6832 -52.6832 -52.6832 -52.6832
   -51.7820 -51.7820 -51.7778 -51.7778 -51.7778 -51.7778 -51.7770 -51.7767
   -33.0634 -33.0634 -33.0634 -33.0634 -33.0633 -33.0633 -24.1476 -24.1476
   -24.1476 -24.1476 -24.1211 -24.1211 -24.0891 -24.0891 -24.0891 -24.0891
   -24.0891 -24.0890 -24.0702 -24.0702 -24.0701 -24.0701 -24.0701 -24.0701
   -23.1458 -23.1458 -23.1457 -23.1457 -23.1452 -23.1448 -23.1025 -23.1024
   -23.0829 -23.0828 -23.0828 -23.0827 -23.0827 -23.0826 -23.0664 -23.0664
   -23.0664 -23.0664 -23.0617 -23.0615 -23.0612 -23.0612 -23.0611 -23.0611
    14.6315  14.6315  14.8575  14.8575  14.8575  14.8576  14.8576  14.8577
    16.7454  16.7454  16.7454  16.7455  16.7455  16.7455  16.7919  16.7920
    16.7920  16.7921  16.7922  16.7922  17.0195  17.0195  17.0196  17.0196
    17.2924  17.2924  17.3575  17.3575  17.3575  17.3575  17.3575  17.3575
    17.3888  17.3888  17.3889  17.3889  17.3890  17.3890  17.4212  17.4212
    17.4212  17.4212  17.4212  17.4213  17.4700  17.4700  17.4700  17.4700
    20.6342  20.6342  20.6343  20.6343  20.6412  20.6412  20.6413  20.6413
    20.6415  20.6415  20.6711  20.6711  20.6712  20.6712  20.6713  20.6713
    20.8347  20.8347  20.8348  20.8348  20.8350  20.8352  21.0512  21.0512
    21.0512

          k = 0.0000 0.1667-0.1667 (  9783 PWs)   bands (ev):

   -66.9735 -66.9735 -52.7159 -52.6895 -52.6867 -52.6720 -52.6704 -52.6642
   -51.7900 -51.7889 -51.7880 -51.7814 -51.7756 -51.7737 -51.7730 -51.7588
   -33.0658 -33.0653 -33.0648 -33.0624 -33.0618 -33.0612 -24.2644 -24.2638
   -24.2496 -24.1957 -24.1898 -24.1860 -24.1214 -24.1174 -24.1068 -24.0907
   -24.0885 -24.0691 -23.9826 -23.9732 -23.9677 -23.9674 -23.9491 -23.9348
   -23.2399 -23.2138 -23.2099 -23.2059 -23.1919 -23.1833 -23.1429 -23.1333
   -23.1304 -23.0727 -23.0627 -23.0617 -23.0613 -23.0598 -23.0542 -23.0506
   -23.0486 -23.0465 -23.0455 -23.0283 -23.0282 -23.0170 -22.9889 -22.9838
    11.7240  14.5523  14.6862  14.9460  15.0994  15.1549  15.1721  15.2159
    15.2229  15.4223  15.4678  15.4731  15.5605  15.9285  15.9638  16.6363
    16.7667  16.8758  16.9511  17.0163  17.0203  17.0299  17.0378  17.0691
    17.0917  17.2180  17.2513  17.3769  17.4394  17.5706  17.6159  18.1255
    18.1315  18.3201  18.3632  18.3649  18.4171  18.4474  18.6256  18.6588
    18.9461  19.0122  19.0427  19.0529  19.0986  19.1286  19.3362  19.4072
    19.4845  19.6333  19.6405  19.6407  19.6905  19.7289  20.0592  20.0929
    20.3905  20.4749  20.4882  20.5206  20.5254  20.5996  20.6217  20.6509
    20.6532  20.6533  20.6583  20.8910  20.9116  20.9299  21.0140  21.0350
    21.0798

          k = 0.0000 0.3333-0.1667 (  9771 PWs)   bands (ev):

   -66.9735 -66.9734 -52.7098 -52.6941 -52.6840 -52.6750 -52.6697 -52.6662
   -51.7882 -51.7858 -51.7850 -51.7830 -51.7784 -51.7765 -51.7703 -51.7619
   -33.0654 -33.0646 -33.0635 -33.0634 -33.0625 -33.0614 -24.2352 -24.2347
   -24.2024 -24.1786 -24.1689 -24.1587 -24.1522 -24.1512 -24.1255 -24.1114
   -24.1106 -24.0571 -24.0286 -24.0021 -23.9693 -23.9616 -23.9563 -23.9430
   -23.2218 -23.1858 -23.1761 -23.1716 -23.1642 -23.1615 -23.1502 -23.1373
   -23.1344 -23.0909 -23.0811 -23.0753 -23.0688 -23.0622 -23.0601 -23.0581
   -23.0486 -23.0471 -23.0384 -23.0358 -23.0345 -23.0341 -23.0020 -22.9944
    12.1610  13.7046  14.7850  14.9574  15.2863  15.3170  15.4294  15.4849
    15.5138  15.5142  15.6082  15.6808  15.7064  15.9305  16.0407  16.3711
    16.4611  16.5947  16.8478  16.9574  16.9582  16.9714  17.1336  17.2142
    17.2515  17.2661  17.4206  17.4862  17.5117  17.7393  17.8566  17.9354
    17.9846  18.1684  18.1823  18.2532  18.2739  18.3171  18.3448  18.4078
    18.4627  18.5256  18.7703  18.8035  18.8597  18.9182  18.9925  19.1964
    19.3803  19.5103  19.5391  19.8541  19.9147  20.0056  20.0283  20.1369
    20.2849  20.3677  20.3847  20.4649  20.5445  20.6252  20.6392  20.6520
    20.7408  20.7454  20.7533  20.8863  20.9278  21.0577  21.0852  21.1233
    21.1445

          k = 0.0000 0.3333-0.3333 (  9751 PWs)   bands (ev):

   -66.9735 -66.9734 -52.7047 -52.6937 -52.6847 -52.6773 -52.6705 -52.6681
   -51.7874 -51.7841 -51.7837 -51.7821 -51.7799 -51.7738 -51.7731 -51.7650
   -33.0656 -33.0645 -33.0641 -33.0629 -33.0623 -33.0610 -24.2174 -24.2167
   -24.1807 -24.1698 -24.1686 -24.1670 -24.1552 -24.1416 -24.1229 -24.1214
   -24.1198 -24.0517 -24.0282 -24.0092 -23.9857 -23.9823 -23.9589 -23.9484
   -23.2159 -23.1795 -23.1777 -23.1663 -23.1608 -23.1446 -23.1379 -23.1356
   -23.1220 -23.1105 -23.1016 -23.1008 -23.0917 -23.0843 -23.0528 -23.0503
   -23.0453 -23.0389 -23.0354 -23.0312 -23.0292 -23.0201 -23.0111 -22.9942
    12.5724  13.9403  14.0349  14.6988  15.5650  15.5909  15.6413  15.6639
    15.7060  15.7303  15.7617  15.8903  15.9142  15.9897  16.1465  16.3105
    16.5043  16.6412  16.7232  16.8806  17.0753  17.0885  17.0979  17.1449
    17.1457  17.2173  17.3324  17.3386  17.4393  17.7853  17.8230  17.8603
    17.8797  17.8902  17.9759  18.0705  18.1311  18.1335  18.1455  18.1634
    18.2378  18.3190  18.4044  18.4934  18.5039  18.8000  18.8905  19.1127
    19.6591  19.7655  19.8014  19.9279  19.9798  20.0027  20.0472  20.2786
    20.2819  20.3107  20.3629  20.4077  20.4513  20.4554  20.5326  20.5671
    20.6002  20.6561  20.6836  20.6901  20.8449  20.8512  20.9057  20.9478
    20.9895

          k =-0.1667 0.1667 0.1667 (  9765 PWs)   bands (ev):

   -66.9735 -66.9734 -52.7138 -52.6883 -52.6883 -52.6717 -52.6717 -52.6651
   -51.7893 -51.7878 -51.7870 -51.7819 -51.7747 -51.7747 -51.7738 -51.7600
   -33.0655 -33.0655 -33.0641 -33.0630 -33.0615 -33.0614 -24.2583 -24.2422
   -24.2422 -24.1864 -24.1864 -24.1774 -24.1251 -24.1251 -24.1244 -24.0909
   -24.0818 -24.0818 -23.9810 -23.9809 -23.9666 -23.9654 -23.9654 -23.9470
   -23.2335 -23.2003 -23.2002 -23.1939 -23.1938 -23.1637 -23.1442 -23.1435
   -23.1286 -23.0696 -23.0692 -23.0638 -23.0634 -23.0634 -23.0627 -23.0581
   -23.0410 -23.0404 -23.0388 -23.0387 -23.0333 -23.0283 -22.9895 -22.9894
    11.8717  14.5810  14.7674  14.7674  15.0143  15.1505  15.1506  15.2496
    15.3269  15.3269  15.5510  15.5511  15.9134  16.0365  16.0366  16.5501
    16.8478  16.8478  16.8760  17.0246  17.0262  17.0263  17.0595  17.0596
    17.1619  17.1620  17.1923  17.3180  17.4244  17.4246  17.9077  17.9202
    17.9202  18.2594  18.3072  18.3073  18.3431  18.3431  18.7608  18.7609
    18.7915  18.7934  18.9598  18.9599  19.0120  19.1803  19.2060  19.2061
    19.2208  19.3768  19.3769  19.7681  19.7684  19.8387  20.3126  20.3127
    20.3324  20.3821  20.4378  20.4379  20.5718  20.5718  20.5829  20.6289
    20.6290  20.6556  20.6556  20.8722  20.8722  20.9337  21.0029  21.0395
    21.1817

          k =-0.1667 0.3333 0.1667 (  9771 PWs)   bands (ev):

   -66.9735 -66.9734 -52.7080 -52.6930 -52.6848 -52.6752 -52.6708 -52.6672
   -51.7876 -51.7851 -51.7843 -51.7834 -51.7775 -51.7768 -51.7713 -51.7630
   -33.0654 -33.0646 -33.0639 -33.0630 -33.0623 -33.0615 -24.2301 -24.2219
   -24.1979 -24.1737 -24.1577 -24.1569 -24.1566 -24.1495 -24.1367 -24.1137
   -24.1043 -24.0624 -24.0252 -24.0033 -23.9761 -23.9633 -23.9614 -23.9582
   -23.2181 -23.1780 -23.1741 -23.1689 -23.1674 -23.1596 -23.1464 -23.1361
   -23.1307 -23.0903 -23.0806 -23.0778 -23.0755 -23.0747 -23.0649 -23.0543
   -23.0528 -23.0521 -23.0393 -23.0339 -23.0321 -23.0258 -23.0042 -22.9963
    12.3020  13.8109  14.8314  14.9542  15.0426  15.1505  15.4605  15.4994
    15.5466  15.6097  15.7677  15.7864  15.9525  16.0744  16.1148  16.3782
    16.4871  16.6385  16.8512  16.9806  16.9927  17.0234  17.0599  17.1713
    17.1904  17.2148  17.4095  17.4316  17.5655  17.6824  17.7129  17.7592
    18.0325  18.0387  18.1179  18.1732  18.2146  18.2747  18.2909  18.2923
    18.3354  18.3594  18.5542  18.6290  18.6975  18.7385  19.0057  19.0144
    19.5374  19.6059  19.6256  19.9243  19.9766  20.0603  20.1744  20.1904
    20.2342  20.3339  20.4179  20.4848  20.4996  20.5277  20.6402  20.6581
    20.7026  20.7280  20.7612  20.7919  20.7935  20.9855  21.0040  21.1118
    21.1196

          k = 0.1667-0.3333 0.1667 (  9771 PWs)   bands (ev):

   -66.9735 -66.9734 -52.7080 -52.6930 -52.6848 -52.6752 -52.6708 -52.6672
   -51.7878 -51.7851 -51.7842 -51.7832 -51.7775 -51.7771 -51.7713 -51.7630
   -33.0653 -33.0647 -33.0639 -33.0631 -33.0624 -33.0614 -24.2301 -24.2219
   -24.1979 -24.1738 -24.1577 -24.1569 -24.1566 -24.1495 -24.1367 -24.1137
   -24.1043 -24.0624 -24.0252 -24.0033 -23.9761 -23.9633 -23.9614 -23.9582
   -23.2183 -23.1775 -23.1744 -23.1691 -23.1670 -23.1594 -23.1469 -23.1362
   -23.1307 -23.0900 -23.0810 -23.0774 -23.0752 -23.0749 -23.0652 -23.0540
   -23.0528 -23.0519 -23.0393 -23.0341 -23.0326 -23.0254 -23.0042 -22.9965
    12.3020  13.8109  14.8314  14.9542  15.0426  15.1505  15.4605  15.4994
    15.5466  15.6097  15.7677  15.7863  15.9525  16.0745  16.1148  16.3782
    16.4870  16.6385  16.8511  16.9806  16.9926  17.0234  17.0599  17.1714
    17.1903  17.2149  17.4095  17.4317  17.5656  17.6824  17.7128  17.7590
    18.0326  18.0386  18.1179  18.1733  18.2146  18.2747  18.2909  18.2923
    18.3354  18.3594  18.5541  18.6289  18.6974  18.7386  19.0057  19.0144
    19.5374  19.6059  19.6256  19.9245  19.9765  20.0604  20.1745  20.1904
    20.2342  20.3339  20.4178  20.4848  20.4995  20.5279  20.6402  20.6580
    20.7024  20.7281  20.7612  20.7919  20.7935  20.9855  21.0040  21.1120
    21.1193

          k =-0.1667-0.5000 0.1667 (  9786 PWs)   bands (ev):

   -66.9735 -66.9735 -52.7003 -52.7003 -52.6800 -52.6800 -52.6693 -52.6693
   -51.7855 -51.7854 -51.7813 -51.7813 -51.7807 -51.7805 -51.7672 -51.7671
   -33.0649 -33.0649 -33.0635 -33.0635 -33.0620 -33.0620 -24.1923 -24.1923
   -24.1890 -24.1890 -24.1551 -24.1551 -24.1522 -24.1522 -24.1295 -24.1295
   -24.0992 -24.0992 -24.0334 -24.0334 -23.9684 -23.9684 -23.9606 -23.9606
   -23.1950 -23.1949 -23.1542 -23.1540 -23.1484 -23.1484 -23.1242 -23.1240
   -23.1168 -23.1168 -23.1139 -23.1137 -23.0752 -23.0752 -23.0698 -23.0697
   -23.0455 -23.0454 -23.0389 -23.0388 -23.0220 -23.0218 -23.0099 -23.0097
    12.9738  12.9738  14.9886  14.9887  15.1070  15.1071  15.7619  15.7619
    15.8412  15.8412  15.9349  15.9350  15.9675  15.9675  16.0869  16.0869
    16.1737  16.1737  16.9029  16.9030  16.9676  16.9677  17.3974  17.3975
    17.4433  17.4433  17.4602  17.4603  17.5436  17.5436  17.9146  17.9147
    17.9253  17.9253  18.0264  18.0265  18.1386  18.1386  18.1557  18.1557
    18.1587  18.1588  18.1864  18.1864  18.2280  18.2281  19.1482  19.1483
    19.9424  19.9425  19.9475  19.9475  20.0022  20.0022  20.0655  20.0656
    20.1847  20.1847  20.2178  20.2179  20.5858  20.5858  20.6698  20.6699
    20.7330  20.7331  20.8910  20.8912  20.9045  20.9046  21.0336  21.0336
    21.0454

          k =-0.1667 0.3333 0.3333 (  9765 PWs)   bands (ev):

   -66.9735 -66.9734 -52.7030 -52.6921 -52.6854 -52.6771 -52.6721 -52.6694
   -51.7864 -51.7842 -51.7835 -51.7818 -51.7787 -51.7745 -51.7740 -51.7660
   -33.0654 -33.0646 -33.0642 -33.0626 -33.0622 -33.0614 -24.2094 -24.2033
   -24.1796 -24.1669 -24.1651 -24.1579 -24.1498 -24.1442 -24.1255 -24.1247
   -24.1044 -24.0644 -24.0274 -24.0124 -23.9928 -23.9910 -23.9663 -23.9660
   -23.2078 -23.1782 -23.1695 -23.1603 -23.1564 -23.1550 -23.1385 -23.1290
   -23.1167 -23.1048 -23.1022 -23.0945 -23.0884 -23.0827 -23.0638 -23.0523
   -23.0511 -23.0474 -23.0416 -23.0357 -23.0252 -23.0178 -23.0146 -23.0010
    12.7098  14.0540  14.1546  14.8330  15.1440  15.4241  15.5234  15.7323
    15.7727  15.8569  15.9895  16.0075  16.1148  16.1231  16.3054  16.3618
    16.5581  16.6498  16.6829  16.8875  16.9635  17.0932  17.1089  17.2178
    17.2185  17.2251  17.2439  17.2962  17.4721  17.6858  17.7112  17.7579
    17.8074  17.8153  17.8684  17.9936  18.0041  18.0173  18.0321  18.0873
    18.1199  18.1604  18.1900  18.2681  18.3009  18.5652  18.5878  19.1430
    19.8326  19.8542  19.9029  20.0534  20.0829  20.1050  20.1523  20.1932
    20.3623  20.3795  20.4195  20.4685  20.4714  20.4765  20.5343  20.5754
    20.6240  20.6501  20.7010  20.8369  20.8494  20.9149  20.9304  21.0014
    21.0355

          k = 0.1667 0.3333-0.3333 (  9765 PWs)   bands (ev):

   -66.9735 -66.9734 -52.7030 -52.6921 -52.6854 -52.6771 -52.6721 -52.6694
   -51.7867 -51.7839 -51.7830 -51.7819 -51.7790 -51.7746 -51.7738 -51.7660
   -33.0653 -33.0647 -33.0643 -33.0627 -33.0622 -33.0613 -24.2094 -24.2033
   -24.1796 -24.1669 -24.1651 -24.1579 -24.1498 -24.1442 -24.1255 -24.1247
   -24.1044 -24.0644 -24.0274 -24.0124 -23.9929 -23.9909 -23.9663 -23.9660
   -23.2081 -23.1777 -23.1692 -23.1601 -23.1569 -23.1557 -23.1381 -23.1290
   -23.1168 -23.1047 -23.1018 -23.0944 -23.0886 -23.0827 -23.0641 -23.0519
   -23.0510 -23.0475 -23.0412 -23.0360 -23.0256 -23.0174 -23.0145 -23.0012
    12.7098  14.0540  14.1546  14.8330  15.1439  15.4241  15.5234  15.7322
    15.7727  15.8569  15.9896  16.0075  16.1149  16.1230  16.3055  16.3618
    16.5581  16.6497  16.6828  16.8876  16.9636  17.0933  17.1089  17.2178
    17.2185  17.2252  17.2440  17.2962  17.4719  17.6857  17.7112  17.7580
    17.8074  17.8153  17.8684  17.9937  18.0040  18.0172  18.0321  18.0873
    18.1199  18.1603  18.1901  18.2682  18.3008  18.5651  18.5879  19.1430
    19.8325  19.8544  19.9029  20.0537  20.0827  20.1051  20.1522  20.1934
    20.3622  20.3795  20.4197  20.4685  20.4711  20.4768  20.5345  20.5751
    20.6240  20.6502  20.7009  20.8368  20.8494  20.9149  20.9305  21.0013
    21.0354

          k =-0.1667-0.5000 0.3333 (  9772 PWs)   bands (ev):

   -66.9735 -66.9735 -52.6966 -52.6966 -52.6816 -52.6816 -52.6713 -52.6713
   -51.7854 -51.7851 -51.7813 -51.7808 -51.7781 -51.7780 -51.7702 -51.7701
   -33.0652 -33.0652 -33.0635 -33.0635 -33.0616 -33.0615 -24.1878 -24.1877
   -24.1819 -24.1819 -24.1532 -24.1532 -24.1479 -24.1479 -24.1264 -24.1264
   -24.0755 -24.0755 -24.0390 -24.0390 -23.9958 -23.9958 -23.9687 -23.9687
   -23.1946 -23.1942 -23.1567 -23.1561 -23.1433 -23.1431 -23.1347 -23.1345
   -23.1135 -23.1133 -23.1071 -23.1070 -23.0968 -23.0965 -23.0564 -23.0562
   -23.0423 -23.0421 -23.0393 -23.0390 -23.0258 -23.0256 -23.0086 -23.0084
    13.3374  13.3374  14.4868  14.4868  15.3799  15.3799  15.9573  15.9574
    15.9903  15.9904  16.0291  16.0291  16.1864  16.1864  16.2935  16.2935
    16.3169  16.3169  16.9734  16.9735  17.0610  17.0611  17.0905  17.0906
    17.1968  17.1968  17.3266  17.3266  17.5082  17.5082  17.6230  17.6230
    17.7235  17.7235  17.8783  17.8783  17.9060  17.9061  17.9671  17.9672
    18.0115  18.0116  18.0751  18.0751  18.1286  18.1286  18.9167  18.9167
    19.9916  19.9917  20.0903  20.0903  20.1932  20.1932  20.2214  20.2215
    20.2841  20.2841  20.3071  20.3072  20.5371  20.5371  20.5604  20.5605
    20.7481  20.7482  20.7813  20.7814  20.8005  20.8005  20.8752  20.8754
    20.9426

          k =-0.3333 0.3333 0.3333 (  9792 PWs)   bands (ev):

   -66.9736 -66.9734 -52.6984 -52.6879 -52.6879 -52.6763 -52.6763 -52.6722
   -51.7852 -51.7838 -51.7816 -51.7807 -51.7769 -51.7764 -51.7755 -51.7688
   -33.0649 -33.0646 -33.0646 -33.0622 -33.0621 -33.0620 -24.1840 -24.1767
   -24.1767 -24.1616 -24.1616 -24.1519 -24.1367 -24.1283 -24.1283 -24.1009
   -24.0979 -24.0978 -24.0191 -24.0191 -24.0184 -24.0184 -24.0030 -23.9817
   -23.1913 -23.1698 -23.1690 -23.1544 -23.1538 -23.1322 -23.1317 -23.1234
   -23.1130 -23.1087 -23.0892 -23.0887 -23.0874 -23.0797 -23.0794 -23.0665
   -23.0563 -23.0562 -23.0476 -23.0458 -23.0225 -23.0219 -23.0198 -23.0197
    13.1052  14.3231  14.4819  14.4819  15.1247  15.2866  15.2867  16.0183
    16.0316  16.0317  16.2354  16.2355  16.3286  16.4134  16.4452  16.4452
    16.5503  16.6249  16.7170  16.7170  16.9722  16.9723  17.1789  17.2039
    17.2039  17.3700  17.3702  17.3792  17.3792  17.3939  17.6236  17.6446
    17.6446  17.6524  17.6813  17.6814  17.7340  17.7359  17.7498  17.7500
    17.8778  17.8780  17.9391  17.9391  18.0900  18.1399  18.1400  18.8509
    20.0824  20.0825  20.1145  20.1262  20.3001  20.3518  20.3520  20.3983
    20.3985  20.4653  20.5211  20.5212  20.5326  20.5744  20.5745  20.6827
    20.6827  20.8222  20.8223  20.8250  20.8251  20.8676  20.8688  21.0363
    21.0364

          k =-0.3333-0.5000 0.3333 (  9770 PWs)   bands (ev):

   -66.9735 -66.9735 -52.6926 -52.6926 -52.6821 -52.6821 -52.6748 -52.6748
   -51.7841 -51.7841 -51.7795 -51.7795 -51.7784 -51.7782 -51.7726 -51.7725
   -33.0647 -33.0647 -33.0634 -33.0634 -33.0619 -33.0619 -24.1707 -24.1707
   -24.1634 -24.1634 -24.1415 -24.1415 -24.1404 -24.1404 -24.1135 -24.1135
   -24.0766 -24.0766 -24.0584 -24.0584 -24.0177 -24.0177 -24.0011 -24.0011
   -23.1797 -23.1796 -23.1555 -23.1553 -23.1337 -23.1336 -23.1219 -23.1219
   -23.1023 -23.1023 -23.1017 -23.1015 -23.0893 -23.0892 -23.0719 -23.0717
   -23.0506 -23.0506 -23.0503 -23.0502 -23.0336 -23.0336 -23.0218 -23.0218
    13.7059  13.7060  14.7999  14.7999  14.9127  14.9128  15.8158  15.8159
    16.2632  16.2632  16.2817  16.2817  16.3495  16.3496  16.4928  16.4928
    16.5414  16.5415  17.0040  17.0041  17.0657  17.0657  17.0758  17.0758
    17.1370  17.1370  17.3577  17.3577  17.3832  17.3832  17.4523  17.4523
    17.5315  17.5315  17.6269  17.6269  17.6344  17.6344  17.7076  17.7076
    17.7676  17.7676  17.7691  17.7691  17.8324  17.8325  18.3861  18.3861
    20.2865  20.2866  20.3251  20.3251  20.3885  20.3886  20.4046  20.4047
    20.4478  20.4479  20.5170  20.5170  20.6007  20.6007  20.7344  20.7345
    20.7612  20.7612  20.7798  20.7799  20.8227  20.8229  20.8587  20.8588
    20.8734

     the Fermi energy is    19.3959 ev

!    total energy              =   -4133.53111373 Ry
     total all-electron energy =    -34515.581680 Ry
     estimated scf accuracy    <       0.00000566 Ry
     smearing contrib. (-TS)   =       0.00110435 Ry
     internal energy E=F+TS    =   -4133.53221807 Ry

     The total energy is F=E-TS. E is the sum of the following terms:
     one-electron contribution =   -1002.32870339 Ry
     hartree contribution      =     641.80719449 Ry
     xc contribution           =    -367.56404219 Ry
     ewald contribution        =   -2200.41328518 Ry
     one-center paw contrib.   =   -1205.03338180 Ry

     total magnetization       =     3.68 Bohr mag/cell
     absolute magnetization    =    14.69 Bohr mag/cell

     convergence has been achieved in  52 iterations


     Computing stress (Cartesian axis) and pressure

          total   stress  (Ry/bohr**3)                   (kbar)     P=       -3.25
  -0.00002208   0.00000003   0.00000003           -3.25        0.00        0.00
   0.00000003  -0.00002208   0.00000003            0.00       -3.25        0.00
   0.00000003   0.00000003  -0.00002208            0.00        0.00       -3.25


     Writing all to output data dir ./tmp/fecr_fe02cr14_h0.00.save/ :
     XML data file, charge density, pseudopotentials, collected wavefunctions
 
     init_run     :     35.53s CPU     23.31s WALL (       1 calls)
     electrons    :   2108.75s CPU   1462.24s WALL (       1 calls)
     stress       :      9.69s CPU      9.38s WALL (       1 calls)

     Called by init_run:
     wfcinit      :      2.99s CPU      3.70s WALL (       1 calls)
     potinit      :     31.55s CPU     18.48s WALL (       1 calls)
     hinit0       :      0.75s CPU      0.75s WALL (       1 calls)

     Called by electrons:
     c_bands      :    483.20s CPU    484.41s WALL (      52 calls)
     sum_band     :     49.44s CPU     49.54s WALL (      52 calls)
     v_of_rho     :      3.05s CPU      2.47s WALL (      53 calls)
     newd         :      3.07s CPU      3.10s WALL (      53 calls)
                                        3.10s GPU  (      53 calls)
     PAW_pot      :   1596.62s CPU    936.25s WALL (      53 calls)
     mix_rho      :      3.44s CPU      3.47s WALL (      52 calls)

     Called by c_bands:
     init_us_2    :      4.16s CPU      3.97s WALL (    6784 calls)
     cegterg      :    434.09s CPU    435.45s WALL (    3328 calls)

     Called by *egterg:
     cdiaghg      :    147.30s CPU    148.41s WALL (   17587 calls)
                                      148.34s GPU  (   17587 calls)
     h_psi        :    133.39s CPU    134.10s WALL (   17651 calls)
                                      133.96s GPU  (   17651 calls)
     s_psi        :      8.87s CPU      9.01s WALL (   17651 calls)
     g_psi        :      0.08s CPU      0.74s WALL (   14259 calls)
                                        0.70s GPU  (   14259 calls)

     Called by h_psi:
     h_psi:calbec :      0.65s CPU     29.19s WALL (   17651 calls)
                                       29.14s GPU  (   17651 calls)
     vloc_psi     :     68.91s CPU     68.76s WALL (   17651 calls)
                                       68.70s GPU  (   17651 calls)
     add_vuspsi   :      8.67s CPU     35.18s WALL (   17651 calls)
                                       35.12s GPU  (   17651 calls)

     General routines
     calbec       :      0.79s CPU      0.85s WALL (   21043 calls)
     fft          :      0.60s CPU      0.74s WALL (    1344 calls)
                                        0.17s GPU  (    1238 calls)
     ffts         :      0.22s CPU      0.25s WALL (    1219 calls)
                                        0.05s GPU  (    1113 calls)
     fftw         :      3.94s CPU     64.69s WALL (  185590 calls)
                                       64.26s GPU  (  185590 calls)
     interpolate  :      0.84s CPU      0.85s WALL (     106 calls)
 
     Parallel routines
 
     PWSCF        :  35m57.01s CPU  24m58.32s WALL

 
   This run was terminated on:   9:51:18  24May2026            

=------------------------------------------------------------------------------=
   JOB DONE.
=------------------------------------------------------------------------------=
Warning: ieee_divide_by_zero is signaling
Warning: ieee_inexact is signaling
FORTRAN STOP
