--------------------------------------------------------------------------
WARNING: Open MPI tried to bind a process but failed.  This is a
warning only; your job will continue, though performance may
be degraded.

  Local host:        4b82db919bf5
  Application name:  /root/q-e-qe-7.3.1/bin/pw.x
  Error message:     failed to bind memory
  Location:          ../../../../../orte/mca/rtc/hwloc/rtc_hwloc.c:447

--------------------------------------------------------------------------

     Program PWSCF v.7.3.1 starts on 17May2026 at  7:14:18 

     This program is part of the open-source Quantum ESPRESSO suite
     for quantum simulation of materials; please cite
         "P. Giannozzi et al., J. Phys.:Condens. Matter 21 395502 (2009);
         "P. Giannozzi et al., J. Phys.:Condens. Matter 29 465901 (2017);
         "P. Giannozzi et al., J. Chem. Phys. 152 154105 (2020);
          URL http://www.quantum-espresso.org", 
     in publications or presentations arising from this work. More details at
     http://www.quantum-espresso.org/quote

     Parallel version (MPI & OpenMP), running on       8 processor cores
     Number of MPI processes:                 1
     Threads/MPI process:                     8

     MPI processes distributed on     1 nodes
     50774 MiB available memory on the printing compute node when the environment starts
 
     Reading input from inputs/fecr_fe09cr07_t0.01.in

     Current dimensions of program PWSCF are:
     Max number of different atomic species (ntypx) = 10
     Max number of k-points (npk) =  40000
     Max angular momentum in pseudopotentials (lmaxx) =  4
     file Fe.pbe-spn-kjpaw_psl.1.0.0.UPF: wavefunction(s)  3P 3D renormalized
     file Cr.pbe-spn-kjpaw_psl.1.0.0.UPF: wavefunction(s)  3S 3P 3D renormalized
     Message from routine setup:
     using ibrav=0 with symmetry is DISCOURAGED, use correct ibrav instead
 
     Subspace diagonalization in iterative solution of the eigenvalue problem:
     a serial algorithm will be used

 
     G-vector sticks info
     --------------------
     sticks:   dense  smooth     PW     G-vecs:    dense   smooth      PW
     Sum        4397    2209    621               222639    78685   11905
 
     Using Slab Decomposition
 


     bravais-lattice index     =            0
     lattice parameter (alat)  =      10.7293  a.u.
     unit-cell volume          =    1253.7206 (a.u.)^3
     number of atoms/cell      =           16
     number of atomic types    =            2
     number of electrons       =       242.00
     number of Kohn-Sham states=          145
     kinetic-energy cutoff     =      60.0000  Ry
     charge density cutoff     =     480.0000  Ry
     scf convergence threshold =      1.0E-08
     mixing beta               =       0.3000
     number of iterations used =            8  plain     mixing
     Exchange-correlation= SLA  PW   PBX  PBC
                           (   1   4   3   4   0   0   0)

     GPU acceleration is ACTIVE.  1 visible GPUs per MPI rank


     celldm(1)=  10.729338  celldm(2)=   0.000000  celldm(3)=   0.000000
     celldm(4)=   0.000000  celldm(5)=   0.000000  celldm(6)=   0.000000

     crystal axes: (cart. coord. in units of alat)
               a(1) = (   1.000000   0.000000   0.000000 )  
               a(2) = (   0.000000   1.000000   0.000000 )  
               a(3) = (   0.000000   0.000000   1.015037 )  

     reciprocal axes: (cart. coord. in units 2 pi/alat)
               b(1) = (  1.000000  0.000000  0.000000 )  
               b(2) = (  0.000000  1.000000  0.000000 )  
               b(3) = (  0.000000  0.000000  0.985185 )  


     PseudoPot. # 1 for Fe read from file:
     ./pseudo/Fe.pbe-spn-kjpaw_psl.1.0.0.UPF
     MD5 check sum: fc81f059e5c5069939230b1155715ae8
     Pseudo is Projector augmented-wave + core cor, Zval = 16.0
     Generated using &quot;atomic&quot; code by A. Dal Corso  v.6.3
     Shape of augmentation charge: PSQ
     Using radial grid of 1191 points,  6 beta functions with: 
                l(1) =   0
                l(2) =   0
                l(3) =   1
                l(4) =   1
                l(5) =   2
                l(6) =   2
     Q(r) pseudized with 0 coefficients 


     PseudoPot. # 2 for Cr read from file:
     ./pseudo/Cr.pbe-spn-kjpaw_psl.1.0.0.UPF
     MD5 check sum: 198f1a2427a48552563eee314eba32ba
     Pseudo is Projector augmented-wave + core cor, Zval = 14.0
     Generated using &quot;atomic&quot; code by A. Dal Corso  v.6.3
     Shape of augmentation charge: PSQ
     Using radial grid of 1183 points,  6 beta functions with: 
                l(1) =   0
                l(2) =   0
                l(3) =   1
                l(4) =   1
                l(5) =   2
                l(6) =   2
     Q(r) pseudized with 0 coefficients 


     atomic species   valence    mass     pseudopotential
     Fe               16.00    55.84500     Fe( 1.00)
     Cr               14.00    51.99600     Cr( 1.00)

     Starting magnetic structure 
     atomic species   magnetization
     Fe              0.500
     Cr              0.300

      2 Sym. Ops., with inversion, found



   Cartesian axes

     site n.     atom                  positions (alat units)
         1        Cr     tau(   1) = (   0.0000000   0.0000000   0.0000000  )
         2        Fe     tau(   2) = (   0.2500000   0.2500000   0.2537593  )
         3        Fe     tau(   3) = (   0.0000000   0.0000000   0.5075187  )
         4        Cr     tau(   4) = (   0.2500000   0.2500000   0.7612780  )
         5        Cr     tau(   5) = (   0.0000000   0.5000000   0.0000000  )
         6        Fe     tau(   6) = (   0.2500000   0.7500000   0.2537593  )
         7        Cr     tau(   7) = (   0.0000000   0.5000000   0.5075187  )
         8        Fe     tau(   8) = (   0.2500000   0.7500000   0.7612780  )
         9        Cr     tau(   9) = (   0.5000000   0.0000000   0.0000000  )
        10        Fe     tau(  10) = (   0.7500000   0.2500000   0.2537593  )
        11        Fe     tau(  11) = (   0.5000000   0.0000000   0.5075187  )
        12        Fe     tau(  12) = (   0.7500000   0.2500000   0.7612780  )
        13        Fe     tau(  13) = (   0.5000000   0.5000000   0.0000000  )
        14        Cr     tau(  14) = (   0.7500000   0.7500000   0.2537593  )
        15        Cr     tau(  15) = (   0.5000000   0.5000000   0.5075187  )
        16        Fe     tau(  16) = (   0.7500000   0.7500000   0.7612780  )

     number of k points=   112  Marzari-Vanderbilt smearing, width (Ry)=  0.0200

     Number of k-points >= 100: set verbosity='high' to print them.

     Dense  grid:   222639 G-vectors     FFT dimensions: (  75,  75,  75)

     Smooth grid:    78685 G-vectors     FFT dimensions: (  54,  54,  54)

     Estimated max dynamical RAM per process >       5.71 GB

     Check: negative core charge=   -0.000003
     Generating pointlists ...
     new r_m :   0.1795 (alat units)  1.9261 (a.u.) for type    1
     new r_m :   0.1795 (alat units)  1.9261 (a.u.) for type    2

     Initial potential from superposition of free atoms

     starting charge     241.9907, renormalised to     242.0000
     Starting wfcs are  160 randomized atomic wfcs
     Checking if some PAW data can be deallocated... 

     total cpu time spent up to now is       34.5 secs

     Self-consistent Calculation

     iteration #  1     ecut=    60.00 Ry     beta= 0.30
     Davidson diagonalization with overlap
     ethr =  1.00E-02,  avg # of iterations =  4.1

     negative rho (up, down):  0.000E+00 2.359E+00

     total cpu time spent up to now is       93.6 secs

     total energy              =   -4683.06574781 Ry
     estimated scf accuracy    <     265.75579479 Ry

     total magnetization       =    48.06 Bohr mag/cell
     absolute magnetization    =    72.78 Bohr mag/cell

     iteration #  2     ecut=    60.00 Ry     beta= 0.30
     Davidson diagonalization with overlap
     ethr =  1.00E-02,  avg # of iterations =  4.5

     negative rho (up, down):  0.000E+00 1.793E+00

     total cpu time spent up to now is      152.1 secs

     total energy              =   -4681.35483850 Ry
     estimated scf accuracy    <     103.06803522 Ry

     total magnetization       =    19.20 Bohr mag/cell
     absolute magnetization    =    20.32 Bohr mag/cell

     iteration #  3     ecut=    60.00 Ry     beta= 0.30
     Davidson diagonalization with overlap
     ethr =  1.00E-02,  avg # of iterations =  5.6

     negative rho (up, down):  0.000E+00 1.536E+00

     total cpu time spent up to now is      222.5 secs

     total energy              =   -4685.41463830 Ry
     estimated scf accuracy    <     210.36536932 Ry

     total magnetization       =    27.25 Bohr mag/cell
     absolute magnetization    =    27.91 Bohr mag/cell

     iteration #  4     ecut=    60.00 Ry     beta= 0.30
     Davidson diagonalization with overlap
     ethr =  1.00E-02,  avg # of iterations =  4.5

     negative rho (up, down):  0.000E+00 1.229E+00

     total cpu time spent up to now is      283.9 secs

     total energy              =   -4698.04999606 Ry
     estimated scf accuracy    <      18.15362480 Ry

     total magnetization       =    33.38 Bohr mag/cell
     absolute magnetization    =    34.43 Bohr mag/cell

     iteration #  5     ecut=    60.00 Ry     beta= 0.30
     Davidson diagonalization with overlap
     ethr =  7.50E-03,  avg # of iterations =  1.7

     negative rho (up, down):  0.000E+00 8.309E-01

     total cpu time spent up to now is      331.7 secs

     total energy              =   -4698.34113806 Ry
     estimated scf accuracy    <      20.72321957 Ry

     total magnetization       =    32.24 Bohr mag/cell
     absolute magnetization    =    33.22 Bohr mag/cell

     iteration #  6     ecut=    60.00 Ry     beta= 0.30
     Davidson diagonalization with overlap
     ethr =  7.50E-03,  avg # of iterations =  1.5

     negative rho (up, down):  0.000E+00 4.501E-01

     total cpu time spent up to now is      377.6 secs

     total energy              =   -4699.40934180 Ry
     estimated scf accuracy    <       9.00943927 Ry

     total magnetization       =    32.29 Bohr mag/cell
     absolute magnetization    =    33.06 Bohr mag/cell

     iteration #  7     ecut=    60.00 Ry     beta= 0.30
     Davidson diagonalization with overlap
     ethr =  3.72E-03,  avg # of iterations =  1.6

     negative rho (up, down):  0.000E+00 2.557E-01

     total cpu time spent up to now is      424.2 secs

     total energy              =   -4699.75593347 Ry
     estimated scf accuracy    <       7.62078941 Ry

     total magnetization       =    31.42 Bohr mag/cell
     absolute magnetization    =    32.28 Bohr mag/cell

     iteration #  8     ecut=    60.00 Ry     beta= 0.30
     Davidson diagonalization with overlap
     ethr =  3.15E-03,  avg # of iterations =  1.2

     negative rho (up, down):  0.000E+00 1.767E-01

     total cpu time spent up to now is      468.7 secs

     total energy              =   -4700.14358078 Ry
     estimated scf accuracy    <       3.91380357 Ry

     total magnetization       =    29.38 Bohr mag/cell
     absolute magnetization    =    30.56 Bohr mag/cell

     iteration #  9     ecut=    60.00 Ry     beta= 0.30
     Davidson diagonalization with overlap
     ethr =  1.62E-03,  avg # of iterations =  1.5

     negative rho (up, down):  0.000E+00 6.406E-02

     total cpu time spent up to now is      514.1 secs

     total energy              =   -4700.30815236 Ry
     estimated scf accuracy    <       2.41591929 Ry

     total magnetization       =    28.02 Bohr mag/cell
     absolute magnetization    =    29.37 Bohr mag/cell

     iteration # 10     ecut=    60.00 Ry     beta= 0.30
     Davidson diagonalization with overlap
     ethr =  9.98E-04,  avg # of iterations =  1.6

     negative rho (up, down):  0.000E+00 1.924E-03

     total cpu time spent up to now is      560.1 secs

     total energy              =   -4700.46401372 Ry
     estimated scf accuracy    <       2.05918189 Ry

     total magnetization       =    25.84 Bohr mag/cell
     absolute magnetization    =    27.56 Bohr mag/cell

     iteration # 11     ecut=    60.00 Ry     beta= 0.30
     Davidson diagonalization with overlap
     ethr =  8.51E-04,  avg # of iterations =  1.3

     negative rho (up, down):  0.000E+00 1.409E-03

     total cpu time spent up to now is      604.7 secs

     total energy              =   -4700.54744391 Ry
     estimated scf accuracy    <       0.55960471 Ry

     total magnetization       =    22.55 Bohr mag/cell
     absolute magnetization    =    24.95 Bohr mag/cell

     iteration # 12     ecut=    60.00 Ry     beta= 0.30
     Davidson diagonalization with overlap
     ethr =  2.31E-04,  avg # of iterations =  6.4

     negative rho (up, down):  0.000E+00 1.040E-03

     total cpu time spent up to now is      668.7 secs

     total energy              =   -4700.61373216 Ry
     estimated scf accuracy    <       0.87079173 Ry

     total magnetization       =    21.11 Bohr mag/cell
     absolute magnetization    =    23.73 Bohr mag/cell

     iteration # 13     ecut=    60.00 Ry     beta= 0.30
     Davidson diagonalization with overlap
     ethr =  2.31E-04,  avg # of iterations =  1.2

     negative rho (up, down):  0.000E+00 9.014E-04

     total cpu time spent up to now is      713.1 secs

     total energy              =   -4700.62247845 Ry
     estimated scf accuracy    <       0.40363163 Ry

     total magnetization       =    20.78 Bohr mag/cell
     absolute magnetization    =    23.20 Bohr mag/cell

     iteration # 14     ecut=    60.00 Ry     beta= 0.30
     Davidson diagonalization with overlap
     ethr =  1.67E-04,  avg # of iterations =  1.7

     negative rho (up, down):  0.000E+00 5.969E-04

     total cpu time spent up to now is      759.6 secs

     total energy              =   -4700.66402006 Ry
     estimated scf accuracy    <       0.29811564 Ry

     total magnetization       =    21.03 Bohr mag/cell
     absolute magnetization    =    23.40 Bohr mag/cell

     iteration # 15     ecut=    60.00 Ry     beta= 0.30
     Davidson diagonalization with overlap
     ethr =  1.23E-04,  avg # of iterations =  1.3

     negative rho (up, down):  0.000E+00 4.232E-04

     total cpu time spent up to now is      804.7 secs

     total energy              =   -4700.67904761 Ry
     estimated scf accuracy    <       0.35204350 Ry

     total magnetization       =    20.18 Bohr mag/cell
     absolute magnetization    =    22.62 Bohr mag/cell

     iteration # 16     ecut=    60.00 Ry     beta= 0.30
     Davidson diagonalization with overlap
     ethr =  1.23E-04,  avg # of iterations =  1.1

     total cpu time spent up to now is      847.8 secs

     total energy              =   -4700.71024053 Ry
     estimated scf accuracy    <       0.26857743 Ry

     total magnetization       =    19.79 Bohr mag/cell
     absolute magnetization    =    22.25 Bohr mag/cell

     iteration # 17     ecut=    60.00 Ry     beta= 0.30
     Davidson diagonalization with overlap
     ethr =  1.11E-04,  avg # of iterations =  1.3

     total cpu time spent up to now is      892.4 secs

     total energy              =   -4700.70814787 Ry
     estimated scf accuracy    <       0.25388256 Ry

     total magnetization       =    18.89 Bohr mag/cell
     absolute magnetization    =    21.36 Bohr mag/cell

     iteration # 18     ecut=    60.00 Ry     beta= 0.30
     Davidson diagonalization with overlap
     ethr =  1.05E-04,  avg # of iterations =  3.6

     total cpu time spent up to now is      945.0 secs

     total energy              =   -4700.70530528 Ry
     estimated scf accuracy    <       0.81483742 Ry

     total magnetization       =    19.07 Bohr mag/cell
     absolute magnetization    =    21.66 Bohr mag/cell

     iteration # 19     ecut=    60.00 Ry     beta= 0.30
     Davidson diagonalization with overlap
     ethr =  1.05E-04,  avg # of iterations =  1.9

     total cpu time spent up to now is      990.7 secs

     total energy              =   -4700.73945508 Ry
     estimated scf accuracy    <       0.07188903 Ry

     total magnetization       =    17.80 Bohr mag/cell
     absolute magnetization    =    20.54 Bohr mag/cell

     iteration # 20     ecut=    60.00 Ry     beta= 0.30
     Davidson diagonalization with overlap
     c_bands:  1 eigenvalues not converged
     ethr =  2.97E-05,  avg # of iterations =  3.4

     total cpu time spent up to now is     1042.6 secs

     total energy              =   -4700.74446364 Ry
     estimated scf accuracy    <       0.01588740 Ry

     total magnetization       =    17.77 Bohr mag/cell
     absolute magnetization    =    20.45 Bohr mag/cell

     iteration # 21     ecut=    60.00 Ry     beta= 0.30
     Davidson diagonalization with overlap
     c_bands:  1 eigenvalues not converged
     c_bands:  1 eigenvalues not converged
     c_bands:  2 eigenvalues not converged
     c_bands:  1 eigenvalues not converged
     c_bands:  1 eigenvalues not converged
     c_bands:  1 eigenvalues not converged
     c_bands:  1 eigenvalues not converged
     c_bands:  2 eigenvalues not converged
     c_bands:  1 eigenvalues not converged
     c_bands:  1 eigenvalues not converged
     c_bands:  1 eigenvalues not converged
     c_bands:  1 eigenvalues not converged
     c_bands:  4 eigenvalues not converged
     c_bands:  1 eigenvalues not converged
     c_bands:  2 eigenvalues not converged
     ethr =  6.57E-06,  avg # of iterations =  9.8

     total cpu time spent up to now is     1115.6 secs

     total energy              =   -4700.74588442 Ry
     estimated scf accuracy    <       0.01562808 Ry

     total magnetization       =    17.59 Bohr mag/cell
     absolute magnetization    =    20.29 Bohr mag/cell

     iteration # 22     ecut=    60.00 Ry     beta= 0.30
     Davidson diagonalization with overlap
     c_bands:  1 eigenvalues not converged
     ethr =  6.46E-06,  avg # of iterations =  1.3

     total cpu time spent up to now is     1160.6 secs

     total energy              =   -4700.74686993 Ry
     estimated scf accuracy    <       0.00782353 Ry

     total magnetization       =    17.44 Bohr mag/cell
     absolute magnetization    =    20.19 Bohr mag/cell

     iteration # 23     ecut=    60.00 Ry     beta= 0.30
     Davidson diagonalization with overlap
     c_bands:  1 eigenvalues not converged
     c_bands:  1 eigenvalues not converged
     c_bands:  1 eigenvalues not converged
     c_bands:  1 eigenvalues not converged
     c_bands:  1 eigenvalues not converged
     c_bands:  1 eigenvalues not converged
     ethr =  3.23E-06,  avg # of iterations =  5.5

     total cpu time spent up to now is     1220.7 secs

     total energy              =   -4700.74700493 Ry
     estimated scf accuracy    <       0.01671855 Ry

     total magnetization       =    17.32 Bohr mag/cell
     absolute magnetization    =    20.16 Bohr mag/cell

     iteration # 24     ecut=    60.00 Ry     beta= 0.30
     Davidson diagonalization with overlap
     c_bands:  2 eigenvalues not converged
     c_bands:  1 eigenvalues not converged
     ethr =  3.23E-06,  avg # of iterations =  1.7

     total cpu time spent up to now is     1267.2 secs

     total energy              =   -4700.74739392 Ry
     estimated scf accuracy    <       0.00433473 Ry

     total magnetization       =    17.26 Bohr mag/cell
     absolute magnetization    =    20.07 Bohr mag/cell

     iteration # 25     ecut=    60.00 Ry     beta= 0.30
     Davidson diagonalization with overlap
     c_bands:  2 eigenvalues not converged
     c_bands:  3 eigenvalues not converged
     ethr =  1.79E-06,  avg # of iterations =  3.5

     total cpu time spent up to now is     1320.1 secs

     total energy              =   -4700.74773427 Ry
     estimated scf accuracy    <       0.00735922 Ry

     total magnetization       =    17.37 Bohr mag/cell
     absolute magnetization    =    20.14 Bohr mag/cell

     iteration # 26     ecut=    60.00 Ry     beta= 0.30
     Davidson diagonalization with overlap
     ethr =  1.79E-06,  avg # of iterations =  2.3

     total cpu time spent up to now is     1369.3 secs

     total energy              =   -4700.74809872 Ry
     estimated scf accuracy    <       0.00993249 Ry

     total magnetization       =    17.28 Bohr mag/cell
     absolute magnetization    =    20.10 Bohr mag/cell

     iteration # 27     ecut=    60.00 Ry     beta= 0.30
     Davidson diagonalization with overlap
     c_bands:  1 eigenvalues not converged
     c_bands:  1 eigenvalues not converged
     ethr =  1.79E-06,  avg # of iterations =  2.6

     total cpu time spent up to now is     1418.9 secs

     total energy              =   -4700.74861849 Ry
     estimated scf accuracy    <       0.00591945 Ry

     total magnetization       =    17.10 Bohr mag/cell
     absolute magnetization    =    20.03 Bohr mag/cell

     iteration # 28     ecut=    60.00 Ry     beta= 0.30
     Davidson diagonalization with overlap
     ethr =  1.79E-06,  avg # of iterations =  1.2

     total cpu time spent up to now is     1462.8 secs

     total energy              =   -4700.74876937 Ry
     estimated scf accuracy    <       0.00067004 Ry

     total magnetization       =    17.01 Bohr mag/cell
     absolute magnetization    =    19.99 Bohr mag/cell

     iteration # 29     ecut=    60.00 Ry     beta= 0.30
     Davidson diagonalization with overlap
     c_bands:  1 eigenvalues not converged
     c_bands:  2 eigenvalues not converged
     ethr =  2.77E-07,  avg # of iterations =  6.0

     total cpu time spent up to now is     1526.0 secs

     total energy              =   -4700.74901735 Ry
     estimated scf accuracy    <       0.00263500 Ry

     total magnetization       =    17.10 Bohr mag/cell
     absolute magnetization    =    20.02 Bohr mag/cell

     iteration # 30     ecut=    60.00 Ry     beta= 0.30
     Davidson diagonalization with overlap
     c_bands:  1 eigenvalues not converged
     c_bands:  1 eigenvalues not converged
     ethr =  2.77E-07,  avg # of iterations =  4.7

     total cpu time spent up to now is     1584.3 secs

     total energy              =   -4700.74928461 Ry
     estimated scf accuracy    <       0.00032148 Ry

     total magnetization       =    16.98 Bohr mag/cell
     absolute magnetization    =    20.01 Bohr mag/cell

     iteration # 31     ecut=    60.00 Ry     beta= 0.30
     Davidson diagonalization with overlap
     c_bands:  3 eigenvalues not converged
     c_bands:  2 eigenvalues not converged
     c_bands:  1 eigenvalues not converged
     ethr =  1.33E-07,  avg # of iterations =  6.4

     total cpu time spent up to now is     1646.0 secs

     total energy              =   -4700.74943058 Ry
     estimated scf accuracy    <       0.00054689 Ry

     total magnetization       =    16.98 Bohr mag/cell
     absolute magnetization    =    20.03 Bohr mag/cell

     iteration # 32     ecut=    60.00 Ry     beta= 0.30
     Davidson diagonalization with overlap
     c_bands:  1 eigenvalues not converged
     c_bands:  1 eigenvalues not converged
     ethr =  1.33E-07,  avg # of iterations =  3.8

     total cpu time spent up to now is     1698.6 secs

     total energy              =   -4700.74954407 Ry
     estimated scf accuracy    <       0.00036793 Ry

     total magnetization       =    16.96 Bohr mag/cell
     absolute magnetization    =    20.06 Bohr mag/cell

     iteration # 33     ecut=    60.00 Ry     beta= 0.30
     Davidson diagonalization with overlap
     ethr =  1.33E-07,  avg # of iterations =  3.3

     total cpu time spent up to now is     1750.6 secs

     total energy              =   -4700.74966035 Ry
     estimated scf accuracy    <       0.00030538 Ry

     total magnetization       =    16.94 Bohr mag/cell
     absolute magnetization    =    20.07 Bohr mag/cell

     iteration # 34     ecut=    60.00 Ry     beta= 0.30
     Davidson diagonalization with overlap
     ethr =  1.26E-07,  avg # of iterations =  6.1

     total cpu time spent up to now is     1813.3 secs

     total energy              =   -4700.74983277 Ry
     estimated scf accuracy    <       0.00031581 Ry

     total magnetization       =    16.92 Bohr mag/cell
     absolute magnetization    =    20.14 Bohr mag/cell

     iteration # 35     ecut=    60.00 Ry     beta= 0.30
     Davidson diagonalization with overlap
     c_bands:  1 eigenvalues not converged
     ethr =  1.26E-07,  avg # of iterations =  5.5

     total cpu time spent up to now is     1873.8 secs

     total energy              =   -4700.74990172 Ry
     estimated scf accuracy    <       0.00066525 Ry

     total magnetization       =    16.91 Bohr mag/cell
     absolute magnetization    =    20.21 Bohr mag/cell

     iteration # 36     ecut=    60.00 Ry     beta= 0.30
     Davidson diagonalization with overlap
     ethr =  1.26E-07,  avg # of iterations =  2.6

     total cpu time spent up to now is     1922.8 secs

     total energy              =   -4700.74999578 Ry
     estimated scf accuracy    <       0.00024429 Ry

     total magnetization       =    16.91 Bohr mag/cell
     absolute magnetization    =    20.24 Bohr mag/cell

     iteration # 37     ecut=    60.00 Ry     beta= 0.30
     Davidson diagonalization with overlap
     ethr =  1.01E-07,  avg # of iterations =  4.5

     total cpu time spent up to now is     1979.2 secs

     total energy              =   -4700.75003816 Ry
     estimated scf accuracy    <       0.00063236 Ry

     total magnetization       =    16.90 Bohr mag/cell
     absolute magnetization    =    20.30 Bohr mag/cell

     iteration # 38     ecut=    60.00 Ry     beta= 0.30
     Davidson diagonalization with overlap
     ethr =  1.01E-07,  avg # of iterations =  3.8

     total cpu time spent up to now is     2032.6 secs

     total energy              =   -4700.75006528 Ry
     estimated scf accuracy    <       0.00016182 Ry

     total magnetization       =    16.87 Bohr mag/cell
     absolute magnetization    =    20.32 Bohr mag/cell

     iteration # 39     ecut=    60.00 Ry     beta= 0.30
     Davidson diagonalization with overlap
     ethr =  6.69E-08,  avg # of iterations =  1.6

     total cpu time spent up to now is     2078.3 secs

     total energy              =   -4700.75011754 Ry
     estimated scf accuracy    <       0.00019241 Ry

     total magnetization       =    16.88 Bohr mag/cell
     absolute magnetization    =    20.32 Bohr mag/cell

     iteration # 40     ecut=    60.00 Ry     beta= 0.30
     Davidson diagonalization with overlap
     ethr =  6.69E-08,  avg # of iterations =  6.8

     total cpu time spent up to now is     2147.9 secs

     total energy              =   -4700.75025261 Ry
     estimated scf accuracy    <       0.00012387 Ry

     total magnetization       =    16.84 Bohr mag/cell
     absolute magnetization    =    20.45 Bohr mag/cell

     iteration # 41     ecut=    60.00 Ry     beta= 0.30
     Davidson diagonalization with overlap
     ethr =  5.12E-08,  avg # of iterations =  1.0

     total cpu time spent up to now is     2191.0 secs

     total energy              =   -4700.75030895 Ry
     estimated scf accuracy    <       0.00010815 Ry

     total magnetization       =    16.84 Bohr mag/cell
     absolute magnetization    =    20.46 Bohr mag/cell

     iteration # 42     ecut=    60.00 Ry     beta= 0.30
     Davidson diagonalization with overlap
     ethr =  4.47E-08,  avg # of iterations =  5.8

     total cpu time spent up to now is     2253.9 secs

     total energy              =   -4700.75039994 Ry
     estimated scf accuracy    <       0.00013977 Ry

     total magnetization       =    16.82 Bohr mag/cell
     absolute magnetization    =    20.57 Bohr mag/cell

     iteration # 43     ecut=    60.00 Ry     beta= 0.30
     Davidson diagonalization with overlap
     ethr =  4.47E-08,  avg # of iterations =  5.6

     total cpu time spent up to now is     2316.0 secs

     total energy              =   -4700.75051419 Ry
     estimated scf accuracy    <       0.00013059 Ry

     total magnetization       =    16.79 Bohr mag/cell
     absolute magnetization    =    20.68 Bohr mag/cell

     iteration # 44     ecut=    60.00 Ry     beta= 0.30
     Davidson diagonalization with overlap
     ethr =  4.47E-08,  avg # of iterations =  5.2

     total cpu time spent up to now is     2375.8 secs

     total energy              =   -4700.75056381 Ry
     estimated scf accuracy    <       0.00016538 Ry

     total magnetization       =    16.77 Bohr mag/cell
     absolute magnetization    =    20.78 Bohr mag/cell

     iteration # 45     ecut=    60.00 Ry     beta= 0.30
     Davidson diagonalization with overlap
     ethr =  4.47E-08,  avg # of iterations =  5.8

     total cpu time spent up to now is     2441.8 secs

     total energy              =   -4700.75054902 Ry
     estimated scf accuracy    <       0.00034662 Ry

     total magnetization       =    16.75 Bohr mag/cell
     absolute magnetization    =    20.93 Bohr mag/cell

     iteration # 46     ecut=    60.00 Ry     beta= 0.30
     Davidson diagonalization with overlap
     ethr =  4.47E-08,  avg # of iterations =  4.8

     total cpu time spent up to now is     2500.3 secs

     total energy              =   -4700.75059982 Ry
     estimated scf accuracy    <       0.00024762 Ry

     total magnetization       =    16.76 Bohr mag/cell
     absolute magnetization    =    20.83 Bohr mag/cell

     iteration # 47     ecut=    60.00 Ry     beta= 0.30
     Davidson diagonalization with overlap
     ethr =  4.47E-08,  avg # of iterations =  2.2

     total cpu time spent up to now is     2547.8 secs

     total energy              =   -4700.75060913 Ry
     estimated scf accuracy    <       0.00019616 Ry

     total magnetization       =    16.76 Bohr mag/cell
     absolute magnetization    =    20.84 Bohr mag/cell

     iteration # 48     ecut=    60.00 Ry     beta= 0.30
     Davidson diagonalization with overlap
     ethr =  4.47E-08,  avg # of iterations =  6.0

     total cpu time spent up to now is     2613.3 secs

     total energy              =   -4700.75071029 Ry
     estimated scf accuracy    <       0.00012435 Ry

     total magnetization       =    16.73 Bohr mag/cell
     absolute magnetization    =    21.00 Bohr mag/cell

     iteration # 49     ecut=    60.00 Ry     beta= 0.30
     Davidson diagonalization with overlap
     ethr =  4.47E-08,  avg # of iterations =  1.0

     total cpu time spent up to now is     2657.2 secs

     total energy              =   -4700.75064617 Ry
     estimated scf accuracy    <       0.00009390 Ry

     total magnetization       =    16.73 Bohr mag/cell
     absolute magnetization    =    21.00 Bohr mag/cell

     iteration # 50     ecut=    60.00 Ry     beta= 0.30
     Davidson diagonalization with overlap
     ethr =  3.88E-08,  avg # of iterations =  4.9

     total cpu time spent up to now is     2715.9 secs

     total energy              =   -4700.75067467 Ry
     estimated scf accuracy    <       0.00037174 Ry

     total magnetization       =    16.75 Bohr mag/cell
     absolute magnetization    =    20.93 Bohr mag/cell

     iteration # 51     ecut=    60.00 Ry     beta= 0.30
     Davidson diagonalization with overlap
     ethr =  3.88E-08,  avg # of iterations =  5.6

     total cpu time spent up to now is     2779.9 secs

     total energy              =   -4700.75069301 Ry
     estimated scf accuracy    <       0.00008523 Ry

     total magnetization       =    16.71 Bohr mag/cell
     absolute magnetization    =    21.10 Bohr mag/cell

     iteration # 52     ecut=    60.00 Ry     beta= 0.30
     Davidson diagonalization with overlap
     ethr =  3.52E-08,  avg # of iterations =  5.0

     total cpu time spent up to now is     2836.5 secs

     total energy              =   -4700.75073490 Ry
     estimated scf accuracy    <       0.00012164 Ry

     total magnetization       =    16.73 Bohr mag/cell
     absolute magnetization    =    21.00 Bohr mag/cell

     iteration # 53     ecut=    60.00 Ry     beta= 0.30
     Davidson diagonalization with overlap
     ethr =  3.52E-08,  avg # of iterations =  1.1

     total cpu time spent up to now is     2880.0 secs

     total energy              =   -4700.75074717 Ry
     estimated scf accuracy    <       0.00006848 Ry

     total magnetization       =    16.73 Bohr mag/cell
     absolute magnetization    =    21.02 Bohr mag/cell

     iteration # 54     ecut=    60.00 Ry     beta= 0.30
     Davidson diagonalization with overlap
     ethr =  2.83E-08,  avg # of iterations =  1.3

     total cpu time spent up to now is     2923.2 secs

     total energy              =   -4700.75047729 Ry
     estimated scf accuracy    <       0.00007510 Ry

     total magnetization       =    16.73 Bohr mag/cell
     absolute magnetization    =    21.03 Bohr mag/cell

     iteration # 55     ecut=    60.00 Ry     beta= 0.30
     Davidson diagonalization with overlap
     ethr =  2.83E-08,  avg # of iterations =  9.4

     total cpu time spent up to now is     3011.0 secs

     total energy              =   -4700.75086486 Ry
     estimated scf accuracy    <       0.00011973 Ry

     total magnetization       =    16.65 Bohr mag/cell
     absolute magnetization    =    21.44 Bohr mag/cell

     iteration # 56     ecut=    60.00 Ry     beta= 0.30
     Davidson diagonalization with overlap
     ethr =  2.83E-08,  avg # of iterations =  5.4

     total cpu time spent up to now is     3076.2 secs

     total energy              =   -4700.75091271 Ry
     estimated scf accuracy    <       0.00030948 Ry

     total magnetization       =    16.68 Bohr mag/cell
     absolute magnetization    =    21.30 Bohr mag/cell

     iteration # 57     ecut=    60.00 Ry     beta= 0.30
     Davidson diagonalization with overlap
     ethr =  2.83E-08,  avg # of iterations =  5.4

     total cpu time spent up to now is     3135.8 secs

     total energy              =   -4700.75083125 Ry
     estimated scf accuracy    <       0.00036026 Ry

     total magnetization       =    16.69 Bohr mag/cell
     absolute magnetization    =    21.28 Bohr mag/cell

     iteration # 58     ecut=    60.00 Ry     beta= 0.30
     Davidson diagonalization with overlap
     ethr =  2.83E-08,  avg # of iterations =  5.4

     total cpu time spent up to now is     3197.0 secs

     total energy              =   -4700.75085089 Ry
     estimated scf accuracy    <       0.00015093 Ry

     total magnetization       =    16.70 Bohr mag/cell
     absolute magnetization    =    21.20 Bohr mag/cell

     iteration # 59     ecut=    60.00 Ry     beta= 0.30
     Davidson diagonalization with overlap
     ethr =  2.83E-08,  avg # of iterations =  6.7

     total cpu time spent up to now is     3268.8 secs

     total energy              =   -4700.75098208 Ry
     estimated scf accuracy    <       0.00018876 Ry

     total magnetization       =    16.66 Bohr mag/cell
     absolute magnetization    =    21.41 Bohr mag/cell

     iteration # 60     ecut=    60.00 Ry     beta= 0.30
     Davidson diagonalization with overlap
     ethr =  2.83E-08,  avg # of iterations =  7.2

     total cpu time spent up to now is     3343.5 secs

     total energy              =   -4700.75108438 Ry
     estimated scf accuracy    <       0.00011685 Ry

     total magnetization       =    16.62 Bohr mag/cell
     absolute magnetization    =    21.63 Bohr mag/cell

     iteration # 61     ecut=    60.00 Ry     beta= 0.30
     Davidson diagonalization with overlap
     ethr =  2.83E-08,  avg # of iterations =  3.9

     total cpu time spent up to now is     3397.0 secs

     total energy              =   -4700.75109726 Ry
     estimated scf accuracy    <       0.00013068 Ry

     total magnetization       =    16.63 Bohr mag/cell
     absolute magnetization    =    21.57 Bohr mag/cell

     iteration # 62     ecut=    60.00 Ry     beta= 0.30
     Davidson diagonalization with overlap
     ethr =  2.83E-08,  avg # of iterations =  5.8

     total cpu time spent up to now is     3462.3 secs

     total energy              =   -4700.75084247 Ry
     estimated scf accuracy    <       0.00024251 Ry

     total magnetization       =    16.61 Bohr mag/cell
     absolute magnetization    =    21.74 Bohr mag/cell

     iteration # 63     ecut=    60.00 Ry     beta= 0.30
     Davidson diagonalization with overlap
     ethr =  2.83E-08,  avg # of iterations =  7.3

     total cpu time spent up to now is     3537.4 secs

     total energy              =   -4700.75107676 Ry
     estimated scf accuracy    <       0.00011091 Ry

     total magnetization       =    16.65 Bohr mag/cell
     absolute magnetization    =    21.49 Bohr mag/cell

     iteration # 64     ecut=    60.00 Ry     beta= 0.30
     Davidson diagonalization with overlap
     ethr =  2.83E-08,  avg # of iterations =  5.1

     total cpu time spent up to now is     3597.9 secs

     total energy              =   -4700.75112456 Ry
     estimated scf accuracy    <       0.00008209 Ry

     total magnetization       =    16.63 Bohr mag/cell
     absolute magnetization    =    21.60 Bohr mag/cell

     iteration # 65     ecut=    60.00 Ry     beta= 0.30
     Davidson diagonalization with overlap
     ethr =  2.83E-08,  avg # of iterations =  1.1

     total cpu time spent up to now is     3642.3 secs

     total energy              =   -4700.75113919 Ry
     estimated scf accuracy    <       0.00004387 Ry

     total magnetization       =    16.63 Bohr mag/cell
     absolute magnetization    =    21.61 Bohr mag/cell

     iteration # 66     ecut=    60.00 Ry     beta= 0.30
     Davidson diagonalization with overlap
     ethr =  1.81E-08,  avg # of iterations =  6.1

     total cpu time spent up to now is     3710.3 secs

     total energy              =   -4700.75117425 Ry
     estimated scf accuracy    <       0.00013143 Ry

     total magnetization       =    16.60 Bohr mag/cell
     absolute magnetization    =    21.73 Bohr mag/cell

     iteration # 67     ecut=    60.00 Ry     beta= 0.30
     Davidson diagonalization with overlap
     ethr =  1.81E-08,  avg # of iterations =  7.1

     total cpu time spent up to now is     3784.4 secs

     total energy              =   -4700.75093337 Ry
     estimated scf accuracy    <       0.00011951 Ry

     total magnetization       =    16.57 Bohr mag/cell
     absolute magnetization    =    21.91 Bohr mag/cell

     iteration # 68     ecut=    60.00 Ry     beta= 0.30
     Davidson diagonalization with overlap
     ethr =  1.81E-08,  avg # of iterations =  8.0

     total cpu time spent up to now is     3863.8 secs

     total energy              =   -4700.75113639 Ry
     estimated scf accuracy    <       0.00013482 Ry

     total magnetization       =    16.62 Bohr mag/cell
     absolute magnetization    =    21.65 Bohr mag/cell

     iteration # 69     ecut=    60.00 Ry     beta= 0.30
     Davidson diagonalization with overlap
     ethr =  1.81E-08,  avg # of iterations =  6.8

     total cpu time spent up to now is     3937.1 secs

     total energy              =   -4700.75117892 Ry
     estimated scf accuracy    <       0.00010000 Ry

     total magnetization       =    16.59 Bohr mag/cell
     absolute magnetization    =    21.82 Bohr mag/cell

     iteration # 70     ecut=    60.00 Ry     beta= 0.30
     Davidson diagonalization with overlap
     ethr =  1.81E-08,  avg # of iterations =  5.0

     total cpu time spent up to now is     3995.8 secs

     total energy              =   -4700.75121766 Ry
     estimated scf accuracy    <       0.00007218 Ry

     total magnetization       =    16.60 Bohr mag/cell
     absolute magnetization    =    21.75 Bohr mag/cell

     iteration # 71     ecut=    60.00 Ry     beta= 0.30
     Davidson diagonalization with overlap
     ethr =  1.81E-08,  avg # of iterations =  4.9

     total cpu time spent up to now is     4052.5 secs

     total energy              =   -4700.75122948 Ry
     estimated scf accuracy    <       0.00006319 Ry

     total magnetization       =    16.59 Bohr mag/cell
     absolute magnetization    =    21.83 Bohr mag/cell

     iteration # 72     ecut=    60.00 Ry     beta= 0.30
     Davidson diagonalization with overlap
     ethr =  1.81E-08,  avg # of iterations =  6.7

     total cpu time spent up to now is     4124.6 secs

     total energy              =   -4700.75102822 Ry
     estimated scf accuracy    <       0.00009440 Ry

     total magnetization       =    16.56 Bohr mag/cell
     absolute magnetization    =    21.98 Bohr mag/cell

     iteration # 73     ecut=    60.00 Ry     beta= 0.30
     Davidson diagonalization with overlap
     ethr =  1.81E-08,  avg # of iterations =  7.5

     total cpu time spent up to now is     4201.1 secs

     total energy              =   -4700.75119675 Ry
     estimated scf accuracy    <       0.00012207 Ry

     total magnetization       =    16.60 Bohr mag/cell
     absolute magnetization    =    21.74 Bohr mag/cell

     iteration # 74     ecut=    60.00 Ry     beta= 0.30
     Davidson diagonalization with overlap
     ethr =  1.81E-08,  avg # of iterations =  1.7

     total cpu time spent up to now is     4248.4 secs

     total energy              =   -4700.75120674 Ry
     estimated scf accuracy    <       0.00008358 Ry

     total magnetization       =    16.60 Bohr mag/cell
     absolute magnetization    =    21.75 Bohr mag/cell

     iteration # 75     ecut=    60.00 Ry     beta= 0.30
     Davidson diagonalization with overlap
     ethr =  1.81E-08,  avg # of iterations =  6.0

     total cpu time spent up to now is     4314.7 secs

     total energy              =   -4700.75128115 Ry
     estimated scf accuracy    <       0.00005212 Ry

     total magnetization       =    16.57 Bohr mag/cell
     absolute magnetization    =    21.89 Bohr mag/cell

     iteration # 76     ecut=    60.00 Ry     beta= 0.30
     Davidson diagonalization with overlap
     ethr =  1.81E-08,  avg # of iterations =  5.2

     total cpu time spent up to now is     4375.1 secs

     total energy              =   -4700.75129575 Ry
     estimated scf accuracy    <       0.00007500 Ry

     total magnetization       =    16.56 Bohr mag/cell
     absolute magnetization    =    21.97 Bohr mag/cell

     iteration # 77     ecut=    60.00 Ry     beta= 0.30
     Davidson diagonalization with overlap
     ethr =  1.81E-08,  avg # of iterations =  1.7

     total cpu time spent up to now is     4421.5 secs

     total energy              =   -4700.75124018 Ry
     estimated scf accuracy    <       0.00006238 Ry

     total magnetization       =    16.56 Bohr mag/cell
     absolute magnetization    =    21.97 Bohr mag/cell

     iteration # 78     ecut=    60.00 Ry     beta= 0.30
     Davidson diagonalization with overlap
     ethr =  1.81E-08,  avg # of iterations =  5.5

     total cpu time spent up to now is     4482.1 secs

     total energy              =   -4700.75120240 Ry
     estimated scf accuracy    <       0.00013194 Ry

     total magnetization       =    16.58 Bohr mag/cell
     absolute magnetization    =    21.89 Bohr mag/cell

     iteration # 79     ecut=    60.00 Ry     beta= 0.30
     Davidson diagonalization with overlap
     ethr =  1.81E-08,  avg # of iterations =  7.4

     total cpu time spent up to now is     4559.3 secs

     total energy              =   -4700.75115899 Ry
     estimated scf accuracy    <       0.00006617 Ry

     total magnetization       =    16.53 Bohr mag/cell
     absolute magnetization    =    22.11 Bohr mag/cell

     iteration # 80     ecut=    60.00 Ry     beta= 0.30
     Davidson diagonalization with overlap
     ethr =  1.81E-08,  avg # of iterations =  7.3

     total cpu time spent up to now is     4634.1 secs

     total energy              =   -4700.75129096 Ry
     estimated scf accuracy    <       0.00008679 Ry

     total magnetization       =    16.57 Bohr mag/cell
     absolute magnetization    =    21.92 Bohr mag/cell

     iteration # 81     ecut=    60.00 Ry     beta= 0.30
     Davidson diagonalization with overlap
     ethr =  1.81E-08,  avg # of iterations =  2.8

     total cpu time spent up to now is     4684.3 secs

     total energy              =   -4700.75128163 Ry
     estimated scf accuracy    <       0.00003994 Ry

     total magnetization       =    16.56 Bohr mag/cell
     absolute magnetization    =    21.96 Bohr mag/cell

     iteration # 82     ecut=    60.00 Ry     beta= 0.30
     Davidson diagonalization with overlap
     ethr =  1.65E-08,  avg # of iterations =  6.5

     total cpu time spent up to now is     4754.6 secs

     total energy              =   -4700.75136849 Ry
     estimated scf accuracy    <       0.00006820 Ry

     total magnetization       =    16.53 Bohr mag/cell
     absolute magnetization    =    22.12 Bohr mag/cell

     iteration # 83     ecut=    60.00 Ry     beta= 0.30
     Davidson diagonalization with overlap
     ethr =  1.65E-08,  avg # of iterations =  5.4

     total cpu time spent up to now is     4815.0 secs

     total energy              =   -4700.75138658 Ry
     estimated scf accuracy    <       0.00012159 Ry

     total magnetization       =    16.52 Bohr mag/cell
     absolute magnetization    =    22.18 Bohr mag/cell

     iteration # 84     ecut=    60.00 Ry     beta= 0.30
     Davidson diagonalization with overlap
     ethr =  1.65E-08,  avg # of iterations =  5.1

     total cpu time spent up to now is     4873.2 secs

     total energy              =   -4700.75121672 Ry
     estimated scf accuracy    <       0.00011192 Ry

     total magnetization       =    16.51 Bohr mag/cell
     absolute magnetization    =    22.24 Bohr mag/cell

     iteration # 85     ecut=    60.00 Ry     beta= 0.30
     Davidson diagonalization with overlap
     ethr =  1.65E-08,  avg # of iterations =  7.2

     total cpu time spent up to now is     4947.4 secs

     total energy              =   -4700.75130180 Ry
     estimated scf accuracy    <       0.00008134 Ry

     total magnetization       =    16.55 Bohr mag/cell
     absolute magnetization    =    22.03 Bohr mag/cell

     iteration # 86     ecut=    60.00 Ry     beta= 0.30
     Davidson diagonalization with overlap
     ethr =  1.65E-08,  avg # of iterations =  7.0

     total cpu time spent up to now is     5021.5 secs

     total energy              =   -4700.75138080 Ry
     estimated scf accuracy    <       0.00006649 Ry

     total magnetization       =    16.52 Bohr mag/cell
     absolute magnetization    =    22.21 Bohr mag/cell

     iteration # 87     ecut=    60.00 Ry     beta= 0.30
     Davidson diagonalization with overlap
     ethr =  1.65E-08,  avg # of iterations =  1.6

     total cpu time spent up to now is     5067.3 secs

     total energy              =   -4700.75136739 Ry
     estimated scf accuracy    <       0.00005033 Ry

     total magnetization       =    16.52 Bohr mag/cell
     absolute magnetization    =    22.19 Bohr mag/cell

     iteration # 88     ecut=    60.00 Ry     beta= 0.30
     Davidson diagonalization with overlap
     ethr =  1.65E-08,  avg # of iterations =  3.3

     total cpu time spent up to now is     5120.1 secs

     total energy              =   -4700.75138362 Ry
     estimated scf accuracy    <       0.00007985 Ry

     total magnetization       =    16.53 Bohr mag/cell
     absolute magnetization    =    22.16 Bohr mag/cell

     iteration # 89     ecut=    60.00 Ry     beta= 0.30
     Davidson diagonalization with overlap
     ethr =  1.65E-08,  avg # of iterations =  4.2

     total cpu time spent up to now is     5176.4 secs

     total energy              =   -4700.75130394 Ry
     estimated scf accuracy    <       0.00002912 Ry

     total magnetization       =    16.51 Bohr mag/cell
     absolute magnetization    =    22.23 Bohr mag/cell

     iteration # 90     ecut=    60.00 Ry     beta= 0.30
     Davidson diagonalization with overlap
     ethr =  1.20E-08,  avg # of iterations =  6.3

     total cpu time spent up to now is     5245.2 secs

     total energy              =   -4700.75134428 Ry
     estimated scf accuracy    <       0.00019375 Ry

     total magnetization       =    16.53 Bohr mag/cell
     absolute magnetization    =    22.10 Bohr mag/cell

     iteration # 91     ecut=    60.00 Ry     beta= 0.30
     Davidson diagonalization with overlap
     ethr =  1.20E-08,  avg # of iterations =  6.9

     total cpu time spent up to now is     5317.3 secs

     total energy              =   -4700.75140695 Ry
     estimated scf accuracy    <       0.00006127 Ry

     total magnetization       =    16.51 Bohr mag/cell
     absolute magnetization    =    22.23 Bohr mag/cell

     iteration # 92     ecut=    60.00 Ry     beta= 0.30
     Davidson diagonalization with overlap
     ethr =  1.20E-08,  avg # of iterations =  3.6

     total cpu time spent up to now is     5371.3 secs

     total energy              =   -4700.75141043 Ry
     estimated scf accuracy    <       0.00003628 Ry

     total magnetization       =    16.50 Bohr mag/cell
     absolute magnetization    =    22.27 Bohr mag/cell

     iteration # 93     ecut=    60.00 Ry     beta= 0.30
     Davidson diagonalization with overlap
     ethr =  1.20E-08,  avg # of iterations =  5.8

     total cpu time spent up to now is     5439.6 secs

     total energy              =   -4700.75142501 Ry
     estimated scf accuracy    <       0.00006323 Ry

     total magnetization       =    16.48 Bohr mag/cell
     absolute magnetization    =    22.37 Bohr mag/cell

     iteration # 94     ecut=    60.00 Ry     beta= 0.30
     Davidson diagonalization with overlap
     ethr =  1.20E-08,  avg # of iterations =  3.6

     total cpu time spent up to now is     5493.7 secs

     total energy              =   -4700.75142881 Ry
     estimated scf accuracy    <       0.00007061 Ry

     total magnetization       =    16.49 Bohr mag/cell
     absolute magnetization    =    22.33 Bohr mag/cell

     iteration # 95     ecut=    60.00 Ry     beta= 0.30
     Davidson diagonalization with overlap
     ethr =  1.20E-08,  avg # of iterations =  2.5

     total cpu time spent up to now is     5543.2 secs

     total energy              =   -4700.75143385 Ry
     estimated scf accuracy    <       0.00006704 Ry

     total magnetization       =    16.49 Bohr mag/cell
     absolute magnetization    =    22.34 Bohr mag/cell

     iteration # 96     ecut=    60.00 Ry     beta= 0.30
     Davidson diagonalization with overlap
     ethr =  1.20E-08,  avg # of iterations =  5.5

     total cpu time spent up to now is     5605.6 secs

     total energy              =   -4700.75128065 Ry
     estimated scf accuracy    <       0.00003178 Ry

     total magnetization       =    16.47 Bohr mag/cell
     absolute magnetization    =    22.42 Bohr mag/cell

     iteration # 97     ecut=    60.00 Ry     beta= 0.30
     Davidson diagonalization with overlap
     ethr =  1.20E-08,  avg # of iterations =  7.2

     total cpu time spent up to now is     5680.3 secs

     total energy              =   -4700.75139318 Ry
     estimated scf accuracy    <       0.00004050 Ry

     total magnetization       =    16.51 Bohr mag/cell
     absolute magnetization    =    22.22 Bohr mag/cell

     iteration # 98     ecut=    60.00 Ry     beta= 0.30
     Davidson diagonalization with overlap
     ethr =  1.20E-08,  avg # of iterations =  2.1

     total cpu time spent up to now is     5728.1 secs

     total energy              =   -4700.75139246 Ry
     estimated scf accuracy    <       0.00007501 Ry

     total magnetization       =    16.51 Bohr mag/cell
     absolute magnetization    =    22.21 Bohr mag/cell

     iteration # 99     ecut=    60.00 Ry     beta= 0.30
     Davidson diagonalization with overlap
     ethr =  1.20E-08,  avg # of iterations =  5.8

     total cpu time spent up to now is     5793.8 secs

     total energy              =   -4700.75143673 Ry
     estimated scf accuracy    <       0.00002003 Ry

     total magnetization       =    16.49 Bohr mag/cell
     absolute magnetization    =    22.33 Bohr mag/cell

     iteration #100     ecut=    60.00 Ry     beta= 0.30
     Davidson diagonalization with overlap
     ethr =  8.28E-09,  avg # of iterations =  3.6

     total cpu time spent up to now is     5847.1 secs

     total energy              =   -4700.75144116 Ry
     estimated scf accuracy    <       0.00001544 Ry

     total magnetization       =    16.48 Bohr mag/cell
     absolute magnetization    =    22.36 Bohr mag/cell

     iteration #101     ecut=    60.00 Ry     beta= 0.30
     Davidson diagonalization with overlap
     ethr =  6.38E-09,  avg # of iterations =  6.8

     total cpu time spent up to now is     5919.3 secs

     total energy              =   -4700.75146404 Ry
     estimated scf accuracy    <       0.00005462 Ry

     total magnetization       =    16.46 Bohr mag/cell
     absolute magnetization    =    22.43 Bohr mag/cell

     iteration #102     ecut=    60.00 Ry     beta= 0.30
     Davidson diagonalization with overlap
     ethr =  6.38E-09,  avg # of iterations =  5.5

     total cpu time spent up to now is     5980.4 secs

     total energy              =   -4700.75146656 Ry
     estimated scf accuracy    <       0.00004895 Ry

     total magnetization       =    16.46 Bohr mag/cell
     absolute magnetization    =    22.48 Bohr mag/cell

     iteration #103     ecut=    60.00 Ry     beta= 0.30
     Davidson diagonalization with overlap
     ethr =  6.38E-09,  avg # of iterations =  6.9

     total cpu time spent up to now is     6052.5 secs

     total energy              =   -4700.75148726 Ry
     estimated scf accuracy    <       0.00003714 Ry

     total magnetization       =    16.44 Bohr mag/cell
     absolute magnetization    =    22.57 Bohr mag/cell

     iteration #104     ecut=    60.00 Ry     beta= 0.30
     Davidson diagonalization with overlap
     ethr =  6.38E-09,  avg # of iterations =  2.7

     total cpu time spent up to now is     6102.5 secs

     total energy              =   -4700.75136324 Ry
     estimated scf accuracy    <       0.00004717 Ry

     total magnetization       =    16.44 Bohr mag/cell
     absolute magnetization    =    22.56 Bohr mag/cell

     iteration #105     ecut=    60.00 Ry     beta= 0.30
     Davidson diagonalization with overlap
     ethr =  6.38E-09,  avg # of iterations =  9.8

     total cpu time spent up to now is     6192.4 secs

     total energy              =   -4700.75138779 Ry
     estimated scf accuracy    <       0.00014199 Ry

     total magnetization       =    16.39 Bohr mag/cell
     absolute magnetization    =    22.79 Bohr mag/cell

     iteration #106     ecut=    60.00 Ry     beta= 0.30
     Davidson diagonalization with overlap
     ethr =  6.38E-09,  avg # of iterations =  8.6

     total cpu time spent up to now is     6275.5 secs

     total energy              =   -4700.75140746 Ry
     estimated scf accuracy    <       0.00002121 Ry

     total magnetization       =    16.43 Bohr mag/cell
     absolute magnetization    =    22.61 Bohr mag/cell

     iteration #107     ecut=    60.00 Ry     beta= 0.30
     Davidson diagonalization with overlap
     ethr =  6.38E-09,  avg # of iterations =  8.0

     total cpu time spent up to now is     6354.3 secs

     total energy              =   -4700.75115372 Ry
     estimated scf accuracy    <       0.00007349 Ry

     total magnetization       =    16.46 Bohr mag/cell
     absolute magnetization    =    22.46 Bohr mag/cell

     iteration #108     ecut=    60.00 Ry     beta= 0.30
     Davidson diagonalization with overlap
     ethr =  6.38E-09,  avg # of iterations = 11.7

     total cpu time spent up to now is     6454.9 secs

     total energy              =   -4700.75142173 Ry
     estimated scf accuracy    <       0.00006471 Ry

     total magnetization       =    16.38 Bohr mag/cell
     absolute magnetization    =    22.83 Bohr mag/cell

     iteration #109     ecut=    60.00 Ry     beta= 0.30
     Davidson diagonalization with overlap
     ethr =  6.38E-09,  avg # of iterations =  8.1

     total cpu time spent up to now is     6536.2 secs

     total energy              =   -4700.75150527 Ry
     estimated scf accuracy    <       0.00001838 Ry

     total magnetization       =    16.42 Bohr mag/cell
     absolute magnetization    =    22.66 Bohr mag/cell

     iteration #110     ecut=    60.00 Ry     beta= 0.30
     Davidson diagonalization with overlap
     ethr =  6.38E-09,  avg # of iterations =  1.1

     total cpu time spent up to now is     6578.7 secs

     total energy              =   -4700.75149998 Ry
     estimated scf accuracy    <       0.00001039 Ry

     total magnetization       =    16.42 Bohr mag/cell
     absolute magnetization    =    22.65 Bohr mag/cell

     iteration #111     ecut=    60.00 Ry     beta= 0.30
     Davidson diagonalization with overlap
     ethr =  4.29E-09,  avg # of iterations =  5.7

     total cpu time spent up to now is     6646.8 secs

     total energy              =   -4700.75151980 Ry
     estimated scf accuracy    <       0.00001839 Ry

     total magnetization       =    16.40 Bohr mag/cell
     absolute magnetization    =    22.73 Bohr mag/cell

     iteration #112     ecut=    60.00 Ry     beta= 0.30
     Davidson diagonalization with overlap
     ethr =  4.29E-09,  avg # of iterations =  4.0

     total cpu time spent up to now is     6702.6 secs

     total energy              =   -4700.75152154 Ry
     estimated scf accuracy    <       0.00001439 Ry

     total magnetization       =    16.40 Bohr mag/cell
     absolute magnetization    =    22.76 Bohr mag/cell

     iteration #113     ecut=    60.00 Ry     beta= 0.30
     Davidson diagonalization with overlap
     ethr =  4.29E-09,  avg # of iterations =  5.4

     total cpu time spent up to now is     6764.9 secs

     total energy              =   -4700.75152800 Ry
     estimated scf accuracy    <       0.00000911 Ry

     total magnetization       =    16.39 Bohr mag/cell
     absolute magnetization    =    22.81 Bohr mag/cell

     iteration #114     ecut=    60.00 Ry     beta= 0.30
     Davidson diagonalization with overlap
     ethr =  3.76E-09,  avg # of iterations =  5.0

     total cpu time spent up to now is     6823.5 secs

     total energy              =   -4700.75148288 Ry
     estimated scf accuracy    <       0.00005296 Ry

     total magnetization       =    16.38 Bohr mag/cell
     absolute magnetization    =    22.81 Bohr mag/cell

     iteration #115     ecut=    60.00 Ry     beta= 0.30
     Davidson diagonalization with overlap
     ethr =  3.76E-09,  avg # of iterations =  8.5

     total cpu time spent up to now is     6906.5 secs

     total energy              =   -4700.75153300 Ry
     estimated scf accuracy    <       0.00000171 Ry

     total magnetization       =    16.35 Bohr mag/cell
     absolute magnetization    =    22.96 Bohr mag/cell

     iteration #116     ecut=    60.00 Ry     beta= 0.30
     Davidson diagonalization with overlap
     ethr =  7.08E-10,  avg # of iterations =  9.8

     total cpu time spent up to now is     6995.0 secs

     total energy              =   -4700.75154020 Ry
     estimated scf accuracy    <       0.00003629 Ry

     total magnetization       =    16.34 Bohr mag/cell
     absolute magnetization    =    23.01 Bohr mag/cell

     iteration #117     ecut=    60.00 Ry     beta= 0.30
     Davidson diagonalization with overlap
     ethr =  7.08E-10,  avg # of iterations =  6.8

     total cpu time spent up to now is     7063.6 secs

     total energy              =   -4700.75154113 Ry
     estimated scf accuracy    <       0.00000061 Ry

     total magnetization       =    16.34 Bohr mag/cell
     absolute magnetization    =    23.03 Bohr mag/cell

     iteration #118     ecut=    60.00 Ry     beta= 0.30
     Davidson diagonalization with overlap
     ethr =  2.52E-10,  avg # of iterations =  5.8

     total cpu time spent up to now is     7130.3 secs

     total energy              =   -4700.75154180 Ry
     estimated scf accuracy    <       0.00000111 Ry

     total magnetization       =    16.34 Bohr mag/cell
     absolute magnetization    =    23.01 Bohr mag/cell

     iteration #119     ecut=    60.00 Ry     beta= 0.30
     Davidson diagonalization with overlap
     ethr =  2.52E-10,  avg # of iterations =  5.1

     total cpu time spent up to now is     7189.5 secs

     total energy              =   -4700.75154179 Ry
     estimated scf accuracy    <       0.00000081 Ry

     total magnetization       =    16.34 Bohr mag/cell
     absolute magnetization    =    23.02 Bohr mag/cell

     iteration #120     ecut=    60.00 Ry     beta= 0.30
     Davidson diagonalization with overlap
     ethr =  2.52E-10,  avg # of iterations =  5.4

     total cpu time spent up to now is     7255.2 secs

     total energy              =   -4700.75154104 Ry
     estimated scf accuracy    <       0.00000268 Ry

     total magnetization       =    16.34 Bohr mag/cell
     absolute magnetization    =    23.04 Bohr mag/cell

     iteration #121     ecut=    60.00 Ry     beta= 0.30
     Davidson diagonalization with overlap
     ethr =  2.52E-10,  avg # of iterations =  7.4

     total cpu time spent up to now is     7330.4 secs

     total energy              =   -4700.75154249 Ry
     estimated scf accuracy    <       0.00000035 Ry

     total magnetization       =    16.33 Bohr mag/cell
     absolute magnetization    =    23.06 Bohr mag/cell

     iteration #122     ecut=    60.00 Ry     beta= 0.30
     Davidson diagonalization with overlap
     ethr =  1.46E-10,  avg # of iterations =  5.1

     total cpu time spent up to now is     7388.6 secs

     total energy              =   -4700.75154261 Ry
     estimated scf accuracy    <       0.00000065 Ry

     total magnetization       =    16.33 Bohr mag/cell
     absolute magnetization    =    23.05 Bohr mag/cell

     iteration #123     ecut=    60.00 Ry     beta= 0.30
     Davidson diagonalization with overlap
     ethr =  1.46E-10,  avg # of iterations =  3.9

     total cpu time spent up to now is     7442.1 secs

     total energy              =   -4700.75154142 Ry
     estimated scf accuracy    <       0.00000030 Ry

     total magnetization       =    16.33 Bohr mag/cell
     absolute magnetization    =    23.06 Bohr mag/cell

     iteration #124     ecut=    60.00 Ry     beta= 0.30
     Davidson diagonalization with overlap
     ethr =  1.25E-10,  avg # of iterations =  8.1

     total cpu time spent up to now is     7522.1 secs

     total energy              =   -4700.75154142 Ry
     estimated scf accuracy    <       0.00000040 Ry

     total magnetization       =    16.33 Bohr mag/cell
     absolute magnetization    =    23.08 Bohr mag/cell

     iteration #125     ecut=    60.00 Ry     beta= 0.30
     Davidson diagonalization with overlap
     ethr =  1.25E-10,  avg # of iterations =  7.9

     total cpu time spent up to now is     7601.2 secs

     total energy              =   -4700.75154106 Ry
     estimated scf accuracy    <       0.00000071 Ry

     total magnetization       =    16.33 Bohr mag/cell
     absolute magnetization    =    23.06 Bohr mag/cell

     iteration #126     ecut=    60.00 Ry     beta= 0.30
     Davidson diagonalization with overlap
     ethr =  1.25E-10,  avg # of iterations =  8.1

     total cpu time spent up to now is     7683.3 secs

     total energy              =   -4700.75154213 Ry
     estimated scf accuracy    <       0.00000057 Ry

     total magnetization       =    16.33 Bohr mag/cell
     absolute magnetization    =    23.08 Bohr mag/cell

     iteration #127     ecut=    60.00 Ry     beta= 0.30
     Davidson diagonalization with overlap
     ethr =  1.25E-10,  avg # of iterations =  6.3

     total cpu time spent up to now is     7753.9 secs

     total energy              =   -4700.75154279 Ry
     estimated scf accuracy    <       0.00000035 Ry

     total magnetization       =    16.33 Bohr mag/cell
     absolute magnetization    =    23.07 Bohr mag/cell

     iteration #128     ecut=    60.00 Ry     beta= 0.30
     Davidson diagonalization with overlap
     ethr =  1.25E-10,  avg # of iterations =  4.2

     total cpu time spent up to now is     7808.9 secs

     total energy              =   -4700.75154276 Ry
     estimated scf accuracy    <       0.00000024 Ry

     total magnetization       =    16.33 Bohr mag/cell
     absolute magnetization    =    23.07 Bohr mag/cell

     iteration #129     ecut=    60.00 Ry     beta= 0.30
     Davidson diagonalization with overlap
     ethr =  1.00E-10,  avg # of iterations =  5.6

     total cpu time spent up to now is     7873.6 secs

     total energy              =   -4700.75154220 Ry
     estimated scf accuracy    <       0.00000049 Ry

     total magnetization       =    16.33 Bohr mag/cell
     absolute magnetization    =    23.08 Bohr mag/cell

     iteration #130     ecut=    60.00 Ry     beta= 0.30
     Davidson diagonalization with overlap
     ethr =  1.00E-10,  avg # of iterations =  7.5

     total cpu time spent up to now is     7950.0 secs

     total energy              =   -4700.75154228 Ry
     estimated scf accuracy    <       0.00000018 Ry

     total magnetization       =    16.32 Bohr mag/cell
     absolute magnetization    =    23.09 Bohr mag/cell

     iteration #131     ecut=    60.00 Ry     beta= 0.30
     Davidson diagonalization with overlap
     ethr =  7.39E-11,  avg # of iterations =  8.2

     total cpu time spent up to now is     8028.5 secs

     total energy              =   -4700.75154205 Ry
     estimated scf accuracy    <       0.00000104 Ry

     total magnetization       =    16.33 Bohr mag/cell
     absolute magnetization    =    23.08 Bohr mag/cell

     iteration #132     ecut=    60.00 Ry     beta= 0.30
     Davidson diagonalization with overlap
     ethr =  7.39E-11,  avg # of iterations =  8.8

     total cpu time spent up to now is     8112.0 secs

     total energy              =   -4700.75154295 Ry
     estimated scf accuracy    <       0.00000023 Ry

     total magnetization       =    16.32 Bohr mag/cell
     absolute magnetization    =    23.10 Bohr mag/cell

     iteration #133     ecut=    60.00 Ry     beta= 0.30
     Davidson diagonalization with overlap
     ethr =  7.39E-11,  avg # of iterations =  4.9

     total cpu time spent up to now is     8170.3 secs

     total energy              =   -4700.75154284 Ry
     estimated scf accuracy    <       0.00000026 Ry

     total magnetization       =    16.32 Bohr mag/cell
     absolute magnetization    =    23.09 Bohr mag/cell

     iteration #134     ecut=    60.00 Ry     beta= 0.30
     Davidson diagonalization with overlap
     ethr =  7.39E-11,  avg # of iterations =  5.6

     total cpu time spent up to now is     8234.7 secs

     total energy              =   -4700.75154234 Ry
     estimated scf accuracy    <       0.00000051 Ry

     total magnetization       =    16.32 Bohr mag/cell
     absolute magnetization    =    23.09 Bohr mag/cell

     iteration #135     ecut=    60.00 Ry     beta= 0.30
     Davidson diagonalization with overlap
     ethr =  7.39E-11,  avg # of iterations =  8.1

     total cpu time spent up to now is     8312.6 secs

     total energy              =   -4700.75154299 Ry
     estimated scf accuracy    <       0.00000013 Ry

     total magnetization       =    16.32 Bohr mag/cell
     absolute magnetization    =    23.10 Bohr mag/cell

     iteration #136     ecut=    60.00 Ry     beta= 0.30
     Davidson diagonalization with overlap
     ethr =  5.22E-11,  avg # of iterations =  4.1

     total cpu time spent up to now is     8366.6 secs

     total energy              =   -4700.75154302 Ry
     estimated scf accuracy    <       0.00000010 Ry

     total magnetization       =    16.32 Bohr mag/cell
     absolute magnetization    =    23.10 Bohr mag/cell

     iteration #137     ecut=    60.00 Ry     beta= 0.30
     Davidson diagonalization with overlap
     ethr =  4.01E-11,  avg # of iterations =  1.4

     total cpu time spent up to now is     8411.8 secs

     total energy              =   -4700.75154302 Ry
     estimated scf accuracy    <       0.00000007 Ry

     total magnetization       =    16.32 Bohr mag/cell
     absolute magnetization    =    23.10 Bohr mag/cell

     iteration #138     ecut=    60.00 Ry     beta= 0.30
     Davidson diagonalization with overlap
     ethr =  2.73E-11,  avg # of iterations =  4.4

     total cpu time spent up to now is     8467.8 secs

     total energy              =   -4700.75154304 Ry
     estimated scf accuracy    <       0.00000014 Ry

     total magnetization       =    16.32 Bohr mag/cell
     absolute magnetization    =    23.10 Bohr mag/cell

     iteration #139     ecut=    60.00 Ry     beta= 0.30
     Davidson diagonalization with overlap
     ethr =  2.73E-11,  avg # of iterations =  3.2

     total cpu time spent up to now is     8519.7 secs

     total energy              =   -4700.75154298 Ry
     estimated scf accuracy    <       0.00000005 Ry

     total magnetization       =    16.32 Bohr mag/cell
     absolute magnetization    =    23.10 Bohr mag/cell

     iteration #140     ecut=    60.00 Ry     beta= 0.30
     Davidson diagonalization with overlap
     ethr =  2.01E-11,  avg # of iterations =  5.8

     total cpu time spent up to now is     8586.7 secs

     total energy              =   -4700.75154303 Ry
     estimated scf accuracy    <       0.00000006 Ry

     total magnetization       =    16.32 Bohr mag/cell
     absolute magnetization    =    23.09 Bohr mag/cell

     iteration #141     ecut=    60.00 Ry     beta= 0.30
     Davidson diagonalization with overlap
     ethr =  2.01E-11,  avg # of iterations =  5.6

     total cpu time spent up to now is     8647.0 secs

     total energy              =   -4700.75154306 Ry
     estimated scf accuracy    <       0.00000007 Ry

     total magnetization       =    16.32 Bohr mag/cell
     absolute magnetization    =    23.10 Bohr mag/cell

     iteration #142     ecut=    60.00 Ry     beta= 0.30
     Davidson diagonalization with overlap
     ethr =  2.01E-11,  avg # of iterations =  1.3

     total cpu time spent up to now is     8692.6 secs

     total energy              =   -4700.75154306 Ry
     estimated scf accuracy    <       0.00000003 Ry

     total magnetization       =    16.32 Bohr mag/cell
     absolute magnetization    =    23.09 Bohr mag/cell

     iteration #143     ecut=    60.00 Ry     beta= 0.30
     Davidson diagonalization with overlap
     ethr =  1.18E-11,  avg # of iterations =  3.3

     total cpu time spent up to now is     8744.7 secs

     total energy              =   -4700.75154307 Ry
     estimated scf accuracy    <       0.00000006 Ry

     total magnetization       =    16.32 Bohr mag/cell
     absolute magnetization    =    23.09 Bohr mag/cell

     iteration #144     ecut=    60.00 Ry     beta= 0.30
     Davidson diagonalization with overlap
     ethr =  1.18E-11,  avg # of iterations =  6.0

     total cpu time spent up to now is     8812.3 secs

     total energy              =   -4700.75154304 Ry
     estimated scf accuracy    <       0.00000011 Ry

     total magnetization       =    16.32 Bohr mag/cell
     absolute magnetization    =    23.09 Bohr mag/cell

     iteration #145     ecut=    60.00 Ry     beta= 0.30
     Davidson diagonalization with overlap
     ethr =  1.18E-11,  avg # of iterations =  5.6

     total cpu time spent up to now is     8875.8 secs

     total energy              =   -4700.75154307 Ry
     estimated scf accuracy    <       0.00000005 Ry

     total magnetization       =    16.32 Bohr mag/cell
     absolute magnetization    =    23.09 Bohr mag/cell

     iteration #146     ecut=    60.00 Ry     beta= 0.30
     Davidson diagonalization with overlap
     ethr =  1.18E-11,  avg # of iterations =  2.2

     total cpu time spent up to now is     8923.7 secs

     total energy              =   -4700.75154308 Ry
     estimated scf accuracy    <       0.00000006 Ry

     total magnetization       =    16.32 Bohr mag/cell
     absolute magnetization    =    23.09 Bohr mag/cell

     iteration #147     ecut=    60.00 Ry     beta= 0.30
     Davidson diagonalization with overlap
     ethr =  1.18E-11,  avg # of iterations =  3.8

     total cpu time spent up to now is     8977.3 secs

     total energy              =   -4700.75154308 Ry
     estimated scf accuracy    <       0.00000004 Ry

     total magnetization       =    16.32 Bohr mag/cell
     absolute magnetization    =    23.09 Bohr mag/cell

     iteration #148     ecut=    60.00 Ry     beta= 0.30
     Davidson diagonalization with overlap
     ethr =  1.18E-11,  avg # of iterations =  1.8

     total cpu time spent up to now is     9023.7 secs

     total energy              =   -4700.75154308 Ry
     estimated scf accuracy    <       0.00000005 Ry

     total magnetization       =    16.32 Bohr mag/cell
     absolute magnetization    =    23.09 Bohr mag/cell

     iteration #149     ecut=    60.00 Ry     beta= 0.30
     Davidson diagonalization with overlap
     ethr =  1.18E-11,  avg # of iterations =  1.3

     total cpu time spent up to now is     9068.8 secs

     total energy              =   -4700.75154309 Ry
     estimated scf accuracy    <       0.00000003 Ry

     total magnetization       =    16.32 Bohr mag/cell
     absolute magnetization    =    23.09 Bohr mag/cell

     iteration #150     ecut=    60.00 Ry     beta= 0.30
     Davidson diagonalization with overlap
     ethr =  1.04E-11,  avg # of iterations =  5.9

     total cpu time spent up to now is     9135.1 secs

     total energy              =   -4700.75154311 Ry
     estimated scf accuracy    <       0.00000005 Ry

     total magnetization       =    16.32 Bohr mag/cell
     absolute magnetization    =    23.09 Bohr mag/cell

     iteration #151     ecut=    60.00 Ry     beta= 0.30
     Davidson diagonalization with overlap
     ethr =  1.04E-11,  avg # of iterations =  5.5

     total cpu time spent up to now is     9202.0 secs

     total energy              =   -4700.75154302 Ry
     estimated scf accuracy    <       0.00000004 Ry

     total magnetization       =    16.32 Bohr mag/cell
     absolute magnetization    =    23.09 Bohr mag/cell

     iteration #152     ecut=    60.00 Ry     beta= 0.30
     Davidson diagonalization with overlap
     ethr =  1.04E-11,  avg # of iterations =  7.3

     total cpu time spent up to now is     9277.9 secs

     total energy              =   -4700.75154308 Ry
     estimated scf accuracy    <       0.00000003 Ry

     total magnetization       =    16.32 Bohr mag/cell
     absolute magnetization    =    23.09 Bohr mag/cell

     iteration #153     ecut=    60.00 Ry     beta= 0.30
     Davidson diagonalization with overlap
     ethr =  1.04E-11,  avg # of iterations =  6.7

     total cpu time spent up to now is     9347.8 secs

     total energy              =   -4700.75154313 Ry
     estimated scf accuracy    <       0.00000004 Ry

     total magnetization       =    16.32 Bohr mag/cell
     absolute magnetization    =    23.09 Bohr mag/cell

     iteration #154     ecut=    60.00 Ry     beta= 0.30
     Davidson diagonalization with overlap
     ethr =  1.04E-11,  avg # of iterations =  5.2

     total cpu time spent up to now is     9408.3 secs

     total energy              =   -4700.75154313 Ry
     estimated scf accuracy    <       0.00000002 Ry

     total magnetization       =    16.32 Bohr mag/cell
     absolute magnetization    =    23.09 Bohr mag/cell

     iteration #155     ecut=    60.00 Ry     beta= 0.30
     Davidson diagonalization with overlap
     ethr =  7.38E-12,  avg # of iterations =  4.4

     total cpu time spent up to now is     9464.8 secs

     total energy              =   -4700.75154313 Ry
     estimated scf accuracy    <       0.00000008 Ry

     total magnetization       =    16.32 Bohr mag/cell
     absolute magnetization    =    23.09 Bohr mag/cell

     iteration #156     ecut=    60.00 Ry     beta= 0.30
     Davidson diagonalization with overlap
     ethr =  7.38E-12,  avg # of iterations =  5.5

     total cpu time spent up to now is     9529.1 secs

     total energy              =   -4700.75154314 Ry
     estimated scf accuracy    <       0.00000003 Ry

     total magnetization       =    16.32 Bohr mag/cell
     absolute magnetization    =    23.09 Bohr mag/cell

     iteration #157     ecut=    60.00 Ry     beta= 0.30
     Davidson diagonalization with overlap
     ethr =  7.38E-12,  avg # of iterations =  2.9

     total cpu time spent up to now is     9579.7 secs

     total energy              =   -4700.75154314 Ry
     estimated scf accuracy    <       0.00000003 Ry

     total magnetization       =    16.32 Bohr mag/cell
     absolute magnetization    =    23.09 Bohr mag/cell

     iteration #158     ecut=    60.00 Ry     beta= 0.30
     Davidson diagonalization with overlap
     ethr =  7.38E-12,  avg # of iterations =  5.8
 
     Magnetic moment per site  (integrated on atomic sphere of radius R)
     atom   1 (R=0.180)  charge= 12.1621  magn= -0.4749
     atom   2 (R=0.180)  charge= 14.4551  magn=  2.0101
     atom   3 (R=0.180)  charge= 14.4380  magn=  2.0932
     atom   4 (R=0.180)  charge= 12.1906  magn=  0.5137
     atom   5 (R=0.180)  charge= 12.1629  magn= -0.2059
     atom   6 (R=0.180)  charge= 14.4555  magn=  2.0228
     atom   7 (R=0.180)  charge= 12.1599  magn= -0.5454
     atom   8 (R=0.180)  charge= 14.4560  magn=  2.0053
     atom   9 (R=0.180)  charge= 12.1534  magn= -0.6710
     atom  10 (R=0.180)  charge= 14.4560  magn=  2.0053
     atom  11 (R=0.180)  charge= 14.4382  magn=  2.2899
     atom  12 (R=0.180)  charge= 14.4555  magn=  2.0228
     atom  13 (R=0.180)  charge= 14.4451  magn=  1.9575
     atom  14 (R=0.180)  charge= 12.1906  magn=  0.5137
     atom  15 (R=0.180)  charge= 12.1537  magn= -0.6510
     atom  16 (R=0.180)  charge= 14.4551  magn=  2.0101

     total cpu time spent up to now is     9646.4 secs

     End of self-consistent calculation

     Number of k-points >= 100: set verbosity='high' to print the bands.

     the Fermi energy is    18.7325 ev

!    total energy              =   -4700.75154315 Ry
     total all-electron energy =    -37622.149091 Ry
     estimated scf accuracy    <          9.9E-09 Ry
     smearing contrib. (-TS)   =      -0.00290701 Ry
     internal energy E=F+TS    =   -4700.74863615 Ry

     The total energy is F=E-TS. E is the sum of the following terms:
     one-electron contribution =   -1407.74276198 Ry
     hartree contribution      =     852.20697693 Ry
     xc contribution           =    -405.30668171 Ry
     ewald contribution        =   -2475.05247371 Ry
     one-center paw contrib.   =   -1264.85369568 Ry

     total magnetization       =    16.32 Bohr mag/cell
     absolute magnetization    =    23.08 Bohr mag/cell

     convergence has been achieved in 158 iterations


     Computing stress (Cartesian axis) and pressure

          total   stress  (Ry/bohr**3)                   (kbar)     P=      -47.11
  -0.00021211   0.00005674   0.00005755          -31.20        8.35        8.47
   0.00005674  -0.00031310   0.00009607            8.35      -46.06       14.13
   0.00005755   0.00009607  -0.00043556            8.47       14.13      -64.07


     Writing all to output data dir ./tmp/fecr_fe09cr07_t0.01.save/ :
     XML data file, charge density, pseudopotentials, collected wavefunctions
 
     init_run     :     45.25s CPU     34.02s WALL (       1 calls)
     electrons    :  11544.21s CPU   9611.90s WALL (       1 calls)
     stress       :     34.58s CPU     34.09s WALL (       1 calls)

     Called by init_run:
     wfcinit      :     10.48s CPU     13.14s WALL (       1 calls)
     potinit      :     33.81s CPU     19.83s WALL (       1 calls)
     hinit0       :      0.59s CPU      0.57s WALL (       1 calls)

     Called by electrons:
     c_bands      :   6098.08s CPU   6120.87s WALL (     158 calls)
     sum_band     :    507.84s CPU    509.85s WALL (     158 calls)
     v_of_rho     :      8.45s CPU      6.94s WALL (     159 calls)
     newd         :      6.30s CPU      6.36s WALL (     159 calls)
                                        6.36s GPU  (     159 calls)
     PAW_pot      :   4947.72s CPU   2978.08s WALL (     159 calls)
     mix_rho      :      5.37s CPU      5.34s WALL (     158 calls)

     Called by c_bands:
     init_us_2    :     43.00s CPU     41.04s WALL (   71232 calls)
     cegterg      :   5559.81s CPU   5582.93s WALL (   35392 calls)

     Called by *egterg:
     cdiaghg      :   1926.31s CPU   1943.33s WALL (  206532 calls)
                                     1941.90s GPU  (  206532 calls)
     h_psi        :   1634.32s CPU   1645.19s WALL (  206756 calls)
                                     1644.40s GPU  (  206756 calls)
     s_psi        :    106.75s CPU    108.44s WALL (  206756 calls)
     g_psi        :      0.99s CPU      9.70s WALL (  171140 calls)
                                        9.19s GPU  (  171140 calls)

     Called by h_psi:
     h_psi:calbec :      7.87s CPU    346.15s WALL (  206756 calls)
                                      345.15s GPU  (  206756 calls)
     vloc_psi     :    859.97s CPU    858.05s WALL (  206756 calls)
                                      858.19s GPU  (  206756 calls)
     add_vuspsi   :    103.88s CPU    429.35s WALL (  206756 calls)
                                      428.35s GPU  (  206756 calls)

     General routines
     calbec       :      9.43s CPU      9.85s WALL (  242372 calls)
     fft          :      1.89s CPU      2.32s WALL (    3994 calls)
                                        0.49s GPU  (    3676 calls)
     ffts         :      0.62s CPU      0.63s WALL (     634 calls)
                                        0.02s GPU  (     316 calls)
     fftw         :     42.47s CPU    789.22s WALL ( 2320808 calls)
                                      783.54s GPU  ( 2320808 calls)
     interpolate  :      2.67s CPU      2.69s WALL (     318 calls)
 
     Parallel routines
 
     PWSCF        :      3h13m CPU      2h41m WALL

 
   This run was terminated on:   9:55:48  17May2026            

=------------------------------------------------------------------------------=
   JOB DONE.
=------------------------------------------------------------------------------=
Warning: ieee_divide_by_zero is signaling
Warning: ieee_inexact is signaling
FORTRAN STOP
