--------------------------------------------------------------------------
WARNING: Open MPI tried to bind a process but failed.  This is a
warning only; your job will continue, though performance may
be degraded.

  Local host:        4b82db919bf5
  Application name:  /root/q-e-qe-7.3.1/bin/pw.x
  Error message:     failed to bind memory
  Location:          ../../../../../orte/mca/rtc/hwloc/rtc_hwloc.c:447

--------------------------------------------------------------------------

     Program PWSCF v.7.3.1 starts on 17May2026 at 21: 1:53 

     This program is part of the open-source Quantum ESPRESSO suite
     for quantum simulation of materials; please cite
         "P. Giannozzi et al., J. Phys.:Condens. Matter 21 395502 (2009);
         "P. Giannozzi et al., J. Phys.:Condens. Matter 29 465901 (2017);
         "P. Giannozzi et al., J. Chem. Phys. 152 154105 (2020);
          URL http://www.quantum-espresso.org", 
     in publications or presentations arising from this work. More details at
     http://www.quantum-espresso.org/quote

     Parallel version (MPI & OpenMP), running on       8 processor cores
     Number of MPI processes:                 1
     Threads/MPI process:                     8

     MPI processes distributed on     1 nodes
     54129 MiB available memory on the printing compute node when the environment starts
 
     Reading input from inputs/fecr_fe08cr08_h-0.01.in

     Current dimensions of program PWSCF are:
     Max number of different atomic species (ntypx) = 10
     Max number of k-points (npk) =  40000
     Max angular momentum in pseudopotentials (lmaxx) =  4
     file Fe.pbe-spn-kjpaw_psl.1.0.0.UPF: wavefunction(s)  3P 3D renormalized
     file Cr.pbe-spn-kjpaw_psl.1.0.0.UPF: wavefunction(s)  3S 3P 3D renormalized
     Found identity + ( -0.5000 -0.5000 -0.5000) symmetry
     This is a supercell, fractional translations are disabled
     Message from routine setup:
     using ibrav=0 with symmetry is DISCOURAGED, use correct ibrav instead
 
     Subspace diagonalization in iterative solution of the eigenvalue problem:
     a serial algorithm will be used

 
     G-vector sticks info
     --------------------
     sticks:   dense  smooth     PW     G-vecs:    dense   smooth      PW
     Sum        4281    2145    601               210481    74269   11123
 
     Using Slab Decomposition
 


     bravais-lattice index     =            0
     lattice parameter (alat)  =      10.5832  a.u.
     unit-cell volume          =    1185.3498 (a.u.)^3
     number of atoms/cell      =           16
     number of atomic types    =            2
     number of electrons       =       240.00
     number of Kohn-Sham states=          144
     kinetic-energy cutoff     =      60.0000  Ry
     charge density cutoff     =     480.0000  Ry
     scf convergence threshold =      1.0E-08
     mixing beta               =       0.3000
     number of iterations used =            8  plain     mixing
     Exchange-correlation= SLA  PW   PBX  PBC
                           (   1   4   3   4   0   0   0)

     GPU acceleration is ACTIVE.  1 visible GPUs per MPI rank


     celldm(1)=  10.583164  celldm(2)=   0.000000  celldm(3)=   0.000000
     celldm(4)=   0.000000  celldm(5)=   0.000000  celldm(6)=   0.000000

     crystal axes: (cart. coord. in units of alat)
               a(1) = (   1.000000   0.000000   0.000000 )  
               a(2) = (   0.000000   1.000000   0.000000 )  
               a(3) = (   0.000000   0.000000   1.000000 )  

     reciprocal axes: (cart. coord. in units 2 pi/alat)
               b(1) = (  1.000000  0.000000  0.000000 )  
               b(2) = (  0.000000  1.000000  0.000000 )  
               b(3) = (  0.000000  0.000000  1.000000 )  


     PseudoPot. # 1 for Fe read from file:
     ./pseudo/Fe.pbe-spn-kjpaw_psl.1.0.0.UPF
     MD5 check sum: fc81f059e5c5069939230b1155715ae8
     Pseudo is Projector augmented-wave + core cor, Zval = 16.0
     Generated using &quot;atomic&quot; code by A. Dal Corso  v.6.3
     Shape of augmentation charge: PSQ
     Using radial grid of 1191 points,  6 beta functions with: 
                l(1) =   0
                l(2) =   0
                l(3) =   1
                l(4) =   1
                l(5) =   2
                l(6) =   2
     Q(r) pseudized with 0 coefficients 


     PseudoPot. # 2 for Cr read from file:
     ./pseudo/Cr.pbe-spn-kjpaw_psl.1.0.0.UPF
     MD5 check sum: 198f1a2427a48552563eee314eba32ba
     Pseudo is Projector augmented-wave + core cor, Zval = 14.0
     Generated using &quot;atomic&quot; code by A. Dal Corso  v.6.3
     Shape of augmentation charge: PSQ
     Using radial grid of 1183 points,  6 beta functions with: 
                l(1) =   0
                l(2) =   0
                l(3) =   1
                l(4) =   1
                l(5) =   2
                l(6) =   2
     Q(r) pseudized with 0 coefficients 


     atomic species   valence    mass     pseudopotential
     Fe               16.00    55.84500     Fe( 1.00)
     Cr               14.00    51.99600     Cr( 1.00)

     Starting magnetic structure 
     atomic species   magnetization
     Fe              0.500
     Cr              0.300

      4 Sym. Ops., with inversion, found



   Cartesian axes

     site n.     atom                  positions (alat units)
         1        Cr     tau(   1) = (   0.0000000   0.0000000   0.0000000  )
         2        Fe     tau(   2) = (   0.2500000   0.2500000   0.2500000  )
         3        Fe     tau(   3) = (   0.0000000   0.0000000   0.5000000  )
         4        Cr     tau(   4) = (   0.2500000   0.2500000   0.7500000  )
         5        Cr     tau(   5) = (   0.0000000   0.5000000   0.0000000  )
         6        Fe     tau(   6) = (   0.2500000   0.7500000   0.2500000  )
         7        Cr     tau(   7) = (   0.0000000   0.5000000   0.5000000  )
         8        Fe     tau(   8) = (   0.2500000   0.7500000   0.7500000  )
         9        Cr     tau(   9) = (   0.5000000   0.0000000   0.0000000  )
        10        Fe     tau(  10) = (   0.7500000   0.2500000   0.2500000  )
        11        Cr     tau(  11) = (   0.5000000   0.0000000   0.5000000  )
        12        Fe     tau(  12) = (   0.7500000   0.2500000   0.7500000  )
        13        Fe     tau(  13) = (   0.5000000   0.5000000   0.0000000  )
        14        Cr     tau(  14) = (   0.7500000   0.7500000   0.2500000  )
        15        Cr     tau(  15) = (   0.5000000   0.5000000   0.5000000  )
        16        Fe     tau(  16) = (   0.7500000   0.7500000   0.7500000  )

     number of k points=    68  Marzari-Vanderbilt smearing, width (Ry)=  0.0200
                       cart. coord. in units 2pi/alat
        k(    1) = (   0.0000000   0.0000000   0.0000000), wk =   0.0046296
        k(    2) = (   0.0000000   0.0000000   0.1666667), wk =   0.0092593
        k(    3) = (   0.0000000   0.0000000   0.3333333), wk =   0.0092593
        k(    4) = (   0.0000000   0.0000000  -0.5000000), wk =   0.0046296
        k(    5) = (   0.0000000   0.1666667   0.1666667), wk =   0.0185185
        k(    6) = (   0.0000000   0.1666667   0.3333333), wk =   0.0185185
        k(    7) = (   0.0000000   0.1666667  -0.5000000), wk =   0.0185185
        k(    8) = (   0.0000000   0.3333333   0.3333333), wk =   0.0185185
        k(    9) = (   0.0000000   0.3333333  -0.5000000), wk =   0.0185185
        k(   10) = (   0.0000000  -0.5000000  -0.5000000), wk =   0.0092593
        k(   11) = (   0.1666667   0.1666667   0.1666667), wk =   0.0092593
        k(   12) = (   0.1666667   0.1666667   0.3333333), wk =   0.0092593
        k(   13) = (   0.1666667   0.1666667  -0.5000000), wk =   0.0092593
        k(   14) = (   0.1666667   0.3333333   0.3333333), wk =   0.0185185
        k(   15) = (   0.1666667   0.3333333  -0.5000000), wk =   0.0185185
        k(   16) = (   0.1666667  -0.5000000  -0.5000000), wk =   0.0185185
        k(   17) = (   0.3333333   0.3333333   0.3333333), wk =   0.0092593
        k(   18) = (   0.3333333   0.3333333  -0.5000000), wk =   0.0092593
        k(   19) = (   0.3333333  -0.5000000  -0.5000000), wk =   0.0185185
        k(   20) = (  -0.5000000  -0.5000000  -0.5000000), wk =   0.0046296
        k(   21) = (   0.1666667   0.0000000   0.0000000), wk =   0.0185185
        k(   22) = (   0.3333333   0.0000000   0.0000000), wk =   0.0185185
        k(   23) = (  -0.5000000   0.0000000   0.0000000), wk =   0.0092593
        k(   24) = (   0.1666667   0.0000000  -0.1666667), wk =   0.0185185
        k(   25) = (   0.1666667  -0.1666667   0.0000000), wk =   0.0092593
        k(   26) = (  -0.1666667  -0.1666667   0.0000000), wk =   0.0092593
        k(   27) = (   0.1666667   0.0000000  -0.3333333), wk =   0.0185185
        k(   28) = (   0.3333333  -0.1666667   0.0000000), wk =   0.0185185
        k(   29) = (  -0.3333333  -0.1666667   0.0000000), wk =   0.0185185
        k(   30) = (   0.0000000   0.3333333   0.1666667), wk =   0.0185185
        k(   31) = (   0.0000000   0.3333333  -0.1666667), wk =   0.0185185
        k(   32) = (  -0.5000000  -0.1666667   0.0000000), wk =   0.0185185
        k(   33) = (   0.0000000  -0.5000000   0.1666667), wk =   0.0185185
        k(   34) = (   0.3333333   0.0000000  -0.3333333), wk =   0.0185185
        k(   35) = (   0.3333333  -0.3333333   0.0000000), wk =   0.0092593
        k(   36) = (  -0.3333333  -0.3333333   0.0000000), wk =   0.0092593
        k(   37) = (  -0.5000000  -0.3333333   0.0000000), wk =   0.0185185
        k(   38) = (   0.0000000  -0.5000000   0.3333333), wk =   0.0185185
        k(   39) = (  -0.5000000   0.5000000   0.0000000), wk =   0.0046296
        k(   40) = (   0.1666667   0.1666667  -0.1666667), wk =   0.0092593
        k(   41) = (   0.1666667  -0.1666667   0.1666667), wk =   0.0185185
        k(   42) = (   0.1666667   0.1666667  -0.3333333), wk =   0.0092593
        k(   43) = (   0.1666667  -0.1666667   0.3333333), wk =   0.0185185
        k(   44) = (   0.3333333  -0.1666667   0.1666667), wk =   0.0185185
        k(   45) = (  -0.3333333  -0.1666667  -0.1666667), wk =   0.0185185
        k(   46) = (   0.3333333   0.1666667  -0.1666667), wk =   0.0185185
        k(   47) = (  -0.3333333   0.1666667   0.1666667), wk =   0.0185185
        k(   48) = (   0.1666667  -0.1666667  -0.5000000), wk =   0.0092593
        k(   49) = (  -0.5000000  -0.1666667   0.1666667), wk =   0.0185185
        k(   50) = (   0.5000000  -0.1666667  -0.1666667), wk =   0.0185185
        k(   51) = (   0.3333333   0.1666667  -0.3333333), wk =   0.0185185
        k(   52) = (   0.3333333  -0.1666667   0.3333333), wk =   0.0185185
        k(   53) = (  -0.3333333   0.1666667   0.3333333), wk =   0.0185185
        k(   54) = (   0.3333333  -0.3333333   0.1666667), wk =   0.0185185
        k(   55) = (  -0.3333333  -0.3333333  -0.1666667), wk =   0.0092593
        k(   56) = (   0.3333333   0.3333333  -0.1666667), wk =   0.0092593
        k(   57) = (   0.3333333  -0.1666667  -0.5000000), wk =   0.0185185
        k(   58) = (  -0.5000000  -0.3333333   0.1666667), wk =   0.0185185
        k(   59) = (   0.5000000  -0.3333333  -0.1666667), wk =   0.0185185
        k(   60) = (  -0.1666667  -0.5000000   0.3333333), wk =   0.0185185
        k(   61) = (  -0.1666667   0.5000000  -0.3333333), wk =   0.0185185
        k(   62) = (  -0.5000000   0.5000000   0.1666667), wk =   0.0092593
        k(   63) = (   0.3333333   0.3333333  -0.3333333), wk =   0.0092593
        k(   64) = (   0.3333333  -0.3333333   0.3333333), wk =   0.0185185
        k(   65) = (   0.3333333  -0.3333333  -0.5000000), wk =   0.0092593
        k(   66) = (  -0.5000000  -0.3333333   0.3333333), wk =   0.0185185
        k(   67) = (   0.5000000  -0.3333333  -0.3333333), wk =   0.0185185
        k(   68) = (  -0.5000000   0.5000000   0.3333333), wk =   0.0092593

     Dense  grid:   210481 G-vectors     FFT dimensions: (  75,  75,  75)

     Smooth grid:    74269 G-vectors     FFT dimensions: (  54,  54,  54)

     Estimated max dynamical RAM per process >       3.61 GB

     Check: negative core charge=   -0.000003
     Generating pointlists ...
     new r_m :   0.1786 (alat units)  1.8903 (a.u.) for type    1
     new r_m :   0.1786 (alat units)  1.8903 (a.u.) for type    2

     Initial potential from superposition of free atoms

     starting charge     239.9903, renormalised to     240.0000
     Starting wfcs are  160 randomized atomic wfcs
     Checking if some PAW data can be deallocated... 

     total cpu time spent up to now is       28.8 secs

     Self-consistent Calculation

     iteration #  1     ecut=    60.00 Ry     beta= 0.30
     Davidson diagonalization with overlap
     ethr =  1.00E-02,  avg # of iterations =  4.3

     negative rho (up, down):  0.000E+00 1.502E+00

     total cpu time spent up to now is       70.9 secs

     total energy              =   -4606.15619663 Ry
     estimated scf accuracy    <     125.72795979 Ry

     total magnetization       =    48.58 Bohr mag/cell
     absolute magnetization    =    66.18 Bohr mag/cell

     iteration #  2     ecut=    60.00 Ry     beta= 0.30
     Davidson diagonalization with overlap
     ethr =  1.00E-02,  avg # of iterations =  4.2

     negative rho (up, down):  0.000E+00 1.160E+00

     total cpu time spent up to now is      111.2 secs

     total energy              =   -4605.97329071 Ry
     estimated scf accuracy    <      72.81952813 Ry

     total magnetization       =    20.80 Bohr mag/cell
     absolute magnetization    =    21.75 Bohr mag/cell

     iteration #  3     ecut=    60.00 Ry     beta= 0.30
     Davidson diagonalization with overlap
     ethr =  1.00E-02,  avg # of iterations =  5.0

     negative rho (up, down):  0.000E+00 9.569E-01

     total cpu time spent up to now is      154.5 secs

     total energy              =   -4610.15895006 Ry
     estimated scf accuracy    <      91.70473434 Ry

     total magnetization       =    34.38 Bohr mag/cell
     absolute magnetization    =    34.87 Bohr mag/cell

     iteration #  4     ecut=    60.00 Ry     beta= 0.30
     Davidson diagonalization with overlap
     ethr =  1.00E-02,  avg # of iterations =  3.1

     negative rho (up, down):  0.000E+00 8.431E-01

     total cpu time spent up to now is      191.7 secs

     total energy              =   -4616.32411333 Ry
     estimated scf accuracy    <      12.28211004 Ry

     total magnetization       =    27.85 Bohr mag/cell
     absolute magnetization    =    28.98 Bohr mag/cell

     iteration #  5     ecut=    60.00 Ry     beta= 0.30
     Davidson diagonalization with overlap
     ethr =  5.12E-03,  avg # of iterations =  3.8

     negative rho (up, down):  0.000E+00 5.974E-01

     total cpu time spent up to now is      231.3 secs

     total energy              =   -4617.74964072 Ry
     estimated scf accuracy    <      18.19455103 Ry

     total magnetization       =    28.73 Bohr mag/cell
     absolute magnetization    =    29.49 Bohr mag/cell

     iteration #  6     ecut=    60.00 Ry     beta= 0.30
     Davidson diagonalization with overlap
     ethr =  5.12E-03,  avg # of iterations =  1.1

     negative rho (up, down):  0.000E+00 1.856E-01

     total cpu time spent up to now is      264.3 secs

     total energy              =   -4618.27603810 Ry
     estimated scf accuracy    <       9.94523284 Ry

     total magnetization       =    25.87 Bohr mag/cell
     absolute magnetization    =    26.60 Bohr mag/cell

     iteration #  7     ecut=    60.00 Ry     beta= 0.30
     Davidson diagonalization with overlap
     ethr =  4.14E-03,  avg # of iterations =  2.0

     negative rho (up, down):  0.000E+00 4.656E-02

     total cpu time spent up to now is      299.5 secs

     total energy              =   -4618.91241440 Ry
     estimated scf accuracy    <       8.49874448 Ry

     total magnetization       =    26.46 Bohr mag/cell
     absolute magnetization    =    27.26 Bohr mag/cell

     iteration #  8     ecut=    60.00 Ry     beta= 0.30
     Davidson diagonalization with overlap
     ethr =  3.54E-03,  avg # of iterations =  1.0

     negative rho (up, down):  0.000E+00 1.577E-02

     total cpu time spent up to now is      332.3 secs

     total energy              =   -4619.34485542 Ry
     estimated scf accuracy    <       2.28477307 Ry

     total magnetization       =    23.45 Bohr mag/cell
     absolute magnetization    =    24.47 Bohr mag/cell

     iteration #  9     ecut=    60.00 Ry     beta= 0.30
     Davidson diagonalization with overlap
     ethr =  9.52E-04,  avg # of iterations =  2.1

     negative rho (up, down):  0.000E+00 8.775E-03

     total cpu time spent up to now is      368.0 secs

     total energy              =   -4619.44565650 Ry
     estimated scf accuracy    <       1.59975932 Ry

     total magnetization       =    21.99 Bohr mag/cell
     absolute magnetization    =    23.16 Bohr mag/cell

     iteration # 10     ecut=    60.00 Ry     beta= 0.30
     Davidson diagonalization with overlap
     ethr =  6.67E-04,  avg # of iterations =  1.3

     negative rho (up, down):  0.000E+00 6.107E-04

     total cpu time spent up to now is      401.8 secs

     total energy              =   -4619.49211253 Ry
     estimated scf accuracy    <       1.14389261 Ry

     total magnetization       =    21.47 Bohr mag/cell
     absolute magnetization    =    22.67 Bohr mag/cell

     iteration # 11     ecut=    60.00 Ry     beta= 0.30
     Davidson diagonalization with overlap
     ethr =  4.77E-04,  avg # of iterations =  1.8

     negative rho (up, down):  0.000E+00 3.177E-04

     total cpu time spent up to now is      436.6 secs

     total energy              =   -4619.59449595 Ry
     estimated scf accuracy    <       0.69466889 Ry

     total magnetization       =    18.24 Bohr mag/cell
     absolute magnetization    =    19.98 Bohr mag/cell

     iteration # 12     ecut=    60.00 Ry     beta= 0.30
     Davidson diagonalization with overlap
     ethr =  2.89E-04,  avg # of iterations =  2.5

     negative rho (up, down):  0.000E+00 1.479E-04

     total cpu time spent up to now is      473.0 secs

     total energy              =   -4619.61389010 Ry
     estimated scf accuracy    <       0.98140025 Ry

     total magnetization       =    16.51 Bohr mag/cell
     absolute magnetization    =    18.24 Bohr mag/cell

     iteration # 13     ecut=    60.00 Ry     beta= 0.30
     Davidson diagonalization with overlap
     ethr =  2.89E-04,  avg # of iterations =  1.1

     negative rho (up, down):  0.000E+00 5.179E-05

     total cpu time spent up to now is      506.6 secs

     total energy              =   -4619.60133689 Ry
     estimated scf accuracy    <       0.29294517 Ry

     total magnetization       =    16.50 Bohr mag/cell
     absolute magnetization    =    18.13 Bohr mag/cell

     iteration # 14     ecut=    60.00 Ry     beta= 0.30
     Davidson diagonalization with overlap
     ethr =  1.22E-04,  avg # of iterations =  5.9

     total cpu time spent up to now is      550.4 secs

     total energy              =   -4619.62582335 Ry
     estimated scf accuracy    <       0.45990606 Ry

     total magnetization       =    16.73 Bohr mag/cell
     absolute magnetization    =    18.15 Bohr mag/cell

     iteration # 15     ecut=    60.00 Ry     beta= 0.30
     Davidson diagonalization with overlap
     ethr =  1.22E-04,  avg # of iterations =  1.1

     total cpu time spent up to now is      584.2 secs

     total energy              =   -4619.65304073 Ry
     estimated scf accuracy    <       0.04543475 Ry

     total magnetization       =    16.25 Bohr mag/cell
     absolute magnetization    =    17.73 Bohr mag/cell

     iteration # 16     ecut=    60.00 Ry     beta= 0.30
     Davidson diagonalization with overlap
     c_bands:  2 eigenvalues not converged
     c_bands:  1 eigenvalues not converged
     c_bands:  1 eigenvalues not converged
     ethr =  1.89E-05,  avg # of iterations = 10.9

     total cpu time spent up to now is      639.2 secs

     total energy              =   -4619.65475368 Ry
     estimated scf accuracy    <       0.14321776 Ry

     total magnetization       =    15.70 Bohr mag/cell
     absolute magnetization    =    17.06 Bohr mag/cell

     iteration # 17     ecut=    60.00 Ry     beta= 0.30
     Davidson diagonalization with overlap
     c_bands:  1 eigenvalues not converged
     ethr =  1.89E-05,  avg # of iterations =  8.5

     total cpu time spent up to now is      689.3 secs

     total energy              =   -4619.65471234 Ry
     estimated scf accuracy    <       0.28916965 Ry

     total magnetization       =    15.49 Bohr mag/cell
     absolute magnetization    =    16.92 Bohr mag/cell

     iteration # 18     ecut=    60.00 Ry     beta= 0.30
     Davidson diagonalization with overlap
     ethr =  1.89E-05,  avg # of iterations =  5.7

     total cpu time spent up to now is      732.0 secs

     total energy              =   -4619.66652498 Ry
     estimated scf accuracy    <       0.06975733 Ry

     total magnetization       =    14.97 Bohr mag/cell
     absolute magnetization    =    16.45 Bohr mag/cell

     iteration # 19     ecut=    60.00 Ry     beta= 0.30
     Davidson diagonalization with overlap
     ethr =  1.89E-05,  avg # of iterations =  1.4

     total cpu time spent up to now is      765.6 secs

     total energy              =   -4619.67054501 Ry
     estimated scf accuracy    <       0.02732758 Ry

     total magnetization       =    14.59 Bohr mag/cell
     absolute magnetization    =    16.10 Bohr mag/cell

     iteration # 20     ecut=    60.00 Ry     beta= 0.30
     Davidson diagonalization with overlap
     ethr =  1.14E-05,  avg # of iterations =  2.7

     total cpu time spent up to now is      801.7 secs

     total energy              =   -4619.67057911 Ry
     estimated scf accuracy    <       0.06970277 Ry

     total magnetization       =    14.36 Bohr mag/cell
     absolute magnetization    =    15.88 Bohr mag/cell

     iteration # 21     ecut=    60.00 Ry     beta= 0.30
     Davidson diagonalization with overlap
     ethr =  1.14E-05,  avg # of iterations =  1.1

     total cpu time spent up to now is      833.2 secs

     total energy              =   -4619.67370120 Ry
     estimated scf accuracy    <       0.00351665 Ry

     total magnetization       =    14.21 Bohr mag/cell
     absolute magnetization    =    15.74 Bohr mag/cell

     iteration # 22     ecut=    60.00 Ry     beta= 0.30
     Davidson diagonalization with overlap
     c_bands:  1 eigenvalues not converged
     c_bands:  2 eigenvalues not converged
     ethr =  1.47E-06,  avg # of iterations =  9.6

     total cpu time spent up to now is      885.5 secs

     total energy              =   -4619.67426374 Ry
     estimated scf accuracy    <       0.00673691 Ry

     total magnetization       =    14.10 Bohr mag/cell
     absolute magnetization    =    15.63 Bohr mag/cell

     iteration # 23     ecut=    60.00 Ry     beta= 0.30
     Davidson diagonalization with overlap
     ethr =  1.47E-06,  avg # of iterations =  1.7

     total cpu time spent up to now is      919.3 secs

     total energy              =   -4619.67465373 Ry
     estimated scf accuracy    <       0.00144506 Ry

     total magnetization       =    14.03 Bohr mag/cell
     absolute magnetization    =    15.56 Bohr mag/cell

     iteration # 24     ecut=    60.00 Ry     beta= 0.30
     Davidson diagonalization with overlap
     ethr =  6.02E-07,  avg # of iterations =  4.1

     total cpu time spent up to now is      959.3 secs

     total energy              =   -4619.67480357 Ry
     estimated scf accuracy    <       0.00317232 Ry

     total magnetization       =    14.03 Bohr mag/cell
     absolute magnetization    =    15.54 Bohr mag/cell

     iteration # 25     ecut=    60.00 Ry     beta= 0.30
     Davidson diagonalization with overlap
     ethr =  6.02E-07,  avg # of iterations =  2.1

     total cpu time spent up to now is      995.3 secs

     total energy              =   -4619.67517310 Ry
     estimated scf accuracy    <       0.00076718 Ry

     total magnetization       =    13.90 Bohr mag/cell
     absolute magnetization    =    15.44 Bohr mag/cell

     iteration # 26     ecut=    60.00 Ry     beta= 0.30
     Davidson diagonalization with overlap
     c_bands:  2 eigenvalues not converged
     ethr =  3.20E-07,  avg # of iterations =  5.6

     total cpu time spent up to now is     1038.5 secs

     total energy              =   -4619.67523786 Ry
     estimated scf accuracy    <       0.00214946 Ry

     total magnetization       =    13.88 Bohr mag/cell
     absolute magnetization    =    15.41 Bohr mag/cell

     iteration # 27     ecut=    60.00 Ry     beta= 0.30
     Davidson diagonalization with overlap
     ethr =  3.20E-07,  avg # of iterations =  3.3

     total cpu time spent up to now is     1076.7 secs

     total energy              =   -4619.67529515 Ry
     estimated scf accuracy    <       0.00103245 Ry

     total magnetization       =    13.86 Bohr mag/cell
     absolute magnetization    =    15.39 Bohr mag/cell

     iteration # 28     ecut=    60.00 Ry     beta= 0.30
     Davidson diagonalization with overlap
     ethr =  3.20E-07,  avg # of iterations =  2.3

     total cpu time spent up to now is     1112.6 secs

     total energy              =   -4619.67521989 Ry
     estimated scf accuracy    <       0.00154230 Ry

     total magnetization       =    13.83 Bohr mag/cell
     absolute magnetization    =    15.38 Bohr mag/cell

     iteration # 29     ecut=    60.00 Ry     beta= 0.30
     Davidson diagonalization with overlap
     ethr =  3.20E-07,  avg # of iterations =  3.2

     total cpu time spent up to now is     1150.4 secs

     total energy              =   -4619.67531868 Ry
     estimated scf accuracy    <       0.00152144 Ry

     total magnetization       =    13.85 Bohr mag/cell
     absolute magnetization    =    15.38 Bohr mag/cell

     iteration # 30     ecut=    60.00 Ry     beta= 0.30
     Davidson diagonalization with overlap
     ethr =  3.20E-07,  avg # of iterations =  1.6

     total cpu time spent up to now is     1184.5 secs

     total energy              =   -4619.67542432 Ry
     estimated scf accuracy    <       0.00060212 Ry

     total magnetization       =    13.85 Bohr mag/cell
     absolute magnetization    =    15.38 Bohr mag/cell

     iteration # 31     ecut=    60.00 Ry     beta= 0.30
     Davidson diagonalization with overlap
     ethr =  2.51E-07,  avg # of iterations =  2.8

     total cpu time spent up to now is     1221.7 secs

     total energy              =   -4619.67548353 Ry
     estimated scf accuracy    <       0.00028748 Ry

     total magnetization       =    13.83 Bohr mag/cell
     absolute magnetization    =    15.36 Bohr mag/cell

     iteration # 32     ecut=    60.00 Ry     beta= 0.30
     Davidson diagonalization with overlap
     ethr =  1.20E-07,  avg # of iterations =  2.4

     total cpu time spent up to now is     1258.0 secs

     total energy              =   -4619.67551383 Ry
     estimated scf accuracy    <       0.00026681 Ry

     total magnetization       =    13.85 Bohr mag/cell
     absolute magnetization    =    15.37 Bohr mag/cell

     iteration # 33     ecut=    60.00 Ry     beta= 0.30
     Davidson diagonalization with overlap
     ethr =  1.11E-07,  avg # of iterations =  2.6

     total cpu time spent up to now is     1293.6 secs

     total energy              =   -4619.67553600 Ry
     estimated scf accuracy    <       0.00020935 Ry

     total magnetization       =    13.84 Bohr mag/cell
     absolute magnetization    =    15.36 Bohr mag/cell

     iteration # 34     ecut=    60.00 Ry     beta= 0.30
     Davidson diagonalization with overlap
     ethr =  8.72E-08,  avg # of iterations =  4.4

     total cpu time spent up to now is     1334.5 secs

     total energy              =   -4619.67557689 Ry
     estimated scf accuracy    <       0.00010581 Ry

     total magnetization       =    13.84 Bohr mag/cell
     absolute magnetization    =    15.35 Bohr mag/cell

     iteration # 35     ecut=    60.00 Ry     beta= 0.30
     Davidson diagonalization with overlap
     ethr =  4.41E-08,  avg # of iterations =  4.1

     total cpu time spent up to now is     1374.0 secs

     total energy              =   -4619.67558854 Ry
     estimated scf accuracy    <       0.00005483 Ry

     total magnetization       =    13.85 Bohr mag/cell
     absolute magnetization    =    15.36 Bohr mag/cell

     iteration # 36     ecut=    60.00 Ry     beta= 0.30
     Davidson diagonalization with overlap
     ethr =  2.28E-08,  avg # of iterations =  6.4

     total cpu time spent up to now is     1422.7 secs

     total energy              =   -4619.67562510 Ry
     estimated scf accuracy    <       0.00003412 Ry

     total magnetization       =    13.90 Bohr mag/cell
     absolute magnetization    =    15.38 Bohr mag/cell

     iteration # 37     ecut=    60.00 Ry     beta= 0.30
     Davidson diagonalization with overlap
     ethr =  1.42E-08,  avg # of iterations =  3.2

     total cpu time spent up to now is     1461.3 secs

     total energy              =   -4619.67563499 Ry
     estimated scf accuracy    <       0.00008815 Ry

     total magnetization       =    13.89 Bohr mag/cell
     absolute magnetization    =    15.37 Bohr mag/cell

     iteration # 38     ecut=    60.00 Ry     beta= 0.30
     Davidson diagonalization with overlap
     ethr =  1.42E-08,  avg # of iterations =  2.3

     total cpu time spent up to now is     1497.6 secs

     total energy              =   -4619.67564176 Ry
     estimated scf accuracy    <       0.00002786 Ry

     total magnetization       =    13.91 Bohr mag/cell
     absolute magnetization    =    15.39 Bohr mag/cell

     iteration # 39     ecut=    60.00 Ry     beta= 0.30
     Davidson diagonalization with overlap
     ethr =  1.16E-08,  avg # of iterations =  1.7

     total cpu time spent up to now is     1532.3 secs

     total energy              =   -4619.67564529 Ry
     estimated scf accuracy    <       0.00001290 Ry

     total magnetization       =    13.92 Bohr mag/cell
     absolute magnetization    =    15.39 Bohr mag/cell

     iteration # 40     ecut=    60.00 Ry     beta= 0.30
     Davidson diagonalization with overlap
     ethr =  5.38E-09,  avg # of iterations =  2.6

     total cpu time spent up to now is     1569.0 secs

     total energy              =   -4619.67564720 Ry
     estimated scf accuracy    <       0.00000928 Ry

     total magnetization       =    13.92 Bohr mag/cell
     absolute magnetization    =    15.39 Bohr mag/cell

     iteration # 41     ecut=    60.00 Ry     beta= 0.30
     Davidson diagonalization with overlap
     ethr =  3.87E-09,  avg # of iterations =  2.7

     total cpu time spent up to now is     1606.0 secs

     total energy              =   -4619.67564867 Ry
     estimated scf accuracy    <       0.00001605 Ry

     total magnetization       =    13.93 Bohr mag/cell
     absolute magnetization    =    15.39 Bohr mag/cell

     iteration # 42     ecut=    60.00 Ry     beta= 0.30
     Davidson diagonalization with overlap
     ethr =  3.87E-09,  avg # of iterations =  2.1

     total cpu time spent up to now is     1641.3 secs

     total energy              =   -4619.67565007 Ry
     estimated scf accuracy    <       0.00000512 Ry

     total magnetization       =    13.93 Bohr mag/cell
     absolute magnetization    =    15.40 Bohr mag/cell

     iteration # 43     ecut=    60.00 Ry     beta= 0.30
     Davidson diagonalization with overlap
     ethr =  2.13E-09,  avg # of iterations =  4.0

     total cpu time spent up to now is     1680.0 secs

     total energy              =   -4619.67565198 Ry
     estimated scf accuracy    <       0.00000367 Ry

     total magnetization       =    13.94 Bohr mag/cell
     absolute magnetization    =    15.40 Bohr mag/cell

     iteration # 44     ecut=    60.00 Ry     beta= 0.30
     Davidson diagonalization with overlap
     ethr =  1.53E-09,  avg # of iterations =  5.7

     total cpu time spent up to now is     1722.8 secs

     total energy              =   -4619.67565286 Ry
     estimated scf accuracy    <       0.00000631 Ry

     total magnetization       =    13.94 Bohr mag/cell
     absolute magnetization    =    15.40 Bohr mag/cell

     iteration # 45     ecut=    60.00 Ry     beta= 0.30
     Davidson diagonalization with overlap
     ethr =  1.53E-09,  avg # of iterations =  1.2

     total cpu time spent up to now is     1755.3 secs

     total energy              =   -4619.67565382 Ry
     estimated scf accuracy    <       0.00000298 Ry

     total magnetization       =    13.94 Bohr mag/cell
     absolute magnetization    =    15.40 Bohr mag/cell

     iteration # 46     ecut=    60.00 Ry     beta= 0.30
     Davidson diagonalization with overlap
     ethr =  1.24E-09,  avg # of iterations =  2.3

     total cpu time spent up to now is     1790.7 secs

     total energy              =   -4619.67565502 Ry
     estimated scf accuracy    <       0.00000332 Ry

     total magnetization       =    13.95 Bohr mag/cell
     absolute magnetization    =    15.40 Bohr mag/cell

     iteration # 47     ecut=    60.00 Ry     beta= 0.30
     Davidson diagonalization with overlap
     ethr =  1.24E-09,  avg # of iterations =  5.0

     total cpu time spent up to now is     1832.3 secs

     total energy              =   -4619.67565517 Ry
     estimated scf accuracy    <       0.00000206 Ry

     total magnetization       =    13.95 Bohr mag/cell
     absolute magnetization    =    15.40 Bohr mag/cell

     iteration # 48     ecut=    60.00 Ry     beta= 0.30
     Davidson diagonalization with overlap
     ethr =  8.57E-10,  avg # of iterations =  7.5

     total cpu time spent up to now is     1884.0 secs

     total energy              =   -4619.67565777 Ry
     estimated scf accuracy    <       0.00001500 Ry

     total magnetization       =    13.96 Bohr mag/cell
     absolute magnetization    =    15.40 Bohr mag/cell

     iteration # 49     ecut=    60.00 Ry     beta= 0.30
     Davidson diagonalization with overlap
     ethr =  8.57E-10,  avg # of iterations =  5.1

     total cpu time spent up to now is     1926.1 secs

     total energy              =   -4619.67565912 Ry
     estimated scf accuracy    <       0.00000249 Ry

     total magnetization       =    13.96 Bohr mag/cell
     absolute magnetization    =    15.40 Bohr mag/cell

     iteration # 50     ecut=    60.00 Ry     beta= 0.30
     Davidson diagonalization with overlap
     ethr =  8.57E-10,  avg # of iterations =  1.5

     total cpu time spent up to now is     1960.5 secs

     total energy              =   -4619.67565981 Ry
     estimated scf accuracy    <       0.00000312 Ry

     total magnetization       =    13.96 Bohr mag/cell
     absolute magnetization    =    15.40 Bohr mag/cell

     iteration # 51     ecut=    60.00 Ry     beta= 0.30
     Davidson diagonalization with overlap
     ethr =  8.57E-10,  avg # of iterations =  6.0

     total cpu time spent up to now is     2007.1 secs

     total energy              =   -4619.67565996 Ry
     estimated scf accuracy    <       0.00000536 Ry

     total magnetization       =    13.96 Bohr mag/cell
     absolute magnetization    =    15.40 Bohr mag/cell

     iteration # 52     ecut=    60.00 Ry     beta= 0.30
     Davidson diagonalization with overlap
     ethr =  8.57E-10,  avg # of iterations =  3.8

     total cpu time spent up to now is     2047.1 secs

     total energy              =   -4619.67566121 Ry
     estimated scf accuracy    <       0.00000309 Ry

     total magnetization       =    13.96 Bohr mag/cell
     absolute magnetization    =    15.40 Bohr mag/cell

     iteration # 53     ecut=    60.00 Ry     beta= 0.30
     Davidson diagonalization with overlap
     ethr =  8.57E-10,  avg # of iterations =  4.4

     total cpu time spent up to now is     2087.3 secs

     total energy              =   -4619.67566155 Ry
     estimated scf accuracy    <       0.00000147 Ry

     total magnetization       =    13.96 Bohr mag/cell
     absolute magnetization    =    15.40 Bohr mag/cell

     iteration # 54     ecut=    60.00 Ry     beta= 0.30
     Davidson diagonalization with overlap
     ethr =  6.11E-10,  avg # of iterations =  5.4

     total cpu time spent up to now is     2131.3 secs

     total energy              =   -4619.67565957 Ry
     estimated scf accuracy    <       0.00001042 Ry

     total magnetization       =    13.96 Bohr mag/cell
     absolute magnetization    =    15.40 Bohr mag/cell

     iteration # 55     ecut=    60.00 Ry     beta= 0.30
     Davidson diagonalization with overlap
     ethr =  6.11E-10,  avg # of iterations =  7.7

     total cpu time spent up to now is     2184.2 secs

     total energy              =   -4619.67566494 Ry
     estimated scf accuracy    <       0.00000134 Ry

     total magnetization       =    13.96 Bohr mag/cell
     absolute magnetization    =    15.40 Bohr mag/cell

     iteration # 56     ecut=    60.00 Ry     beta= 0.30
     Davidson diagonalization with overlap
     ethr =  5.58E-10,  avg # of iterations =  5.0

     total cpu time spent up to now is     2225.4 secs

     total energy              =   -4619.67566548 Ry
     estimated scf accuracy    <       0.00000128 Ry

     total magnetization       =    13.97 Bohr mag/cell
     absolute magnetization    =    15.40 Bohr mag/cell

     iteration # 57     ecut=    60.00 Ry     beta= 0.30
     Davidson diagonalization with overlap
     ethr =  5.33E-10,  avg # of iterations =  5.1

     total cpu time spent up to now is     2267.1 secs

     total energy              =   -4619.67566524 Ry
     estimated scf accuracy    <       0.00000052 Ry

     total magnetization       =    13.97 Bohr mag/cell
     absolute magnetization    =    15.40 Bohr mag/cell

     iteration # 58     ecut=    60.00 Ry     beta= 0.30
     Davidson diagonalization with overlap
     ethr =  2.16E-10,  avg # of iterations =  5.0

     total cpu time spent up to now is     2308.9 secs

     total energy              =   -4619.67566504 Ry
     estimated scf accuracy    <       0.00000075 Ry

     total magnetization       =    13.96 Bohr mag/cell
     absolute magnetization    =    15.40 Bohr mag/cell

     iteration # 59     ecut=    60.00 Ry     beta= 0.30
     Davidson diagonalization with overlap
     ethr =  2.16E-10,  avg # of iterations =  6.8

     total cpu time spent up to now is     2358.8 secs

     total energy              =   -4619.67566663 Ry
     estimated scf accuracy    <       0.00000043 Ry

     total magnetization       =    13.97 Bohr mag/cell
     absolute magnetization    =    15.40 Bohr mag/cell

     iteration # 60     ecut=    60.00 Ry     beta= 0.30
     Davidson diagonalization with overlap
     ethr =  1.79E-10,  avg # of iterations =  5.2

     total cpu time spent up to now is     2402.5 secs

     total energy              =   -4619.67566625 Ry
     estimated scf accuracy    <       0.00000126 Ry

     total magnetization       =    13.97 Bohr mag/cell
     absolute magnetization    =    15.40 Bohr mag/cell

     iteration # 61     ecut=    60.00 Ry     beta= 0.30
     Davidson diagonalization with overlap
     ethr =  1.79E-10,  avg # of iterations =  5.1

     total cpu time spent up to now is     2447.0 secs

     total energy              =   -4619.67566646 Ry
     estimated scf accuracy    <       0.00000108 Ry

     total magnetization       =    13.97 Bohr mag/cell
     absolute magnetization    =    15.40 Bohr mag/cell

     iteration # 62     ecut=    60.00 Ry     beta= 0.30
     Davidson diagonalization with overlap
     ethr =  1.79E-10,  avg # of iterations =  6.2

     total cpu time spent up to now is     2495.0 secs

     total energy              =   -4619.67566702 Ry
     estimated scf accuracy    <       0.00000047 Ry

     total magnetization       =    13.97 Bohr mag/cell
     absolute magnetization    =    15.40 Bohr mag/cell

     iteration # 63     ecut=    60.00 Ry     beta= 0.30
     Davidson diagonalization with overlap
     ethr =  1.79E-10,  avg # of iterations =  6.1

     total cpu time spent up to now is     2542.8 secs

     total energy              =   -4619.67566776 Ry
     estimated scf accuracy    <       0.00000060 Ry

     total magnetization       =    13.97 Bohr mag/cell
     absolute magnetization    =    15.40 Bohr mag/cell

     iteration # 64     ecut=    60.00 Ry     beta= 0.30
     Davidson diagonalization with overlap
     ethr =  1.79E-10,  avg # of iterations =  3.8

     total cpu time spent up to now is     2581.9 secs

     total energy              =   -4619.67566791 Ry
     estimated scf accuracy    <       0.00000049 Ry

     total magnetization       =    13.97 Bohr mag/cell
     absolute magnetization    =    15.40 Bohr mag/cell

     iteration # 65     ecut=    60.00 Ry     beta= 0.30
     Davidson diagonalization with overlap
     ethr =  1.79E-10,  avg # of iterations =  2.1

     total cpu time spent up to now is     2617.1 secs

     total energy              =   -4619.67566802 Ry
     estimated scf accuracy    <       0.00000028 Ry

     total magnetization       =    13.97 Bohr mag/cell
     absolute magnetization    =    15.40 Bohr mag/cell

     iteration # 66     ecut=    60.00 Ry     beta= 0.30
     Davidson diagonalization with overlap
     ethr =  1.18E-10,  avg # of iterations =  6.1

     total cpu time spent up to now is     2663.8 secs

     total energy              =   -4619.67566809 Ry
     estimated scf accuracy    <       0.00000035 Ry

     total magnetization       =    13.97 Bohr mag/cell
     absolute magnetization    =    15.40 Bohr mag/cell

     iteration # 67     ecut=    60.00 Ry     beta= 0.30
     Davidson diagonalization with overlap
     ethr =  1.18E-10,  avg # of iterations =  5.1

     total cpu time spent up to now is     2707.1 secs

     total energy              =   -4619.67566824 Ry
     estimated scf accuracy    <       0.00000043 Ry

     total magnetization       =    13.97 Bohr mag/cell
     absolute magnetization    =    15.40 Bohr mag/cell

     iteration # 68     ecut=    60.00 Ry     beta= 0.30
     Davidson diagonalization with overlap
     ethr =  1.18E-10,  avg # of iterations =  5.7

     total cpu time spent up to now is     2753.7 secs

     total energy              =   -4619.67566809 Ry
     estimated scf accuracy    <       0.00000113 Ry

     total magnetization       =    13.97 Bohr mag/cell
     absolute magnetization    =    15.40 Bohr mag/cell

     iteration # 69     ecut=    60.00 Ry     beta= 0.30
     Davidson diagonalization with overlap
     ethr =  1.18E-10,  avg # of iterations =  6.9

     total cpu time spent up to now is     2802.8 secs

     total energy              =   -4619.67566865 Ry
     estimated scf accuracy    <       0.00000011 Ry

     total magnetization       =    13.97 Bohr mag/cell
     absolute magnetization    =    15.41 Bohr mag/cell

     iteration # 70     ecut=    60.00 Ry     beta= 0.30
     Davidson diagonalization with overlap
     ethr =  4.43E-11,  avg # of iterations =  6.6

     total cpu time spent up to now is     2852.0 secs

     total energy              =   -4619.67566885 Ry
     estimated scf accuracy    <       0.00000027 Ry

     total magnetization       =    13.98 Bohr mag/cell
     absolute magnetization    =    15.41 Bohr mag/cell

     iteration # 71     ecut=    60.00 Ry     beta= 0.30
     Davidson diagonalization with overlap
     ethr =  4.43E-11,  avg # of iterations =  4.4

     total cpu time spent up to now is     2892.9 secs

     total energy              =   -4619.67566842 Ry
     estimated scf accuracy    <       0.00000027 Ry

     total magnetization       =    13.98 Bohr mag/cell
     absolute magnetization    =    15.41 Bohr mag/cell

     iteration # 72     ecut=    60.00 Ry     beta= 0.30
     Davidson diagonalization with overlap
     ethr =  4.43E-11,  avg # of iterations =  7.5

     total cpu time spent up to now is     2946.0 secs

     total energy              =   -4619.67566891 Ry
     estimated scf accuracy    <       0.00000004 Ry

     total magnetization       =    13.98 Bohr mag/cell
     absolute magnetization    =    15.41 Bohr mag/cell

     iteration # 73     ecut=    60.00 Ry     beta= 0.30
     Davidson diagonalization with overlap
     ethr =  1.53E-11,  avg # of iterations =  7.6

     total cpu time spent up to now is     2997.6 secs

     total energy              =   -4619.67566896 Ry
     estimated scf accuracy    <       0.00000030 Ry

     total magnetization       =    13.98 Bohr mag/cell
     absolute magnetization    =    15.41 Bohr mag/cell

     iteration # 74     ecut=    60.00 Ry     beta= 0.30
     Davidson diagonalization with overlap
     ethr =  1.53E-11,  avg # of iterations =  5.3

     total cpu time spent up to now is     3044.3 secs

     total energy              =   -4619.67566892 Ry
     estimated scf accuracy    <       0.00000008 Ry

     total magnetization       =    13.98 Bohr mag/cell
     absolute magnetization    =    15.41 Bohr mag/cell

     iteration # 75     ecut=    60.00 Ry     beta= 0.30
     Davidson diagonalization with overlap
     ethr =  1.53E-11,  avg # of iterations =  7.1

     total cpu time spent up to now is     3095.3 secs

     total energy              =   -4619.67566901 Ry
     estimated scf accuracy    <       0.00000008 Ry

     total magnetization       =    13.98 Bohr mag/cell
     absolute magnetization    =    15.41 Bohr mag/cell

     iteration # 76     ecut=    60.00 Ry     beta= 0.30
     Davidson diagonalization with overlap
     ethr =  1.53E-11,  avg # of iterations =  3.3

     total cpu time spent up to now is     3133.2 secs

     total energy              =   -4619.67566903 Ry
     estimated scf accuracy    <       0.00000003 Ry

     total magnetization       =    13.98 Bohr mag/cell
     absolute magnetization    =    15.41 Bohr mag/cell

     iteration # 77     ecut=    60.00 Ry     beta= 0.30
     Davidson diagonalization with overlap
     ethr =  1.15E-11,  avg # of iterations =  1.5

     total cpu time spent up to now is     3167.6 secs

     total energy              =   -4619.67566901 Ry
     estimated scf accuracy    <       0.00000003 Ry

     total magnetization       =    13.98 Bohr mag/cell
     absolute magnetization    =    15.41 Bohr mag/cell

     iteration # 78     ecut=    60.00 Ry     beta= 0.30
     Davidson diagonalization with overlap
     ethr =  1.06E-11,  avg # of iterations =  5.9

     total cpu time spent up to now is     3215.2 secs

     total energy              =   -4619.67566893 Ry
     estimated scf accuracy    <       0.00000007 Ry

     total magnetization       =    13.98 Bohr mag/cell
     absolute magnetization    =    15.41 Bohr mag/cell

     iteration # 79     ecut=    60.00 Ry     beta= 0.30
     Davidson diagonalization with overlap
     ethr =  1.06E-11,  avg # of iterations =  7.2

     total cpu time spent up to now is     3267.4 secs

     total energy              =   -4619.67566904 Ry
     estimated scf accuracy    <       0.00000001 Ry

     total magnetization       =    13.98 Bohr mag/cell
     absolute magnetization    =    15.41 Bohr mag/cell

     iteration # 80     ecut=    60.00 Ry     beta= 0.30
     Davidson diagonalization with overlap
     ethr =  5.65E-12,  avg # of iterations =  5.4

     total cpu time spent up to now is     3310.8 secs

     total energy              =   -4619.67566905 Ry
     estimated scf accuracy    <       0.00000002 Ry

     total magnetization       =    13.98 Bohr mag/cell
     absolute magnetization    =    15.41 Bohr mag/cell

     iteration # 81     ecut=    60.00 Ry     beta= 0.30
     Davidson diagonalization with overlap
     ethr =  5.65E-12,  avg # of iterations =  5.3

     total cpu time spent up to now is     3353.8 secs

     total energy              =   -4619.67566902 Ry
     estimated scf accuracy    <       0.00000008 Ry

     total magnetization       =    13.98 Bohr mag/cell
     absolute magnetization    =    15.41 Bohr mag/cell

     iteration # 82     ecut=    60.00 Ry     beta= 0.30
     Davidson diagonalization with overlap
     ethr =  5.65E-12,  avg # of iterations =  5.4
 
     Magnetic moment per site  (integrated on atomic sphere of radius R)
     atom   1 (R=0.179)  charge= 12.1157  magn=  0.1198
     atom   2 (R=0.179)  charge= 14.4305  magn=  1.6258
     atom   3 (R=0.179)  charge= 14.3912  magn=  1.9448
     atom   4 (R=0.179)  charge= 12.1531  magn= -0.0305
     atom   5 (R=0.179)  charge= 12.1154  magn=  0.1185
     atom   6 (R=0.179)  charge= 14.4305  magn=  1.6258
     atom   7 (R=0.179)  charge= 12.1155  magn=  0.1188
     atom   8 (R=0.179)  charge= 14.4305  magn=  1.6258
     atom   9 (R=0.179)  charge= 12.1154  magn=  0.1185
     atom  10 (R=0.179)  charge= 14.4305  magn=  1.6258
     atom  11 (R=0.179)  charge= 12.1155  magn=  0.1188
     atom  12 (R=0.179)  charge= 14.4305  magn=  1.6258
     atom  13 (R=0.179)  charge= 14.3914  magn=  1.9448
     atom  14 (R=0.179)  charge= 12.1531  magn= -0.0305
     atom  15 (R=0.179)  charge= 12.1152  magn=  0.1202
     atom  16 (R=0.179)  charge= 14.4305  magn=  1.6258

     total cpu time spent up to now is     3400.0 secs

     End of self-consistent calculation

     Number of k-points >= 100: set verbosity='high' to print the bands.

     the Fermi energy is    20.0731 ev

!    total energy              =   -4619.67566905 Ry
     total all-electron energy =    -37178.309362 Ry
     estimated scf accuracy    <          8.0E-09 Ry
     smearing contrib. (-TS)   =      -0.00366304 Ry
     internal energy E=F+TS    =   -4619.67200601 Ry

     The total energy is F=E-TS. E is the sum of the following terms:
     one-electron contribution =   -1280.32425404 Ry
     hartree contribution      =     798.13412178 Ry
     xc contribution           =    -400.38125463 Ry
     ewald contribution        =   -2480.76039067 Ry
     one-center paw contrib.   =   -1256.34022844 Ry

     total magnetization       =    13.98 Bohr mag/cell
     absolute magnetization    =    15.41 Bohr mag/cell

     convergence has been achieved in  82 iterations


     Computing stress (Cartesian axis) and pressure

          total   stress  (Ry/bohr**3)                   (kbar)     P=       68.18
   0.00046345   0.00008484   0.00008498           68.18       12.48       12.50
   0.00008484   0.00046345   0.00008498           12.48       68.18       12.50
   0.00008498   0.00008498   0.00046355           12.50       12.50       68.19


     Writing all to output data dir ./tmp/fecr_fe08cr08_h-0.01.save/ :
     XML data file, charge density, pseudopotentials, collected wavefunctions
 
     init_run     :     38.89s CPU     28.35s WALL (       1 calls)
     electrons    :   4385.84s CPU   3371.18s WALL (       1 calls)
     stress       :     20.21s CPU     19.93s WALL (       1 calls)

     Called by init_run:
     wfcinit      :      6.32s CPU      7.86s WALL (       1 calls)
     potinit      :     31.65s CPU     19.48s WALL (       1 calls)
     hinit0       :      0.61s CPU      0.60s WALL (       1 calls)

     Called by electrons:
     c_bands      :   1666.36s CPU   1674.00s WALL (      82 calls)
     sum_band     :    154.65s CPU    154.70s WALL (      82 calls)
     v_of_rho     :      4.70s CPU      4.03s WALL (      83 calls)
     newd         :      3.21s CPU      3.24s WALL (      83 calls)
                                        3.24s GPU  (      83 calls)
     PAW_pot      :   2583.72s CPU   1549.66s WALL (      83 calls)
     mix_rho      :      2.65s CPU      2.80s WALL (      82 calls)

     Called by c_bands:
     init_us_2    :     13.43s CPU     12.83s WALL (   22576 calls)
     cegterg      :   1506.26s CPU   1513.62s WALL (   11152 calls)

     Called by *egterg:
     cdiaghg      :    527.58s CPU    532.49s WALL (   58444 calls)
                                      532.23s GPU  (   58444 calls)
     h_psi        :    460.37s CPU    463.84s WALL (   58580 calls)
                                      463.38s GPU  (   58580 calls)
     s_psi        :     30.17s CPU     30.71s WALL (   58580 calls)
     g_psi        :      0.28s CPU      2.53s WALL (   47292 calls)
                                        2.38s GPU  (   47292 calls)

     Called by h_psi:
     h_psi:calbec :      2.23s CPU     94.65s WALL (   58580 calls)
                                       94.32s GPU  (   58580 calls)
     vloc_psi     :    245.60s CPU    245.62s WALL (   58580 calls)
                                      245.42s GPU  (   58580 calls)
     add_vuspsi   :     29.42s CPU    120.28s WALL (   58580 calls)
                                      119.96s GPU  (   58580 calls)

     General routines
     calbec       :      2.73s CPU      2.87s WALL (   69868 calls)
     fft          :      0.98s CPU      1.19s WALL (    2094 calls)
                                        0.26s GPU  (    1928 calls)
     ffts         :      0.32s CPU      0.33s WALL (     330 calls)
                                        0.01s GPU  (     164 calls)
     fftw         :     11.94s CPU    230.70s WALL (  631412 calls)
                                      228.85s GPU  (  631412 calls)
     interpolate  :      1.37s CPU      1.38s WALL (     166 calls)
 
     Parallel routines
 
     PWSCF        :      1h14m CPU  57m 5.35s WALL

 
   This run was terminated on:  21:58:58  17May2026            

=------------------------------------------------------------------------------=
   JOB DONE.
=------------------------------------------------------------------------------=
Warning: ieee_divide_by_zero is signaling
Warning: ieee_inexact is signaling
FORTRAN STOP
