--------------------------------------------------------------------------
WARNING: Open MPI tried to bind a process but failed.  This is a
warning only; your job will continue, though performance may
be degraded.

  Local host:        4b82db919bf5
  Application name:  /root/q-e-qe-7.3.1/bin/pw.x
  Error message:     failed to bind memory
  Location:          ../../../../../orte/mca/rtc/hwloc/rtc_hwloc.c:447

--------------------------------------------------------------------------

     Program PWSCF v.7.3.1 starts on 17May2026 at  1:53:49 

     This program is part of the open-source Quantum ESPRESSO suite
     for quantum simulation of materials; please cite
         "P. Giannozzi et al., J. Phys.:Condens. Matter 21 395502 (2009);
         "P. Giannozzi et al., J. Phys.:Condens. Matter 29 465901 (2017);
         "P. Giannozzi et al., J. Chem. Phys. 152 154105 (2020);
          URL http://www.quantum-espresso.org", 
     in publications or presentations arising from this work. More details at
     http://www.quantum-espresso.org/quote

     Parallel version (MPI & OpenMP), running on       8 processor cores
     Number of MPI processes:                 1
     Threads/MPI process:                     8

     MPI processes distributed on     1 nodes
     35378 MiB available memory on the printing compute node when the environment starts
 
     Reading input from inputs/fecr_fe10cr06_s0.01.in

     Current dimensions of program PWSCF are:
     Max number of different atomic species (ntypx) = 10
     Max number of k-points (npk) =  40000
     Max angular momentum in pseudopotentials (lmaxx) =  4
     file Fe.pbe-spn-kjpaw_psl.1.0.0.UPF: wavefunction(s)  3P 3D renormalized
     file Cr.pbe-spn-kjpaw_psl.1.0.0.UPF: wavefunction(s)  3S 3P 3D renormalized
     Found identity + ( -0.5000 -0.5000 -0.5000) symmetry
     This is a supercell, fractional translations are disabled
     Message from routine setup:
     using ibrav=0 with symmetry is DISCOURAGED, use correct ibrav instead
 
     Subspace diagonalization in iterative solution of the eigenvalue problem:
     a serial algorithm will be used

 
     G-vector sticks info
     --------------------
     sticks:   dense  smooth     PW     G-vecs:    dense   smooth      PW
     Sum        4563    2267    649               231359    81743   12325
 
     Using Slab Decomposition
 


     bravais-lattice index     =            0
     lattice parameter (alat)  =      10.9237  a.u.
     unit-cell volume          =    1303.1778 (a.u.)^3
     number of atoms/cell      =           16
     number of atomic types    =            2
     number of electrons       =       244.00
     number of Kohn-Sham states=          146
     kinetic-energy cutoff     =      60.0000  Ry
     charge density cutoff     =     480.0000  Ry
     scf convergence threshold =      1.0E-08
     mixing beta               =       0.3000
     number of iterations used =            8  plain     mixing
     Exchange-correlation= SLA  PW   PBX  PBC
                           (   1   4   3   4   0   0   0)

     GPU acceleration is ACTIVE.  1 visible GPUs per MPI rank


     celldm(1)=  10.923725  celldm(2)=   0.000000  celldm(3)=   0.000000
     celldm(4)=   0.000000  celldm(5)=   0.000000  celldm(6)=   0.000000

     crystal axes: (cart. coord. in units of alat)
               a(1) = (   0.999950   0.010000   0.000000 )  
               a(2) = (   0.010000   0.999950   0.000000 )  
               a(3) = (   0.000000   0.000000   0.999950 )  

     reciprocal axes: (cart. coord. in units 2 pi/alat)
               b(1) = (  1.000150 -0.010002  0.000000 )  
               b(2) = ( -0.010002  1.000150  0.000000 )  
               b(3) = (  0.000000  0.000000  1.000050 )  


     PseudoPot. # 1 for Fe read from file:
     ./pseudo/Fe.pbe-spn-kjpaw_psl.1.0.0.UPF
     MD5 check sum: fc81f059e5c5069939230b1155715ae8
     Pseudo is Projector augmented-wave + core cor, Zval = 16.0
     Generated using &quot;atomic&quot; code by A. Dal Corso  v.6.3
     Shape of augmentation charge: PSQ
     Using radial grid of 1191 points,  6 beta functions with: 
                l(1) =   0
                l(2) =   0
                l(3) =   1
                l(4) =   1
                l(5) =   2
                l(6) =   2
     Q(r) pseudized with 0 coefficients 


     PseudoPot. # 2 for Cr read from file:
     ./pseudo/Cr.pbe-spn-kjpaw_psl.1.0.0.UPF
     MD5 check sum: 198f1a2427a48552563eee314eba32ba
     Pseudo is Projector augmented-wave + core cor, Zval = 14.0
     Generated using &quot;atomic&quot; code by A. Dal Corso  v.6.3
     Shape of augmentation charge: PSQ
     Using radial grid of 1183 points,  6 beta functions with: 
                l(1) =   0
                l(2) =   0
                l(3) =   1
                l(4) =   1
                l(5) =   2
                l(6) =   2
     Q(r) pseudized with 0 coefficients 


     atomic species   valence    mass     pseudopotential
     Fe               16.00    55.84500     Fe( 1.00)
     Cr               14.00    51.99600     Cr( 1.00)

     Starting magnetic structure 
     atomic species   magnetization
     Fe              0.500
     Cr              0.300

      2 Sym. Ops., with inversion, found



   Cartesian axes

     site n.     atom                  positions (alat units)
         1        Cr     tau(   1) = (   0.0000000   0.0000000   0.0000000  )
         2        Fe     tau(   2) = (   0.2524874   0.2524874   0.2499875  )
         3        Fe     tau(   3) = (   0.0000000   0.0000000   0.4999750  )
         4        Cr     tau(   4) = (   0.2524874   0.2524874   0.7499625  )
         5        Fe     tau(   5) = (   0.0049998   0.4999750   0.0000000  )
         6        Fe     tau(   6) = (   0.2574871   0.7524624   0.2499875  )
         7        Cr     tau(   7) = (   0.0049998   0.4999750   0.4999750  )
         8        Fe     tau(   8) = (   0.2574871   0.7524624   0.7499625  )
         9        Cr     tau(   9) = (   0.4999750   0.0049998   0.0000000  )
        10        Fe     tau(  10) = (   0.7524624   0.2574871   0.2499875  )
        11        Fe     tau(  11) = (   0.4999750   0.0049998   0.4999750  )
        12        Fe     tau(  12) = (   0.7524624   0.2574871   0.7499625  )
        13        Fe     tau(  13) = (   0.5049748   0.5049748   0.0000000  )
        14        Cr     tau(  14) = (   0.7574621   0.7574621   0.2499875  )
        15        Cr     tau(  15) = (   0.5049748   0.5049748   0.4999750  )
        16        Fe     tau(  16) = (   0.7574621   0.7574621   0.7499625  )

     number of k points=   112  Marzari-Vanderbilt smearing, width (Ry)=  0.0200

     Number of k-points >= 100: set verbosity='high' to print them.

     Dense  grid:   231359 G-vectors     FFT dimensions: (  80,  80,  80)

     Smooth grid:    81743 G-vectors     FFT dimensions: (  54,  54,  54)

     Estimated max dynamical RAM per process >       5.97 GB

     Check: negative core charge=   -0.000003
     Generating pointlists ...
     new r_m :   0.1774 (alat units)  1.9381 (a.u.) for type    1
     new r_m :   0.1774 (alat units)  1.9381 (a.u.) for type    2

     Initial potential from superposition of free atoms

     starting charge     243.9910, renormalised to     244.0000
     Starting wfcs are  160 randomized atomic wfcs
     Checking if some PAW data can be deallocated... 

     total cpu time spent up to now is       34.4 secs

     Self-consistent Calculation

     iteration #  1     ecut=    60.00 Ry     beta= 0.30
     Davidson diagonalization with overlap
     ethr =  1.00E-02,  avg # of iterations =  4.1

     negative rho (up, down):  0.000E+00 2.396E+00

     total cpu time spent up to now is       93.6 secs

     total energy              =   -4764.14610668 Ry
     estimated scf accuracy    <     268.43477310 Ry

     total magnetization       =    48.00 Bohr mag/cell
     absolute magnetization    =    73.46 Bohr mag/cell

     iteration #  2     ecut=    60.00 Ry     beta= 0.30
     Davidson diagonalization with overlap
     ethr =  1.00E-02,  avg # of iterations =  4.7

     negative rho (up, down):  0.000E+00 1.834E+00

     total cpu time spent up to now is      151.7 secs

     total energy              =   -4760.53376864 Ry
     estimated scf accuracy    <     112.16316541 Ry

     total magnetization       =    16.84 Bohr mag/cell
     absolute magnetization    =    18.69 Bohr mag/cell

     iteration #  3     ecut=    60.00 Ry     beta= 0.30
     Davidson diagonalization with overlap
     ethr =  1.00E-02,  avg # of iterations =  6.2

     negative rho (up, down):  0.000E+00 1.553E+00

     total cpu time spent up to now is      224.8 secs

     total energy              =   -4767.43890624 Ry
     estimated scf accuracy    <     197.74111119 Ry

     total magnetization       =    30.85 Bohr mag/cell
     absolute magnetization    =    31.80 Bohr mag/cell

     iteration #  4     ecut=    60.00 Ry     beta= 0.30
     Davidson diagonalization with overlap
     ethr =  1.00E-02,  avg # of iterations =  5.1

     negative rho (up, down):  0.000E+00 1.128E+00

     total cpu time spent up to now is      287.5 secs

     total energy              =   -4779.37102225 Ry
     estimated scf accuracy    <      17.58153343 Ry

     total magnetization       =    34.50 Bohr mag/cell
     absolute magnetization    =    35.86 Bohr mag/cell

     iteration #  5     ecut=    60.00 Ry     beta= 0.30
     Davidson diagonalization with overlap
     ethr =  7.21E-03,  avg # of iterations =  1.2

     negative rho (up, down):  0.000E+00 7.814E-01

     total cpu time spent up to now is      332.3 secs

     total energy              =   -4779.60809988 Ry
     estimated scf accuracy    <      12.57198618 Ry

     total magnetization       =    35.25 Bohr mag/cell
     absolute magnetization    =    36.04 Bohr mag/cell

     iteration #  6     ecut=    60.00 Ry     beta= 0.30
     Davidson diagonalization with overlap
     ethr =  5.15E-03,  avg # of iterations =  2.0

     negative rho (up, down):  0.000E+00 3.712E-01

     total cpu time spent up to now is      380.6 secs

     total energy              =   -4780.32597061 Ry
     estimated scf accuracy    <      16.01499434 Ry

     total magnetization       =    35.82 Bohr mag/cell
     absolute magnetization    =    36.73 Bohr mag/cell

     iteration #  7     ecut=    60.00 Ry     beta= 0.30
     Davidson diagonalization with overlap
     ethr =  5.15E-03,  avg # of iterations =  1.3

     negative rho (up, down):  0.000E+00 3.054E-01

     total cpu time spent up to now is      425.9 secs

     total energy              =   -4780.93923731 Ry
     estimated scf accuracy    <       6.94331497 Ry

     total magnetization       =    34.40 Bohr mag/cell
     absolute magnetization    =    35.42 Bohr mag/cell

     iteration #  8     ecut=    60.00 Ry     beta= 0.30
     Davidson diagonalization with overlap
     ethr =  2.85E-03,  avg # of iterations =  1.7

     negative rho (up, down):  0.000E+00 2.557E-01

     total cpu time spent up to now is      473.6 secs

     total energy              =   -4781.13421786 Ry
     estimated scf accuracy    <       2.96482171 Ry

     total magnetization       =    34.51 Bohr mag/cell
     absolute magnetization    =    35.45 Bohr mag/cell

     iteration #  9     ecut=    60.00 Ry     beta= 0.30
     Davidson diagonalization with overlap
     ethr =  1.22E-03,  avg # of iterations =  2.3

     negative rho (up, down):  0.000E+00 6.955E-02

     total cpu time spent up to now is      522.0 secs

     total energy              =   -4781.33512652 Ry
     estimated scf accuracy    <       2.32609032 Ry

     total magnetization       =    33.23 Bohr mag/cell
     absolute magnetization    =    34.34 Bohr mag/cell

     iteration # 10     ecut=    60.00 Ry     beta= 0.30
     Davidson diagonalization with overlap
     ethr =  9.53E-04,  avg # of iterations =  2.1

     negative rho (up, down):  0.000E+00 3.173E-03

     total cpu time spent up to now is      569.9 secs

     total energy              =   -4781.42536346 Ry
     estimated scf accuracy    <       3.20994623 Ry

     total magnetization       =    29.28 Bohr mag/cell
     absolute magnetization    =    31.07 Bohr mag/cell

     iteration # 11     ecut=    60.00 Ry     beta= 0.30
     Davidson diagonalization with overlap
     ethr =  9.53E-04,  avg # of iterations =  1.2

     negative rho (up, down):  0.000E+00 2.912E-03

     total cpu time spent up to now is      614.8 secs

     total energy              =   -4781.54881165 Ry
     estimated scf accuracy    <       0.40270870 Ry

     total magnetization       =    26.24 Bohr mag/cell
     absolute magnetization    =    28.44 Bohr mag/cell

     iteration # 12     ecut=    60.00 Ry     beta= 0.30
     Davidson diagonalization with overlap
     c_bands:  1 eigenvalues not converged
     ethr =  1.65E-04,  avg # of iterations =  7.4

     negative rho (up, down):  0.000E+00 2.684E-03

     total cpu time spent up to now is      683.5 secs

     total energy              =   -4781.62014619 Ry
     estimated scf accuracy    <       0.46888791 Ry

     total magnetization       =    24.40 Bohr mag/cell
     absolute magnetization    =    26.82 Bohr mag/cell

     iteration # 13     ecut=    60.00 Ry     beta= 0.30
     Davidson diagonalization with overlap
     ethr =  1.65E-04,  avg # of iterations =  1.2

     negative rho (up, down):  0.000E+00 2.398E-03

     total cpu time spent up to now is      728.2 secs

     total energy              =   -4781.66399735 Ry
     estimated scf accuracy    <       0.18154288 Ry

     total magnetization       =    23.93 Bohr mag/cell
     absolute magnetization    =    26.32 Bohr mag/cell

     iteration # 14     ecut=    60.00 Ry     beta= 0.30
     Davidson diagonalization with overlap
     c_bands:  1 eigenvalues not converged
     ethr =  7.44E-05,  avg # of iterations =  4.8

     negative rho (up, down):  0.000E+00 2.115E-03

     total cpu time spent up to now is      786.2 secs

     total energy              =   -4781.66316766 Ry
     estimated scf accuracy    <       0.71865648 Ry

     total magnetization       =    23.25 Bohr mag/cell
     absolute magnetization    =    25.65 Bohr mag/cell

     iteration # 15     ecut=    60.00 Ry     beta= 0.30
     Davidson diagonalization with overlap
     ethr =  7.44E-05,  avg # of iterations =  2.1

     negative rho (up, down):  0.000E+00 1.607E-03

     total cpu time spent up to now is      834.6 secs

     total energy              =   -4781.72296961 Ry
     estimated scf accuracy    <       0.16916773 Ry

     total magnetization       =    23.19 Bohr mag/cell
     absolute magnetization    =    25.51 Bohr mag/cell

     iteration # 16     ecut=    60.00 Ry     beta= 0.30
     Davidson diagonalization with overlap
     ethr =  6.93E-05,  avg # of iterations =  2.4

     negative rho (up, down):  0.000E+00 1.217E-03

     total cpu time spent up to now is      884.4 secs

     total energy              =   -4781.73004932 Ry
     estimated scf accuracy    <       0.46441515 Ry

     total magnetization       =    21.70 Bohr mag/cell
     absolute magnetization    =    24.27 Bohr mag/cell

     iteration # 17     ecut=    60.00 Ry     beta= 0.30
     Davidson diagonalization with overlap
     ethr =  6.93E-05,  avg # of iterations =  2.3

     negative rho (up, down):  0.000E+00 9.989E-04

     total cpu time spent up to now is      933.8 secs

     total energy              =   -4781.75161893 Ry
     estimated scf accuracy    <       0.30732407 Ry

     total magnetization       =    20.76 Bohr mag/cell
     absolute magnetization    =    23.61 Bohr mag/cell

     iteration # 18     ecut=    60.00 Ry     beta= 0.30
     Davidson diagonalization with overlap
     ethr =  6.93E-05,  avg # of iterations =  1.2

     negative rho (up, down):  0.000E+00 1.042E-03

     total cpu time spent up to now is      978.8 secs

     total energy              =   -4781.76263477 Ry
     estimated scf accuracy    <       0.04866849 Ry

     total magnetization       =    20.49 Bohr mag/cell
     absolute magnetization    =    23.50 Bohr mag/cell

     iteration # 19     ecut=    60.00 Ry     beta= 0.30
     Davidson diagonalization with overlap
     c_bands:  1 eigenvalues not converged
     ethr =  1.99E-05,  avg # of iterations =  3.4

     negative rho (up, down):  0.000E+00 9.867E-04

     total cpu time spent up to now is     1032.2 secs

     total energy              =   -4781.76396710 Ry
     estimated scf accuracy    <       0.05526387 Ry

     total magnetization       =    20.42 Bohr mag/cell
     absolute magnetization    =    23.50 Bohr mag/cell

     iteration # 20     ecut=    60.00 Ry     beta= 0.30
     Davidson diagonalization with overlap
     ethr =  1.99E-05,  avg # of iterations =  1.7

     negative rho (up, down):  0.000E+00 9.181E-04

     total cpu time spent up to now is     1080.0 secs

     total energy              =   -4781.76555850 Ry
     estimated scf accuracy    <       0.06031865 Ry

     total magnetization       =    20.37 Bohr mag/cell
     absolute magnetization    =    23.52 Bohr mag/cell

     iteration # 21     ecut=    60.00 Ry     beta= 0.30
     Davidson diagonalization with overlap
     ethr =  1.99E-05,  avg # of iterations =  1.6

     negative rho (up, down):  0.000E+00 8.886E-04

     total cpu time spent up to now is     1127.2 secs

     total energy              =   -4781.76772793 Ry
     estimated scf accuracy    <       0.02705089 Ry

     total magnetization       =    20.08 Bohr mag/cell
     absolute magnetization    =    23.40 Bohr mag/cell

     iteration # 22     ecut=    60.00 Ry     beta= 0.30
     Davidson diagonalization with overlap
     c_bands:  2 eigenvalues not converged
     ethr =  1.11E-05,  avg # of iterations =  2.2

     negative rho (up, down):  0.000E+00 8.019E-04

     total cpu time spent up to now is     1176.9 secs

     total energy              =   -4781.77022109 Ry
     estimated scf accuracy    <       0.01176092 Ry

     total magnetization       =    20.02 Bohr mag/cell
     absolute magnetization    =    23.36 Bohr mag/cell

     iteration # 23     ecut=    60.00 Ry     beta= 0.30
     Davidson diagonalization with overlap
     c_bands:  1 eigenvalues not converged
     c_bands:  1 eigenvalues not converged
     c_bands:  1 eigenvalues not converged
     c_bands:  1 eigenvalues not converged
     c_bands:  1 eigenvalues not converged
     c_bands:  1 eigenvalues not converged
     c_bands:  2 eigenvalues not converged
     c_bands:  2 eigenvalues not converged
     c_bands:  1 eigenvalues not converged
     c_bands:  1 eigenvalues not converged
     c_bands:  1 eigenvalues not converged
     ethr =  4.82E-06,  avg # of iterations =  6.2

     negative rho (up, down):  0.000E+00 8.011E-04

     total cpu time spent up to now is     1238.5 secs

     total energy              =   -4781.77141404 Ry
     estimated scf accuracy    <       0.00351102 Ry

     total magnetization       =    19.73 Bohr mag/cell
     absolute magnetization    =    23.38 Bohr mag/cell

     iteration # 24     ecut=    60.00 Ry     beta= 0.30
     Davidson diagonalization with overlap
     c_bands:  1 eigenvalues not converged
     c_bands:  2 eigenvalues not converged
     c_bands:  1 eigenvalues not converged
     c_bands:  1 eigenvalues not converged
     c_bands:  1 eigenvalues not converged
     c_bands:  1 eigenvalues not converged
     ethr =  1.44E-06,  avg # of iterations =  9.0

     negative rho (up, down):  0.000E+00 7.745E-04

     total cpu time spent up to now is     1311.1 secs

     total energy              =   -4781.77240241 Ry
     estimated scf accuracy    <       0.00490919 Ry

     total magnetization       =    19.68 Bohr mag/cell
     absolute magnetization    =    23.44 Bohr mag/cell

     iteration # 25     ecut=    60.00 Ry     beta= 0.30
     Davidson diagonalization with overlap
     c_bands:  1 eigenvalues not converged
     c_bands:  3 eigenvalues not converged
     ethr =  1.44E-06,  avg # of iterations =  2.4

     negative rho (up, down):  0.000E+00 7.403E-04

     total cpu time spent up to now is     1361.1 secs

     total energy              =   -4781.77311313 Ry
     estimated scf accuracy    <       0.00268810 Ry

     total magnetization       =    19.58 Bohr mag/cell
     absolute magnetization    =    23.54 Bohr mag/cell

     iteration # 26     ecut=    60.00 Ry     beta= 0.30
     Davidson diagonalization with overlap
     c_bands:  4 eigenvalues not converged
     ethr =  1.10E-06,  avg # of iterations =  2.9

     negative rho (up, down):  0.000E+00 7.187E-04

     total cpu time spent up to now is     1412.4 secs

     total energy              =   -4781.77367965 Ry
     estimated scf accuracy    <       0.00248504 Ry

     total magnetization       =    19.39 Bohr mag/cell
     absolute magnetization    =    23.61 Bohr mag/cell

     iteration # 27     ecut=    60.00 Ry     beta= 0.30
     Davidson diagonalization with overlap
     ethr =  1.02E-06,  avg # of iterations =  2.8

     negative rho (up, down):  0.000E+00 7.304E-04

     total cpu time spent up to now is     1463.4 secs

     total energy              =   -4781.77401680 Ry
     estimated scf accuracy    <       0.00138664 Ry

     total magnetization       =    19.26 Bohr mag/cell
     absolute magnetization    =    23.67 Bohr mag/cell

     iteration # 28     ecut=    60.00 Ry     beta= 0.30
     Davidson diagonalization with overlap
     c_bands:  1 eigenvalues not converged
     ethr =  5.68E-07,  avg # of iterations =  4.1

     negative rho (up, down):  0.000E+00 7.440E-04

     total cpu time spent up to now is     1519.2 secs

     total energy              =   -4781.77421527 Ry
     estimated scf accuracy    <       0.00216445 Ry

     total magnetization       =    19.29 Bohr mag/cell
     absolute magnetization    =    23.77 Bohr mag/cell

     iteration # 29     ecut=    60.00 Ry     beta= 0.30
     Davidson diagonalization with overlap
     c_bands:  1 eigenvalues not converged
     c_bands:  1 eigenvalues not converged
     ethr =  5.68E-07,  avg # of iterations =  2.5

     negative rho (up, down):  0.000E+00 7.355E-04

     total cpu time spent up to now is     1570.8 secs

     total energy              =   -4781.77448475 Ry
     estimated scf accuracy    <       0.00303227 Ry

     total magnetization       =    19.30 Bohr mag/cell
     absolute magnetization    =    23.82 Bohr mag/cell

     iteration # 30     ecut=    60.00 Ry     beta= 0.30
     Davidson diagonalization with overlap
     ethr =  5.68E-07,  avg # of iterations =  3.2

     negative rho (up, down):  0.000E+00 7.320E-04

     total cpu time spent up to now is     1623.0 secs

     total energy              =   -4781.77488873 Ry
     estimated scf accuracy    <       0.00158667 Ry

     total magnetization       =    19.20 Bohr mag/cell
     absolute magnetization    =    23.94 Bohr mag/cell

     iteration # 31     ecut=    60.00 Ry     beta= 0.30
     Davidson diagonalization with overlap
     ethr =  5.68E-07,  avg # of iterations =  3.6

     negative rho (up, down):  0.000E+00 7.334E-04

     total cpu time spent up to now is     1676.6 secs

     total energy              =   -4781.77498038 Ry
     estimated scf accuracy    <       0.00087637 Ry

     total magnetization       =    19.10 Bohr mag/cell
     absolute magnetization    =    24.06 Bohr mag/cell

     iteration # 32     ecut=    60.00 Ry     beta= 0.30
     Davidson diagonalization with overlap
     c_bands:  1 eigenvalues not converged
     ethr =  3.59E-07,  avg # of iterations =  3.2

     negative rho (up, down):  0.000E+00 7.457E-04

     total cpu time spent up to now is     1728.8 secs

     total energy              =   -4781.77524952 Ry
     estimated scf accuracy    <       0.00180216 Ry

     total magnetization       =    19.11 Bohr mag/cell
     absolute magnetization    =    24.05 Bohr mag/cell

     iteration # 33     ecut=    60.00 Ry     beta= 0.30
     Davidson diagonalization with overlap
     c_bands:  1 eigenvalues not converged
     ethr =  3.59E-07,  avg # of iterations =  6.5

     negative rho (up, down):  0.000E+00 7.616E-04

     total cpu time spent up to now is     1793.5 secs

     total energy              =   -4781.77576913 Ry
     estimated scf accuracy    <       0.00057875 Ry

     total magnetization       =    19.00 Bohr mag/cell
     absolute magnetization    =    24.33 Bohr mag/cell

     iteration # 34     ecut=    60.00 Ry     beta= 0.30
     Davidson diagonalization with overlap
     ethr =  2.37E-07,  avg # of iterations =  3.3

     negative rho (up, down):  0.000E+00 7.714E-04

     total cpu time spent up to now is     1845.9 secs

     total energy              =   -4781.77596448 Ry
     estimated scf accuracy    <       0.00072909 Ry

     total magnetization       =    18.98 Bohr mag/cell
     absolute magnetization    =    24.44 Bohr mag/cell

     iteration # 35     ecut=    60.00 Ry     beta= 0.30
     Davidson diagonalization with overlap
     ethr =  2.37E-07,  avg # of iterations =  4.3

     negative rho (up, down):  0.000E+00 7.927E-04

     total cpu time spent up to now is     1902.4 secs

     total energy              =   -4781.77625310 Ry
     estimated scf accuracy    <       0.00061129 Ry

     total magnetization       =    18.95 Bohr mag/cell
     absolute magnetization    =    24.57 Bohr mag/cell

     iteration # 36     ecut=    60.00 Ry     beta= 0.30
     Davidson diagonalization with overlap
     ethr =  2.37E-07,  avg # of iterations =  5.7

     negative rho (up, down):  0.000E+00 7.969E-04

     total cpu time spent up to now is     1963.6 secs

     total energy              =   -4781.77644720 Ry
     estimated scf accuracy    <       0.00085854 Ry

     total magnetization       =    18.91 Bohr mag/cell
     absolute magnetization    =    24.76 Bohr mag/cell

     iteration # 37     ecut=    60.00 Ry     beta= 0.30
     Davidson diagonalization with overlap
     ethr =  2.37E-07,  avg # of iterations =  2.3

     negative rho (up, down):  0.000E+00 8.052E-04

     total cpu time spent up to now is     2012.9 secs

     total energy              =   -4781.77654941 Ry
     estimated scf accuracy    <       0.00058555 Ry

     total magnetization       =    18.87 Bohr mag/cell
     absolute magnetization    =    24.83 Bohr mag/cell

     iteration # 38     ecut=    60.00 Ry     beta= 0.30
     Davidson diagonalization with overlap
     ethr =  2.37E-07,  avg # of iterations =  1.7

     negative rho (up, down):  0.000E+00 8.171E-04

     total cpu time spent up to now is     2060.1 secs

     total energy              =   -4781.77671664 Ry
     estimated scf accuracy    <       0.00062510 Ry

     total magnetization       =    18.89 Bohr mag/cell
     absolute magnetization    =    24.87 Bohr mag/cell

     iteration # 39     ecut=    60.00 Ry     beta= 0.30
     Davidson diagonalization with overlap
     ethr =  2.37E-07,  avg # of iterations =  4.2

     negative rho (up, down):  0.000E+00 8.351E-04

     total cpu time spent up to now is     2115.8 secs

     total energy              =   -4781.77694492 Ry
     estimated scf accuracy    <       0.00095146 Ry

     total magnetization       =    18.87 Bohr mag/cell
     absolute magnetization    =    25.01 Bohr mag/cell

     iteration # 40     ecut=    60.00 Ry     beta= 0.30
     Davidson diagonalization with overlap
     ethr =  2.37E-07,  avg # of iterations =  3.8

     negative rho (up, down):  0.000E+00 8.597E-04

     total cpu time spent up to now is     2169.8 secs

     total energy              =   -4781.77714002 Ry
     estimated scf accuracy    <       0.00079812 Ry

     total magnetization       =    18.88 Bohr mag/cell
     absolute magnetization    =    25.11 Bohr mag/cell

     iteration # 41     ecut=    60.00 Ry     beta= 0.30
     Davidson diagonalization with overlap
     ethr =  2.37E-07,  avg # of iterations =  6.3

     negative rho (up, down):  0.000E+00 8.508E-04

     total cpu time spent up to now is     2236.0 secs

     total energy              =   -4781.77726296 Ry
     estimated scf accuracy    <       0.00061254 Ry

     total magnetization       =    18.81 Bohr mag/cell
     absolute magnetization    =    25.40 Bohr mag/cell

     iteration # 42     ecut=    60.00 Ry     beta= 0.30
     Davidson diagonalization with overlap
     ethr =  2.37E-07,  avg # of iterations =  1.8

     negative rho (up, down):  0.000E+00 8.572E-04

     total cpu time spent up to now is     2283.1 secs

     total energy              =   -4781.77737343 Ry
     estimated scf accuracy    <       0.00126075 Ry

     total magnetization       =    18.82 Bohr mag/cell
     absolute magnetization    =    25.31 Bohr mag/cell

     iteration # 43     ecut=    60.00 Ry     beta= 0.30
     Davidson diagonalization with overlap
     ethr =  2.37E-07,  avg # of iterations =  1.1

     negative rho (up, down):  0.000E+00 8.611E-04

     total cpu time spent up to now is     2327.1 secs

     total energy              =   -4781.77749024 Ry
     estimated scf accuracy    <       0.00054831 Ry

     total magnetization       =    18.83 Bohr mag/cell
     absolute magnetization    =    25.38 Bohr mag/cell

     iteration # 44     ecut=    60.00 Ry     beta= 0.30
     Davidson diagonalization with overlap
     ethr =  2.25E-07,  avg # of iterations =  1.0

     negative rho (up, down):  0.000E+00 8.456E-04

     total cpu time spent up to now is     2372.1 secs

     total energy              =   -4781.77718070 Ry
     estimated scf accuracy    <       0.00045971 Ry

     total magnetization       =    18.83 Bohr mag/cell
     absolute magnetization    =    25.41 Bohr mag/cell

     iteration # 45     ecut=    60.00 Ry     beta= 0.30
     Davidson diagonalization with overlap
     ethr =  1.88E-07,  avg # of iterations =  2.4

     negative rho (up, down):  0.000E+00 8.584E-04

     total cpu time spent up to now is     2422.3 secs

     total energy              =   -4781.77743666 Ry
     estimated scf accuracy    <       0.00081876 Ry

     total magnetization       =    18.85 Bohr mag/cell
     absolute magnetization    =    25.27 Bohr mag/cell

     iteration # 46     ecut=    60.00 Ry     beta= 0.30
     Davidson diagonalization with overlap
     ethr =  1.88E-07,  avg # of iterations =  1.5

     negative rho (up, down):  0.000E+00 8.801E-04

     total cpu time spent up to now is     2467.7 secs

     total energy              =   -4781.77771260 Ry
     estimated scf accuracy    <       0.00064025 Ry

     total magnetization       =    18.84 Bohr mag/cell
     absolute magnetization    =    25.39 Bohr mag/cell

     iteration # 47     ecut=    60.00 Ry     beta= 0.30
     Davidson diagonalization with overlap
     ethr =  1.88E-07,  avg # of iterations =  5.5

     negative rho (up, down):  0.000E+00 8.886E-04

     total cpu time spent up to now is     2528.6 secs

     total energy              =   -4781.77803978 Ry
     estimated scf accuracy    <       0.00082272 Ry

     total magnetization       =    18.83 Bohr mag/cell
     absolute magnetization    =    25.62 Bohr mag/cell

     iteration # 48     ecut=    60.00 Ry     beta= 0.30
     Davidson diagonalization with overlap
     c_bands:  1 eigenvalues not converged
     ethr =  1.88E-07,  avg # of iterations =  4.3

     negative rho (up, down):  0.000E+00 9.382E-04

     total cpu time spent up to now is     2586.2 secs

     total energy              =   -4781.77798072 Ry
     estimated scf accuracy    <       0.00140421 Ry

     total magnetization       =    18.84 Bohr mag/cell
     absolute magnetization    =    25.72 Bohr mag/cell

     iteration # 49     ecut=    60.00 Ry     beta= 0.30
     Davidson diagonalization with overlap
     ethr =  1.88E-07,  avg # of iterations =  7.5

     negative rho (up, down):  0.000E+00 9.175E-04

     total cpu time spent up to now is     2663.5 secs

     total energy              =   -4781.77857666 Ry
     estimated scf accuracy    <       0.00087174 Ry

     total magnetization       =    18.82 Bohr mag/cell
     absolute magnetization    =    26.34 Bohr mag/cell

     iteration # 50     ecut=    60.00 Ry     beta= 0.30
     Davidson diagonalization with overlap
     ethr =  1.88E-07,  avg # of iterations =  5.1

     negative rho (up, down):  0.000E+00 8.901E-04

     total cpu time spent up to now is     2722.0 secs

     total energy              =   -4781.77776481 Ry
     estimated scf accuracy    <       0.00108223 Ry

     total magnetization       =    18.83 Bohr mag/cell
     absolute magnetization    =    26.11 Bohr mag/cell

     iteration # 51     ecut=    60.00 Ry     beta= 0.30
     Davidson diagonalization with overlap
     ethr =  1.88E-07,  avg # of iterations =  5.6

     negative rho (up, down):  0.000E+00 9.349E-04

     total cpu time spent up to now is     2788.3 secs

     total energy              =   -4781.77818005 Ry
     estimated scf accuracy    <       0.00115202 Ry

     total magnetization       =    18.83 Bohr mag/cell
     absolute magnetization    =    25.77 Bohr mag/cell

     iteration # 52     ecut=    60.00 Ry     beta= 0.30
     Davidson diagonalization with overlap
     ethr =  1.88E-07,  avg # of iterations =  6.0

     negative rho (up, down):  0.000E+00 8.650E-04

     total cpu time spent up to now is     2857.5 secs

     total energy              =   -4781.77552636 Ry
     estimated scf accuracy    <       0.00056333 Ry

     total magnetization       =    18.82 Bohr mag/cell
     absolute magnetization    =    26.33 Bohr mag/cell

     iteration # 53     ecut=    60.00 Ry     beta= 0.30
     Davidson diagonalization with overlap
     ethr =  1.88E-07,  avg # of iterations =  7.7

     negative rho (up, down):  0.000E+00 9.177E-04

     total cpu time spent up to now is     2936.2 secs

     total energy              =   -4781.77735130 Ry
     estimated scf accuracy    <       0.00212952 Ry

     total magnetization       =    18.83 Bohr mag/cell
     absolute magnetization    =    25.45 Bohr mag/cell

     iteration # 54     ecut=    60.00 Ry     beta= 0.30
     Davidson diagonalization with overlap
     ethr =  1.88E-07,  avg # of iterations =  7.5

     negative rho (up, down):  0.000E+00 9.161E-04

     total cpu time spent up to now is     3013.2 secs

     total energy              =   -4781.77885599 Ry
     estimated scf accuracy    <       0.00146950 Ry

     total magnetization       =    18.82 Bohr mag/cell
     absolute magnetization    =    26.18 Bohr mag/cell

     iteration # 55     ecut=    60.00 Ry     beta= 0.30
     Davidson diagonalization with overlap
     ethr =  1.88E-07,  avg # of iterations =  1.6

     negative rho (up, down):  0.000E+00 9.233E-04

     total cpu time spent up to now is     3059.2 secs

     total energy              =   -4781.77903052 Ry
     estimated scf accuracy    <       0.00086235 Ry

     total magnetization       =    18.82 Bohr mag/cell
     absolute magnetization    =    26.19 Bohr mag/cell

     iteration # 56     ecut=    60.00 Ry     beta= 0.30
     Davidson diagonalization with overlap
     ethr =  1.88E-07,  avg # of iterations =  2.2

     negative rho (up, down):  0.000E+00 9.196E-04

     total cpu time spent up to now is     3107.7 secs

     total energy              =   -4781.77898606 Ry
     estimated scf accuracy    <       0.00060171 Ry

     total magnetization       =    18.81 Bohr mag/cell
     absolute magnetization    =    26.28 Bohr mag/cell

     iteration # 57     ecut=    60.00 Ry     beta= 0.30
     Davidson diagonalization with overlap
     ethr =  1.88E-07,  avg # of iterations =  1.0

     negative rho (up, down):  0.000E+00 9.256E-04

     total cpu time spent up to now is     3151.4 secs

     total energy              =   -4781.77914456 Ry
     estimated scf accuracy    <       0.00064617 Ry

     total magnetization       =    18.81 Bohr mag/cell
     absolute magnetization    =    26.23 Bohr mag/cell

     iteration # 58     ecut=    60.00 Ry     beta= 0.30
     Davidson diagonalization with overlap
     ethr =  1.88E-07,  avg # of iterations =  3.2

     negative rho (up, down):  0.000E+00 9.265E-04

     total cpu time spent up to now is     3203.7 secs

     total energy              =   -4781.77924882 Ry
     estimated scf accuracy    <       0.00082845 Ry

     total magnetization       =    18.81 Bohr mag/cell
     absolute magnetization    =    26.36 Bohr mag/cell

     iteration # 59     ecut=    60.00 Ry     beta= 0.30
     Davidson diagonalization with overlap
     ethr =  1.88E-07,  avg # of iterations =  2.6

     negative rho (up, down):  0.000E+00 9.220E-04

     total cpu time spent up to now is     3253.6 secs

     total energy              =   -4781.77917323 Ry
     estimated scf accuracy    <       0.00064799 Ry

     total magnetization       =    18.81 Bohr mag/cell
     absolute magnetization    =    26.40 Bohr mag/cell

     iteration # 60     ecut=    60.00 Ry     beta= 0.30
     Davidson diagonalization with overlap
     ethr =  1.88E-07,  avg # of iterations =  3.0

     negative rho (up, down):  0.000E+00 9.178E-04

     total cpu time spent up to now is     3305.6 secs

     total energy              =   -4781.77902706 Ry
     estimated scf accuracy    <       0.00157062 Ry

     total magnetization       =    18.82 Bohr mag/cell
     absolute magnetization    =    26.37 Bohr mag/cell

     iteration # 61     ecut=    60.00 Ry     beta= 0.30
     Davidson diagonalization with overlap
     ethr =  1.88E-07,  avg # of iterations =  2.2

     negative rho (up, down):  0.000E+00 9.176E-04

     total cpu time spent up to now is     3354.9 secs

     total energy              =   -4781.77913668 Ry
     estimated scf accuracy    <       0.00088442 Ry

     total magnetization       =    18.81 Bohr mag/cell
     absolute magnetization    =    26.29 Bohr mag/cell

     iteration # 62     ecut=    60.00 Ry     beta= 0.30
     Davidson diagonalization with overlap
     ethr =  1.88E-07,  avg # of iterations =  1.0

     negative rho (up, down):  0.000E+00 9.247E-04

     total cpu time spent up to now is     3399.0 secs

     total energy              =   -4781.77935153 Ry
     estimated scf accuracy    <       0.00048703 Ry

     total magnetization       =    18.80 Bohr mag/cell
     absolute magnetization    =    26.32 Bohr mag/cell

     iteration # 63     ecut=    60.00 Ry     beta= 0.30
     Davidson diagonalization with overlap
     ethr =  1.88E-07,  avg # of iterations =  4.2

     negative rho (up, down):  0.000E+00 9.255E-04

     total cpu time spent up to now is     3456.1 secs

     total energy              =   -4781.77941635 Ry
     estimated scf accuracy    <       0.00114391 Ry

     total magnetization       =    18.80 Bohr mag/cell
     absolute magnetization    =    26.47 Bohr mag/cell

     iteration # 64     ecut=    60.00 Ry     beta= 0.30
     Davidson diagonalization with overlap
     ethr =  1.88E-07,  avg # of iterations =  2.0

     negative rho (up, down):  0.000E+00 9.260E-04

     total cpu time spent up to now is     3505.1 secs

     total energy              =   -4781.77940033 Ry
     estimated scf accuracy    <       0.00054820 Ry

     total magnetization       =    18.79 Bohr mag/cell
     absolute magnetization    =    26.50 Bohr mag/cell

     iteration # 65     ecut=    60.00 Ry     beta= 0.30
     Davidson diagonalization with overlap
     ethr =  1.88E-07,  avg # of iterations =  3.0

     negative rho (up, down):  0.000E+00 9.263E-04

     total cpu time spent up to now is     3556.2 secs

     total energy              =   -4781.77942724 Ry
     estimated scf accuracy    <       0.00127990 Ry

     total magnetization       =    18.78 Bohr mag/cell
     absolute magnetization    =    26.45 Bohr mag/cell

     iteration # 66     ecut=    60.00 Ry     beta= 0.30
     Davidson diagonalization with overlap
     ethr =  1.88E-07,  avg # of iterations =  1.8

     negative rho (up, down):  0.000E+00 9.436E-04

     total cpu time spent up to now is     3603.4 secs

     total energy              =   -4781.77949972 Ry
     estimated scf accuracy    <       0.00044483 Ry

     total magnetization       =    18.79 Bohr mag/cell
     absolute magnetization    =    26.51 Bohr mag/cell

     iteration # 67     ecut=    60.00 Ry     beta= 0.30
     Davidson diagonalization with overlap
     ethr =  1.82E-07,  avg # of iterations =  7.6

     negative rho (up, down):  0.000E+00 9.561E-04

     total cpu time spent up to now is     3678.1 secs

     total energy              =   -4781.78048932 Ry
     estimated scf accuracy    <       0.00133351 Ry

     total magnetization       =    18.76 Bohr mag/cell
     absolute magnetization    =    27.05 Bohr mag/cell

     iteration # 68     ecut=    60.00 Ry     beta= 0.30
     Davidson diagonalization with overlap
     ethr =  1.82E-07,  avg # of iterations =  6.2

     negative rho (up, down):  0.000E+00 9.551E-04

     total cpu time spent up to now is     3745.6 secs

     total energy              =   -4781.78080153 Ry
     estimated scf accuracy    <       0.00092226 Ry

     total magnetization       =    18.74 Bohr mag/cell
     absolute magnetization    =    27.40 Bohr mag/cell

     iteration # 69     ecut=    60.00 Ry     beta= 0.30
     Davidson diagonalization with overlap
     ethr =  1.82E-07,  avg # of iterations =  1.4

     negative rho (up, down):  0.000E+00 9.980E-04

     total cpu time spent up to now is     3791.4 secs

     total energy              =   -4781.77763985 Ry
     estimated scf accuracy    <       0.00103921 Ry

     total magnetization       =    18.73 Bohr mag/cell
     absolute magnetization    =    27.34 Bohr mag/cell

     iteration # 70     ecut=    60.00 Ry     beta= 0.30
     Davidson diagonalization with overlap
     c_bands:  1 eigenvalues not converged
     c_bands:  1 eigenvalues not converged
     c_bands:  2 eigenvalues not converged
     c_bands:  1 eigenvalues not converged
     c_bands:  1 eigenvalues not converged
     ethr =  1.82E-07,  avg # of iterations = 11.2

     negative rho (up, down):  0.000E+00 9.871E-04

     total cpu time spent up to now is     3888.4 secs

     total energy              =   -4781.78192719 Ry
     estimated scf accuracy    <       0.00070118 Ry

     total magnetization       =    18.63 Bohr mag/cell
     absolute magnetization    =    28.57 Bohr mag/cell

     iteration # 71     ecut=    60.00 Ry     beta= 0.30
     Davidson diagonalization with overlap
     ethr =  1.82E-07,  avg # of iterations =  5.4

     negative rho (up, down):  0.000E+00 9.562E-04

     total cpu time spent up to now is     3949.0 secs

     total energy              =   -4781.77927696 Ry
     estimated scf accuracy    <       0.00107830 Ry

     total magnetization       =    18.66 Bohr mag/cell
     absolute magnetization    =    28.36 Bohr mag/cell

     iteration # 72     ecut=    60.00 Ry     beta= 0.30
     Davidson diagonalization with overlap
     ethr =  1.82E-07,  avg # of iterations =  8.4

     negative rho (up, down):  0.000E+00 9.941E-04

     total cpu time spent up to now is     4031.1 secs

     total energy              =   -4781.77783118 Ry
     estimated scf accuracy    <       0.00147584 Ry

     total magnetization       =    18.72 Bohr mag/cell
     absolute magnetization    =    27.57 Bohr mag/cell

     iteration # 73     ecut=    60.00 Ry     beta= 0.30
     Davidson diagonalization with overlap
     c_bands:  1 eigenvalues not converged
     c_bands:  1 eigenvalues not converged
     c_bands:  2 eigenvalues not converged
     ethr =  1.82E-07,  avg # of iterations = 11.0

     negative rho (up, down):  0.000E+00 9.984E-04

     total cpu time spent up to now is     4126.8 secs

     total energy              =   -4781.78246528 Ry
     estimated scf accuracy    <       0.00135883 Ry

     total magnetization       =    18.60 Bohr mag/cell
     absolute magnetization    =    28.76 Bohr mag/cell

     iteration # 74     ecut=    60.00 Ry     beta= 0.30
     Davidson diagonalization with overlap
     ethr =  1.82E-07,  avg # of iterations =  5.8

     negative rho (up, down):  0.000E+00 9.822E-04

     total cpu time spent up to now is     4187.4 secs

     total energy              =   -4781.78189451 Ry
     estimated scf accuracy    <       0.00019842 Ry

     total magnetization       =    18.58 Bohr mag/cell
     absolute magnetization    =    28.92 Bohr mag/cell

     iteration # 75     ecut=    60.00 Ry     beta= 0.30
     Davidson diagonalization with overlap
     ethr =  8.13E-08,  avg # of iterations =  6.0

     negative rho (up, down):  0.000E+00 9.949E-04

     total cpu time spent up to now is     4256.2 secs

     total energy              =   -4781.78169854 Ry
     estimated scf accuracy    <       0.00044750 Ry

     total magnetization       =    18.61 Bohr mag/cell
     absolute magnetization    =    28.56 Bohr mag/cell

     iteration # 76     ecut=    60.00 Ry     beta= 0.30
     Davidson diagonalization with overlap
     ethr =  8.13E-08,  avg # of iterations =  8.8

     negative rho (up, down):  0.000E+00 9.964E-04

     total cpu time spent up to now is     4340.2 secs

     total energy              =   -4781.78237619 Ry
     estimated scf accuracy    <       0.00026733 Ry

     total magnetization       =    18.56 Bohr mag/cell
     absolute magnetization    =    29.12 Bohr mag/cell

     iteration # 77     ecut=    60.00 Ry     beta= 0.30
     Davidson diagonalization with overlap
     ethr =  8.13E-08,  avg # of iterations =  7.3

     negative rho (up, down):  0.000E+00 9.899E-04

     total cpu time spent up to now is     4415.2 secs

     total energy              =   -4781.78285033 Ry
     estimated scf accuracy    <       0.00017143 Ry

     total magnetization       =    18.50 Bohr mag/cell
     absolute magnetization    =    29.48 Bohr mag/cell

     iteration # 78     ecut=    60.00 Ry     beta= 0.30
     Davidson diagonalization with overlap
     ethr =  7.03E-08,  avg # of iterations =  2.5

     negative rho (up, down):  0.000E+00 9.882E-04

     total cpu time spent up to now is     4466.7 secs

     total energy              =   -4781.78281292 Ry
     estimated scf accuracy    <       0.00031630 Ry

     total magnetization       =    18.49 Bohr mag/cell
     absolute magnetization    =    29.42 Bohr mag/cell

     iteration # 79     ecut=    60.00 Ry     beta= 0.30
     Davidson diagonalization with overlap
     ethr =  7.03E-08,  avg # of iterations =  4.6

     negative rho (up, down):  0.000E+00 9.788E-04

     total cpu time spent up to now is     4524.4 secs

     total energy              =   -4781.78289618 Ry
     estimated scf accuracy    <       0.00004261 Ry

     total magnetization       =    18.48 Bohr mag/cell
     absolute magnetization    =    29.55 Bohr mag/cell

     iteration # 80     ecut=    60.00 Ry     beta= 0.30
     Davidson diagonalization with overlap
     ethr =  1.75E-08,  avg # of iterations =  5.7

     negative rho (up, down):  0.000E+00 9.771E-04

     total cpu time spent up to now is     4586.9 secs

     total energy              =   -4781.78289794 Ry
     estimated scf accuracy    <       0.00031679 Ry

     total magnetization       =    18.46 Bohr mag/cell
     absolute magnetization    =    29.48 Bohr mag/cell

     iteration # 81     ecut=    60.00 Ry     beta= 0.30
     Davidson diagonalization with overlap
     ethr =  1.75E-08,  avg # of iterations =  4.2

     negative rho (up, down):  0.000E+00 9.769E-04

     total cpu time spent up to now is     4643.6 secs

     total energy              =   -4781.78288080 Ry
     estimated scf accuracy    <       0.00008996 Ry

     total magnetization       =    18.46 Bohr mag/cell
     absolute magnetization    =    29.53 Bohr mag/cell

     iteration # 82     ecut=    60.00 Ry     beta= 0.30
     Davidson diagonalization with overlap
     ethr =  1.75E-08,  avg # of iterations =  6.2

     negative rho (up, down):  0.000E+00 9.747E-04

     total cpu time spent up to now is     4711.3 secs

     total energy              =   -4781.78290624 Ry
     estimated scf accuracy    <       0.00021338 Ry

     total magnetization       =    18.45 Bohr mag/cell
     absolute magnetization    =    29.62 Bohr mag/cell

     iteration # 83     ecut=    60.00 Ry     beta= 0.30
     Davidson diagonalization with overlap
     ethr =  1.75E-08,  avg # of iterations =  4.7

     negative rho (up, down):  0.000E+00 9.653E-04

     total cpu time spent up to now is     4769.6 secs

     total energy              =   -4781.78292421 Ry
     estimated scf accuracy    <       0.00005882 Ry

     total magnetization       =    18.45 Bohr mag/cell
     absolute magnetization    =    29.58 Bohr mag/cell

     iteration # 84     ecut=    60.00 Ry     beta= 0.30
     Davidson diagonalization with overlap
     ethr =  1.75E-08,  avg # of iterations =  3.8

     negative rho (up, down):  0.000E+00 9.600E-04

     total cpu time spent up to now is     4823.7 secs

     total energy              =   -4781.78289583 Ry
     estimated scf accuracy    <       0.00008930 Ry

     total magnetization       =    18.44 Bohr mag/cell
     absolute magnetization    =    29.55 Bohr mag/cell

     iteration # 85     ecut=    60.00 Ry     beta= 0.30
     Davidson diagonalization with overlap
     ethr =  1.75E-08,  avg # of iterations =  5.9

     negative rho (up, down):  0.000E+00 9.616E-04

     total cpu time spent up to now is     4889.2 secs

     total energy              =   -4781.78292608 Ry
     estimated scf accuracy    <       0.00008023 Ry

     total magnetization       =    18.41 Bohr mag/cell
     absolute magnetization    =    29.64 Bohr mag/cell

     iteration # 86     ecut=    60.00 Ry     beta= 0.30
     Davidson diagonalization with overlap
     ethr =  1.75E-08,  avg # of iterations =  3.5

     negative rho (up, down):  0.000E+00 9.643E-04

     total cpu time spent up to now is     4942.8 secs

     total energy              =   -4781.78292787 Ry
     estimated scf accuracy    <       0.00002978 Ry

     total magnetization       =    18.42 Bohr mag/cell
     absolute magnetization    =    29.60 Bohr mag/cell

     iteration # 87     ecut=    60.00 Ry     beta= 0.30
     Davidson diagonalization with overlap
     ethr =  1.22E-08,  avg # of iterations =  4.8

     negative rho (up, down):  0.000E+00 9.586E-04

     total cpu time spent up to now is     5001.7 secs

     total energy              =   -4781.78292829 Ry
     estimated scf accuracy    <       0.00013519 Ry

     total magnetization       =    18.43 Bohr mag/cell
     absolute magnetization    =    29.59 Bohr mag/cell

     iteration # 88     ecut=    60.00 Ry     beta= 0.30
     Davidson diagonalization with overlap
     ethr =  1.22E-08,  avg # of iterations =  3.1

     negative rho (up, down):  0.000E+00 9.610E-04

     total cpu time spent up to now is     5053.9 secs

     total energy              =   -4781.78293390 Ry
     estimated scf accuracy    <       0.00001195 Ry

     total magnetization       =    18.42 Bohr mag/cell
     absolute magnetization    =    29.60 Bohr mag/cell

     iteration # 89     ecut=    60.00 Ry     beta= 0.30
     Davidson diagonalization with overlap
     ethr =  4.90E-09,  avg # of iterations =  4.7

     negative rho (up, down):  0.000E+00 9.579E-04

     total cpu time spent up to now is     5111.3 secs

     total energy              =   -4781.78293505 Ry
     estimated scf accuracy    <       0.00002004 Ry

     total magnetization       =    18.42 Bohr mag/cell
     absolute magnetization    =    29.60 Bohr mag/cell

     iteration # 90     ecut=    60.00 Ry     beta= 0.30
     Davidson diagonalization with overlap
     ethr =  4.90E-09,  avg # of iterations =  2.7

     negative rho (up, down):  0.000E+00 9.591E-04

     total cpu time spent up to now is     5162.1 secs

     total energy              =   -4781.78293544 Ry
     estimated scf accuracy    <       0.00001360 Ry

     total magnetization       =    18.42 Bohr mag/cell
     absolute magnetization    =    29.61 Bohr mag/cell

     iteration # 91     ecut=    60.00 Ry     beta= 0.30
     Davidson diagonalization with overlap
     ethr =  4.90E-09,  avg # of iterations =  1.3

     negative rho (up, down):  0.000E+00 9.571E-04

     total cpu time spent up to now is     5207.1 secs

     total energy              =   -4781.78293673 Ry
     estimated scf accuracy    <       0.00000652 Ry

     total magnetization       =    18.42 Bohr mag/cell
     absolute magnetization    =    29.60 Bohr mag/cell

     iteration # 92     ecut=    60.00 Ry     beta= 0.30
     Davidson diagonalization with overlap
     ethr =  2.67E-09,  avg # of iterations =  2.0

     negative rho (up, down):  0.000E+00 9.584E-04

     total cpu time spent up to now is     5255.9 secs

     total energy              =   -4781.78293645 Ry
     estimated scf accuracy    <       0.00000449 Ry

     total magnetization       =    18.41 Bohr mag/cell
     absolute magnetization    =    29.60 Bohr mag/cell

     iteration # 93     ecut=    60.00 Ry     beta= 0.30
     Davidson diagonalization with overlap
     ethr =  1.84E-09,  avg # of iterations =  2.3

     negative rho (up, down):  0.000E+00 9.568E-04

     total cpu time spent up to now is     5305.3 secs

     total energy              =   -4781.78293728 Ry
     estimated scf accuracy    <       0.00000632 Ry

     total magnetization       =    18.42 Bohr mag/cell
     absolute magnetization    =    29.60 Bohr mag/cell

     iteration # 94     ecut=    60.00 Ry     beta= 0.30
     Davidson diagonalization with overlap
     ethr =  1.84E-09,  avg # of iterations =  1.5

     negative rho (up, down):  0.000E+00 9.568E-04

     total cpu time spent up to now is     5353.2 secs

     total energy              =   -4781.78293744 Ry
     estimated scf accuracy    <       0.00000351 Ry

     total magnetization       =    18.41 Bohr mag/cell
     absolute magnetization    =    29.60 Bohr mag/cell

     iteration # 95     ecut=    60.00 Ry     beta= 0.30
     Davidson diagonalization with overlap
     ethr =  1.44E-09,  avg # of iterations =  1.7

     negative rho (up, down):  0.000E+00 9.566E-04

     total cpu time spent up to now is     5399.9 secs

     total energy              =   -4781.78293760 Ry
     estimated scf accuracy    <       0.00000310 Ry

     total magnetization       =    18.41 Bohr mag/cell
     absolute magnetization    =    29.60 Bohr mag/cell

     iteration # 96     ecut=    60.00 Ry     beta= 0.30
     Davidson diagonalization with overlap
     ethr =  1.27E-09,  avg # of iterations =  2.8

     negative rho (up, down):  0.000E+00 9.529E-04

     total cpu time spent up to now is     5451.3 secs

     total energy              =   -4781.78293738 Ry
     estimated scf accuracy    <       0.00000503 Ry

     total magnetization       =    18.41 Bohr mag/cell
     absolute magnetization    =    29.60 Bohr mag/cell

     iteration # 97     ecut=    60.00 Ry     beta= 0.30
     Davidson diagonalization with overlap
     ethr =  1.27E-09,  avg # of iterations =  4.9

     negative rho (up, down):  0.000E+00 9.549E-04

     total cpu time spent up to now is     5512.7 secs

     total energy              =   -4781.78293794 Ry
     estimated scf accuracy    <       0.00000118 Ry

     total magnetization       =    18.41 Bohr mag/cell
     absolute magnetization    =    29.60 Bohr mag/cell

     iteration # 98     ecut=    60.00 Ry     beta= 0.30
     Davidson diagonalization with overlap
     ethr =  4.84E-10,  avg # of iterations =  5.0

     negative rho (up, down):  0.000E+00 9.535E-04

     total cpu time spent up to now is     5571.7 secs

     total energy              =   -4781.78293841 Ry
     estimated scf accuracy    <       0.00000239 Ry

     total magnetization       =    18.41 Bohr mag/cell
     absolute magnetization    =    29.60 Bohr mag/cell

     iteration # 99     ecut=    60.00 Ry     beta= 0.30
     Davidson diagonalization with overlap
     ethr =  4.84E-10,  avg # of iterations =  4.4

     negative rho (up, down):  0.000E+00 9.529E-04

     total cpu time spent up to now is     5629.0 secs

     total energy              =   -4781.78293865 Ry
     estimated scf accuracy    <       0.00000212 Ry

     total magnetization       =    18.41 Bohr mag/cell
     absolute magnetization    =    29.60 Bohr mag/cell

     iteration #100     ecut=    60.00 Ry     beta= 0.30
     Davidson diagonalization with overlap
     ethr =  4.84E-10,  avg # of iterations =  2.1

     negative rho (up, down):  0.000E+00 9.525E-04

     total cpu time spent up to now is     5677.0 secs

     total energy              =   -4781.78293876 Ry
     estimated scf accuracy    <       0.00000029 Ry

     total magnetization       =    18.41 Bohr mag/cell
     absolute magnetization    =    29.59 Bohr mag/cell

     iteration #101     ecut=    60.00 Ry     beta= 0.30
     Davidson diagonalization with overlap
     ethr =  1.20E-10,  avg # of iterations =  6.0

     negative rho (up, down):  0.000E+00 9.528E-04

     total cpu time spent up to now is     5743.7 secs

     total energy              =   -4781.78293876 Ry
     estimated scf accuracy    <       0.00000114 Ry

     total magnetization       =    18.41 Bohr mag/cell
     absolute magnetization    =    29.59 Bohr mag/cell

     iteration #102     ecut=    60.00 Ry     beta= 0.30
     Davidson diagonalization with overlap
     ethr =  1.20E-10,  avg # of iterations =  4.3

     negative rho (up, down):  0.000E+00 9.526E-04

     total cpu time spent up to now is     5799.9 secs

     total energy              =   -4781.78293884 Ry
     estimated scf accuracy    <       0.00000063 Ry

     total magnetization       =    18.41 Bohr mag/cell
     absolute magnetization    =    29.59 Bohr mag/cell

     iteration #103     ecut=    60.00 Ry     beta= 0.30
     Davidson diagonalization with overlap
     ethr =  1.20E-10,  avg # of iterations =  1.8

     negative rho (up, down):  0.000E+00 9.525E-04

     total cpu time spent up to now is     5846.9 secs

     total energy              =   -4781.78293891 Ry
     estimated scf accuracy    <       0.00000016 Ry

     total magnetization       =    18.41 Bohr mag/cell
     absolute magnetization    =    29.59 Bohr mag/cell

     iteration #104     ecut=    60.00 Ry     beta= 0.30
     Davidson diagonalization with overlap
     ethr =  6.74E-11,  avg # of iterations =  3.1

     negative rho (up, down):  0.000E+00 9.522E-04

     total cpu time spent up to now is     5899.6 secs

     total energy              =   -4781.78293894 Ry
     estimated scf accuracy    <       0.00000035 Ry

     total magnetization       =    18.41 Bohr mag/cell
     absolute magnetization    =    29.59 Bohr mag/cell

     iteration #105     ecut=    60.00 Ry     beta= 0.30
     Davidson diagonalization with overlap
     c_bands:  1 eigenvalues not converged
     ethr =  6.74E-11,  avg # of iterations =  5.4

     negative rho (up, down):  0.000E+00 9.524E-04

     total cpu time spent up to now is     5959.9 secs

     total energy              =   -4781.78293902 Ry
     estimated scf accuracy    <       0.00000017 Ry

     total magnetization       =    18.41 Bohr mag/cell
     absolute magnetization    =    29.59 Bohr mag/cell

     iteration #106     ecut=    60.00 Ry     beta= 0.30
     Davidson diagonalization with overlap
     ethr =  6.74E-11,  avg # of iterations =  3.4

     negative rho (up, down):  0.000E+00 9.525E-04

     total cpu time spent up to now is     6012.9 secs

     total energy              =   -4781.78293906 Ry
     estimated scf accuracy    <       0.00000041 Ry

     total magnetization       =    18.41 Bohr mag/cell
     absolute magnetization    =    29.59 Bohr mag/cell

     iteration #107     ecut=    60.00 Ry     beta= 0.30
     Davidson diagonalization with overlap
     ethr =  6.74E-11,  avg # of iterations =  3.7

     negative rho (up, down):  0.000E+00 9.524E-04

     total cpu time spent up to now is     6067.2 secs

     total energy              =   -4781.78293905 Ry
     estimated scf accuracy    <       0.00000022 Ry

     total magnetization       =    18.41 Bohr mag/cell
     absolute magnetization    =    29.59 Bohr mag/cell

     iteration #108     ecut=    60.00 Ry     beta= 0.30
     Davidson diagonalization with overlap
     ethr =  6.74E-11,  avg # of iterations =  3.2

     negative rho (up, down):  0.000E+00 9.524E-04

     total cpu time spent up to now is     6120.4 secs

     total energy              =   -4781.78293907 Ry
     estimated scf accuracy    <       0.00000038 Ry

     total magnetization       =    18.41 Bohr mag/cell
     absolute magnetization    =    29.59 Bohr mag/cell

     iteration #109     ecut=    60.00 Ry     beta= 0.30
     Davidson diagonalization with overlap
     ethr =  6.74E-11,  avg # of iterations =  2.8

     negative rho (up, down):  0.000E+00 9.525E-04

     total cpu time spent up to now is     6171.6 secs

     total energy              =   -4781.78293911 Ry
     estimated scf accuracy    <       0.00000013 Ry

     total magnetization       =    18.41 Bohr mag/cell
     absolute magnetization    =    29.59 Bohr mag/cell

     iteration #110     ecut=    60.00 Ry     beta= 0.30
     Davidson diagonalization with overlap
     ethr =  5.38E-11,  avg # of iterations =  2.0

     negative rho (up, down):  0.000E+00 9.525E-04

     total cpu time spent up to now is     6220.3 secs

     total energy              =   -4781.78293912 Ry
     estimated scf accuracy    <       0.00000021 Ry

     total magnetization       =    18.41 Bohr mag/cell
     absolute magnetization    =    29.59 Bohr mag/cell

     iteration #111     ecut=    60.00 Ry     beta= 0.30
     Davidson diagonalization with overlap
     ethr =  5.38E-11,  avg # of iterations =  5.1

     negative rho (up, down):  0.000E+00 9.528E-04

     total cpu time spent up to now is     6279.3 secs

     total energy              =   -4781.78293918 Ry
     estimated scf accuracy    <       0.00000009 Ry

     total magnetization       =    18.41 Bohr mag/cell
     absolute magnetization    =    29.59 Bohr mag/cell

     iteration #112     ecut=    60.00 Ry     beta= 0.30
     Davidson diagonalization with overlap
     ethr =  3.72E-11,  avg # of iterations =  3.8

     negative rho (up, down):  0.000E+00 9.528E-04

     total cpu time spent up to now is     6333.4 secs

     total energy              =   -4781.78293919 Ry
     estimated scf accuracy    <       0.00000018 Ry

     total magnetization       =    18.41 Bohr mag/cell
     absolute magnetization    =    29.59 Bohr mag/cell

     iteration #113     ecut=    60.00 Ry     beta= 0.30
     Davidson diagonalization with overlap
     ethr =  3.72E-11,  avg # of iterations =  3.7

     negative rho (up, down):  0.000E+00 9.529E-04

     total cpu time spent up to now is     6388.0 secs

     total energy              =   -4781.78293922 Ry
     estimated scf accuracy    <       0.00000009 Ry

     total magnetization       =    18.41 Bohr mag/cell
     absolute magnetization    =    29.58 Bohr mag/cell

     iteration #114     ecut=    60.00 Ry     beta= 0.30
     Davidson diagonalization with overlap
     ethr =  3.72E-11,  avg # of iterations =  3.9

     negative rho (up, down):  0.000E+00 9.529E-04

     total cpu time spent up to now is     6442.8 secs

     total energy              =   -4781.78293921 Ry
     estimated scf accuracy    <       0.00000009 Ry

     total magnetization       =    18.41 Bohr mag/cell
     absolute magnetization    =    29.58 Bohr mag/cell

     iteration #115     ecut=    60.00 Ry     beta= 0.30
     Davidson diagonalization with overlap
     ethr =  3.69E-11,  avg # of iterations =  3.9

     negative rho (up, down):  0.000E+00 9.531E-04

     total cpu time spent up to now is     6497.8 secs

     total energy              =   -4781.78293920 Ry
     estimated scf accuracy    <       0.00000026 Ry

     total magnetization       =    18.41 Bohr mag/cell
     absolute magnetization    =    29.58 Bohr mag/cell

     iteration #116     ecut=    60.00 Ry     beta= 0.30
     Davidson diagonalization with overlap
     ethr =  3.69E-11,  avg # of iterations =  5.9

     negative rho (up, down):  0.000E+00 9.531E-04

     total cpu time spent up to now is     6560.7 secs

     total energy              =   -4781.78293926 Ry
     estimated scf accuracy    <       0.00000009 Ry

     total magnetization       =    18.41 Bohr mag/cell
     absolute magnetization    =    29.58 Bohr mag/cell

     iteration #117     ecut=    60.00 Ry     beta= 0.30
     Davidson diagonalization with overlap
     ethr =  3.69E-11,  avg # of iterations =  2.0

     negative rho (up, down):  0.000E+00 9.533E-04

     total cpu time spent up to now is     6608.4 secs

     total energy              =   -4781.78293927 Ry
     estimated scf accuracy    <       0.00000006 Ry

     total magnetization       =    18.41 Bohr mag/cell
     absolute magnetization    =    29.58 Bohr mag/cell

     iteration #118     ecut=    60.00 Ry     beta= 0.30
     Davidson diagonalization with overlap
     ethr =  2.33E-11,  avg # of iterations =  5.4

     negative rho (up, down):  0.000E+00 9.534E-04

     total cpu time spent up to now is     6669.9 secs

     total energy              =   -4781.78293930 Ry
     estimated scf accuracy    <       0.00000005 Ry

     total magnetization       =    18.41 Bohr mag/cell
     absolute magnetization    =    29.58 Bohr mag/cell

     iteration #119     ecut=    60.00 Ry     beta= 0.30
     Davidson diagonalization with overlap
     ethr =  1.91E-11,  avg # of iterations =  3.9

     negative rho (up, down):  0.000E+00 9.534E-04

     total cpu time spent up to now is     6724.6 secs

     total energy              =   -4781.78293931 Ry
     estimated scf accuracy    <       0.00000005 Ry

     total magnetization       =    18.41 Bohr mag/cell
     absolute magnetization    =    29.58 Bohr mag/cell

     iteration #120     ecut=    60.00 Ry     beta= 0.30
     Davidson diagonalization with overlap
     ethr =  1.91E-11,  avg # of iterations =  2.9

     negative rho (up, down):  0.000E+00 9.535E-04

     total cpu time spent up to now is     6776.4 secs

     total energy              =   -4781.78293932 Ry
     estimated scf accuracy    <       0.00000002 Ry

     total magnetization       =    18.41 Bohr mag/cell
     absolute magnetization    =    29.58 Bohr mag/cell

     iteration #121     ecut=    60.00 Ry     beta= 0.30
     Davidson diagonalization with overlap
     ethr =  9.34E-12,  avg # of iterations =  5.3

     negative rho (up, down):  0.000E+00 9.536E-04

     total cpu time spent up to now is     6834.5 secs

     total energy              =   -4781.78293930 Ry
     estimated scf accuracy    <       0.00000003 Ry

     total magnetization       =    18.41 Bohr mag/cell
     absolute magnetization    =    29.58 Bohr mag/cell

     iteration #122     ecut=    60.00 Ry     beta= 0.30
     Davidson diagonalization with overlap
     ethr =  9.34E-12,  avg # of iterations =  6.8

     negative rho (up, down):  0.000E+00 9.536E-04

     total cpu time spent up to now is     6907.3 secs

     total energy              =   -4781.78293933 Ry
     estimated scf accuracy    <       0.00000012 Ry

     total magnetization       =    18.41 Bohr mag/cell
     absolute magnetization    =    29.57 Bohr mag/cell

     iteration #123     ecut=    60.00 Ry     beta= 0.30
     Davidson diagonalization with overlap
     ethr =  9.34E-12,  avg # of iterations =  4.6

     negative rho (up, down):  0.000E+00 9.537E-04

     total cpu time spent up to now is     6965.1 secs

     total energy              =   -4781.78293934 Ry
     estimated scf accuracy    <       0.00000002 Ry

     total magnetization       =    18.41 Bohr mag/cell
     absolute magnetization    =    29.58 Bohr mag/cell

     iteration #124     ecut=    60.00 Ry     beta= 0.30
     Davidson diagonalization with overlap
     ethr =  9.20E-12,  avg # of iterations =  5.9

     negative rho (up, down):  0.000E+00 9.536E-04

     total cpu time spent up to now is     7027.7 secs

     total energy              =   -4781.78293935 Ry
     estimated scf accuracy    <       0.00000002 Ry

     total magnetization       =    18.41 Bohr mag/cell
     absolute magnetization    =    29.57 Bohr mag/cell

     iteration #125     ecut=    60.00 Ry     beta= 0.30
     Davidson diagonalization with overlap
     ethr =  8.15E-12,  avg # of iterations =  4.4

     negative rho (up, down):  0.000E+00 9.536E-04

     total cpu time spent up to now is     7084.8 secs

     total energy              =   -4781.78293934 Ry
     estimated scf accuracy    <       0.00000011 Ry

     total magnetization       =    18.41 Bohr mag/cell
     absolute magnetization    =    29.57 Bohr mag/cell

     iteration #126     ecut=    60.00 Ry     beta= 0.30
     Davidson diagonalization with overlap
     ethr =  8.15E-12,  avg # of iterations =  6.0

     negative rho (up, down):  0.000E+00 9.536E-04

     total cpu time spent up to now is     7151.1 secs

     total energy              =   -4781.78293935 Ry
     estimated scf accuracy    <       0.00000002 Ry

     total magnetization       =    18.41 Bohr mag/cell
     absolute magnetization    =    29.57 Bohr mag/cell

     iteration #127     ecut=    60.00 Ry     beta= 0.30
     Davidson diagonalization with overlap
     ethr =  6.74E-12,  avg # of iterations =  4.3

     negative rho (up, down):  0.000E+00 9.537E-04

     total cpu time spent up to now is     7207.3 secs

     total energy              =   -4781.78293935 Ry
     estimated scf accuracy    <       0.00000004 Ry

     total magnetization       =    18.41 Bohr mag/cell
     absolute magnetization    =    29.57 Bohr mag/cell

     iteration #128     ecut=    60.00 Ry     beta= 0.30
     Davidson diagonalization with overlap
     ethr =  6.74E-12,  avg # of iterations =  3.7

     negative rho (up, down):  0.000E+00 9.535E-04
 
     Magnetic moment per site  (integrated on atomic sphere of radius R)
     atom   1 (R=0.177)  charge= 12.1441  magn= -1.1450
     atom   2 (R=0.177)  charge= 14.4331  magn=  2.2071
     atom   3 (R=0.177)  charge= 14.4338  magn=  2.1832
     atom   4 (R=0.177)  charge= 12.1781  magn=  0.9316
     atom   5 (R=0.177)  charge= 14.4359  magn=  2.1463
     atom   6 (R=0.177)  charge= 14.4330  magn=  2.1768
     atom   7 (R=0.177)  charge= 12.1463  magn= -1.1310
     atom   8 (R=0.177)  charge= 14.4331  magn=  2.2073
     atom   9 (R=0.177)  charge= 12.1463  magn= -1.1313
     atom  10 (R=0.177)  charge= 14.4331  magn=  2.2073
     atom  11 (R=0.177)  charge= 14.4359  magn=  2.1462
     atom  12 (R=0.177)  charge= 14.4330  magn=  2.1768
     atom  13 (R=0.177)  charge= 14.4338  magn=  2.1831
     atom  14 (R=0.177)  charge= 12.1781  magn=  0.9316
     atom  15 (R=0.177)  charge= 12.1440  magn= -1.1454
     atom  16 (R=0.177)  charge= 14.4331  magn=  2.2071

     total cpu time spent up to now is     7262.8 secs

     End of self-consistent calculation

     Number of k-points >= 100: set verbosity='high' to print the bands.

     the Fermi energy is    17.8407 ev

!    total energy              =   -4781.78293936 Ry
     total all-electron energy =    -38065.944341 Ry
     estimated scf accuracy    <          9.2E-09 Ry
     smearing contrib. (-TS)   =      -0.00147850 Ry
     internal energy E=F+TS    =   -4781.78146085 Ry

     The total energy is F=E-TS. E is the sum of the following terms:
     one-electron contribution =   -1513.76232973 Ry
     hartree contribution      =     899.46920010 Ry
     xc contribution           =    -410.54339214 Ry
     ewald contribution        =   -2483.57164848 Ry
     one-center paw contrib.   =   -1273.37329060 Ry

     total magnetization       =    18.41 Bohr mag/cell
     absolute magnetization    =    29.57 Bohr mag/cell

     convergence has been achieved in 128 iterations


     Computing stress (Cartesian axis) and pressure


     negative rho (up, down):  0.000E+00 9.535E-04
          total   stress  (Ry/bohr**3)                   (kbar)     P=     -102.83
  -0.00052818  -0.00014602   0.00000326          -77.70      -21.48        0.48
  -0.00014602  -0.00078628   0.00010012          -21.48     -115.67       14.73
   0.00000326   0.00010012  -0.00078253            0.48       14.73     -115.11


     Writing all to output data dir ./tmp/fecr_fe10cr06_s0.01.save/ :
     XML data file, charge density, pseudopotentials, collected wavefunctions
 
     init_run     :     44.95s CPU     33.97s WALL (       1 calls)
     electrons    :   8827.61s CPU   7228.42s WALL (       1 calls)
     stress       :     36.00s CPU     35.30s WALL (       1 calls)

     Called by init_run:
     wfcinit      :     10.70s CPU     13.47s WALL (       1 calls)
     potinit      :     33.27s CPU     19.40s WALL (       1 calls)
     hinit0       :      0.63s CPU      0.62s WALL (       1 calls)

     Called by electrons:
     c_bands      :   4346.97s CPU   4362.86s WALL (     128 calls)
     sum_band     :    422.56s CPU    423.37s WALL (     128 calls)
     v_of_rho     :      6.90s CPU      5.87s WALL (     129 calls)
     newd         :      5.45s CPU      5.50s WALL (     129 calls)
                                        5.50s GPU  (     129 calls)
     PAW_pot      :   4069.06s CPU   2440.26s WALL (     129 calls)
     mix_rho      :      4.52s CPU      4.51s WALL (     128 calls)

     Called by c_bands:
     init_us_2    :     35.10s CPU     33.47s WALL (   57792 calls)
     cegterg      :   3893.01s CPU   3908.35s WALL (   28672 calls)

     Called by *egterg:
     cdiaghg      :   1275.55s CPU   1286.91s WALL (  141921 calls)
                                     1286.28s GPU  (  141921 calls)
     h_psi        :   1178.83s CPU   1185.77s WALL (  142145 calls)
                                     1184.43s GPU  (  142145 calls)
     s_psi        :     72.62s CPU     73.70s WALL (  142145 calls)
     g_psi        :      0.66s CPU      6.61s WALL (  113249 calls)
                                        6.28s GPU  (  113249 calls)

     Called by h_psi:
     h_psi:calbec :      5.48s CPU    253.52s WALL (  142145 calls)
                                      252.77s GPU  (  142145 calls)
     vloc_psi     :    618.22s CPU    617.15s WALL (  142145 calls)
                                      616.65s GPU  (  142145 calls)
     add_vuspsi   :     70.49s CPU    306.80s WALL (  142145 calls)
                                      306.15s GPU  (  142145 calls)

     General routines
     calbec       :      6.83s CPU      7.10s WALL (  171041 calls)
     fft          :      3.28s CPU      3.55s WALL (    3244 calls)
                                        0.33s GPU  (    2986 calls)
     ffts         :      0.50s CPU      0.51s WALL (     514 calls)
                                        0.01s GPU  (     256 calls)
     fftw         :     29.94s CPU    580.01s WALL ( 1705064 calls)
                                      575.17s GPU  ( 1705064 calls)
     interpolate  :      3.95s CPU      3.96s WALL (     258 calls)
 
     Parallel routines
 
     PWSCF        :      2h28m CPU      2h 1m WALL

 
   This run was terminated on:   3:55:37  17May2026            

=------------------------------------------------------------------------------=
   JOB DONE.
=------------------------------------------------------------------------------=
Warning: ieee_divide_by_zero is signaling
Warning: ieee_inexact is signaling
FORTRAN STOP
