--------------------------------------------------------------------------
WARNING: Open MPI tried to bind a process but failed.  This is a
warning only; your job will continue, though performance may
be degraded.

  Local host:        4b82db919bf5
  Application name:  /root/q-e-qe-7.3.1/bin/pw.x
  Error message:     failed to bind memory
  Location:          ../../../../../orte/mca/rtc/hwloc/rtc_hwloc.c:447

--------------------------------------------------------------------------

     Program PWSCF v.7.3.1 starts on 16May2026 at  0:46:51 

     This program is part of the open-source Quantum ESPRESSO suite
     for quantum simulation of materials; please cite
         "P. Giannozzi et al., J. Phys.:Condens. Matter 21 395502 (2009);
         "P. Giannozzi et al., J. Phys.:Condens. Matter 29 465901 (2017);
         "P. Giannozzi et al., J. Chem. Phys. 152 154105 (2020);
          URL http://www.quantum-espresso.org", 
     in publications or presentations arising from this work. More details at
     http://www.quantum-espresso.org/quote

     Parallel version (MPI & OpenMP), running on      16 processor cores
     Number of MPI processes:                 1
     Threads/MPI process:                    16

     MPI processes distributed on     1 nodes
     55107 MiB available memory on the printing compute node when the environment starts
 
     Reading input from inputs/fecr_fe12cr04_s0.01.in

     Current dimensions of program PWSCF are:
     Max number of different atomic species (ntypx) = 10
     Max number of k-points (npk) =  40000
     Max angular momentum in pseudopotentials (lmaxx) =  4
     file Fe.pbe-spn-kjpaw_psl.1.0.0.UPF: wavefunction(s)  3P 3D renormalized
     file Cr.pbe-spn-kjpaw_psl.1.0.0.UPF: wavefunction(s)  3S 3P 3D renormalized
     Found identity + (  0.0000 -0.5000 -0.5000) symmetry
     This is a supercell, fractional translations are disabled
     Message from routine setup:
     using ibrav=0 with symmetry is DISCOURAGED, use correct ibrav instead
 
     Subspace diagonalization in iterative solution of the eigenvalue problem:
     a serial algorithm will be used

 
     G-vector sticks info
     --------------------
     sticks:   dense  smooth     PW     G-vecs:    dense   smooth      PW
     Sum        4579    2271    649               232739    82259   12397
 
     Using Slab Decomposition
 


     bravais-lattice index     =            0
     lattice parameter (alat)  =      10.9450  a.u.
     unit-cell volume          =    1310.8160 (a.u.)^3
     number of atoms/cell      =           16
     number of atomic types    =            2
     number of electrons       =       248.00
     number of Kohn-Sham states=          149
     kinetic-energy cutoff     =      60.0000  Ry
     charge density cutoff     =     480.0000  Ry
     scf convergence threshold =      1.0E-08
     mixing beta               =       0.3000
     number of iterations used =            8  plain     mixing
     Exchange-correlation= SLA  PW   PBX  PBC
                           (   1   4   3   4   0   0   0)

     GPU acceleration is ACTIVE.  1 visible GPUs per MPI rank


     celldm(1)=  10.945025  celldm(2)=   0.000000  celldm(3)=   0.000000
     celldm(4)=   0.000000  celldm(5)=   0.000000  celldm(6)=   0.000000

     crystal axes: (cart. coord. in units of alat)
               a(1) = (   0.999950   0.010000   0.000000 )  
               a(2) = (   0.010000   0.999950   0.000000 )  
               a(3) = (   0.000000   0.000000   0.999950 )  

     reciprocal axes: (cart. coord. in units 2 pi/alat)
               b(1) = (  1.000150 -0.010002  0.000000 )  
               b(2) = ( -0.010002  1.000150  0.000000 )  
               b(3) = (  0.000000  0.000000  1.000050 )  


     PseudoPot. # 1 for Fe read from file:
     ./pseudo/Fe.pbe-spn-kjpaw_psl.1.0.0.UPF
     MD5 check sum: fc81f059e5c5069939230b1155715ae8
     Pseudo is Projector augmented-wave + core cor, Zval = 16.0
     Generated using &quot;atomic&quot; code by A. Dal Corso  v.6.3
     Shape of augmentation charge: PSQ
     Using radial grid of 1191 points,  6 beta functions with: 
                l(1) =   0
                l(2) =   0
                l(3) =   1
                l(4) =   1
                l(5) =   2
                l(6) =   2
     Q(r) pseudized with 0 coefficients 


     PseudoPot. # 2 for Cr read from file:
     ./pseudo/Cr.pbe-spn-kjpaw_psl.1.0.0.UPF
     MD5 check sum: 198f1a2427a48552563eee314eba32ba
     Pseudo is Projector augmented-wave + core cor, Zval = 14.0
     Generated using &quot;atomic&quot; code by A. Dal Corso  v.6.3
     Shape of augmentation charge: PSQ
     Using radial grid of 1183 points,  6 beta functions with: 
                l(1) =   0
                l(2) =   0
                l(3) =   1
                l(4) =   1
                l(5) =   2
                l(6) =   2
     Q(r) pseudized with 0 coefficients 


     atomic species   valence    mass     pseudopotential
     Fe               16.00    55.84500     Fe( 1.00)
     Cr               14.00    51.99600     Cr( 1.00)

     Starting magnetic structure 
     atomic species   magnetization
     Fe              0.500
     Cr              0.300

      4 Sym. Ops., with inversion, found



   Cartesian axes

     site n.     atom                  positions (alat units)
         1        Cr     tau(   1) = (   0.0000000   0.0000000   0.0000000  )
         2        Fe     tau(   2) = (   0.2524874   0.2524874   0.2499875  )
         3        Fe     tau(   3) = (   0.0000000   0.0000000   0.4999750  )
         4        Fe     tau(   4) = (   0.2524874   0.2524874   0.7499625  )
         5        Fe     tau(   5) = (   0.0049998   0.4999750   0.0000000  )
         6        Fe     tau(   6) = (   0.2574872   0.7524624   0.2499875  )
         7        Cr     tau(   7) = (   0.0049998   0.4999750   0.4999750  )
         8        Fe     tau(   8) = (   0.2574872   0.7524624   0.7499625  )
         9        Cr     tau(   9) = (   0.4999750   0.0049998   0.0000000  )
        10        Fe     tau(  10) = (   0.7524624   0.2574872   0.2499875  )
        11        Fe     tau(  11) = (   0.4999750   0.0049998   0.4999750  )
        12        Fe     tau(  12) = (   0.7524624   0.2574872   0.7499625  )
        13        Fe     tau(  13) = (   0.5049748   0.5049748   0.0000000  )
        14        Fe     tau(  14) = (   0.7574622   0.7574622   0.2499875  )
        15        Cr     tau(  15) = (   0.5049748   0.5049748   0.4999750  )
        16        Fe     tau(  16) = (   0.7574622   0.7574622   0.7499625  )

     number of k points=    80  Marzari-Vanderbilt smearing, width (Ry)=  0.0200
                       cart. coord. in units 2pi/alat
        k(    1) = (   0.0000000   0.0000000   0.0000000), wk =   0.0046296
        k(    2) = (   0.0000000   0.0000000   0.1666750), wk =   0.0092593
        k(    3) = (   0.0000000   0.0000000   0.3333500), wk =   0.0092593
        k(    4) = (   0.0000000   0.0000000  -0.5000250), wk =   0.0046296
        k(    5) = (  -0.0016669   0.1666917   0.0000000), wk =   0.0092593
        k(    6) = (  -0.0016669   0.1666917   0.1666750), wk =   0.0185185
        k(    7) = (  -0.0016669   0.1666917   0.3333500), wk =   0.0185185
        k(    8) = (  -0.0016669   0.1666917  -0.5000250), wk =   0.0092593
        k(    9) = (  -0.0033339   0.3333833   0.0000000), wk =   0.0092593
        k(   10) = (  -0.0033339   0.3333833   0.1666750), wk =   0.0185185
        k(   11) = (  -0.0033339   0.3333833   0.3333500), wk =   0.0185185
        k(   12) = (  -0.0033339   0.3333833  -0.5000250), wk =   0.0092593
        k(   13) = (   0.0050008  -0.5000750   0.0000000), wk =   0.0046296
        k(   14) = (   0.0050008  -0.5000750   0.1666750), wk =   0.0092593
        k(   15) = (   0.0050008  -0.5000750   0.3333500), wk =   0.0092593
        k(   16) = (   0.0050008  -0.5000750  -0.5000250), wk =   0.0046296
        k(   17) = (   0.1650247   0.1650247   0.0000000), wk =   0.0092593
        k(   18) = (   0.1650247   0.1650247   0.1666750), wk =   0.0185185
        k(   19) = (   0.1650247   0.1650247   0.3333500), wk =   0.0185185
        k(   20) = (   0.1650247   0.1650247  -0.5000250), wk =   0.0092593
        k(   21) = (   0.1633578   0.3317164   0.0000000), wk =   0.0092593
        k(   22) = (   0.1633578   0.3317164   0.1666750), wk =   0.0185185
        k(   23) = (   0.1633578   0.3317164   0.3333500), wk =   0.0185185
        k(   24) = (   0.1633578   0.3317164  -0.5000250), wk =   0.0092593
        k(   25) = (   0.1716924  -0.5017419   0.0000000), wk =   0.0092593
        k(   26) = (   0.1716924  -0.5017419   0.1666750), wk =   0.0185185
        k(   27) = (   0.1716924  -0.5017419   0.3333500), wk =   0.0185185
        k(   28) = (   0.1716924  -0.5017419  -0.5000250), wk =   0.0092593
        k(   29) = (   0.1700255  -0.3350503   0.0000000), wk =   0.0092593
        k(   30) = (   0.1700255  -0.3350503   0.1666750), wk =   0.0185185
        k(   31) = (   0.1700255  -0.3350503   0.3333500), wk =   0.0185185
        k(   32) = (   0.1700255  -0.3350503  -0.5000250), wk =   0.0092593
        k(   33) = (   0.1683586  -0.1683586   0.0000000), wk =   0.0092593
        k(   34) = (   0.1683586  -0.1683586   0.1666750), wk =   0.0185185
        k(   35) = (   0.1683586  -0.1683586   0.3333500), wk =   0.0185185
        k(   36) = (   0.1683586  -0.1683586  -0.5000250), wk =   0.0092593
        k(   37) = (   0.3300495   0.3300495   0.0000000), wk =   0.0092593
        k(   38) = (   0.3300495   0.3300495   0.1666750), wk =   0.0185185
        k(   39) = (   0.3300495   0.3300495   0.3333500), wk =   0.0185185
        k(   40) = (   0.3300495   0.3300495  -0.5000250), wk =   0.0092593
        k(   41) = (   0.3383841  -0.5034089   0.0000000), wk =   0.0092593
        k(   42) = (   0.3383841  -0.5034089   0.1666750), wk =   0.0185185
        k(   43) = (   0.3383841  -0.5034089   0.3333500), wk =   0.0185185
        k(   44) = (   0.3383841  -0.5034089  -0.5000250), wk =   0.0092593
        k(   45) = (   0.3367172  -0.3367172   0.0000000), wk =   0.0092593
        k(   46) = (   0.3367172  -0.3367172   0.1666750), wk =   0.0185185
        k(   47) = (   0.3367172  -0.3367172   0.3333500), wk =   0.0185185
        k(   48) = (   0.3367172  -0.3367172  -0.5000250), wk =   0.0092593
        k(   49) = (  -0.4950742  -0.4950742   0.0000000), wk =   0.0046296
        k(   50) = (  -0.4950742  -0.4950742   0.1666750), wk =   0.0092593
        k(   51) = (  -0.4950742  -0.4950742   0.3333500), wk =   0.0092593
        k(   52) = (  -0.4950742  -0.4950742  -0.5000250), wk =   0.0046296
        k(   53) = (   0.1666917  -0.0016669   0.0000000), wk =   0.0092593
        k(   54) = (   0.1666917  -0.0016669  -0.1666750), wk =   0.0185185
        k(   55) = (   0.1666917  -0.0016669  -0.3333500), wk =   0.0185185
        k(   56) = (   0.1666917  -0.0016669   0.5000250), wk =   0.0092593
        k(   57) = (   0.3333833  -0.0033339   0.0000000), wk =   0.0092593
        k(   58) = (   0.3333833  -0.0033339  -0.1666750), wk =   0.0185185
        k(   59) = (   0.3333833  -0.0033339  -0.3333500), wk =   0.0185185
        k(   60) = (   0.3333833  -0.0033339   0.5000250), wk =   0.0092593
        k(   61) = (  -0.5000750   0.0050008  -0.0000000), wk =   0.0046296
        k(   62) = (  -0.5000750   0.0050008  -0.1666750), wk =   0.0092593
        k(   63) = (  -0.5000750   0.0050008  -0.3333500), wk =   0.0092593
        k(   64) = (  -0.5000750   0.0050008   0.5000250), wk =   0.0046296
        k(   65) = (   0.3317164   0.1633578   0.0000000), wk =   0.0092593
        k(   66) = (   0.3317164   0.1633578  -0.1666750), wk =   0.0185185
        k(   67) = (   0.3317164   0.1633578  -0.3333500), wk =   0.0185185
        k(   68) = (   0.3317164   0.1633578   0.5000250), wk =   0.0092593
        k(   69) = (  -0.5017419   0.1716924   0.0000000), wk =   0.0092593
        k(   70) = (  -0.5017419   0.1716924  -0.1666750), wk =   0.0185185
        k(   71) = (  -0.5017419   0.1716924  -0.3333500), wk =   0.0185185
        k(   72) = (  -0.5017419   0.1716924   0.5000250), wk =   0.0092593
        k(   73) = (  -0.3350503   0.1700255   0.0000000), wk =   0.0092593
        k(   74) = (  -0.3350503   0.1700255  -0.1666750), wk =   0.0185185
        k(   75) = (  -0.3350503   0.1700255  -0.3333500), wk =   0.0185185
        k(   76) = (  -0.3350503   0.1700255   0.5000250), wk =   0.0092593
        k(   77) = (  -0.5034089   0.3383841   0.0000000), wk =   0.0092593
        k(   78) = (  -0.5034089   0.3383841  -0.1666750), wk =   0.0185185
        k(   79) = (  -0.5034089   0.3383841  -0.3333500), wk =   0.0185185
        k(   80) = (  -0.5034089   0.3383841   0.5000250), wk =   0.0092593

     Dense  grid:   232739 G-vectors     FFT dimensions: (  80,  80,  80)

     Smooth grid:    82259 G-vectors     FFT dimensions: (  54,  54,  54)

     Estimated max dynamical RAM per process >       4.65 GB

     Check: negative core charge=   -0.000003
     Generating pointlists ...
     new r_m :   0.1774 (alat units)  1.9419 (a.u.) for type    1
     new r_m :   0.1774 (alat units)  1.9419 (a.u.) for type    2

     Initial potential from superposition of free atoms

     starting charge     247.9917, renormalised to     248.0000
     Starting wfcs are  160 randomized atomic wfcs
     Checking if some PAW data can be deallocated... 

     total cpu time spent up to now is       57.4 secs

     Self-consistent Calculation

     iteration #  1     ecut=    60.00 Ry     beta= 0.30
     Davidson diagonalization with overlap
     ethr =  1.00E-02,  avg # of iterations =  4.0

     negative rho (up, down):  0.000E+00 6.883E-01

     total cpu time spent up to now is      158.6 secs

     total energy              =   -4934.05085666 Ry
     estimated scf accuracy    <      63.45282832 Ry

     total magnetization       =    50.00 Bohr mag/cell
     absolute magnetization    =    59.11 Bohr mag/cell

     iteration #  2     ecut=    60.00 Ry     beta= 0.30
     Davidson diagonalization with overlap
     ethr =  1.00E-02,  avg # of iterations =  4.8

     negative rho (up, down):  0.000E+00 5.554E-01

     total cpu time spent up to now is      263.8 secs

     total energy              =   -4933.37905848 Ry
     estimated scf accuracy    <      62.93438413 Ry

     total magnetization       =    27.32 Bohr mag/cell
     absolute magnetization    =    29.23 Bohr mag/cell

     iteration #  3     ecut=    60.00 Ry     beta= 0.30
     Davidson diagonalization with overlap
     ethr =  1.00E-02,  avg # of iterations =  3.9

     negative rho (up, down):  0.000E+00 4.300E-01

     total cpu time spent up to now is      365.2 secs

     total energy              =   -4939.21994381 Ry
     estimated scf accuracy    <      29.79161888 Ry

     total magnetization       =    47.23 Bohr mag/cell
     absolute magnetization    =    48.68 Bohr mag/cell

     iteration #  4     ecut=    60.00 Ry     beta= 0.30
     Davidson diagonalization with overlap
     ethr =  1.00E-02,  avg # of iterations =  3.2

     negative rho (up, down):  0.000E+00 3.722E-01

     total cpu time spent up to now is      455.0 secs

     total energy              =   -4941.38256645 Ry
     estimated scf accuracy    <      14.19750959 Ry

     total magnetization       =    36.23 Bohr mag/cell
     absolute magnetization    =    38.14 Bohr mag/cell

     iteration #  5     ecut=    60.00 Ry     beta= 0.30
     Davidson diagonalization with overlap
     ethr =  5.72E-03,  avg # of iterations =  1.9

     negative rho (up, down):  0.000E+00 1.323E-01

     total cpu time spent up to now is      539.7 secs

     total energy              =   -4942.09889335 Ry
     estimated scf accuracy    <       9.83674625 Ry

     total magnetization       =    39.63 Bohr mag/cell
     absolute magnetization    =    40.95 Bohr mag/cell

     iteration #  6     ecut=    60.00 Ry     beta= 0.30
     Davidson diagonalization with overlap
     ethr =  3.97E-03,  avg # of iterations =  3.6

     negative rho (up, down):  0.000E+00 2.848E-02

     total cpu time spent up to now is      634.8 secs

     total energy              =   -4942.94863999 Ry
     estimated scf accuracy    <      19.48583832 Ry

     total magnetization       =    36.18 Bohr mag/cell
     absolute magnetization    =    38.47 Bohr mag/cell

     iteration #  7     ecut=    60.00 Ry     beta= 0.30
     Davidson diagonalization with overlap
     ethr =  3.97E-03,  avg # of iterations =  2.7

     negative rho (up, down):  0.000E+00 3.589E-03

     total cpu time spent up to now is      724.9 secs

     total energy              =   -4943.36672502 Ry
     estimated scf accuracy    <      13.16507895 Ry

     total magnetization       =    37.33 Bohr mag/cell
     absolute magnetization    =    38.89 Bohr mag/cell

     iteration #  8     ecut=    60.00 Ry     beta= 0.30
     Davidson diagonalization with overlap
     ethr =  3.97E-03,  avg # of iterations =  1.1

     negative rho (up, down):  0.000E+00 3.562E-03

     total cpu time spent up to now is      801.7 secs

     total energy              =   -4943.54625469 Ry
     estimated scf accuracy    <       5.05084386 Ry

     total magnetization       =    34.63 Bohr mag/cell
     absolute magnetization    =    36.47 Bohr mag/cell

     iteration #  9     ecut=    60.00 Ry     beta= 0.30
     Davidson diagonalization with overlap
     ethr =  2.04E-03,  avg # of iterations =  1.3

     negative rho (up, down):  0.000E+00 3.604E-03

     total cpu time spent up to now is      877.7 secs

     total energy              =   -4943.59537772 Ry
     estimated scf accuracy    <       2.52981795 Ry

     total magnetization       =    33.21 Bohr mag/cell
     absolute magnetization    =    35.25 Bohr mag/cell

     iteration # 10     ecut=    60.00 Ry     beta= 0.30
     Davidson diagonalization with overlap
     ethr =  1.02E-03,  avg # of iterations =  2.6

     negative rho (up, down):  0.000E+00 3.470E-03

     total cpu time spent up to now is      968.4 secs

     total energy              =   -4943.64773300 Ry
     estimated scf accuracy    <       2.79111013 Ry

     total magnetization       =    31.44 Bohr mag/cell
     absolute magnetization    =    33.73 Bohr mag/cell

     iteration # 11     ecut=    60.00 Ry     beta= 0.30
     Davidson diagonalization with overlap
     ethr =  1.02E-03,  avg # of iterations =  1.3

     negative rho (up, down):  0.000E+00 3.285E-03

     total cpu time spent up to now is     1046.7 secs

     total energy              =   -4943.72458015 Ry
     estimated scf accuracy    <       0.39502317 Ry

     total magnetization       =    28.53 Bohr mag/cell
     absolute magnetization    =    31.29 Bohr mag/cell

     iteration # 12     ecut=    60.00 Ry     beta= 0.30
     Davidson diagonalization with overlap
     c_bands:  1 eigenvalues not converged
     ethr =  1.59E-04,  avg # of iterations =  6.2

     negative rho (up, down):  0.000E+00 2.804E-03

     total cpu time spent up to now is     1156.7 secs

     total energy              =   -4943.75452002 Ry
     estimated scf accuracy    <       0.52852875 Ry

     total magnetization       =    27.20 Bohr mag/cell
     absolute magnetization    =    30.50 Bohr mag/cell

     iteration # 13     ecut=    60.00 Ry     beta= 0.30
     Davidson diagonalization with overlap
     ethr =  1.59E-04,  avg # of iterations =  1.8

     negative rho (up, down):  0.000E+00 2.557E-03

     total cpu time spent up to now is     1238.6 secs

     total energy              =   -4943.79921337 Ry
     estimated scf accuracy    <       0.33927655 Ry

     total magnetization       =    26.61 Bohr mag/cell
     absolute magnetization    =    29.47 Bohr mag/cell

     iteration # 14     ecut=    60.00 Ry     beta= 0.30
     Davidson diagonalization with overlap
     ethr =  1.37E-04,  avg # of iterations =  1.5

     negative rho (up, down):  0.000E+00 2.363E-03

     total cpu time spent up to now is     1320.2 secs

     total energy              =   -4943.80264541 Ry
     estimated scf accuracy    <       0.28113821 Ry

     total magnetization       =    26.41 Bohr mag/cell
     absolute magnetization    =    29.37 Bohr mag/cell

     iteration # 15     ecut=    60.00 Ry     beta= 0.30
     Davidson diagonalization with overlap
     ethr =  1.13E-04,  avg # of iterations =  1.3

     negative rho (up, down):  0.000E+00 2.083E-03

     total cpu time spent up to now is     1397.4 secs

     total energy              =   -4943.81710967 Ry
     estimated scf accuracy    <       0.13428991 Ry

     total magnetization       =    26.09 Bohr mag/cell
     absolute magnetization    =    29.38 Bohr mag/cell

     iteration # 16     ecut=    60.00 Ry     beta= 0.30
     Davidson diagonalization with overlap
     ethr =  5.41E-05,  avg # of iterations =  2.5

     negative rho (up, down):  0.000E+00 1.454E-03

     total cpu time spent up to now is     1484.3 secs

     total energy              =   -4943.83535150 Ry
     estimated scf accuracy    <       0.16121846 Ry

     total magnetization       =    24.98 Bohr mag/cell
     absolute magnetization    =    28.55 Bohr mag/cell

     iteration # 17     ecut=    60.00 Ry     beta= 0.30
     Davidson diagonalization with overlap
     ethr =  5.41E-05,  avg # of iterations =  1.6

     negative rho (up, down):  0.000E+00 1.409E-03

     total cpu time spent up to now is     1567.1 secs

     total energy              =   -4943.84345473 Ry
     estimated scf accuracy    <       0.07553930 Ry

     total magnetization       =    24.44 Bohr mag/cell
     absolute magnetization    =    28.59 Bohr mag/cell

     iteration # 18     ecut=    60.00 Ry     beta= 0.30
     Davidson diagonalization with overlap
     c_bands:  2 eigenvalues not converged
     ethr =  3.05E-05,  avg # of iterations =  2.5

     negative rho (up, down):  0.000E+00 1.337E-03

     total cpu time spent up to now is     1652.9 secs

     total energy              =   -4943.84776172 Ry
     estimated scf accuracy    <       0.02398625 Ry

     total magnetization       =    24.21 Bohr mag/cell
     absolute magnetization    =    28.48 Bohr mag/cell

     iteration # 19     ecut=    60.00 Ry     beta= 0.30
     Davidson diagonalization with overlap
     c_bands:  2 eigenvalues not converged
     c_bands:  1 eigenvalues not converged
     c_bands:  1 eigenvalues not converged
     ethr =  9.67E-06,  avg # of iterations =  5.4

     negative rho (up, down):  0.000E+00 1.207E-03

     total cpu time spent up to now is     1758.7 secs

     total energy              =   -4943.85105966 Ry
     estimated scf accuracy    <       0.01687589 Ry

     total magnetization       =    24.05 Bohr mag/cell
     absolute magnetization    =    28.52 Bohr mag/cell

     iteration # 20     ecut=    60.00 Ry     beta= 0.30
     Davidson diagonalization with overlap
     c_bands:  1 eigenvalues not converged
     ethr =  6.80E-06,  avg # of iterations =  2.9

     negative rho (up, down):  0.000E+00 1.134E-03

     total cpu time spent up to now is     1853.4 secs

     total energy              =   -4943.85361263 Ry
     estimated scf accuracy    <       0.01043837 Ry

     total magnetization       =    23.85 Bohr mag/cell
     absolute magnetization    =    28.69 Bohr mag/cell

     iteration # 21     ecut=    60.00 Ry     beta= 0.30
     Davidson diagonalization with overlap
     c_bands:  1 eigenvalues not converged
     c_bands:  3 eigenvalues not converged
     c_bands:  1 eigenvalues not converged
     c_bands:  2 eigenvalues not converged
     c_bands:  1 eigenvalues not converged
     c_bands:  1 eigenvalues not converged
     ethr =  4.21E-06,  avg # of iterations =  5.4

     negative rho (up, down):  0.000E+00 1.096E-03

     total cpu time spent up to now is     1958.7 secs

     total energy              =   -4943.85484182 Ry
     estimated scf accuracy    <       0.00560101 Ry

     total magnetization       =    23.68 Bohr mag/cell
     absolute magnetization    =    28.79 Bohr mag/cell

     iteration # 22     ecut=    60.00 Ry     beta= 0.30
     Davidson diagonalization with overlap
     c_bands:  1 eigenvalues not converged
     c_bands:  1 eigenvalues not converged
     c_bands:  1 eigenvalues not converged
     c_bands:  1 eigenvalues not converged
     c_bands:  1 eigenvalues not converged
     ethr =  2.26E-06,  avg # of iterations =  6.3

     negative rho (up, down):  0.000E+00 1.099E-03

     total cpu time spent up to now is     2071.5 secs

     total energy              =   -4943.85677483 Ry
     estimated scf accuracy    <       0.01285979 Ry

     total magnetization       =    23.56 Bohr mag/cell
     absolute magnetization    =    28.92 Bohr mag/cell

     iteration # 23     ecut=    60.00 Ry     beta= 0.30
     Davidson diagonalization with overlap
     ethr =  2.26E-06,  avg # of iterations =  4.0

     negative rho (up, down):  0.000E+00 1.050E-03

     total cpu time spent up to now is     2168.9 secs

     total energy              =   -4943.85897687 Ry
     estimated scf accuracy    <       0.01044978 Ry

     total magnetization       =    23.48 Bohr mag/cell
     absolute magnetization    =    29.21 Bohr mag/cell

     iteration # 24     ecut=    60.00 Ry     beta= 0.30
     Davidson diagonalization with overlap
     c_bands:  1 eigenvalues not converged
     c_bands:  1 eigenvalues not converged
     ethr =  2.26E-06,  avg # of iterations =  5.4

     negative rho (up, down):  0.000E+00 1.006E-03

     total cpu time spent up to now is     2277.1 secs

     total energy              =   -4943.85972111 Ry
     estimated scf accuracy    <       0.00687607 Ry

     total magnetization       =    23.22 Bohr mag/cell
     absolute magnetization    =    29.63 Bohr mag/cell

     iteration # 25     ecut=    60.00 Ry     beta= 0.30
     Davidson diagonalization with overlap
     ethr =  2.26E-06,  avg # of iterations =  2.1

     negative rho (up, down):  0.000E+00 1.007E-03

     total cpu time spent up to now is     2358.4 secs

     total energy              =   -4943.86054974 Ry
     estimated scf accuracy    <       0.00722667 Ry

     total magnetization       =    23.16 Bohr mag/cell
     absolute magnetization    =    29.54 Bohr mag/cell

     iteration # 26     ecut=    60.00 Ry     beta= 0.30
     Davidson diagonalization with overlap
     c_bands:  1 eigenvalues not converged
     ethr =  2.26E-06,  avg # of iterations =  2.2

     negative rho (up, down):  0.000E+00 1.030E-03

     total cpu time spent up to now is     2446.0 secs

     total energy              =   -4943.86208761 Ry
     estimated scf accuracy    <       0.00645091 Ry

     total magnetization       =    23.08 Bohr mag/cell
     absolute magnetization    =    29.73 Bohr mag/cell

     iteration # 27     ecut=    60.00 Ry     beta= 0.30
     Davidson diagonalization with overlap
     ethr =  2.26E-06,  avg # of iterations =  3.5

     negative rho (up, down):  0.000E+00 1.035E-03

     total cpu time spent up to now is     2540.1 secs

     total energy              =   -4943.86326936 Ry
     estimated scf accuracy    <       0.00737814 Ry

     total magnetization       =    23.03 Bohr mag/cell
     absolute magnetization    =    30.08 Bohr mag/cell

     iteration # 28     ecut=    60.00 Ry     beta= 0.30
     Davidson diagonalization with overlap
     ethr =  2.26E-06,  avg # of iterations =  2.8

     negative rho (up, down):  0.000E+00 1.053E-03

     total cpu time spent up to now is     2627.0 secs

     total energy              =   -4943.86415412 Ry
     estimated scf accuracy    <       0.00272516 Ry

     total magnetization       =    22.82 Bohr mag/cell
     absolute magnetization    =    30.32 Bohr mag/cell

     iteration # 29     ecut=    60.00 Ry     beta= 0.30
     Davidson diagonalization with overlap
     ethr =  1.10E-06,  avg # of iterations =  3.9

     negative rho (up, down):  0.000E+00 1.104E-03

     total cpu time spent up to now is     2721.0 secs

     total energy              =   -4943.86509393 Ry
     estimated scf accuracy    <       0.00458091 Ry

     total magnetization       =    22.74 Bohr mag/cell
     absolute magnetization    =    30.42 Bohr mag/cell

     iteration # 30     ecut=    60.00 Ry     beta= 0.30
     Davidson diagonalization with overlap
     ethr =  1.10E-06,  avg # of iterations =  7.1

     negative rho (up, down):  0.000E+00 1.116E-03

     total cpu time spent up to now is     2843.1 secs

     total energy              =   -4943.86796693 Ry
     estimated scf accuracy    <       0.00416170 Ry

     total magnetization       =    22.38 Bohr mag/cell
     absolute magnetization    =    31.26 Bohr mag/cell

     iteration # 31     ecut=    60.00 Ry     beta= 0.30
     Davidson diagonalization with overlap
     ethr =  1.10E-06,  avg # of iterations =  2.0

     negative rho (up, down):  0.000E+00 1.183E-03

     total cpu time spent up to now is     2925.4 secs

     total energy              =   -4943.86901916 Ry
     estimated scf accuracy    <       0.00166028 Ry

     total magnetization       =    22.23 Bohr mag/cell
     absolute magnetization    =    31.50 Bohr mag/cell

     iteration # 32     ecut=    60.00 Ry     beta= 0.30
     Davidson diagonalization with overlap
     ethr =  6.69E-07,  avg # of iterations =  5.6

     negative rho (up, down):  0.000E+00 1.207E-03

     total cpu time spent up to now is     3038.4 secs

     total energy              =   -4943.87053201 Ry
     estimated scf accuracy    <       0.00346554 Ry

     total magnetization       =    21.94 Bohr mag/cell
     absolute magnetization    =    32.07 Bohr mag/cell

     iteration # 33     ecut=    60.00 Ry     beta= 0.30
     Davidson diagonalization with overlap
     ethr =  6.69E-07,  avg # of iterations =  5.2

     negative rho (up, down):  0.000E+00 1.277E-03

     total cpu time spent up to now is     3142.0 secs

     total energy              =   -4943.87082878 Ry
     estimated scf accuracy    <       0.00382652 Ry

     total magnetization       =    21.77 Bohr mag/cell
     absolute magnetization    =    32.39 Bohr mag/cell

     iteration # 34     ecut=    60.00 Ry     beta= 0.30
     Davidson diagonalization with overlap
     ethr =  6.69E-07,  avg # of iterations =  6.6

     negative rho (up, down):  0.000E+00 1.227E-03

     total cpu time spent up to now is     3262.1 secs

     total energy              =   -4943.86926593 Ry
     estimated scf accuracy    <       0.00144655 Ry

     total magnetization       =    21.38 Bohr mag/cell
     absolute magnetization    =    33.08 Bohr mag/cell

     iteration # 35     ecut=    60.00 Ry     beta= 0.30
     Davidson diagonalization with overlap
     ethr =  5.83E-07,  avg # of iterations =  5.8

     negative rho (up, down):  0.000E+00 1.338E-03

     total cpu time spent up to now is     3379.7 secs

     total energy              =   -4943.86937261 Ry
     estimated scf accuracy    <       0.01132566 Ry

     total magnetization       =    21.79 Bohr mag/cell
     absolute magnetization    =    32.35 Bohr mag/cell

     iteration # 36     ecut=    60.00 Ry     beta= 0.30
     Davidson diagonalization with overlap
     ethr =  5.83E-07,  avg # of iterations =  6.2

     negative rho (up, down):  0.000E+00 1.389E-03

     total cpu time spent up to now is     3502.2 secs

     total energy              =   -4943.87332474 Ry
     estimated scf accuracy    <       0.00425622 Ry

     total magnetization       =    21.20 Bohr mag/cell
     absolute magnetization    =    33.39 Bohr mag/cell

     iteration # 37     ecut=    60.00 Ry     beta= 0.30
     Davidson diagonalization with overlap
     ethr =  5.83E-07,  avg # of iterations =  4.4

     negative rho (up, down):  0.000E+00 1.402E-03

     total cpu time spent up to now is     3604.5 secs

     total energy              =   -4943.87373851 Ry
     estimated scf accuracy    <       0.00104020 Ry

     total magnetization       =    20.92 Bohr mag/cell
     absolute magnetization    =    33.79 Bohr mag/cell

     iteration # 38     ecut=    60.00 Ry     beta= 0.30
     Davidson diagonalization with overlap
     ethr =  4.19E-07,  avg # of iterations =  4.8

     negative rho (up, down):  0.000E+00 1.395E-03

     total cpu time spent up to now is     3710.1 secs

     total energy              =   -4943.87413926 Ry
     estimated scf accuracy    <       0.00342704 Ry

     total magnetization       =    20.80 Bohr mag/cell
     absolute magnetization    =    34.14 Bohr mag/cell

     iteration # 39     ecut=    60.00 Ry     beta= 0.30
     Davidson diagonalization with overlap
     ethr =  4.19E-07,  avg # of iterations =  2.8

     negative rho (up, down):  0.000E+00 1.364E-03

     total cpu time spent up to now is     3802.5 secs

     total energy              =   -4943.87361813 Ry
     estimated scf accuracy    <       0.00232393 Ry

     total magnetization       =    20.79 Bohr mag/cell
     absolute magnetization    =    34.01 Bohr mag/cell

     iteration # 40     ecut=    60.00 Ry     beta= 0.30
     Davidson diagonalization with overlap
     ethr =  4.19E-07,  avg # of iterations =  5.2

     negative rho (up, down):  0.000E+00 1.407E-03

     total cpu time spent up to now is     3909.4 secs

     total energy              =   -4943.87364495 Ry
     estimated scf accuracy    <       0.00231047 Ry

     total magnetization       =    20.98 Bohr mag/cell
     absolute magnetization    =    33.70 Bohr mag/cell

     iteration # 41     ecut=    60.00 Ry     beta= 0.30
     Davidson diagonalization with overlap
     ethr =  4.19E-07,  avg # of iterations =  4.8

     negative rho (up, down):  0.000E+00 1.397E-03

     total cpu time spent up to now is     4016.8 secs

     total energy              =   -4943.87436858 Ry
     estimated scf accuracy    <       0.00030627 Ry

     total magnetization       =    20.73 Bohr mag/cell
     absolute magnetization    =    34.11 Bohr mag/cell

     iteration # 42     ecut=    60.00 Ry     beta= 0.30
     Davidson diagonalization with overlap
     ethr =  1.23E-07,  avg # of iterations =  4.0

     negative rho (up, down):  0.000E+00 1.398E-03

     total cpu time spent up to now is     4111.7 secs

     total energy              =   -4943.87439989 Ry
     estimated scf accuracy    <       0.00060502 Ry

     total magnetization       =    20.79 Bohr mag/cell
     absolute magnetization    =    34.05 Bohr mag/cell

     iteration # 43     ecut=    60.00 Ry     beta= 0.30
     Davidson diagonalization with overlap
     ethr =  1.23E-07,  avg # of iterations =  2.1

     negative rho (up, down):  0.000E+00 1.387E-03

     total cpu time spent up to now is     4196.9 secs

     total energy              =   -4943.87439030 Ry
     estimated scf accuracy    <       0.00037071 Ry

     total magnetization       =    20.76 Bohr mag/cell
     absolute magnetization    =    34.08 Bohr mag/cell

     iteration # 44     ecut=    60.00 Ry     beta= 0.30
     Davidson diagonalization with overlap
     ethr =  1.23E-07,  avg # of iterations =  2.2

     negative rho (up, down):  0.000E+00 1.399E-03

     total cpu time spent up to now is     4282.4 secs

     total energy              =   -4943.87428150 Ry
     estimated scf accuracy    <       0.00036552 Ry

     total magnetization       =    20.79 Bohr mag/cell
     absolute magnetization    =    34.03 Bohr mag/cell

     iteration # 45     ecut=    60.00 Ry     beta= 0.30
     Davidson diagonalization with overlap
     ethr =  1.23E-07,  avg # of iterations =  4.8

     negative rho (up, down):  0.000E+00 1.393E-03

     total cpu time spent up to now is     4388.4 secs

     total energy              =   -4943.87450293 Ry
     estimated scf accuracy    <       0.00009016 Ry

     total magnetization       =    20.65 Bohr mag/cell
     absolute magnetization    =    34.23 Bohr mag/cell

     iteration # 46     ecut=    60.00 Ry     beta= 0.30
     Davidson diagonalization with overlap
     c_bands:  1 eigenvalues not converged
     ethr =  3.64E-08,  avg # of iterations =  5.4

     negative rho (up, down):  0.000E+00 1.390E-03

     total cpu time spent up to now is     4493.8 secs

     total energy              =   -4943.87448265 Ry
     estimated scf accuracy    <       0.00073287 Ry

     total magnetization       =    20.66 Bohr mag/cell
     absolute magnetization    =    34.19 Bohr mag/cell

     iteration # 47     ecut=    60.00 Ry     beta= 0.30
     Davidson diagonalization with overlap
     ethr =  3.64E-08,  avg # of iterations =  5.3

     negative rho (up, down):  0.000E+00 1.389E-03

     total cpu time spent up to now is     4599.4 secs

     total energy              =   -4943.87450729 Ry
     estimated scf accuracy    <       0.00051611 Ry

     total magnetization       =    20.68 Bohr mag/cell
     absolute magnetization    =    34.19 Bohr mag/cell

     iteration # 48     ecut=    60.00 Ry     beta= 0.30
     Davidson diagonalization with overlap
     ethr =  3.64E-08,  avg # of iterations =  3.6

     negative rho (up, down):  0.000E+00 1.387E-03

     total cpu time spent up to now is     4692.8 secs

     total energy              =   -4943.87452903 Ry
     estimated scf accuracy    <       0.00007027 Ry

     total magnetization       =    20.65 Bohr mag/cell
     absolute magnetization    =    34.21 Bohr mag/cell

     iteration # 49     ecut=    60.00 Ry     beta= 0.30
     Davidson diagonalization with overlap
     ethr =  2.83E-08,  avg # of iterations =  4.0

     negative rho (up, down):  0.000E+00 1.386E-03

     total cpu time spent up to now is     4788.6 secs

     total energy              =   -4943.87454427 Ry
     estimated scf accuracy    <       0.00008083 Ry

     total magnetization       =    20.63 Bohr mag/cell
     absolute magnetization    =    34.25 Bohr mag/cell

     iteration # 50     ecut=    60.00 Ry     beta= 0.30
     Davidson diagonalization with overlap
     ethr =  2.83E-08,  avg # of iterations =  2.7

     negative rho (up, down):  0.000E+00 1.373E-03

     total cpu time spent up to now is     4874.2 secs

     total energy              =   -4943.87456218 Ry
     estimated scf accuracy    <       0.00002789 Ry

     total magnetization       =    20.63 Bohr mag/cell
     absolute magnetization    =    34.25 Bohr mag/cell

     iteration # 51     ecut=    60.00 Ry     beta= 0.30
     Davidson diagonalization with overlap
     ethr =  1.12E-08,  avg # of iterations =  6.0

     negative rho (up, down):  0.000E+00 1.373E-03

     total cpu time spent up to now is     4990.3 secs

     total energy              =   -4943.87458105 Ry
     estimated scf accuracy    <       0.00003368 Ry

     total magnetization       =    20.63 Bohr mag/cell
     absolute magnetization    =    34.24 Bohr mag/cell

     iteration # 52     ecut=    60.00 Ry     beta= 0.30
     Davidson diagonalization with overlap
     ethr =  1.12E-08,  avg # of iterations =  1.1

     negative rho (up, down):  0.000E+00 1.373E-03

     total cpu time spent up to now is     5070.3 secs

     total energy              =   -4943.87458218 Ry
     estimated scf accuracy    <       0.00001520 Ry

     total magnetization       =    20.63 Bohr mag/cell
     absolute magnetization    =    34.24 Bohr mag/cell

     iteration # 53     ecut=    60.00 Ry     beta= 0.30
     Davidson diagonalization with overlap
     ethr =  6.13E-09,  avg # of iterations =  3.0

     negative rho (up, down):  0.000E+00 1.372E-03

     total cpu time spent up to now is     5159.1 secs

     total energy              =   -4943.87458577 Ry
     estimated scf accuracy    <       0.00005409 Ry

     total magnetization       =    20.63 Bohr mag/cell
     absolute magnetization    =    34.24 Bohr mag/cell

     iteration # 54     ecut=    60.00 Ry     beta= 0.30
     Davidson diagonalization with overlap
     ethr =  6.13E-09,  avg # of iterations =  3.9

     negative rho (up, down):  0.000E+00 1.369E-03

     total cpu time spent up to now is     5253.8 secs

     total energy              =   -4943.87459354 Ry
     estimated scf accuracy    <       0.00002632 Ry

     total magnetization       =    20.65 Bohr mag/cell
     absolute magnetization    =    34.22 Bohr mag/cell

     iteration # 55     ecut=    60.00 Ry     beta= 0.30
     Davidson diagonalization with overlap
     ethr =  6.13E-09,  avg # of iterations =  4.0

     negative rho (up, down):  0.000E+00 1.370E-03

     total cpu time spent up to now is     5351.0 secs

     total energy              =   -4943.87459876 Ry
     estimated scf accuracy    <       0.00001206 Ry

     total magnetization       =    20.64 Bohr mag/cell
     absolute magnetization    =    34.22 Bohr mag/cell

     iteration # 56     ecut=    60.00 Ry     beta= 0.30
     Davidson diagonalization with overlap
     ethr =  4.86E-09,  avg # of iterations =  3.1

     negative rho (up, down):  0.000E+00 1.369E-03

     total cpu time spent up to now is     5438.8 secs

     total energy              =   -4943.87460214 Ry
     estimated scf accuracy    <       0.00001802 Ry

     total magnetization       =    20.64 Bohr mag/cell
     absolute magnetization    =    34.22 Bohr mag/cell

     iteration # 57     ecut=    60.00 Ry     beta= 0.30
     Davidson diagonalization with overlap
     ethr =  4.86E-09,  avg # of iterations =  3.0

     negative rho (up, down):  0.000E+00 1.367E-03

     total cpu time spent up to now is     5531.3 secs

     total energy              =   -4943.87460530 Ry
     estimated scf accuracy    <       0.00002241 Ry

     total magnetization       =    20.64 Bohr mag/cell
     absolute magnetization    =    34.21 Bohr mag/cell

     iteration # 58     ecut=    60.00 Ry     beta= 0.30
     Davidson diagonalization with overlap
     ethr =  4.86E-09,  avg # of iterations =  5.9

     negative rho (up, down):  0.000E+00 1.370E-03

     total cpu time spent up to now is     5637.9 secs

     total energy              =   -4943.87461305 Ry
     estimated scf accuracy    <       0.00002065 Ry

     total magnetization       =    20.65 Bohr mag/cell
     absolute magnetization    =    34.21 Bohr mag/cell

     iteration # 59     ecut=    60.00 Ry     beta= 0.30
     Davidson diagonalization with overlap
     ethr =  4.86E-09,  avg # of iterations =  4.4

     negative rho (up, down):  0.000E+00 1.367E-03

     total cpu time spent up to now is     5735.4 secs

     total energy              =   -4943.87461481 Ry
     estimated scf accuracy    <       0.00003488 Ry

     total magnetization       =    20.65 Bohr mag/cell
     absolute magnetization    =    34.20 Bohr mag/cell

     iteration # 60     ecut=    60.00 Ry     beta= 0.30
     Davidson diagonalization with overlap
     ethr =  4.86E-09,  avg # of iterations =  2.5

     negative rho (up, down):  0.000E+00 1.368E-03

     total cpu time spent up to now is     5821.4 secs

     total energy              =   -4943.87461299 Ry
     estimated scf accuracy    <       0.00001017 Ry

     total magnetization       =    20.66 Bohr mag/cell
     absolute magnetization    =    34.20 Bohr mag/cell

     iteration # 61     ecut=    60.00 Ry     beta= 0.30
     Davidson diagonalization with overlap
     ethr =  4.10E-09,  avg # of iterations =  3.6

     negative rho (up, down):  0.000E+00 1.369E-03

     total cpu time spent up to now is     5912.9 secs

     total energy              =   -4943.87461488 Ry
     estimated scf accuracy    <       0.00002914 Ry

     total magnetization       =    20.66 Bohr mag/cell
     absolute magnetization    =    34.20 Bohr mag/cell

     iteration # 62     ecut=    60.00 Ry     beta= 0.30
     Davidson diagonalization with overlap
     ethr =  4.10E-09,  avg # of iterations =  3.0

     negative rho (up, down):  0.000E+00 1.368E-03

     total cpu time spent up to now is     6001.8 secs

     total energy              =   -4943.87460501 Ry
     estimated scf accuracy    <       0.00002203 Ry

     total magnetization       =    20.65 Bohr mag/cell
     absolute magnetization    =    34.20 Bohr mag/cell

     iteration # 63     ecut=    60.00 Ry     beta= 0.30
     Davidson diagonalization with overlap
     ethr =  4.10E-09,  avg # of iterations =  6.2

     negative rho (up, down):  0.000E+00 1.369E-03

     total cpu time spent up to now is     6126.2 secs

     total energy              =   -4943.87462381 Ry
     estimated scf accuracy    <       0.00000289 Ry

     total magnetization       =    20.66 Bohr mag/cell
     absolute magnetization    =    34.18 Bohr mag/cell

     iteration # 64     ecut=    60.00 Ry     beta= 0.30
     Davidson diagonalization with overlap
     ethr =  1.17E-09,  avg # of iterations =  4.3

     negative rho (up, down):  0.000E+00 1.369E-03

     total cpu time spent up to now is     6224.1 secs

     total energy              =   -4943.87462428 Ry
     estimated scf accuracy    <       0.00001309 Ry

     total magnetization       =    20.66 Bohr mag/cell
     absolute magnetization    =    34.18 Bohr mag/cell

     iteration # 65     ecut=    60.00 Ry     beta= 0.30
     Davidson diagonalization with overlap
     ethr =  1.17E-09,  avg # of iterations =  4.2

     negative rho (up, down):  0.000E+00 1.369E-03

     total cpu time spent up to now is     6321.5 secs

     total energy              =   -4943.87462251 Ry
     estimated scf accuracy    <       0.00000910 Ry

     total magnetization       =    20.66 Bohr mag/cell
     absolute magnetization    =    34.18 Bohr mag/cell

     iteration # 66     ecut=    60.00 Ry     beta= 0.30
     Davidson diagonalization with overlap
     ethr =  1.17E-09,  avg # of iterations =  5.8

     negative rho (up, down):  0.000E+00 1.369E-03

     total cpu time spent up to now is     6434.8 secs

     total energy              =   -4943.87462665 Ry
     estimated scf accuracy    <       0.00000306 Ry

     total magnetization       =    20.67 Bohr mag/cell
     absolute magnetization    =    34.18 Bohr mag/cell

     iteration # 67     ecut=    60.00 Ry     beta= 0.30
     Davidson diagonalization with overlap
     ethr =  1.17E-09,  avg # of iterations =  1.0

     negative rho (up, down):  0.000E+00 1.370E-03

     total cpu time spent up to now is     6510.0 secs

     total energy              =   -4943.87462701 Ry
     estimated scf accuracy    <       0.00000183 Ry

     total magnetization       =    20.67 Bohr mag/cell
     absolute magnetization    =    34.18 Bohr mag/cell

     iteration # 68     ecut=    60.00 Ry     beta= 0.30
     Davidson diagonalization with overlap
     ethr =  7.38E-10,  avg # of iterations =  3.6

     negative rho (up, down):  0.000E+00 1.371E-03

     total cpu time spent up to now is     6604.0 secs

     total energy              =   -4943.87462737 Ry
     estimated scf accuracy    <       0.00000460 Ry

     total magnetization       =    20.67 Bohr mag/cell
     absolute magnetization    =    34.18 Bohr mag/cell

     iteration # 69     ecut=    60.00 Ry     beta= 0.30
     Davidson diagonalization with overlap
     ethr =  7.38E-10,  avg # of iterations =  5.3

     negative rho (up, down):  0.000E+00 1.371E-03

     total cpu time spent up to now is     6711.9 secs

     total energy              =   -4943.87462748 Ry
     estimated scf accuracy    <       0.00000403 Ry

     total magnetization       =    20.67 Bohr mag/cell
     absolute magnetization    =    34.18 Bohr mag/cell

     iteration # 70     ecut=    60.00 Ry     beta= 0.30
     Davidson diagonalization with overlap
     ethr =  7.38E-10,  avg # of iterations =  5.0

     negative rho (up, down):  0.000E+00 1.371E-03

     total cpu time spent up to now is     6818.2 secs

     total energy              =   -4943.87462808 Ry
     estimated scf accuracy    <       0.00000090 Ry

     total magnetization       =    20.67 Bohr mag/cell
     absolute magnetization    =    34.18 Bohr mag/cell

     iteration # 71     ecut=    60.00 Ry     beta= 0.30
     Davidson diagonalization with overlap
     ethr =  3.61E-10,  avg # of iterations =  5.3

     negative rho (up, down):  0.000E+00 1.372E-03

     total cpu time spent up to now is     6927.0 secs

     total energy              =   -4943.87462796 Ry
     estimated scf accuracy    <       0.00000382 Ry

     total magnetization       =    20.67 Bohr mag/cell
     absolute magnetization    =    34.18 Bohr mag/cell

     iteration # 72     ecut=    60.00 Ry     beta= 0.30
     Davidson diagonalization with overlap
     ethr =  3.61E-10,  avg # of iterations =  5.5

     negative rho (up, down):  0.000E+00 1.372E-03

     total cpu time spent up to now is     7043.7 secs

     total energy              =   -4943.87462777 Ry
     estimated scf accuracy    <       0.00000384 Ry

     total magnetization       =    20.66 Bohr mag/cell
     absolute magnetization    =    34.18 Bohr mag/cell

     iteration # 73     ecut=    60.00 Ry     beta= 0.30
     Davidson diagonalization with overlap
     ethr =  3.61E-10,  avg # of iterations =  5.5

     negative rho (up, down):  0.000E+00 1.372E-03

     total cpu time spent up to now is     7157.5 secs

     total energy              =   -4943.87462865 Ry
     estimated scf accuracy    <       0.00000054 Ry

     total magnetization       =    20.67 Bohr mag/cell
     absolute magnetization    =    34.18 Bohr mag/cell

     iteration # 74     ecut=    60.00 Ry     beta= 0.30
     Davidson diagonalization with overlap
     ethr =  2.16E-10,  avg # of iterations =  4.4

     negative rho (up, down):  0.000E+00 1.372E-03

     total cpu time spent up to now is     7256.0 secs

     total energy              =   -4943.87462858 Ry
     estimated scf accuracy    <       0.00000257 Ry

     total magnetization       =    20.66 Bohr mag/cell
     absolute magnetization    =    34.18 Bohr mag/cell

     iteration # 75     ecut=    60.00 Ry     beta= 0.30
     Davidson diagonalization with overlap
     ethr =  2.16E-10,  avg # of iterations =  4.0

     negative rho (up, down):  0.000E+00 1.372E-03

     total cpu time spent up to now is     7354.7 secs

     total energy              =   -4943.87462863 Ry
     estimated scf accuracy    <       0.00000094 Ry

     total magnetization       =    20.66 Bohr mag/cell
     absolute magnetization    =    34.19 Bohr mag/cell

     iteration # 76     ecut=    60.00 Ry     beta= 0.30
     Davidson diagonalization with overlap
     ethr =  2.16E-10,  avg # of iterations =  4.6

     negative rho (up, down):  0.000E+00 1.373E-03

     total cpu time spent up to now is     7457.8 secs

     total energy              =   -4943.87462855 Ry
     estimated scf accuracy    <       0.00000106 Ry

     total magnetization       =    20.66 Bohr mag/cell
     absolute magnetization    =    34.19 Bohr mag/cell

     iteration # 77     ecut=    60.00 Ry     beta= 0.30
     Davidson diagonalization with overlap
     ethr =  2.16E-10,  avg # of iterations =  5.5

     negative rho (up, down):  0.000E+00 1.373E-03

     total cpu time spent up to now is     7566.6 secs

     total energy              =   -4943.87462899 Ry
     estimated scf accuracy    <       0.00000081 Ry

     total magnetization       =    20.66 Bohr mag/cell
     absolute magnetization    =    34.19 Bohr mag/cell

     iteration # 78     ecut=    60.00 Ry     beta= 0.30
     Davidson diagonalization with overlap
     ethr =  2.16E-10,  avg # of iterations =  1.5

     negative rho (up, down):  0.000E+00 1.373E-03

     total cpu time spent up to now is     7647.4 secs

     total energy              =   -4943.87462903 Ry
     estimated scf accuracy    <       0.00000027 Ry

     total magnetization       =    20.66 Bohr mag/cell
     absolute magnetization    =    34.19 Bohr mag/cell

     iteration # 79     ecut=    60.00 Ry     beta= 0.30
     Davidson diagonalization with overlap
     ethr =  1.10E-10,  avg # of iterations =  4.0

     negative rho (up, down):  0.000E+00 1.373E-03

     total cpu time spent up to now is     7742.0 secs

     total energy              =   -4943.87462909 Ry
     estimated scf accuracy    <       0.00000064 Ry

     total magnetization       =    20.66 Bohr mag/cell
     absolute magnetization    =    34.19 Bohr mag/cell

     iteration # 80     ecut=    60.00 Ry     beta= 0.30
     Davidson diagonalization with overlap
     ethr =  1.10E-10,  avg # of iterations =  3.5

     negative rho (up, down):  0.000E+00 1.373E-03

     total cpu time spent up to now is     7833.2 secs

     total energy              =   -4943.87462915 Ry
     estimated scf accuracy    <       0.00000060 Ry

     total magnetization       =    20.66 Bohr mag/cell
     absolute magnetization    =    34.19 Bohr mag/cell

     iteration # 81     ecut=    60.00 Ry     beta= 0.30
     Davidson diagonalization with overlap
     ethr =  1.10E-10,  avg # of iterations =  3.1

     negative rho (up, down):  0.000E+00 1.373E-03

     total cpu time spent up to now is     7895.7 secs

     total energy              =   -4943.87462915 Ry
     estimated scf accuracy    <       0.00000045 Ry

     total magnetization       =    20.66 Bohr mag/cell
     absolute magnetization    =    34.19 Bohr mag/cell

     iteration # 82     ecut=    60.00 Ry     beta= 0.30
     Davidson diagonalization with overlap
     ethr =  1.10E-10,  avg # of iterations =  2.6

     negative rho (up, down):  0.000E+00 1.373E-03

     total cpu time spent up to now is     7938.9 secs

     total energy              =   -4943.87462912 Ry
     estimated scf accuracy    <       0.00000028 Ry

     total magnetization       =    20.66 Bohr mag/cell
     absolute magnetization    =    34.20 Bohr mag/cell

     iteration # 83     ecut=    60.00 Ry     beta= 0.30
     Davidson diagonalization with overlap
     ethr =  1.10E-10,  avg # of iterations =  2.1

     negative rho (up, down):  0.000E+00 1.373E-03

     total cpu time spent up to now is     7980.4 secs

     total energy              =   -4943.87462920 Ry
     estimated scf accuracy    <       0.00000014 Ry

     total magnetization       =    20.66 Bohr mag/cell
     absolute magnetization    =    34.19 Bohr mag/cell

     iteration # 84     ecut=    60.00 Ry     beta= 0.30
     Davidson diagonalization with overlap
     ethr =  5.45E-11,  avg # of iterations =  5.4

     negative rho (up, down):  0.000E+00 1.373E-03

     total cpu time spent up to now is     8031.1 secs

     total energy              =   -4943.87462928 Ry
     estimated scf accuracy    <       0.00000026 Ry

     total magnetization       =    20.66 Bohr mag/cell
     absolute magnetization    =    34.20 Bohr mag/cell

     iteration # 85     ecut=    60.00 Ry     beta= 0.30
     Davidson diagonalization with overlap
     ethr =  5.45E-11,  avg # of iterations =  4.0

     negative rho (up, down):  0.000E+00 1.373E-03

     total cpu time spent up to now is     8075.8 secs

     total energy              =   -4943.87462930 Ry
     estimated scf accuracy    <       0.00000047 Ry

     total magnetization       =    20.66 Bohr mag/cell
     absolute magnetization    =    34.20 Bohr mag/cell

     iteration # 86     ecut=    60.00 Ry     beta= 0.30
     Davidson diagonalization with overlap
     ethr =  5.45E-11,  avg # of iterations =  3.4

     negative rho (up, down):  0.000E+00 1.373E-03

     total cpu time spent up to now is     8120.9 secs

     total energy              =   -4943.87462933 Ry
     estimated scf accuracy    <       0.00000011 Ry

     total magnetization       =    20.66 Bohr mag/cell
     absolute magnetization    =    34.20 Bohr mag/cell

     iteration # 87     ecut=    60.00 Ry     beta= 0.30
     Davidson diagonalization with overlap
     ethr =  4.57E-11,  avg # of iterations =  3.4

     negative rho (up, down):  0.000E+00 1.373E-03

     total cpu time spent up to now is     8165.2 secs

     total energy              =   -4943.87462927 Ry
     estimated scf accuracy    <       0.00000031 Ry

     total magnetization       =    20.66 Bohr mag/cell
     absolute magnetization    =    34.20 Bohr mag/cell

     iteration # 88     ecut=    60.00 Ry     beta= 0.30
     Davidson diagonalization with overlap
     ethr =  4.57E-11,  avg # of iterations =  4.2

     negative rho (up, down):  0.000E+00 1.373E-03

     total cpu time spent up to now is     8213.5 secs

     total energy              =   -4943.87462925 Ry
     estimated scf accuracy    <       0.00000058 Ry

     total magnetization       =    20.66 Bohr mag/cell
     absolute magnetization    =    34.20 Bohr mag/cell

     iteration # 89     ecut=    60.00 Ry     beta= 0.30
     Davidson diagonalization with overlap
     ethr =  4.57E-11,  avg # of iterations =  5.5

     negative rho (up, down):  0.000E+00 1.373E-03

     total cpu time spent up to now is     8265.3 secs

     total energy              =   -4943.87462940 Ry
     estimated scf accuracy    <       0.00000005 Ry

     total magnetization       =    20.65 Bohr mag/cell
     absolute magnetization    =    34.20 Bohr mag/cell

     iteration # 90     ecut=    60.00 Ry     beta= 0.30
     Davidson diagonalization with overlap
     ethr =  2.00E-11,  avg # of iterations =  3.0

     negative rho (up, down):  0.000E+00 1.373E-03

     total cpu time spent up to now is     8308.9 secs

     total energy              =   -4943.87462939 Ry
     estimated scf accuracy    <       0.00000010 Ry

     total magnetization       =    20.65 Bohr mag/cell
     absolute magnetization    =    34.20 Bohr mag/cell

     iteration # 91     ecut=    60.00 Ry     beta= 0.30
     Davidson diagonalization with overlap
     ethr =  2.00E-11,  avg # of iterations =  3.1

     negative rho (up, down):  0.000E+00 1.373E-03

     total cpu time spent up to now is     8352.7 secs

     total energy              =   -4943.87462939 Ry
     estimated scf accuracy    <       0.00000008 Ry

     total magnetization       =    20.65 Bohr mag/cell
     absolute magnetization    =    34.20 Bohr mag/cell

     iteration # 92     ecut=    60.00 Ry     beta= 0.30
     Davidson diagonalization with overlap
     ethr =  2.00E-11,  avg # of iterations =  2.7

     negative rho (up, down):  0.000E+00 1.374E-03

     total cpu time spent up to now is     8395.4 secs

     total energy              =   -4943.87462937 Ry
     estimated scf accuracy    <       0.00000008 Ry

     total magnetization       =    20.65 Bohr mag/cell
     absolute magnetization    =    34.20 Bohr mag/cell

     iteration # 93     ecut=    60.00 Ry     beta= 0.30
     Davidson diagonalization with overlap
     ethr =  2.00E-11,  avg # of iterations =  5.4

     negative rho (up, down):  0.000E+00 1.373E-03

     total cpu time spent up to now is     8446.9 secs

     total energy              =   -4943.87462941 Ry
     estimated scf accuracy    <       0.00000002 Ry

     total magnetization       =    20.65 Bohr mag/cell
     absolute magnetization    =    34.21 Bohr mag/cell

     iteration # 94     ecut=    60.00 Ry     beta= 0.30
     Davidson diagonalization with overlap
     ethr =  8.39E-12,  avg # of iterations =  3.5

     negative rho (up, down):  0.000E+00 1.374E-03

     total cpu time spent up to now is     8491.5 secs

     total energy              =   -4943.87462941 Ry
     estimated scf accuracy    <       0.00000007 Ry

     total magnetization       =    20.65 Bohr mag/cell
     absolute magnetization    =    34.20 Bohr mag/cell

     iteration # 95     ecut=    60.00 Ry     beta= 0.30
     Davidson diagonalization with overlap
     ethr =  8.39E-12,  avg # of iterations =  5.4

     negative rho (up, down):  0.000E+00 1.373E-03

     total cpu time spent up to now is     8541.8 secs

     total energy              =   -4943.87462943 Ry
     estimated scf accuracy    <       0.00000004 Ry

     total magnetization       =    20.65 Bohr mag/cell
     absolute magnetization    =    34.21 Bohr mag/cell

     iteration # 96     ecut=    60.00 Ry     beta= 0.30
     Davidson diagonalization with overlap
     ethr =  8.39E-12,  avg # of iterations =  2.6

     negative rho (up, down):  0.000E+00 1.373E-03

     total cpu time spent up to now is     8584.6 secs

     total energy              =   -4943.87462941 Ry
     estimated scf accuracy    <       0.00000003 Ry

     total magnetization       =    20.65 Bohr mag/cell
     absolute magnetization    =    34.21 Bohr mag/cell

     iteration # 97     ecut=    60.00 Ry     beta= 0.30
     Davidson diagonalization with overlap
     ethr =  8.39E-12,  avg # of iterations =  5.4

     negative rho (up, down):  0.000E+00 1.373E-03

     total cpu time spent up to now is     8637.5 secs

     total energy              =   -4943.87462944 Ry
     estimated scf accuracy    <       0.00000002 Ry

     total magnetization       =    20.65 Bohr mag/cell
     absolute magnetization    =    34.21 Bohr mag/cell

     iteration # 98     ecut=    60.00 Ry     beta= 0.30
     Davidson diagonalization with overlap
     ethr =  6.26E-12,  avg # of iterations =  1.4

     negative rho (up, down):  0.000E+00 1.373E-03

     total cpu time spent up to now is     8676.4 secs

     total energy              =   -4943.87462943 Ry
     estimated scf accuracy    <       0.00000001 Ry

     total magnetization       =    20.65 Bohr mag/cell
     absolute magnetization    =    34.21 Bohr mag/cell

     iteration # 99     ecut=    60.00 Ry     beta= 0.30
     Davidson diagonalization with overlap
     ethr =  5.75E-12,  avg # of iterations =  4.4

     negative rho (up, down):  0.000E+00 1.373E-03

     total cpu time spent up to now is     8726.0 secs

     total energy              =   -4943.87462943 Ry
     estimated scf accuracy    <       0.00000002 Ry

     total magnetization       =    20.65 Bohr mag/cell
     absolute magnetization    =    34.21 Bohr mag/cell

     iteration #100     ecut=    60.00 Ry     beta= 0.30
     Davidson diagonalization with overlap
     ethr =  5.75E-12,  avg # of iterations =  4.0

     negative rho (up, down):  0.000E+00 1.373E-03

     total cpu time spent up to now is     8772.6 secs

     total energy              =   -4943.87462944 Ry
     estimated scf accuracy    <       0.00000001 Ry

     total magnetization       =    20.65 Bohr mag/cell
     absolute magnetization    =    34.21 Bohr mag/cell

     iteration #101     ecut=    60.00 Ry     beta= 0.30
     Davidson diagonalization with overlap
     ethr =  5.20E-12,  avg # of iterations =  4.5

     negative rho (up, down):  0.000E+00 1.373E-03
 
     Magnetic moment per site  (integrated on atomic sphere of radius R)
     atom   1 (R=0.177)  charge= 12.1295  magn= -1.3693
     atom   2 (R=0.177)  charge= 14.4403  magn=  2.2076
     atom   3 (R=0.177)  charge= 14.4183  magn=  2.3768
     atom   4 (R=0.177)  charge= 14.4403  magn=  2.2076
     atom   5 (R=0.177)  charge= 14.4182  magn=  2.3768
     atom   6 (R=0.177)  charge= 14.4403  magn=  2.2076
     atom   7 (R=0.177)  charge= 12.1295  magn= -1.3690
     atom   8 (R=0.177)  charge= 14.4403  magn=  2.2076
     atom   9 (R=0.177)  charge= 12.1294  magn= -1.3694
     atom  10 (R=0.177)  charge= 14.4403  magn=  2.2076
     atom  11 (R=0.177)  charge= 14.4182  magn=  2.3768
     atom  12 (R=0.177)  charge= 14.4403  magn=  2.2076
     atom  13 (R=0.177)  charge= 14.4182  magn=  2.3768
     atom  14 (R=0.177)  charge= 14.4403  magn=  2.2076
     atom  15 (R=0.177)  charge= 12.1295  magn= -1.3689
     atom  16 (R=0.177)  charge= 14.4403  magn=  2.2076

     total cpu time spent up to now is     8819.5 secs

     End of self-consistent calculation

     Number of k-points >= 100: set verbosity='high' to print the bands.

     the Fermi energy is    17.6517 ev

!    total energy              =   -4943.87462943 Ry
     total all-electron energy =    -38953.563740 Ry
     estimated scf accuracy    <          8.3E-09 Ry
     smearing contrib. (-TS)   =      -0.00801585 Ry
     internal energy E=F+TS    =   -4943.86661359 Ry

     The total energy is F=E-TS. E is the sum of the following terms:
     one-electron contribution =   -1632.14039295 Ry
     hartree contribution      =     960.26932757 Ry
     xc contribution           =    -421.50189610 Ry
     ewald contribution        =   -2560.02998513 Ry
     one-center paw contrib.   =   -1290.46366698 Ry

     total magnetization       =    20.65 Bohr mag/cell
     absolute magnetization    =    34.21 Bohr mag/cell

     convergence has been achieved in 101 iterations


     Computing stress (Cartesian axis) and pressure


     negative rho (up, down):  0.000E+00 1.373E-03
          total   stress  (Ry/bohr**3)                   (kbar)     P=     -101.41
  -0.00059952  -0.00014574   0.00000000          -88.19      -21.44        0.00
  -0.00014574  -0.00073611   0.00000000          -21.44     -108.28        0.00
   0.00000000   0.00000000  -0.00073254            0.00        0.00     -107.76


     Writing all to output data dir ./tmp/fecr_fe12cr04_s0.01.save/ :
     XML data file, charge density, pseudopotentials, collected wavefunctions
 
     init_run     :     63.64s CPU     55.76s WALL (       1 calls)
     electrons    :   8541.59s CPU   8762.06s WALL (       1 calls)
     stress       :     26.35s CPU     25.91s WALL (       1 calls)

     Called by init_run:
     wfcinit      :     21.41s CPU     23.74s WALL (       1 calls)
     potinit      :     40.45s CPU     28.46s WALL (       1 calls)
     hinit0       :      1.11s CPU      1.81s WALL (       1 calls)

     Called by electrons:
     c_bands      :   4418.44s CPU   5305.41s WALL (     101 calls)
     sum_band     :    573.50s CPU    708.54s WALL (     101 calls)
     v_of_rho     :     12.90s CPU     12.68s WALL (     102 calls)
     newd         :     12.54s CPU     15.34s WALL (     102 calls)
                                       15.34s GPU  (     102 calls)
     PAW_pot      :   3553.09s CPU   2730.98s WALL (     102 calls)
     mix_rho      :      6.79s CPU      9.63s WALL (     101 calls)

     Called by c_bands:
     init_us_2    :    220.63s CPU    252.50s WALL (   32640 calls)
     cegterg      :   3960.87s CPU   4739.22s WALL (   16161 calls)

     Called by *egterg:
     cdiaghg      :    750.56s CPU    959.76s WALL (   78183 calls)
                                      949.18s GPU  (   78183 calls)
     h_psi        :   1721.92s CPU   2048.32s WALL (   78343 calls)
                                     2033.48s GPU  (   78343 calls)
     s_psi        :    308.99s CPU    335.35s WALL (   78343 calls)
     g_psi        :      0.47s CPU     13.55s WALL (   62022 calls)
                                        3.53s GPU  (   62022 calls)

     Called by h_psi:
     h_psi:calbec :      3.73s CPU    176.09s WALL (   78343 calls)
                                      141.03s GPU  (   78343 calls)
     vloc_psi     :   1078.97s CPU   1298.99s WALL (   78343 calls)
                                     1287.39s GPU  (   78343 calls)
     add_vuspsi   :    314.63s CPU    516.51s WALL (   78343 calls)
                                      473.30s GPU  (   78343 calls)

     General routines
     calbec       :      4.45s CPU      5.45s WALL (   94663 calls)
     fft          :      2.87s CPU      5.06s WALL (    2569 calls)
                                        0.29s GPU  (    2365 calls)
     ffts         :      0.57s CPU      1.12s WALL (     406 calls)
                                        0.02s GPU  (     202 calls)
     fftw         :     17.71s CPU    483.82s WALL (  934154 calls)
                                      328.81s GPU  (  934154 calls)
     interpolate  :      3.62s CPU      5.96s WALL (     204 calls)
 
     Parallel routines
 
     PWSCF        :      2h24m CPU      2h27m WALL

 
   This run was terminated on:   3:14:32  16May2026            

=------------------------------------------------------------------------------=
   JOB DONE.
=------------------------------------------------------------------------------=
Warning: ieee_divide_by_zero is signaling
Warning: ieee_inexact is signaling
FORTRAN STOP
