--------------------------------------------------------------------------
WARNING: Open MPI tried to bind a process but failed.  This is a
warning only; your job will continue, though performance may
be degraded.

  Local host:        4b82db919bf5
  Application name:  /root/q-e-qe-7.3.1/bin/pw.x
  Error message:     failed to bind memory
  Location:          ../../../../../orte/mca/rtc/hwloc/rtc_hwloc.c:447

--------------------------------------------------------------------------

     Program PWSCF v.7.3.1 starts on 21May2026 at 11:27:36 

     This program is part of the open-source Quantum ESPRESSO suite
     for quantum simulation of materials; please cite
         "P. Giannozzi et al., J. Phys.:Condens. Matter 21 395502 (2009);
         "P. Giannozzi et al., J. Phys.:Condens. Matter 29 465901 (2017);
         "P. Giannozzi et al., J. Chem. Phys. 152 154105 (2020);
          URL http://www.quantum-espresso.org", 
     in publications or presentations arising from this work. More details at
     http://www.quantum-espresso.org/quote

     Parallel version (MPI & OpenMP), running on       8 processor cores
     Number of MPI processes:                 1
     Threads/MPI process:                     8

     MPI processes distributed on     1 nodes
     204989 MiB available memory on the printing compute node when the environment starts
 
     Reading input from inputs/fecr_fe04cr12_h0.00.in

     Current dimensions of program PWSCF are:
     Max number of different atomic species (ntypx) = 10
     Max number of k-points (npk) =  40000
     Max angular momentum in pseudopotentials (lmaxx) =  4
     file Fe.pbe-spn-kjpaw_psl.1.0.0.UPF: wavefunction(s)  3P 3D renormalized
     file Cr.pbe-spn-kjpaw_psl.1.0.0.UPF: wavefunction(s)  3S 3P 3D renormalized
     Found identity + (  0.0000 -0.5000  0.0000) symmetry
     This is a supercell, fractional translations are disabled
     Message from routine setup:
     using ibrav=0 with symmetry is DISCOURAGED, use correct ibrav instead
 
     Subspace diagonalization in iterative solution of the eigenvalue problem:
     a serial algorithm will be used

 
     G-vector sticks info
     --------------------
     sticks:   dense  smooth     PW     G-vecs:    dense   smooth      PW
     Sum        4373    2185    613               216679    76693   11513
 
     Using Slab Decomposition
 


     bravais-lattice index     =            0
     lattice parameter (alat)  =      10.6777  a.u.
     unit-cell volume          =    1217.3973 (a.u.)^3
     number of atoms/cell      =           16
     number of atomic types    =            2
     number of electrons       =       232.00
     number of Kohn-Sham states=          139
     kinetic-energy cutoff     =      60.0000  Ry
     charge density cutoff     =     480.0000  Ry
     scf convergence threshold =      1.0E-07
     mixing beta               =       0.3000
     number of iterations used =            8  plain     mixing
     Exchange-correlation= SLA  PW   PBX  PBC
                           (   1   4   3   4   0   0   0)

     GPU acceleration is ACTIVE.  1 visible GPUs per MPI rank


     celldm(1)=  10.677693  celldm(2)=   0.000000  celldm(3)=   0.000000
     celldm(4)=   0.000000  celldm(5)=   0.000000  celldm(6)=   0.000000

     crystal axes: (cart. coord. in units of alat)
               a(1) = (   1.000000   0.000000   0.000000 )  
               a(2) = (   0.000000   1.000000   0.000000 )  
               a(3) = (   0.000000   0.000000   1.000000 )  

     reciprocal axes: (cart. coord. in units 2 pi/alat)
               b(1) = (  1.000000  0.000000  0.000000 )  
               b(2) = (  0.000000  1.000000  0.000000 )  
               b(3) = (  0.000000  0.000000  1.000000 )  


     PseudoPot. # 1 for Fe read from file:
     ./pseudo/Fe.pbe-spn-kjpaw_psl.1.0.0.UPF
     MD5 check sum: fc81f059e5c5069939230b1155715ae8
     Pseudo is Projector augmented-wave + core cor, Zval = 16.0
     Generated using &quot;atomic&quot; code by A. Dal Corso  v.6.3
     Shape of augmentation charge: PSQ
     Using radial grid of 1191 points,  6 beta functions with: 
                l(1) =   0
                l(2) =   0
                l(3) =   1
                l(4) =   1
                l(5) =   2
                l(6) =   2
     Q(r) pseudized with 0 coefficients 


     PseudoPot. # 2 for Cr read from file:
     ./pseudo/Cr.pbe-spn-kjpaw_psl.1.0.0.UPF
     MD5 check sum: 198f1a2427a48552563eee314eba32ba
     Pseudo is Projector augmented-wave + core cor, Zval = 14.0
     Generated using &quot;atomic&quot; code by A. Dal Corso  v.6.3
     Shape of augmentation charge: PSQ
     Using radial grid of 1183 points,  6 beta functions with: 
                l(1) =   0
                l(2) =   0
                l(3) =   1
                l(4) =   1
                l(5) =   2
                l(6) =   2
     Q(r) pseudized with 0 coefficients 


     atomic species   valence    mass     pseudopotential
     Fe               16.00    55.84500     Fe( 1.00)
     Cr               14.00    51.99600     Cr( 1.00)

     Starting magnetic structure 
     atomic species   magnetization
     Fe              0.500
     Cr              0.300

      8 Sym. Ops., with inversion, found



   Cartesian axes

     site n.     atom                  positions (alat units)
         1        Cr     tau(   1) = (   0.0000000   0.0000000   0.0000000  )
         2        Fe     tau(   2) = (   0.2500000   0.2500000   0.2500000  )
         3        Cr     tau(   3) = (   0.0000000   0.0000000   0.5000000  )
         4        Cr     tau(   4) = (   0.2500000   0.2500000   0.7500000  )
         5        Cr     tau(   5) = (   0.0000000   0.5000000   0.0000000  )
         6        Fe     tau(   6) = (   0.2500000   0.7500000   0.2500000  )
         7        Cr     tau(   7) = (   0.0000000   0.5000000   0.5000000  )
         8        Cr     tau(   8) = (   0.2500000   0.7500000   0.7500000  )
         9        Cr     tau(   9) = (   0.5000000   0.0000000   0.0000000  )
        10        Cr     tau(  10) = (   0.7500000   0.2500000   0.2500000  )
        11        Cr     tau(  11) = (   0.5000000   0.0000000   0.5000000  )
        12        Fe     tau(  12) = (   0.7500000   0.2500000   0.7500000  )
        13        Cr     tau(  13) = (   0.5000000   0.5000000   0.0000000  )
        14        Cr     tau(  14) = (   0.7500000   0.7500000   0.2500000  )
        15        Cr     tau(  15) = (   0.5000000   0.5000000   0.5000000  )
        16        Fe     tau(  16) = (   0.7500000   0.7500000   0.7500000  )

     number of k points=    52  Marzari-Vanderbilt smearing, width (Ry)=  0.0200
                       cart. coord. in units 2pi/alat
        k(    1) = (   0.0000000   0.0000000   0.0000000), wk =   0.0046296
        k(    2) = (   0.0000000   0.0000000   0.1666667), wk =   0.0185185
        k(    3) = (   0.0000000   0.0000000   0.3333333), wk =   0.0185185
        k(    4) = (   0.0000000   0.0000000  -0.5000000), wk =   0.0092593
        k(    5) = (   0.0000000   0.1666667   0.1666667), wk =   0.0370370
        k(    6) = (   0.0000000   0.1666667   0.3333333), wk =   0.0370370
        k(    7) = (   0.0000000   0.1666667  -0.5000000), wk =   0.0185185
        k(    8) = (   0.0000000   0.3333333   0.3333333), wk =   0.0370370
        k(    9) = (   0.0000000   0.3333333  -0.5000000), wk =   0.0185185
        k(   10) = (   0.0000000  -0.5000000  -0.5000000), wk =   0.0092593
        k(   11) = (   0.1666667   0.1666667   0.1666667), wk =   0.0185185
        k(   12) = (   0.1666667   0.1666667   0.3333333), wk =   0.0370370
        k(   13) = (   0.1666667   0.1666667  -0.5000000), wk =   0.0370370
        k(   14) = (   0.1666667   0.3333333   0.3333333), wk =   0.0370370
        k(   15) = (   0.1666667   0.3333333  -0.5000000), wk =   0.0370370
        k(   16) = (   0.1666667  -0.5000000  -0.5000000), wk =   0.0185185
        k(   17) = (   0.3333333   0.3333333   0.3333333), wk =   0.0185185
        k(   18) = (   0.3333333   0.3333333  -0.5000000), wk =   0.0370370
        k(   19) = (   0.3333333  -0.5000000  -0.5000000), wk =   0.0185185
        k(   20) = (  -0.5000000  -0.5000000  -0.5000000), wk =   0.0046296
        k(   21) = (   0.0000000   0.1666667   0.0000000), wk =   0.0092593
        k(   22) = (   0.0000000   0.3333333   0.0000000), wk =   0.0092593
        k(   23) = (   0.0000000  -0.5000000   0.0000000), wk =   0.0046296
        k(   24) = (   0.1666667   0.0000000   0.1666667), wk =   0.0092593
        k(   25) = (   0.1666667   0.0000000  -0.1666667), wk =   0.0092593
        k(   26) = (   0.0000000   0.3333333   0.1666667), wk =   0.0370370
        k(   27) = (   0.3333333   0.0000000   0.1666667), wk =   0.0185185
        k(   28) = (   0.3333333   0.0000000  -0.1666667), wk =   0.0185185
        k(   29) = (   0.0000000  -0.5000000   0.1666667), wk =   0.0185185
        k(   30) = (  -0.5000000   0.0000000   0.1666667), wk =   0.0185185
        k(   31) = (   0.3333333   0.0000000   0.3333333), wk =   0.0092593
        k(   32) = (   0.3333333   0.0000000  -0.3333333), wk =   0.0092593
        k(   33) = (   0.0000000  -0.5000000   0.3333333), wk =   0.0185185
        k(   34) = (  -0.5000000   0.0000000   0.3333333), wk =   0.0185185
        k(   35) = (  -0.5000000   0.0000000  -0.5000000), wk =   0.0046296
        k(   36) = (  -0.1666667  -0.1666667   0.1666667), wk =   0.0185185
        k(   37) = (  -0.1666667  -0.1666667   0.3333333), wk =   0.0370370
        k(   38) = (  -0.1666667   0.3333333   0.1666667), wk =   0.0185185
        k(   39) = (  -0.1666667  -0.3333333  -0.1666667), wk =   0.0185185
        k(   40) = (  -0.1666667  -0.5000000   0.1666667), wk =   0.0092593
        k(   41) = (  -0.1666667   0.5000000  -0.1666667), wk =   0.0092593
        k(   42) = (  -0.1666667  -0.3333333   0.3333333), wk =   0.0370370
        k(   43) = (   0.3333333   0.1666667   0.3333333), wk =   0.0185185
        k(   44) = (   0.3333333  -0.1666667  -0.3333333), wk =   0.0185185
        k(   45) = (  -0.1666667  -0.5000000   0.3333333), wk =   0.0185185
        k(   46) = (  -0.1666667   0.5000000  -0.3333333), wk =   0.0185185
        k(   47) = (  -0.5000000   0.1666667   0.3333333), wk =   0.0370370
        k(   48) = (  -0.5000000   0.1666667  -0.5000000), wk =   0.0092593
        k(   49) = (  -0.3333333  -0.3333333   0.3333333), wk =   0.0185185
        k(   50) = (  -0.3333333  -0.5000000   0.3333333), wk =   0.0092593
        k(   51) = (  -0.3333333   0.5000000  -0.3333333), wk =   0.0092593
        k(   52) = (  -0.5000000   0.3333333  -0.5000000), wk =   0.0092593

     Dense  grid:   216679 G-vectors     FFT dimensions: (  75,  75,  75)

     Smooth grid:    76693 G-vectors     FFT dimensions: (  54,  54,  54)

     Estimated max dynamical RAM per process >       2.98 GB

     Check: negative core charge=   -0.000003
     Generating pointlists ...
     new r_m :   0.1786 (alat units)  1.9072 (a.u.) for type    1
     new r_m :   0.1786 (alat units)  1.9072 (a.u.) for type    2

     Initial potential from superposition of free atoms

     starting charge     231.9890, renormalised to     232.0000
     Starting wfcs are  160 randomized atomic wfcs
     Checking if some PAW data can be deallocated... 

     total cpu time spent up to now is       26.5 secs

     Self-consistent Calculation

     iteration #  1     ecut=    60.00 Ry     beta= 0.30
     Davidson diagonalization with overlap
     ethr =  1.00E-02,  avg # of iterations =  5.4

     negative rho (up, down):  1.999E-01 1.725E+00

     total cpu time spent up to now is       63.7 secs

     total energy              =   -4281.87058528 Ry
     estimated scf accuracy    <     239.31391220 Ry

     total magnetization       =    40.75 Bohr mag/cell
     absolute magnetization    =    60.13 Bohr mag/cell

     iteration #  2     ecut=    60.00 Ry     beta= 0.30
     Davidson diagonalization with overlap
     ethr =  1.00E-02,  avg # of iterations =  5.5

     negative rho (up, down):  1.431E-01 1.277E+00

     total cpu time spent up to now is       99.4 secs

     total energy              =   -4287.00888291 Ry
     estimated scf accuracy    <      51.16326705 Ry

     total magnetization       =    26.12 Bohr mag/cell
     absolute magnetization    =    26.60 Bohr mag/cell

     iteration #  3     ecut=    60.00 Ry     beta= 0.30
     Davidson diagonalization with overlap
     ethr =  1.00E-02,  avg # of iterations =  5.4

     negative rho (up, down):  1.171E-01 1.137E+00

     total cpu time spent up to now is      137.2 secs

     total energy              =   -4286.84427326 Ry
     estimated scf accuracy    <     106.72323260 Ry

     total magnetization       =    25.90 Bohr mag/cell
     absolute magnetization    =    26.11 Bohr mag/cell

     iteration #  4     ecut=    60.00 Ry     beta= 0.30
     Davidson diagonalization with overlap
     ethr =  1.00E-02,  avg # of iterations =  2.5

     negative rho (up, down):  9.404E-02 9.883E-01

     total cpu time spent up to now is      168.6 secs

     total energy              =   -4292.71594725 Ry
     estimated scf accuracy    <      14.95635573 Ry

     total magnetization       =    21.92 Bohr mag/cell
     absolute magnetization    =    22.93 Bohr mag/cell

     iteration #  5     ecut=    60.00 Ry     beta= 0.30
     Davidson diagonalization with overlap
     ethr =  6.45E-03,  avg # of iterations =  2.3

     negative rho (up, down):  5.145E-02 6.810E-01

     total cpu time spent up to now is      199.1 secs

     total energy              =   -4293.70039361 Ry
     estimated scf accuracy    <      12.71342109 Ry

     total magnetization       =    21.62 Bohr mag/cell
     absolute magnetization    =    22.26 Bohr mag/cell

     iteration #  6     ecut=    60.00 Ry     beta= 0.30
     Davidson diagonalization with overlap
     ethr =  5.48E-03,  avg # of iterations =  1.4

     negative rho (up, down):  1.005E-02 3.101E-01

     total cpu time spent up to now is      228.3 secs

     total energy              =   -4294.19427292 Ry
     estimated scf accuracy    <      10.54658616 Ry

     total magnetization       =    19.84 Bohr mag/cell
     absolute magnetization    =    20.53 Bohr mag/cell

     iteration #  7     ecut=    60.00 Ry     beta= 0.30
     Davidson diagonalization with overlap
     ethr =  4.55E-03,  avg # of iterations =  1.7

     negative rho (up, down):  0.000E+00 8.532E-02

     total cpu time spent up to now is      257.5 secs

     total energy              =   -4295.00820818 Ry
     estimated scf accuracy    <       6.58219219 Ry

     total magnetization       =    17.65 Bohr mag/cell
     absolute magnetization    =    18.47 Bohr mag/cell

     iteration #  8     ecut=    60.00 Ry     beta= 0.30
     Davidson diagonalization with overlap
     ethr =  2.84E-03,  avg # of iterations =  1.1

     negative rho (up, down):  0.000E+00 1.434E-02

     total cpu time spent up to now is      286.4 secs

     total energy              =   -4295.17778138 Ry
     estimated scf accuracy    <       2.55573858 Ry

     total magnetization       =    13.66 Bohr mag/cell
     absolute magnetization    =    15.41 Bohr mag/cell

     iteration #  9     ecut=    60.00 Ry     beta= 0.30
     Davidson diagonalization with overlap
     ethr =  1.10E-03,  avg # of iterations =  2.1

     negative rho (up, down):  0.000E+00 1.902E-04

     total cpu time spent up to now is      316.5 secs

     total energy              =   -4295.31387951 Ry
     estimated scf accuracy    <       1.53292486 Ry

     total magnetization       =    12.61 Bohr mag/cell
     absolute magnetization    =    14.52 Bohr mag/cell

     iteration # 10     ecut=    60.00 Ry     beta= 0.30
     Davidson diagonalization with overlap
     ethr =  6.61E-04,  avg # of iterations =  3.5

     negative rho (up, down):  0.000E+00 1.265E-04

     total cpu time spent up to now is      348.5 secs

     total energy              =   -4295.35178684 Ry
     estimated scf accuracy    <       2.42736705 Ry

     total magnetization       =    10.66 Bohr mag/cell
     absolute magnetization    =    13.14 Bohr mag/cell

     iteration # 11     ecut=    60.00 Ry     beta= 0.30
     Davidson diagonalization with overlap
     ethr =  6.61E-04,  avg # of iterations =  2.7

     total cpu time spent up to now is      379.0 secs

     total energy              =   -4295.46883931 Ry
     estimated scf accuracy    <       0.32417252 Ry

     total magnetization       =     9.96 Bohr mag/cell
     absolute magnetization    =    12.30 Bohr mag/cell

     iteration # 12     ecut=    60.00 Ry     beta= 0.30
     Davidson diagonalization with overlap
     c_bands:  2 eigenvalues not converged
     c_bands:  1 eigenvalues not converged
     ethr =  1.40E-04,  avg # of iterations = 10.0

     total cpu time spent up to now is      422.0 secs

     total energy              =   -4295.49273983 Ry
     estimated scf accuracy    <       0.61998693 Ry

     total magnetization       =     9.47 Bohr mag/cell
     absolute magnetization    =    11.31 Bohr mag/cell

     iteration # 13     ecut=    60.00 Ry     beta= 0.30
     Davidson diagonalization with overlap
     ethr =  1.40E-04,  avg # of iterations =  1.1

     total cpu time spent up to now is      450.6 secs

     total energy              =   -4295.50686262 Ry
     estimated scf accuracy    <       0.13952011 Ry

     total magnetization       =     9.44 Bohr mag/cell
     absolute magnetization    =    11.42 Bohr mag/cell

     iteration # 14     ecut=    60.00 Ry     beta= 0.30
     Davidson diagonalization with overlap
     ethr =  6.01E-05,  avg # of iterations =  4.9

     total cpu time spent up to now is      485.2 secs

     total energy              =   -4295.52685094 Ry
     estimated scf accuracy    <       0.12416775 Ry

     total magnetization       =     8.80 Bohr mag/cell
     absolute magnetization    =    10.88 Bohr mag/cell

     iteration # 15     ecut=    60.00 Ry     beta= 0.30
     Davidson diagonalization with overlap
     ethr =  5.35E-05,  avg # of iterations =  1.7

     total cpu time spent up to now is      515.2 secs

     total energy              =   -4295.53151443 Ry
     estimated scf accuracy    <       0.08542474 Ry

     total magnetization       =     8.43 Bohr mag/cell
     absolute magnetization    =    10.47 Bohr mag/cell

     iteration # 16     ecut=    60.00 Ry     beta= 0.30
     Davidson diagonalization with overlap
     ethr =  3.68E-05,  avg # of iterations =  3.5

     total cpu time spent up to now is      547.7 secs

     total energy              =   -4295.53321772 Ry
     estimated scf accuracy    <       0.04458409 Ry

     total magnetization       =     7.95 Bohr mag/cell
     absolute magnetization    =     9.92 Bohr mag/cell

     iteration # 17     ecut=    60.00 Ry     beta= 0.30
     Davidson diagonalization with overlap
     c_bands:  1 eigenvalues not converged
     ethr =  1.92E-05,  avg # of iterations =  5.0

     total cpu time spent up to now is      583.5 secs

     total energy              =   -4295.53785768 Ry
     estimated scf accuracy    <       0.08246098 Ry

     total magnetization       =     8.01 Bohr mag/cell
     absolute magnetization    =     9.86 Bohr mag/cell

     iteration # 18     ecut=    60.00 Ry     beta= 0.30
     Davidson diagonalization with overlap
     ethr =  1.92E-05,  avg # of iterations =  2.2

     total cpu time spent up to now is      614.0 secs

     total energy              =   -4295.54277811 Ry
     estimated scf accuracy    <       0.02466695 Ry

     total magnetization       =     7.45 Bohr mag/cell
     absolute magnetization    =     9.36 Bohr mag/cell

     iteration # 19     ecut=    60.00 Ry     beta= 0.30
     Davidson diagonalization with overlap
     c_bands:  1 eigenvalues not converged
     ethr =  1.06E-05,  avg # of iterations =  3.0

     total cpu time spent up to now is      645.9 secs

     total energy              =   -4295.54292156 Ry
     estimated scf accuracy    <       0.01682284 Ry

     total magnetization       =     7.46 Bohr mag/cell
     absolute magnetization    =     9.30 Bohr mag/cell

     iteration # 20     ecut=    60.00 Ry     beta= 0.30
     Davidson diagonalization with overlap
     c_bands:  2 eigenvalues not converged
     c_bands:  1 eigenvalues not converged
     c_bands:  5 eigenvalues not converged
     c_bands:  2 eigenvalues not converged
     ethr =  7.25E-06,  avg # of iterations =  3.5

     total cpu time spent up to now is      678.4 secs

     total energy              =   -4295.54396903 Ry
     estimated scf accuracy    <       0.00175847 Ry

     total magnetization       =     7.30 Bohr mag/cell
     absolute magnetization    =     9.13 Bohr mag/cell

     iteration # 21     ecut=    60.00 Ry     beta= 0.30
     Davidson diagonalization with overlap
     c_bands:  2 eigenvalues not converged
     c_bands:  1 eigenvalues not converged
     c_bands:  2 eigenvalues not converged
     c_bands:  1 eigenvalues not converged
     c_bands:  1 eigenvalues not converged
     c_bands:  2 eigenvalues not converged
     c_bands:  1 eigenvalues not converged
     c_bands:  2 eigenvalues not converged
     c_bands:  1 eigenvalues not converged
     c_bands:  1 eigenvalues not converged
     c_bands:  1 eigenvalues not converged
     c_bands:  1 eigenvalues not converged
     c_bands:  2 eigenvalues not converged
     c_bands:  3 eigenvalues not converged
     c_bands:  2 eigenvalues not converged
     c_bands:  4 eigenvalues not converged
     c_bands:  2 eigenvalues not converged
     c_bands:  1 eigenvalues not converged
     c_bands:  1 eigenvalues not converged
     c_bands:  2 eigenvalues not converged
     c_bands:  3 eigenvalues not converged
     c_bands:  3 eigenvalues not converged
     c_bands:  1 eigenvalues not converged
     c_bands:  3 eigenvalues not converged
     c_bands:  1 eigenvalues not converged
     c_bands:  3 eigenvalues not converged
     c_bands:  3 eigenvalues not converged
     c_bands:  1 eigenvalues not converged
     c_bands:  1 eigenvalues not converged
     ethr =  7.58E-07,  avg # of iterations = 13.4

     total cpu time spent up to now is      729.5 secs

     total energy              =   -4295.54463144 Ry
     estimated scf accuracy    <       0.00171713 Ry

     total magnetization       =     7.21 Bohr mag/cell
     absolute magnetization    =     8.92 Bohr mag/cell

     iteration # 22     ecut=    60.00 Ry     beta= 0.30
     Davidson diagonalization with overlap
     c_bands:  1 eigenvalues not converged
     c_bands:  3 eigenvalues not converged
     c_bands:  2 eigenvalues not converged
     c_bands:  1 eigenvalues not converged
     c_bands:  1 eigenvalues not converged
     ethr =  7.40E-07,  avg # of iterations =  5.3

     total cpu time spent up to now is      764.8 secs

     total energy              =   -4295.54456647 Ry
     estimated scf accuracy    <       0.00538030 Ry

     total magnetization       =     7.24 Bohr mag/cell
     absolute magnetization    =     8.91 Bohr mag/cell

     iteration # 23     ecut=    60.00 Ry     beta= 0.30
     Davidson diagonalization with overlap
     ethr =  7.40E-07,  avg # of iterations =  1.8

     total cpu time spent up to now is      793.8 secs

     total energy              =   -4295.54506321 Ry
     estimated scf accuracy    <       0.00050663 Ry

     total magnetization       =     7.19 Bohr mag/cell
     absolute magnetization    =     8.88 Bohr mag/cell

     iteration # 24     ecut=    60.00 Ry     beta= 0.30
     Davidson diagonalization with overlap
     c_bands:  1 eigenvalues not converged
     c_bands:  1 eigenvalues not converged
     ethr =  2.18E-07,  avg # of iterations =  7.8

     total cpu time spent up to now is      834.1 secs

     total energy              =   -4295.54536050 Ry
     estimated scf accuracy    <       0.00093598 Ry

     total magnetization       =     7.22 Bohr mag/cell
     absolute magnetization    =     8.82 Bohr mag/cell

     iteration # 25     ecut=    60.00 Ry     beta= 0.30
     Davidson diagonalization with overlap
     ethr =  2.18E-07,  avg # of iterations =  5.5

     total cpu time spent up to now is      870.3 secs

     total energy              =   -4295.54565508 Ry
     estimated scf accuracy    <       0.00057374 Ry

     total magnetization       =     7.17 Bohr mag/cell
     absolute magnetization    =     8.74 Bohr mag/cell

     iteration # 26     ecut=    60.00 Ry     beta= 0.30
     Davidson diagonalization with overlap
     c_bands:  2 eigenvalues not converged
     c_bands:  1 eigenvalues not converged
     ethr =  2.18E-07,  avg # of iterations =  7.1

     total cpu time spent up to now is      911.5 secs

     total energy              =   -4295.54613167 Ry
     estimated scf accuracy    <       0.00381568 Ry

     total magnetization       =     7.24 Bohr mag/cell
     absolute magnetization    =     8.72 Bohr mag/cell

     iteration # 27     ecut=    60.00 Ry     beta= 0.30
     Davidson diagonalization with overlap
     ethr =  2.18E-07,  avg # of iterations =  3.4

     total cpu time spent up to now is      943.6 secs

     total energy              =   -4295.54596018 Ry
     estimated scf accuracy    <       0.00296816 Ry

     total magnetization       =     7.26 Bohr mag/cell
     absolute magnetization    =     8.73 Bohr mag/cell

     iteration # 28     ecut=    60.00 Ry     beta= 0.30
     Davidson diagonalization with overlap
     c_bands:  1 eigenvalues not converged
     c_bands:  1 eigenvalues not converged
     ethr =  2.18E-07,  avg # of iterations =  6.1

     total cpu time spent up to now is      981.6 secs

     total energy              =   -4295.54619225 Ry
     estimated scf accuracy    <       0.00230542 Ry

     total magnetization       =     7.33 Bohr mag/cell
     absolute magnetization    =     8.77 Bohr mag/cell

     iteration # 29     ecut=    60.00 Ry     beta= 0.30
     Davidson diagonalization with overlap
     c_bands:  2 eigenvalues not converged
     ethr =  2.18E-07,  avg # of iterations =  5.0

     total cpu time spent up to now is     1016.5 secs

     total energy              =   -4295.54634847 Ry
     estimated scf accuracy    <       0.00069504 Ry

     total magnetization       =     7.32 Bohr mag/cell
     absolute magnetization    =     8.78 Bohr mag/cell

     iteration # 30     ecut=    60.00 Ry     beta= 0.30
     Davidson diagonalization with overlap
     ethr =  2.18E-07,  avg # of iterations =  5.0

     total cpu time spent up to now is     1051.5 secs

     total energy              =   -4295.54644456 Ry
     estimated scf accuracy    <       0.00019937 Ry

     total magnetization       =     7.27 Bohr mag/cell
     absolute magnetization    =     8.78 Bohr mag/cell

     iteration # 31     ecut=    60.00 Ry     beta= 0.30
     Davidson diagonalization with overlap
     c_bands:  1 eigenvalues not converged
     c_bands:  1 eigenvalues not converged
     ethr =  8.59E-08,  avg # of iterations =  8.8

     total cpu time spent up to now is     1097.1 secs

     total energy              =   -4295.54688335 Ry
     estimated scf accuracy    <       0.00057313 Ry

     total magnetization       =     7.33 Bohr mag/cell
     absolute magnetization    =     8.97 Bohr mag/cell

     iteration # 32     ecut=    60.00 Ry     beta= 0.30
     Davidson diagonalization with overlap
     ethr =  8.59E-08,  avg # of iterations =  1.1

     total cpu time spent up to now is     1125.4 secs

     total energy              =   -4295.54692128 Ry
     estimated scf accuracy    <       0.00027670 Ry

     total magnetization       =     7.33 Bohr mag/cell
     absolute magnetization    =     8.96 Bohr mag/cell

     iteration # 33     ecut=    60.00 Ry     beta= 0.30
     Davidson diagonalization with overlap
     ethr =  8.59E-08,  avg # of iterations =  2.8

     total cpu time spent up to now is     1157.2 secs

     total energy              =   -4295.54691415 Ry
     estimated scf accuracy    <       0.00015654 Ry

     total magnetization       =     7.33 Bohr mag/cell
     absolute magnetization    =     8.98 Bohr mag/cell

     iteration # 34     ecut=    60.00 Ry     beta= 0.30
     Davidson diagonalization with overlap
     ethr =  6.75E-08,  avg # of iterations =  5.2

     total cpu time spent up to now is     1192.4 secs

     total energy              =   -4295.54685814 Ry
     estimated scf accuracy    <       0.00061440 Ry

     total magnetization       =     7.32 Bohr mag/cell
     absolute magnetization    =     8.98 Bohr mag/cell

     iteration # 35     ecut=    60.00 Ry     beta= 0.30
     Davidson diagonalization with overlap
     ethr =  6.75E-08,  avg # of iterations =  7.2

     total cpu time spent up to now is     1234.5 secs

     total energy              =   -4295.54726694 Ry
     estimated scf accuracy    <       0.00021553 Ry

     total magnetization       =     7.35 Bohr mag/cell
     absolute magnetization    =     9.20 Bohr mag/cell

     iteration # 36     ecut=    60.00 Ry     beta= 0.30
     Davidson diagonalization with overlap
     ethr =  6.75E-08,  avg # of iterations =  1.6

     total cpu time spent up to now is     1264.1 secs

     total energy              =   -4295.54714649 Ry
     estimated scf accuracy    <       0.00029074 Ry

     total magnetization       =     7.35 Bohr mag/cell
     absolute magnetization    =     9.19 Bohr mag/cell

     iteration # 37     ecut=    60.00 Ry     beta= 0.30
     Davidson diagonalization with overlap
     ethr =  6.75E-08,  avg # of iterations =  5.0

     total cpu time spent up to now is     1298.2 secs

     total energy              =   -4295.54727156 Ry
     estimated scf accuracy    <       0.00023277 Ry

     total magnetization       =     7.35 Bohr mag/cell
     absolute magnetization    =     9.14 Bohr mag/cell

     iteration # 38     ecut=    60.00 Ry     beta= 0.30
     Davidson diagonalization with overlap
     ethr =  6.75E-08,  avg # of iterations =  5.1

     total cpu time spent up to now is     1333.3 secs

     total energy              =   -4295.54736833 Ry
     estimated scf accuracy    <       0.00017438 Ry

     total magnetization       =     7.35 Bohr mag/cell
     absolute magnetization    =     9.22 Bohr mag/cell

     iteration # 39     ecut=    60.00 Ry     beta= 0.30
     Davidson diagonalization with overlap
     ethr =  6.75E-08,  avg # of iterations =  4.8

     total cpu time spent up to now is     1367.8 secs

     total energy              =   -4295.54716261 Ry
     estimated scf accuracy    <       0.00035911 Ry

     total magnetization       =     7.34 Bohr mag/cell
     absolute magnetization    =     9.25 Bohr mag/cell

     iteration # 40     ecut=    60.00 Ry     beta= 0.30
     Davidson diagonalization with overlap
     ethr =  6.75E-08,  avg # of iterations =  7.4

     total cpu time spent up to now is     1410.9 secs

     total energy              =   -4295.54783694 Ry
     estimated scf accuracy    <       0.00017722 Ry

     total magnetization       =     7.38 Bohr mag/cell
     absolute magnetization    =     9.58 Bohr mag/cell

     iteration # 41     ecut=    60.00 Ry     beta= 0.30
     Davidson diagonalization with overlap
     ethr =  6.75E-08,  avg # of iterations =  5.4

     total cpu time spent up to now is     1445.9 secs

     total energy              =   -4295.54769107 Ry
     estimated scf accuracy    <       0.00014128 Ry

     total magnetization       =     7.38 Bohr mag/cell
     absolute magnetization    =     9.66 Bohr mag/cell

     iteration # 42     ecut=    60.00 Ry     beta= 0.30
     Davidson diagonalization with overlap
     c_bands:  1 eigenvalues not converged
     ethr =  6.09E-08,  avg # of iterations =  9.0

     total cpu time spent up to now is     1491.7 secs

     total energy              =   -4295.54751246 Ry
     estimated scf accuracy    <       0.00076828 Ry

     total magnetization       =     7.36 Bohr mag/cell
     absolute magnetization    =     9.86 Bohr mag/cell

     iteration # 43     ecut=    60.00 Ry     beta= 0.30
     Davidson diagonalization with overlap
     c_bands:  1 eigenvalues not converged
     c_bands:  1 eigenvalues not converged
     ethr =  6.09E-08,  avg # of iterations =  9.2

     total cpu time spent up to now is     1538.2 secs

     total energy              =   -4295.54854640 Ry
     estimated scf accuracy    <       0.00008318 Ry

     total magnetization       =     7.40 Bohr mag/cell
     absolute magnetization    =    10.31 Bohr mag/cell

     iteration # 44     ecut=    60.00 Ry     beta= 0.30
     Davidson diagonalization with overlap
     ethr =  3.59E-08,  avg # of iterations =  5.9

     total cpu time spent up to now is     1575.1 secs

     total energy              =   -4295.54837604 Ry
     estimated scf accuracy    <       0.00016494 Ry

     total magnetization       =     7.41 Bohr mag/cell
     absolute magnetization    =    10.38 Bohr mag/cell

     iteration # 45     ecut=    60.00 Ry     beta= 0.30
     Davidson diagonalization with overlap
     ethr =  3.59E-08,  avg # of iterations =  7.1

     total cpu time spent up to now is     1617.0 secs

     total energy              =   -4295.54788587 Ry
     estimated scf accuracy    <       0.00006190 Ry

     total magnetization       =     7.42 Bohr mag/cell
     absolute magnetization    =    10.71 Bohr mag/cell

     iteration # 46     ecut=    60.00 Ry     beta= 0.30
     Davidson diagonalization with overlap
     c_bands:  1 eigenvalues not converged
     c_bands:  1 eigenvalues not converged
     ethr =  2.67E-08,  avg # of iterations =  9.9

     total cpu time spent up to now is     1667.3 secs

     total energy              =   -4295.54916563 Ry
     estimated scf accuracy    <       0.00008775 Ry

     total magnetization       =     7.43 Bohr mag/cell
     absolute magnetization    =    11.26 Bohr mag/cell

     iteration # 47     ecut=    60.00 Ry     beta= 0.30
     Davidson diagonalization with overlap
     ethr =  2.67E-08,  avg # of iterations =  4.8

     total cpu time spent up to now is     1701.8 secs

     total energy              =   -4295.54887858 Ry
     estimated scf accuracy    <       0.00010917 Ry

     total magnetization       =     7.44 Bohr mag/cell
     absolute magnetization    =    11.29 Bohr mag/cell

     iteration # 48     ecut=    60.00 Ry     beta= 0.30
     Davidson diagonalization with overlap
     ethr =  2.67E-08,  avg # of iterations =  7.9

     total cpu time spent up to now is     1745.7 secs

     total energy              =   -4295.54921458 Ry
     estimated scf accuracy    <       0.00004504 Ry

     total magnetization       =     7.44 Bohr mag/cell
     absolute magnetization    =    11.60 Bohr mag/cell

     iteration # 49     ecut=    60.00 Ry     beta= 0.30
     Davidson diagonalization with overlap
     c_bands:  1 eigenvalues not converged
     ethr =  1.94E-08,  avg # of iterations =  6.1

     total cpu time spent up to now is     1785.3 secs

     total energy              =   -4295.54925053 Ry
     estimated scf accuracy    <       0.00005607 Ry

     total magnetization       =     7.44 Bohr mag/cell
     absolute magnetization    =    11.47 Bohr mag/cell

     iteration # 50     ecut=    60.00 Ry     beta= 0.30
     Davidson diagonalization with overlap
     c_bands:  1 eigenvalues not converged
     ethr =  1.94E-08,  avg # of iterations =  6.1

     total cpu time spent up to now is     1824.8 secs

     total energy              =   -4295.54937255 Ry
     estimated scf accuracy    <       0.00005294 Ry

     total magnetization       =     7.45 Bohr mag/cell
     absolute magnetization    =    11.62 Bohr mag/cell

     iteration # 51     ecut=    60.00 Ry     beta= 0.30
     Davidson diagonalization with overlap
     ethr =  1.94E-08,  avg # of iterations =  5.4

     total cpu time spent up to now is     1861.5 secs

     total energy              =   -4295.54917735 Ry
     estimated scf accuracy    <       0.00002504 Ry

     total magnetization       =     7.45 Bohr mag/cell
     absolute magnetization    =    11.69 Bohr mag/cell

     iteration # 52     ecut=    60.00 Ry     beta= 0.30
     Davidson diagonalization with overlap
     ethr =  1.08E-08,  avg # of iterations =  8.8

     total cpu time spent up to now is     1907.6 secs

     total energy              =   -4295.54949764 Ry
     estimated scf accuracy    <       0.00006333 Ry

     total magnetization       =     7.45 Bohr mag/cell
     absolute magnetization    =    11.96 Bohr mag/cell

     iteration # 53     ecut=    60.00 Ry     beta= 0.30
     Davidson diagonalization with overlap
     ethr =  1.08E-08,  avg # of iterations =  5.1

     total cpu time spent up to now is     1942.9 secs

     total energy              =   -4295.54942397 Ry
     estimated scf accuracy    <       0.00002144 Ry

     total magnetization       =     7.44 Bohr mag/cell
     absolute magnetization    =    11.93 Bohr mag/cell

     iteration # 54     ecut=    60.00 Ry     beta= 0.30
     Davidson diagonalization with overlap
     ethr =  9.24E-09,  avg # of iterations =  6.7

     total cpu time spent up to now is     1984.3 secs

     total energy              =   -4295.54942481 Ry
     estimated scf accuracy    <       0.00004243 Ry

     total magnetization       =     7.44 Bohr mag/cell
     absolute magnetization    =    11.80 Bohr mag/cell

     iteration # 55     ecut=    60.00 Ry     beta= 0.30
     Davidson diagonalization with overlap
     ethr =  9.24E-09,  avg # of iterations =  6.8

     total cpu time spent up to now is     2025.4 secs

     total energy              =   -4295.54901660 Ry
     estimated scf accuracy    <       0.00002406 Ry

     total magnetization       =     7.44 Bohr mag/cell
     absolute magnetization    =    11.95 Bohr mag/cell

     iteration # 56     ecut=    60.00 Ry     beta= 0.30
     Davidson diagonalization with overlap
     ethr =  9.24E-09,  avg # of iterations =  9.4

     total cpu time spent up to now is     2074.2 secs

     total energy              =   -4295.54945897 Ry
     estimated scf accuracy    <       0.00010102 Ry

     total magnetization       =     7.42 Bohr mag/cell
     absolute magnetization    =    12.28 Bohr mag/cell

     iteration # 57     ecut=    60.00 Ry     beta= 0.30
     Davidson diagonalization with overlap
     ethr =  9.24E-09,  avg # of iterations =  6.9

     total cpu time spent up to now is     2115.2 secs

     total energy              =   -4295.54943509 Ry
     estimated scf accuracy    <       0.00003631 Ry

     total magnetization       =     7.43 Bohr mag/cell
     absolute magnetization    =    12.13 Bohr mag/cell

     iteration # 58     ecut=    60.00 Ry     beta= 0.30
     Davidson diagonalization with overlap
     ethr =  9.24E-09,  avg # of iterations =  7.6

     total cpu time spent up to now is     2158.8 secs

     total energy              =   -4295.54952851 Ry
     estimated scf accuracy    <       0.00003560 Ry

     total magnetization       =     7.42 Bohr mag/cell
     absolute magnetization    =    12.31 Bohr mag/cell

     iteration # 59     ecut=    60.00 Ry     beta= 0.30
     Davidson diagonalization with overlap
     ethr =  9.24E-09,  avg # of iterations =  7.1

     total cpu time spent up to now is     2200.2 secs

     total energy              =   -4295.54953627 Ry
     estimated scf accuracy    <       0.00003333 Ry

     total magnetization       =     7.41 Bohr mag/cell
     absolute magnetization    =    12.45 Bohr mag/cell

     iteration # 60     ecut=    60.00 Ry     beta= 0.30
     Davidson diagonalization with overlap
     ethr =  9.24E-09,  avg # of iterations =  7.0

     total cpu time spent up to now is     2241.5 secs

     total energy              =   -4295.54921960 Ry
     estimated scf accuracy    <       0.00005607 Ry

     total magnetization       =     7.42 Bohr mag/cell
     absolute magnetization    =    12.33 Bohr mag/cell

     iteration # 61     ecut=    60.00 Ry     beta= 0.30
     Davidson diagonalization with overlap
     c_bands:  1 eigenvalues not converged
     ethr =  9.24E-09,  avg # of iterations =  8.4

     total cpu time spent up to now is     2287.9 secs

     total energy              =   -4295.54964616 Ry
     estimated scf accuracy    <       0.00000545 Ry

     total magnetization       =     7.40 Bohr mag/cell
     absolute magnetization    =    12.59 Bohr mag/cell

     iteration # 62     ecut=    60.00 Ry     beta= 0.30
     Davidson diagonalization with overlap
     ethr =  2.35E-09,  avg # of iterations =  6.3

     total cpu time spent up to now is     2327.3 secs

     total energy              =   -4295.54959056 Ry
     estimated scf accuracy    <       0.00002266 Ry

     total magnetization       =     7.39 Bohr mag/cell
     absolute magnetization    =    12.54 Bohr mag/cell

     iteration # 63     ecut=    60.00 Ry     beta= 0.30
     Davidson diagonalization with overlap
     ethr =  2.35E-09,  avg # of iterations =  9.0

     total cpu time spent up to now is     2374.2 secs

     total energy              =   -4295.54965624 Ry
     estimated scf accuracy    <       0.00000323 Ry

     total magnetization       =     7.39 Bohr mag/cell
     absolute magnetization    =    12.65 Bohr mag/cell

     iteration # 64     ecut=    60.00 Ry     beta= 0.30
     Davidson diagonalization with overlap
     c_bands:  1 eigenvalues not converged
     ethr =  1.39E-09,  avg # of iterations =  6.5

     total cpu time spent up to now is     2415.1 secs

     total energy              =   -4295.54966639 Ry
     estimated scf accuracy    <       0.00000127 Ry

     total magnetization       =     7.38 Bohr mag/cell
     absolute magnetization    =    12.60 Bohr mag/cell

     iteration # 65     ecut=    60.00 Ry     beta= 0.30
     Davidson diagonalization with overlap
     ethr =  5.48E-10,  avg # of iterations =  5.2

     total cpu time spent up to now is     2450.8 secs

     total energy              =   -4295.54966474 Ry
     estimated scf accuracy    <       0.00000340 Ry

     total magnetization       =     7.38 Bohr mag/cell
     absolute magnetization    =    12.60 Bohr mag/cell

     iteration # 66     ecut=    60.00 Ry     beta= 0.30
     Davidson diagonalization with overlap
     ethr =  5.48E-10,  avg # of iterations =  6.2

     total cpu time spent up to now is     2490.4 secs

     total energy              =   -4295.54966058 Ry
     estimated scf accuracy    <       0.00000125 Ry

     total magnetization       =     7.38 Bohr mag/cell
     absolute magnetization    =    12.62 Bohr mag/cell

     iteration # 67     ecut=    60.00 Ry     beta= 0.30
     Davidson diagonalization with overlap
     ethr =  5.41E-10,  avg # of iterations =  6.7

     total cpu time spent up to now is     2531.3 secs

     total energy              =   -4295.54966618 Ry
     estimated scf accuracy    <       0.00000048 Ry

     total magnetization       =     7.38 Bohr mag/cell
     absolute magnetization    =    12.59 Bohr mag/cell

     iteration # 68     ecut=    60.00 Ry     beta= 0.30
     Davidson diagonalization with overlap
     ethr =  2.08E-10,  avg # of iterations =  5.5

     total cpu time spent up to now is     2568.8 secs

     total energy              =   -4295.54966657 Ry
     estimated scf accuracy    <       0.00000079 Ry

     total magnetization       =     7.38 Bohr mag/cell
     absolute magnetization    =    12.60 Bohr mag/cell

     iteration # 69     ecut=    60.00 Ry     beta= 0.30
     Davidson diagonalization with overlap
     ethr =  2.08E-10,  avg # of iterations =  5.6

     total cpu time spent up to now is     2607.2 secs

     total energy              =   -4295.54966548 Ry
     estimated scf accuracy    <       0.00000075 Ry

     total magnetization       =     7.38 Bohr mag/cell
     absolute magnetization    =    12.61 Bohr mag/cell

     iteration # 70     ecut=    60.00 Ry     beta= 0.30
     Davidson diagonalization with overlap
     ethr =  2.08E-10,  avg # of iterations =  7.0

     total cpu time spent up to now is     2649.2 secs

     total energy              =   -4295.54966776 Ry
     estimated scf accuracy    <       0.00000027 Ry

     total magnetization       =     7.38 Bohr mag/cell
     absolute magnetization    =    12.63 Bohr mag/cell

     iteration # 71     ecut=    60.00 Ry     beta= 0.30
     Davidson diagonalization with overlap
     ethr =  1.17E-10,  avg # of iterations =  5.4

     total cpu time spent up to now is     2685.3 secs

     total energy              =   -4295.54966791 Ry
     estimated scf accuracy    <       0.00000038 Ry

     total magnetization       =     7.38 Bohr mag/cell
     absolute magnetization    =    12.62 Bohr mag/cell

     iteration # 72     ecut=    60.00 Ry     beta= 0.30
     Davidson diagonalization with overlap
     ethr =  1.17E-10,  avg # of iterations =  5.1

     total cpu time spent up to now is     2719.9 secs

     total energy              =   -4295.54966684 Ry
     estimated scf accuracy    <       0.00000051 Ry

     total magnetization       =     7.38 Bohr mag/cell
     absolute magnetization    =    12.62 Bohr mag/cell

     iteration # 73     ecut=    60.00 Ry     beta= 0.30
     Davidson diagonalization with overlap
     ethr =  1.17E-10,  avg # of iterations =  7.0

     total cpu time spent up to now is     2761.6 secs

     total energy              =   -4295.54966800 Ry
     estimated scf accuracy    <       0.00000011 Ry

     total magnetization       =     7.38 Bohr mag/cell
     absolute magnetization    =    12.64 Bohr mag/cell

     iteration # 74     ecut=    60.00 Ry     beta= 0.30
     Davidson diagonalization with overlap
     ethr =  4.85E-11,  avg # of iterations =  5.4

     total cpu time spent up to now is     2799.6 secs

     total energy              =   -4295.54966755 Ry
     estimated scf accuracy    <       0.00000017 Ry

     total magnetization       =     7.38 Bohr mag/cell
     absolute magnetization    =    12.63 Bohr mag/cell

     iteration # 75     ecut=    60.00 Ry     beta= 0.30
     Davidson diagonalization with overlap
     ethr =  4.85E-11,  avg # of iterations =  7.1

     total cpu time spent up to now is     2842.0 secs

     total energy              =   -4295.54966824 Ry
     estimated scf accuracy    <       0.00000011 Ry

     total magnetization       =     7.38 Bohr mag/cell
     absolute magnetization    =    12.64 Bohr mag/cell

     iteration # 76     ecut=    60.00 Ry     beta= 0.30
     Davidson diagonalization with overlap
     ethr =  4.62E-11,  avg # of iterations =  4.6
 
     Magnetic moment per site  (integrated on atomic sphere of radius R)
     atom   1 (R=0.179)  charge= 12.1626  magn=  0.6019
     atom   2 (R=0.179)  charge= 14.4861  magn=  1.2343
     atom   3 (R=0.179)  charge= 12.1623  magn=  0.6021
     atom   4 (R=0.179)  charge= 12.1973  magn= -0.5803
     atom   5 (R=0.179)  charge= 12.1622  magn=  0.6009
     atom   6 (R=0.179)  charge= 14.4861  magn=  1.2343
     atom   7 (R=0.179)  charge= 12.1623  magn=  0.6022
     atom   8 (R=0.179)  charge= 12.1973  magn= -0.5803
     atom   9 (R=0.179)  charge= 12.1623  magn=  0.6021
     atom  10 (R=0.179)  charge= 12.1973  magn= -0.5803
     atom  11 (R=0.179)  charge= 12.1625  magn=  0.6009
     atom  12 (R=0.179)  charge= 14.4861  magn=  1.2343
     atom  13 (R=0.179)  charge= 12.1623  magn=  0.6022
     atom  14 (R=0.179)  charge= 12.1973  magn= -0.5803
     atom  15 (R=0.179)  charge= 12.1621  magn=  0.6018
     atom  16 (R=0.179)  charge= 14.4861  magn=  1.2343

     total cpu time spent up to now is     2875.9 secs

     End of self-consistent calculation

     Number of k-points >= 100: set verbosity='high' to print the bands.

     the Fermi energy is    19.7374 ev

!    total energy              =   -4295.54966827 Ry
     total all-electron energy =    -35403.127943 Ry
     estimated scf accuracy    <       0.00000004 Ry
     smearing contrib. (-TS)   =      -0.00202486 Ry
     internal energy E=F+TS    =   -4295.54764340 Ry

     The total energy is F=E-TS. E is the sum of the following terms:
     one-electron contribution =   -1091.10844013 Ry
     hartree contribution      =     692.98193019 Ry
     xc contribution           =    -378.45936386 Ry
     ewald contribution        =   -2296.81925786 Ry
     one-center paw contrib.   =   -1222.14251174 Ry

     total magnetization       =     7.38 Bohr mag/cell
     absolute magnetization    =    12.64 Bohr mag/cell

     convergence has been achieved in  76 iterations


     Computing stress (Cartesian axis) and pressure

          total   stress  (Ry/bohr**3)                   (kbar)     P=       25.76
   0.00013054   0.00000000  -0.00000005           19.20        0.00       -0.01
   0.00000000   0.00026435   0.00000000            0.00       38.89        0.00
  -0.00000005   0.00000000   0.00013054           -0.01        0.00       19.20


     Writing all to output data dir ./tmp/fecr_fe04cr12_h0.00.save/ :
     XML data file, charge density, pseudopotentials, collected wavefunctions
 
     init_run     :     38.53s CPU     26.01s WALL (       1 calls)
     electrons    :   3790.20s CPU   2849.43s WALL (       1 calls)
     stress       :     15.21s CPU     14.98s WALL (       1 calls)

     Called by init_run:
     wfcinit      :      4.74s CPU      5.84s WALL (       1 calls)
     potinit      :     32.88s CPU     19.19s WALL (       1 calls)
     hinit0       :      0.62s CPU      0.59s WALL (       1 calls)

     Called by electrons:
     c_bands      :   1379.35s CPU   1383.73s WALL (      76 calls)
     sum_band     :    110.78s CPU    111.04s WALL (      76 calls)
     v_of_rho     :      3.82s CPU      3.29s WALL (      77 calls)
     newd         :      3.12s CPU      3.14s WALL (      77 calls)
                                        3.14s GPU  (      77 calls)
     PAW_pot      :   2321.42s CPU   1362.84s WALL (      77 calls)
     mix_rho      :      2.51s CPU      2.51s WALL (      76 calls)

     Called by c_bands:
     init_us_2    :      9.35s CPU      8.87s WALL (   16016 calls)
     cegterg      :   1264.55s CPU   1268.92s WALL (    7904 calls)

     Called by *egterg:
     cdiaghg      :    456.90s CPU    460.31s WALL (   51668 calls)
                                      460.09s GPU  (   51668 calls)
     h_psi        :    365.83s CPU    368.12s WALL (   51772 calls)
                                      367.76s GPU  (   51772 calls)
     s_psi        :     25.97s CPU     26.40s WALL (   51772 calls)
     g_psi        :      0.24s CPU      2.16s WALL (   43764 calls)
                                        2.03s GPU  (   43764 calls)

     Called by h_psi:
     h_psi:calbec :      1.80s CPU     78.04s WALL (   51772 calls)
                                       77.85s GPU  (   51772 calls)
     vloc_psi     :    189.89s CPU    189.48s WALL (   51772 calls)
                                      189.31s GPU  (   51772 calls)
     add_vuspsi   :     25.30s CPU     97.86s WALL (   51772 calls)
                                       97.68s GPU  (   51772 calls)

     General routines
     calbec       :      2.11s CPU      2.23s WALL (   59780 calls)
     fft          :      0.89s CPU      1.09s WALL (    1944 calls)
                                        0.24s GPU  (    1790 calls)
     ffts         :      0.29s CPU      0.29s WALL (     306 calls)
                                        0.01s GPU  (     152 calls)
     fftw         :     10.61s CPU    174.55s WALL (  496484 calls)
                                      173.40s GPU  (  496484 calls)
     interpolate  :      1.23s CPU      1.25s WALL (     154 calls)
 
     Parallel routines
 
     PWSCF        :      1h 4m CPU  48m15.10s WALL

 
   This run was terminated on:  12:15:51  21May2026            

=------------------------------------------------------------------------------=
   JOB DONE.
=------------------------------------------------------------------------------=
Warning: ieee_divide_by_zero is signaling
Warning: ieee_inexact is signaling
FORTRAN STOP
