--------------------------------------------------------------------------
WARNING: Open MPI tried to bind a process but failed.  This is a
warning only; your job will continue, though performance may
be degraded.

  Local host:        4b82db919bf5
  Application name:  /root/q-e-qe-7.3.1/bin/pw.x
  Error message:     failed to bind memory
  Location:          ../../../../../orte/mca/rtc/hwloc/rtc_hwloc.c:447

--------------------------------------------------------------------------

     Program PWSCF v.7.3.1 starts on 24May2026 at 10:25:32 

     This program is part of the open-source Quantum ESPRESSO suite
     for quantum simulation of materials; please cite
         "P. Giannozzi et al., J. Phys.:Condens. Matter 21 395502 (2009);
         "P. Giannozzi et al., J. Phys.:Condens. Matter 29 465901 (2017);
         "P. Giannozzi et al., J. Chem. Phys. 152 154105 (2020);
          URL http://www.quantum-espresso.org", 
     in publications or presentations arising from this work. More details at
     http://www.quantum-espresso.org/quote

     Parallel version (MPI & OpenMP), running on       8 processor cores
     Number of MPI processes:                 1
     Threads/MPI process:                     8

     MPI processes distributed on     1 nodes
     133372 MiB available memory on the printing compute node when the environment starts
 
     Reading input from inputs/fecr_fe02cr14_t0.00.in

     Current dimensions of program PWSCF are:
     Max number of different atomic species (ntypx) = 10
     Max number of k-points (npk) =  40000
     Max angular momentum in pseudopotentials (lmaxx) =  4
     file Fe.pbe-spn-kjpaw_psl.1.0.0.UPF: wavefunction(s)  3P 3D renormalized
     file Cr.pbe-spn-kjpaw_psl.1.0.0.UPF: wavefunction(s)  3S 3P 3D renormalized
     file Cr.pbe-spn-kjpaw_psl.1.0.0.UPF: wavefunction(s)  3S 3P 3D renormalized
     Found identity + ( -0.5000 -0.5000 -0.5000) symmetry
     This is a supercell, fractional translations are disabled
     Message from routine setup:
     using ibrav=0 with symmetry is DISCOURAGED, use correct ibrav instead
 
     Subspace diagonalization in iterative solution of the eigenvalue problem:
     a serial algorithm will be used

 
     G-vector sticks info
     --------------------
     sticks:   dense  smooth     PW     G-vecs:    dense   smooth      PW
     Sum        4421    2217    621               221119    78205   11753
 
     Using Slab Decomposition
 


     bravais-lattice index     =            0
     lattice parameter (alat)  =      10.7569  a.u.
     unit-cell volume          =    1244.6824 (a.u.)^3
     number of atoms/cell      =           16
     number of atomic types    =            3
     number of electrons       =       228.00
     number of Kohn-Sham states=          137
     kinetic-energy cutoff     =      60.0000  Ry
     charge density cutoff     =     480.0000  Ry
     scf convergence threshold =      1.0E-05
     mixing beta               =       0.1000
     number of iterations used =           16  local-TF  mixing
     Exchange-correlation= SLA  PW   PBX  PBC
                           (   1   4   3   4   0   0   0)

     GPU acceleration is ACTIVE.  1 visible GPUs per MPI rank


     celldm(1)=  10.756877  celldm(2)=   0.000000  celldm(3)=   0.000000
     celldm(4)=   0.000000  celldm(5)=   0.000000  celldm(6)=   0.000000

     crystal axes: (cart. coord. in units of alat)
               a(1) = (   1.000000   0.000000   0.000000 )  
               a(2) = (   0.000000   1.000000   0.000000 )  
               a(3) = (   0.000000   0.000000   1.000000 )  

     reciprocal axes: (cart. coord. in units 2 pi/alat)
               b(1) = (  1.000000  0.000000  0.000000 )  
               b(2) = (  0.000000  1.000000  0.000000 )  
               b(3) = (  0.000000  0.000000  1.000000 )  


     PseudoPot. # 1 for Fe read from file:
     ./pseudo/Fe.pbe-spn-kjpaw_psl.1.0.0.UPF
     MD5 check sum: fc81f059e5c5069939230b1155715ae8
     Pseudo is Projector augmented-wave + core cor, Zval = 16.0
     Generated using &quot;atomic&quot; code by A. Dal Corso  v.6.3
     Shape of augmentation charge: PSQ
     Using radial grid of 1191 points,  6 beta functions with: 
                l(1) =   0
                l(2) =   0
                l(3) =   1
                l(4) =   1
                l(5) =   2
                l(6) =   2
     Q(r) pseudized with 0 coefficients 


     PseudoPot. # 2 for Cr read from file:
     ./pseudo/Cr.pbe-spn-kjpaw_psl.1.0.0.UPF
     MD5 check sum: 198f1a2427a48552563eee314eba32ba
     Pseudo is Projector augmented-wave + core cor, Zval = 14.0
     Generated using &quot;atomic&quot; code by A. Dal Corso  v.6.3
     Shape of augmentation charge: PSQ
     Using radial grid of 1183 points,  6 beta functions with: 
                l(1) =   0
                l(2) =   0
                l(3) =   1
                l(4) =   1
                l(5) =   2
                l(6) =   2
     Q(r) pseudized with 0 coefficients 


     PseudoPot. # 3 for Cr read from file:
     ./pseudo/Cr.pbe-spn-kjpaw_psl.1.0.0.UPF
     MD5 check sum: 198f1a2427a48552563eee314eba32ba
     Pseudo is Projector augmented-wave + core cor, Zval = 14.0
     Generated using &quot;atomic&quot; code by A. Dal Corso  v.6.3
     Shape of augmentation charge: PSQ
     Using radial grid of 1183 points,  6 beta functions with: 
                l(1) =   0
                l(2) =   0
                l(3) =   1
                l(4) =   1
                l(5) =   2
                l(6) =   2
     Q(r) pseudized with 0 coefficients 


     atomic species   valence    mass     pseudopotential
     Fe               16.00    55.84500     Fe( 1.00)
     CrA              14.00    51.99600     Cr( 1.00)
     CrB              14.00    51.99600     Cr( 1.00)

     Starting magnetic structure 
     atomic species   magnetization
     Fe              0.500
     CrA             0.500
     CrB            -0.500

     12 Sym. Ops., with inversion, found



   Cartesian axes

     site n.     atom                  positions (alat units)
         1        CrA    tau(   1) = (   0.0000000   0.0000000   0.0000000  )
         2        Fe     tau(   2) = (   0.2500000   0.2500000   0.2500000  )
         3        CrA    tau(   3) = (   0.0000000   0.0000000   0.5000000  )
         4        CrB    tau(   4) = (   0.2500000   0.2500000   0.7500000  )
         5        CrA    tau(   5) = (   0.0000000   0.5000000   0.0000000  )
         6        CrB    tau(   6) = (   0.2500000   0.7500000   0.2500000  )
         7        CrA    tau(   7) = (   0.0000000   0.5000000   0.5000000  )
         8        CrB    tau(   8) = (   0.2500000   0.7500000   0.7500000  )
         9        CrA    tau(   9) = (   0.5000000   0.0000000   0.0000000  )
        10        CrB    tau(  10) = (   0.7500000   0.2500000   0.2500000  )
        11        CrA    tau(  11) = (   0.5000000   0.0000000   0.5000000  )
        12        CrB    tau(  12) = (   0.7500000   0.2500000   0.7500000  )
        13        CrA    tau(  13) = (   0.5000000   0.5000000   0.0000000  )
        14        CrB    tau(  14) = (   0.7500000   0.7500000   0.2500000  )
        15        CrA    tau(  15) = (   0.5000000   0.5000000   0.5000000  )
        16        Fe     tau(  16) = (   0.7500000   0.7500000   0.7500000  )

     number of k points=    32  Marzari-Vanderbilt smearing, width (Ry)=  0.0200
                       cart. coord. in units 2pi/alat
        k(    1) = (   0.0000000   0.0000000   0.0000000), wk =   0.0046296
        k(    2) = (   0.0000000   0.0000000   0.1666667), wk =   0.0277778
        k(    3) = (   0.0000000   0.0000000   0.3333333), wk =   0.0277778
        k(    4) = (   0.0000000   0.0000000  -0.5000000), wk =   0.0138889
        k(    5) = (   0.0000000   0.1666667   0.1666667), wk =   0.0277778
        k(    6) = (   0.0000000   0.1666667   0.3333333), wk =   0.0555556
        k(    7) = (   0.0000000   0.1666667  -0.5000000), wk =   0.0555556
        k(    8) = (   0.0000000   0.3333333   0.3333333), wk =   0.0277778
        k(    9) = (   0.0000000   0.3333333  -0.5000000), wk =   0.0555556
        k(   10) = (   0.0000000  -0.5000000  -0.5000000), wk =   0.0138889
        k(   11) = (   0.1666667   0.1666667   0.1666667), wk =   0.0092593
        k(   12) = (   0.1666667   0.1666667   0.3333333), wk =   0.0277778
        k(   13) = (   0.1666667   0.1666667  -0.5000000), wk =   0.0277778
        k(   14) = (   0.1666667   0.3333333   0.3333333), wk =   0.0277778
        k(   15) = (   0.1666667   0.3333333  -0.5000000), wk =   0.0555556
        k(   16) = (   0.1666667  -0.5000000  -0.5000000), wk =   0.0277778
        k(   17) = (   0.3333333   0.3333333   0.3333333), wk =   0.0092593
        k(   18) = (   0.3333333   0.3333333  -0.5000000), wk =   0.0277778
        k(   19) = (   0.3333333  -0.5000000  -0.5000000), wk =   0.0277778
        k(   20) = (  -0.5000000  -0.5000000  -0.5000000), wk =   0.0046296
        k(   21) = (   0.0000000   0.1666667  -0.1666667), wk =   0.0277778
        k(   22) = (   0.0000000   0.3333333  -0.1666667), wk =   0.0555556
        k(   23) = (   0.0000000   0.3333333  -0.3333333), wk =   0.0277778
        k(   24) = (  -0.1666667   0.1666667   0.1666667), wk =   0.0277778
        k(   25) = (  -0.1666667   0.3333333   0.1666667), wk =   0.0555556
        k(   26) = (   0.1666667  -0.3333333   0.1666667), wk =   0.0277778
        k(   27) = (  -0.1666667  -0.5000000   0.1666667), wk =   0.0277778
        k(   28) = (  -0.1666667   0.3333333   0.3333333), wk =   0.0277778
        k(   29) = (   0.1666667   0.3333333  -0.3333333), wk =   0.0555556
        k(   30) = (  -0.1666667  -0.5000000   0.3333333), wk =   0.0555556
        k(   31) = (  -0.3333333   0.3333333   0.3333333), wk =   0.0277778
        k(   32) = (  -0.3333333  -0.5000000   0.3333333), wk =   0.0277778

     Dense  grid:   221119 G-vectors     FFT dimensions: (  75,  75,  75)

     Smooth grid:    78205 G-vectors     FFT dimensions: (  54,  54,  54)

     Estimated max dynamical RAM per process >       2.33 GB

     Check: negative core charge=   -0.000003
     Generating pointlists ...
     new r_m :   0.1786 (alat units)  1.9214 (a.u.) for type    1
     new r_m :   0.1786 (alat units)  1.9214 (a.u.) for type    2
     new r_m :   0.1786 (alat units)  1.9214 (a.u.) for type    3

     Initial potential from superposition of free atoms

     starting charge     227.9883, renormalised to     228.0000
     Starting wfcs are  160 randomized atomic wfcs
     Checking if some PAW data can be deallocated... 

     total cpu time spent up to now is       23.8 secs

     Self-consistent Calculation

     iteration #  1     ecut=    60.00 Ry     beta= 0.10
     Davidson diagonalization with overlap
     ethr =  1.00E-02,  avg # of iterations =  5.8

     negative rho (up, down):  0.000E+00 9.287E-01

     total cpu time spent up to now is       54.2 secs

     total energy              =   -4113.06132765 Ry
     estimated scf accuracy    <     394.61704513 Ry

     total magnetization       =    15.44 Bohr mag/cell
     absolute magnetization    =    94.05 Bohr mag/cell

     iteration #  2     ecut=    60.00 Ry     beta= 0.10
     Davidson diagonalization with overlap
     ethr =  1.00E-02,  avg # of iterations =  3.8

     negative rho (up, down):  0.000E+00 8.004E-01

     total cpu time spent up to now is       81.3 secs

     total energy              =   -4129.31807094 Ry
     estimated scf accuracy    <       8.46172099 Ry

     total magnetization       =    15.86 Bohr mag/cell
     absolute magnetization    =    55.64 Bohr mag/cell

     iteration #  3     ecut=    60.00 Ry     beta= 0.10
     Davidson diagonalization with overlap
     ethr =  3.71E-03,  avg # of iterations =  1.6

     negative rho (up, down):  0.000E+00 3.086E-01

     total cpu time spent up to now is      107.6 secs

     total energy              =   -4131.14259552 Ry
     estimated scf accuracy    <       7.02290702 Ry

     total magnetization       =    15.40 Bohr mag/cell
     absolute magnetization    =    54.16 Bohr mag/cell

     iteration #  4     ecut=    60.00 Ry     beta= 0.10
     Davidson diagonalization with overlap
     ethr =  3.08E-03,  avg # of iterations =  2.1

     negative rho (up, down):  0.000E+00 3.099E-01

     total cpu time spent up to now is      133.4 secs

     total energy              =   -4131.49589792 Ry
     estimated scf accuracy    <       4.12425715 Ry

     total magnetization       =     9.23 Bohr mag/cell
     absolute magnetization    =    44.72 Bohr mag/cell

     iteration #  5     ecut=    60.00 Ry     beta= 0.10
     Davidson diagonalization with overlap
     ethr =  1.81E-03,  avg # of iterations =  1.5

     negative rho (up, down):  0.000E+00 2.872E-01

     total cpu time spent up to now is      158.5 secs

     total energy              =   -4131.64815332 Ry
     estimated scf accuracy    <       4.17303877 Ry

     total magnetization       =     9.22 Bohr mag/cell
     absolute magnetization    =    44.46 Bohr mag/cell

     iteration #  6     ecut=    60.00 Ry     beta= 0.10
     Davidson diagonalization with overlap
     ethr =  1.81E-03,  avg # of iterations =  1.2

     negative rho (up, down):  0.000E+00 1.784E-03

     total cpu time spent up to now is      183.0 secs

     total energy              =   -4132.57141270 Ry
     estimated scf accuracy    <       5.35271894 Ry

     total magnetization       =     8.21 Bohr mag/cell
     absolute magnetization    =    43.06 Bohr mag/cell

     iteration #  7     ecut=    60.00 Ry     beta= 0.10
     Davidson diagonalization with overlap
     ethr =  1.81E-03,  avg # of iterations =  2.2

     negative rho (up, down):  0.000E+00 1.902E-03

     total cpu time spent up to now is      208.8 secs

     total energy              =   -4133.01592775 Ry
     estimated scf accuracy    <       0.71586260 Ry

     total magnetization       =     7.48 Bohr mag/cell
     absolute magnetization    =    37.72 Bohr mag/cell

     iteration #  8     ecut=    60.00 Ry     beta= 0.10
     Davidson diagonalization with overlap
     ethr =  3.14E-04,  avg # of iterations =  7.3

     total cpu time spent up to now is      241.9 secs

     total energy              =   -4133.61781314 Ry
     estimated scf accuracy    <       5.81211835 Ry

     total magnetization       =     4.02 Bohr mag/cell
     absolute magnetization    =    28.47 Bohr mag/cell

     iteration #  9     ecut=    60.00 Ry     beta= 0.10
     Davidson diagonalization with overlap
     ethr =  3.14E-04,  avg # of iterations =  2.0

     negative rho (up, down):  0.000E+00 3.753E-02

     total cpu time spent up to now is      267.7 secs

     total energy              =   -4132.72220116 Ry
     estimated scf accuracy    <       8.58246073 Ry

     total magnetization       =     3.86 Bohr mag/cell
     absolute magnetization    =    29.08 Bohr mag/cell

     iteration # 10     ecut=    60.00 Ry     beta= 0.10
     Davidson diagonalization with overlap
     ethr =  3.14E-04,  avg # of iterations =  6.7

     negative rho (up, down):  0.000E+00 2.624E-02

     total cpu time spent up to now is      299.6 secs

     total energy              =   -4133.31296333 Ry
     estimated scf accuracy    <       0.69114587 Ry

     total magnetization       =     4.35 Bohr mag/cell
     absolute magnetization    =    25.34 Bohr mag/cell

     iteration # 11     ecut=    60.00 Ry     beta= 0.10
     Davidson diagonalization with overlap
     ethr =  3.03E-04,  avg # of iterations =  1.5

     negative rho (up, down):  0.000E+00 2.248E-02

     total cpu time spent up to now is      324.6 secs

     total energy              =   -4133.38130832 Ry
     estimated scf accuracy    <       0.15697907 Ry

     total magnetization       =     3.63 Bohr mag/cell
     absolute magnetization    =    23.51 Bohr mag/cell

     iteration # 12     ecut=    60.00 Ry     beta= 0.10
     Davidson diagonalization with overlap
     ethr =  6.89E-05,  avg # of iterations =  5.7

     negative rho (up, down):  0.000E+00 8.147E-03

     total cpu time spent up to now is      352.5 secs

     total energy              =   -4133.41582714 Ry
     estimated scf accuracy    <       0.12977302 Ry

     total magnetization       =     3.63 Bohr mag/cell
     absolute magnetization    =    23.04 Bohr mag/cell

     iteration # 13     ecut=    60.00 Ry     beta= 0.10
     Davidson diagonalization with overlap
     ethr =  5.69E-05,  avg # of iterations =  4.9

     total cpu time spent up to now is      380.4 secs

     total energy              =   -4133.45065362 Ry
     estimated scf accuracy    <       0.37705394 Ry

     total magnetization       =     3.60 Bohr mag/cell
     absolute magnetization    =    23.49 Bohr mag/cell

     iteration # 14     ecut=    60.00 Ry     beta= 0.10
     Davidson diagonalization with overlap
     c_bands:  1 eigenvalues not converged
     ethr =  5.69E-05,  avg # of iterations =  7.3

     total cpu time spent up to now is      411.9 secs

     total energy              =   -4133.46150510 Ry
     estimated scf accuracy    <       0.36742745 Ry

     total magnetization       =     3.27 Bohr mag/cell
     absolute magnetization    =    20.50 Bohr mag/cell

     iteration # 15     ecut=    60.00 Ry     beta= 0.10
     Davidson diagonalization with overlap
     ethr =  5.69E-05,  avg # of iterations =  4.5

     total cpu time spent up to now is      439.6 secs

     total energy              =   -4133.48398410 Ry
     estimated scf accuracy    <       0.08870835 Ry

     total magnetization       =     3.75 Bohr mag/cell
     absolute magnetization    =    21.04 Bohr mag/cell

     iteration # 16     ecut=    60.00 Ry     beta= 0.10
     Davidson diagonalization with overlap
     ethr =  3.89E-05,  avg # of iterations =  3.4

     total cpu time spent up to now is      466.7 secs

     total energy              =   -4133.49977894 Ry
     estimated scf accuracy    <       0.03735193 Ry

     total magnetization       =     3.73 Bohr mag/cell
     absolute magnetization    =    21.69 Bohr mag/cell

     iteration # 17     ecut=    60.00 Ry     beta= 0.10
     Davidson diagonalization with overlap
     ethr =  1.64E-05,  avg # of iterations =  6.3

     total cpu time spent up to now is      495.8 secs

     total energy              =   -4133.50647261 Ry
     estimated scf accuracy    <       0.08360895 Ry

     total magnetization       =     3.74 Bohr mag/cell
     absolute magnetization    =    21.17 Bohr mag/cell

     iteration # 18     ecut=    60.00 Ry     beta= 0.10
     Davidson diagonalization with overlap
     c_bands:  1 eigenvalues not converged
     ethr =  1.64E-05,  avg # of iterations =  4.0

     total cpu time spent up to now is      523.0 secs

     total energy              =   -4133.50913660 Ry
     estimated scf accuracy    <       0.05974122 Ry

     total magnetization       =     3.68 Bohr mag/cell
     absolute magnetization    =    19.95 Bohr mag/cell

     iteration # 19     ecut=    60.00 Ry     beta= 0.10
     Davidson diagonalization with overlap
     ethr =  1.64E-05,  avg # of iterations =  2.7

     total cpu time spent up to now is      549.0 secs

     total energy              =   -4133.51747995 Ry
     estimated scf accuracy    <       0.01989401 Ry

     total magnetization       =     3.51 Bohr mag/cell
     absolute magnetization    =    19.59 Bohr mag/cell

     iteration # 20     ecut=    60.00 Ry     beta= 0.10
     Davidson diagonalization with overlap
     ethr =  8.73E-06,  avg # of iterations =  3.9

     total cpu time spent up to now is      575.8 secs

     total energy              =   -4133.51728101 Ry
     estimated scf accuracy    <       0.02379514 Ry

     total magnetization       =     3.49 Bohr mag/cell
     absolute magnetization    =    19.27 Bohr mag/cell

     iteration # 21     ecut=    60.00 Ry     beta= 0.10
     Davidson diagonalization with overlap
     c_bands:  1 eigenvalues not converged
     c_bands:  1 eigenvalues not converged
     ethr =  8.73E-06,  avg # of iterations =  6.9

     total cpu time spent up to now is      606.0 secs

     total energy              =   -4133.52148599 Ry
     estimated scf accuracy    <       0.00733912 Ry

     total magnetization       =     3.54 Bohr mag/cell
     absolute magnetization    =    18.50 Bohr mag/cell

     iteration # 22     ecut=    60.00 Ry     beta= 0.10
     Davidson diagonalization with overlap
     c_bands:  1 eigenvalues not converged
     c_bands:  1 eigenvalues not converged
     ethr =  3.22E-06,  avg # of iterations =  7.8

     total cpu time spent up to now is      638.0 secs

     total energy              =   -4133.52280452 Ry
     estimated scf accuracy    <       0.00327981 Ry

     total magnetization       =     3.50 Bohr mag/cell
     absolute magnetization    =    18.20 Bohr mag/cell

     iteration # 23     ecut=    60.00 Ry     beta= 0.10
     Davidson diagonalization with overlap
     c_bands:  1 eigenvalues not converged
     c_bands:  1 eigenvalues not converged
     ethr =  1.44E-06,  avg # of iterations =  3.8

     total cpu time spent up to now is      664.9 secs

     total energy              =   -4133.52329980 Ry
     estimated scf accuracy    <       0.00580760 Ry

     total magnetization       =     3.51 Bohr mag/cell
     absolute magnetization    =    18.32 Bohr mag/cell

     iteration # 24     ecut=    60.00 Ry     beta= 0.10
     Davidson diagonalization with overlap
     ethr =  1.44E-06,  avg # of iterations =  2.5

     total cpu time spent up to now is      691.4 secs

     total energy              =   -4133.52429325 Ry
     estimated scf accuracy    <       0.00110996 Ry

     total magnetization       =     3.55 Bohr mag/cell
     absolute magnetization    =    18.35 Bohr mag/cell

     iteration # 25     ecut=    60.00 Ry     beta= 0.10
     Davidson diagonalization with overlap
     ethr =  4.87E-07,  avg # of iterations =  4.9

     total cpu time spent up to now is      719.7 secs

     total energy              =   -4133.52458773 Ry
     estimated scf accuracy    <       0.00105254 Ry

     total magnetization       =     3.54 Bohr mag/cell
     absolute magnetization    =    18.29 Bohr mag/cell

     iteration # 26     ecut=    60.00 Ry     beta= 0.10
     Davidson diagonalization with overlap
     c_bands:  1 eigenvalues not converged
     ethr =  4.62E-07,  avg # of iterations =  2.6

     total cpu time spent up to now is      745.4 secs

     total energy              =   -4133.52520742 Ry
     estimated scf accuracy    <       0.00109796 Ry

     total magnetization       =     3.56 Bohr mag/cell
     absolute magnetization    =    18.39 Bohr mag/cell

     iteration # 27     ecut=    60.00 Ry     beta= 0.10
     Davidson diagonalization with overlap
     c_bands:  1 eigenvalues not converged
     c_bands:  1 eigenvalues not converged
     ethr =  4.62E-07,  avg # of iterations =  4.3

     total cpu time spent up to now is      771.9 secs

     total energy              =   -4133.52587818 Ry
     estimated scf accuracy    <       0.00140522 Ry

     total magnetization       =     3.57 Bohr mag/cell
     absolute magnetization    =    18.36 Bohr mag/cell

     iteration # 28     ecut=    60.00 Ry     beta= 0.10
     Davidson diagonalization with overlap
     ethr =  4.62E-07,  avg # of iterations =  3.2

     total cpu time spent up to now is      798.9 secs

     total energy              =   -4133.52617459 Ry
     estimated scf accuracy    <       0.00377780 Ry

     total magnetization       =     3.57 Bohr mag/cell
     absolute magnetization    =    18.28 Bohr mag/cell

     iteration # 29     ecut=    60.00 Ry     beta= 0.10
     Davidson diagonalization with overlap
     ethr =  4.62E-07,  avg # of iterations =  1.0

     total cpu time spent up to now is      822.7 secs

     total energy              =   -4133.52652534 Ry
     estimated scf accuracy    <       0.00365551 Ry

     total magnetization       =     3.57 Bohr mag/cell
     absolute magnetization    =    18.29 Bohr mag/cell

     iteration # 30     ecut=    60.00 Ry     beta= 0.10
     Davidson diagonalization with overlap
     ethr =  4.62E-07,  avg # of iterations =  1.0

     total cpu time spent up to now is      847.2 secs

     total energy              =   -4133.52641736 Ry
     estimated scf accuracy    <       0.00328400 Ry

     total magnetization       =     3.56 Bohr mag/cell
     absolute magnetization    =    18.25 Bohr mag/cell

     iteration # 31     ecut=    60.00 Ry     beta= 0.10
     Davidson diagonalization with overlap
     ethr =  4.62E-07,  avg # of iterations =  1.8

     total cpu time spent up to now is      873.4 secs

     total energy              =   -4133.52690086 Ry
     estimated scf accuracy    <       0.00120265 Ry

     total magnetization       =     3.56 Bohr mag/cell
     absolute magnetization    =    18.26 Bohr mag/cell

     iteration # 32     ecut=    60.00 Ry     beta= 0.10
     Davidson diagonalization with overlap
     ethr =  4.62E-07,  avg # of iterations =  3.4

     total cpu time spent up to now is      899.9 secs

     total energy              =   -4133.52720475 Ry
     estimated scf accuracy    <       0.00174261 Ry

     total magnetization       =     3.57 Bohr mag/cell
     absolute magnetization    =    18.13 Bohr mag/cell

     iteration # 33     ecut=    60.00 Ry     beta= 0.10
     Davidson diagonalization with overlap
     ethr =  4.62E-07,  avg # of iterations =  1.0

     total cpu time spent up to now is      924.8 secs

     total energy              =   -4133.52747840 Ry
     estimated scf accuracy    <       0.00169057 Ry

     total magnetization       =     3.58 Bohr mag/cell
     absolute magnetization    =    18.12 Bohr mag/cell

     iteration # 34     ecut=    60.00 Ry     beta= 0.10
     Davidson diagonalization with overlap
     ethr =  4.62E-07,  avg # of iterations =  2.5

     total cpu time spent up to now is      951.2 secs

     total energy              =   -4133.52772691 Ry
     estimated scf accuracy    <       0.00077006 Ry

     total magnetization       =     3.60 Bohr mag/cell
     absolute magnetization    =    18.03 Bohr mag/cell

     iteration # 35     ecut=    60.00 Ry     beta= 0.10
     Davidson diagonalization with overlap
     ethr =  3.38E-07,  avg # of iterations =  2.1

     total cpu time spent up to now is      976.7 secs

     total energy              =   -4133.52807568 Ry
     estimated scf accuracy    <       0.00093769 Ry

     total magnetization       =     3.61 Bohr mag/cell
     absolute magnetization    =    18.01 Bohr mag/cell

     iteration # 36     ecut=    60.00 Ry     beta= 0.10
     Davidson diagonalization with overlap
     ethr =  3.38E-07,  avg # of iterations =  4.2

     total cpu time spent up to now is     1004.2 secs

     total energy              =   -4133.52848107 Ry
     estimated scf accuracy    <       0.00137239 Ry

     total magnetization       =     3.60 Bohr mag/cell
     absolute magnetization    =    17.75 Bohr mag/cell

     iteration # 37     ecut=    60.00 Ry     beta= 0.10
     Davidson diagonalization with overlap
     ethr =  3.38E-07,  avg # of iterations =  3.4

     total cpu time spent up to now is     1031.2 secs

     total energy              =   -4133.52886461 Ry
     estimated scf accuracy    <       0.00064064 Ry

     total magnetization       =     3.60 Bohr mag/cell
     absolute magnetization    =    17.63 Bohr mag/cell

     iteration # 38     ecut=    60.00 Ry     beta= 0.10
     Davidson diagonalization with overlap
     ethr =  2.81E-07,  avg # of iterations =  5.6

     total cpu time spent up to now is     1060.1 secs

     total energy              =   -4133.52810350 Ry
     estimated scf accuracy    <       0.00086194 Ry

     total magnetization       =     3.62 Bohr mag/cell
     absolute magnetization    =    17.41 Bohr mag/cell

     iteration # 39     ecut=    60.00 Ry     beta= 0.10
     Davidson diagonalization with overlap
     ethr =  2.81E-07,  avg # of iterations =  5.5

     total cpu time spent up to now is     1089.1 secs

     total energy              =   -4133.52884634 Ry
     estimated scf accuracy    <       0.00148683 Ry

     total magnetization       =     3.56 Bohr mag/cell
     absolute magnetization    =    17.55 Bohr mag/cell

     iteration # 40     ecut=    60.00 Ry     beta= 0.10
     Davidson diagonalization with overlap
     ethr =  2.81E-07,  avg # of iterations =  5.4

     total cpu time spent up to now is     1118.7 secs

     total energy              =   -4133.52941099 Ry
     estimated scf accuracy    <       0.00192135 Ry

     total magnetization       =     3.60 Bohr mag/cell
     absolute magnetization    =    17.19 Bohr mag/cell

     iteration # 41     ecut=    60.00 Ry     beta= 0.10
     Davidson diagonalization with overlap
     ethr =  2.81E-07,  avg # of iterations =  1.0

     total cpu time spent up to now is     1144.0 secs

     total energy              =   -4133.52965758 Ry
     estimated scf accuracy    <       0.00121006 Ry

     total magnetization       =     3.60 Bohr mag/cell
     absolute magnetization    =    17.19 Bohr mag/cell

     iteration # 42     ecut=    60.00 Ry     beta= 0.10
     Davidson diagonalization with overlap
     ethr =  2.81E-07,  avg # of iterations =  5.3

     total cpu time spent up to now is     1172.8 secs

     total energy              =   -4133.52881090 Ry
     estimated scf accuracy    <       0.00341176 Ry

     total magnetization       =     3.62 Bohr mag/cell
     absolute magnetization    =    16.86 Bohr mag/cell

     iteration # 43     ecut=    60.00 Ry     beta= 0.10
     Davidson diagonalization with overlap
     ethr =  2.81E-07,  avg # of iterations =  3.8

     total cpu time spent up to now is     1200.6 secs

     total energy              =   -4133.52933679 Ry
     estimated scf accuracy    <       0.00052147 Ry

     total magnetization       =     3.58 Bohr mag/cell
     absolute magnetization    =    17.18 Bohr mag/cell

     iteration # 44     ecut=    60.00 Ry     beta= 0.10
     Davidson diagonalization with overlap
     ethr =  2.29E-07,  avg # of iterations =  5.6

     total cpu time spent up to now is     1231.2 secs

     total energy              =   -4133.52885423 Ry
     estimated scf accuracy    <       0.00187572 Ry

     total magnetization       =     3.61 Bohr mag/cell
     absolute magnetization    =    16.61 Bohr mag/cell

     iteration # 45     ecut=    60.00 Ry     beta= 0.10
     Davidson diagonalization with overlap
     ethr =  2.29E-07,  avg # of iterations =  5.1

     total cpu time spent up to now is     1261.0 secs

     total energy              =   -4133.52900830 Ry
     estimated scf accuracy    <       0.00079673 Ry

     total magnetization       =     3.61 Bohr mag/cell
     absolute magnetization    =    17.18 Bohr mag/cell

     iteration # 46     ecut=    60.00 Ry     beta= 0.10
     Davidson diagonalization with overlap
     ethr =  2.29E-07,  avg # of iterations =  6.2

     total cpu time spent up to now is     1292.1 secs

     total energy              =   -4133.52900167 Ry
     estimated scf accuracy    <       0.00044149 Ry

     total magnetization       =     3.62 Bohr mag/cell
     absolute magnetization    =    16.34 Bohr mag/cell

     iteration # 47     ecut=    60.00 Ry     beta= 0.10
     Davidson diagonalization with overlap
     c_bands:  1 eigenvalues not converged
     ethr =  1.94E-07,  avg # of iterations =  7.3

     total cpu time spent up to now is     1325.2 secs

     total energy              =   -4133.52968947 Ry
     estimated scf accuracy    <       0.00041623 Ry

     total magnetization       =     3.64 Bohr mag/cell
     absolute magnetization    =    15.37 Bohr mag/cell

     iteration # 48     ecut=    60.00 Ry     beta= 0.10
     Davidson diagonalization with overlap
     c_bands:  1 eigenvalues not converged
     ethr =  1.83E-07,  avg # of iterations =  6.4

     total cpu time spent up to now is     1357.6 secs

     total energy              =   -4133.53002584 Ry
     estimated scf accuracy    <       0.00071251 Ry

     total magnetization       =     3.61 Bohr mag/cell
     absolute magnetization    =    15.98 Bohr mag/cell

     iteration # 49     ecut=    60.00 Ry     beta= 0.10
     Davidson diagonalization with overlap
     ethr =  1.83E-07,  avg # of iterations =  5.7

     total cpu time spent up to now is     1388.0 secs

     total energy              =   -4133.53078856 Ry
     estimated scf accuracy    <       0.00012252 Ry

     total magnetization       =     3.64 Bohr mag/cell
     absolute magnetization    =    15.48 Bohr mag/cell

     iteration # 50     ecut=    60.00 Ry     beta= 0.10
     Davidson diagonalization with overlap
     ethr =  5.37E-08,  avg # of iterations =  6.1

     total cpu time spent up to now is     1419.3 secs

     total energy              =   -4133.53067318 Ry
     estimated scf accuracy    <       0.00001228 Ry

     total magnetization       =     3.65 Bohr mag/cell
     absolute magnetization    =    15.13 Bohr mag/cell

     iteration # 51     ecut=    60.00 Ry     beta= 0.10
     Davidson diagonalization with overlap
     ethr =  5.39E-09,  avg # of iterations =  9.8

     total cpu time spent up to now is     1456.7 secs

     total energy              =   -4133.53102723 Ry
     estimated scf accuracy    <       0.00015913 Ry

     total magnetization       =     3.68 Bohr mag/cell
     absolute magnetization    =    14.73 Bohr mag/cell

     iteration # 52     ecut=    60.00 Ry     beta= 0.10
     Davidson diagonalization with overlap
     ethr =  5.39E-09,  avg # of iterations =  6.5
 
     Magnetic moment per site  (integrated on atomic sphere of radius R)
     atom   1 (R=0.179)  charge= 12.2019  magn=  0.8631
     atom   2 (R=0.179)  charge= 14.5133  magn=  0.9682
     atom   3 (R=0.179)  charge= 12.2020  magn=  0.8628
     atom   4 (R=0.179)  charge= 12.2193  magn= -0.8615
     atom   5 (R=0.179)  charge= 12.2020  magn=  0.8628
     atom   6 (R=0.179)  charge= 12.2193  magn= -0.8615
     atom   7 (R=0.179)  charge= 12.2023  magn=  0.8603
     atom   8 (R=0.179)  charge= 12.2193  magn= -0.8615
     atom   9 (R=0.179)  charge= 12.2020  magn=  0.8628
     atom  10 (R=0.179)  charge= 12.2193  magn= -0.8615
     atom  11 (R=0.179)  charge= 12.2023  magn=  0.8603
     atom  12 (R=0.179)  charge= 12.2193  magn= -0.8615
     atom  13 (R=0.179)  charge= 12.2023  magn=  0.8603
     atom  14 (R=0.179)  charge= 12.2193  magn= -0.8615
     atom  15 (R=0.179)  charge= 12.2018  magn=  0.8639
     atom  16 (R=0.179)  charge= 14.5133  magn=  0.9682

     total cpu time spent up to now is     1487.9 secs

     End of self-consistent calculation

 ------ SPIN UP ------------


          k = 0.0000 0.0000 0.0000 (  9771 PWs)   bands (ev):

   -68.1272 -68.1270 -52.7588 -52.7201 -52.7195 -52.7195 -52.7030 -52.7024
   -52.7024 -52.6864 -51.7686 -51.7686 -51.7515 -51.7509 -51.7509 -51.7427
   -34.1875 -34.1875 -34.1870 -34.1833 -34.1833 -34.1828 -24.3236 -24.3236
   -24.3232 -24.2401 -24.2400 -24.2400 -24.1643 -24.1552 -24.1552 -24.1262
   -24.1262 -24.1261 -24.0503 -24.0502 -24.0502 -23.9805 -23.9802 -23.9802
   -23.9760 -23.9760 -23.9756 -23.9666 -23.9595 -23.9595 -23.2133 -23.2133
   -23.2130 -23.1319 -23.1318 -23.1318 -23.0405 -23.0403 -23.0403 -23.0246
   -23.0246 -23.0242 -23.0117 -23.0116 -23.0116 -22.9697 -22.9696 -22.9696
    11.3867  14.7165  14.7905  14.7905  14.9704  14.9704  14.9705  15.0229
    15.0229  15.1564  15.2543  15.2545  15.2545  15.4276  15.4276  16.7163
    16.7163  16.7164  16.7732  16.7732  16.7732  16.9494  16.9494  16.9496
    17.0665  17.0665  17.0669  17.2253  17.2253  17.3428  17.3428  17.3432
    17.9397  18.3325  18.3325  18.3327  18.6312  18.6312  18.6317  18.6417
    18.6417  18.6420  18.6620  18.6624  18.6624  19.0586  19.0586  19.4959
    19.4963  19.4963  19.6653  19.6653  19.8074  20.2560  20.2560  20.2562
    20.2698  20.2700  20.2700  20.3872  20.3872  20.3877  20.5462  20.5781
    20.5781  20.5781  20.5859  20.5859  20.5863  20.6472  20.6472  20.6859
    20.6862

          k = 0.0000 0.0000 0.1667 (  9767 PWs)   bands (ev):

   -68.1271 -68.1270 -52.7562 -52.7224 -52.7187 -52.7183 -52.7039 -52.7035
   -52.7015 -52.6875 -51.7674 -51.7674 -51.7526 -51.7521 -51.7504 -51.7433
   -34.1872 -34.1872 -34.1867 -34.1836 -34.1836 -34.1831 -24.3124 -24.3082
   -24.3079 -24.2352 -24.2282 -24.2281 -24.1667 -24.1664 -24.1518 -24.1379
   -24.1378 -24.1158 -24.0579 -24.0462 -24.0462 -24.0021 -24.0016 -23.9844
   -23.9843 -23.9792 -23.9748 -23.9743 -23.9640 -23.9605 -23.1976 -23.1954
   -23.1952 -23.1235 -23.1222 -23.1221 -23.0382 -23.0365 -23.0364 -23.0325
   -23.0293 -23.0290 -23.0223 -23.0222 -23.0132 -22.9847 -22.9755 -22.9754
    11.5387  14.4819  14.7901  14.8500  14.8886  15.0208  15.0209  15.0953
    15.0996  15.1113  15.3020  15.3069  15.3071  15.4400  15.7431  16.6182
    16.7061  16.7062  16.7216  16.7330  16.7330  16.7950  16.9105  16.9858
    16.9860  17.0363  17.1366  17.2019  17.2020  17.3573  17.3574  17.5688
    18.1003  18.3221  18.3223  18.3646  18.3649  18.3664  18.3832  18.5227
    18.5229  18.8049  18.8648  18.8745  18.8788  18.9667  18.9669  19.0274
    19.4491  19.5196  19.5199  19.6505  19.6507  19.8634  19.8635  19.9333
    20.0047  20.0121  20.2722  20.2932  20.2994  20.2996  20.4978  20.5868
    20.5900  20.5935  20.5937  20.5970  20.6222  20.6440  20.6701  20.6878
    20.7520

          k = 0.0000 0.0000 0.3333 (  9778 PWs)   bands (ev):

   -68.1272 -68.1271 -52.7491 -52.7296 -52.7157 -52.7153 -52.7070 -52.7066
   -52.6985 -52.6904 -51.7642 -51.7642 -51.7556 -51.7554 -51.7489 -51.7448
   -34.1865 -34.1864 -34.1860 -34.1844 -34.1843 -34.1838 -24.2819 -24.2676
   -24.2675 -24.2218 -24.1979 -24.1928 -24.1925 -24.1817 -24.1703 -24.1702
   -24.1332 -24.0855 -24.0787 -24.0628 -24.0623 -24.0346 -24.0345 -24.0035
   -23.9994 -23.9994 -23.9762 -23.9718 -23.9679 -23.9635 -23.1550 -23.1513
   -23.1512 -23.1004 -23.0974 -23.0974 -23.0567 -23.0531 -23.0530 -23.0440
   -23.0438 -23.0326 -23.0253 -23.0253 -23.0239 -23.0184 -22.9905 -22.9904
    11.9826  13.5552  14.9682  15.0138  15.1546  15.1547  15.1787  15.3255
    15.3257  15.3603  15.3740  15.3741  15.3993  15.4473  15.7741  16.1655
    16.2256  16.4951  16.6630  16.6631  16.7226  16.7228  17.0255  17.1264
    17.1586  17.1587  17.2919  17.3171  17.3172  17.6653  17.6654  17.7003
    17.8650  18.0117  18.0120  18.1483  18.2421  18.2924  18.2926  18.4148
    18.4149  18.4853  18.5333  18.5685  18.5688  18.8788  19.0566  19.0936
    19.1082  19.1082  19.2653  19.3569  19.3750  19.3752  19.8056  20.0220
    20.0222  20.0998  20.1000  20.2874  20.3012  20.3132  20.4268  20.5551
    20.6008  20.6296  20.7244  20.7306  20.8459  20.9644  20.9943  20.9943
    21.0234

          k = 0.0000 0.0000-0.5000 (  9794 PWs)   bands (ev):

   -68.1271 -68.1271 -52.7394 -52.7394 -52.7121 -52.7117 -52.7106 -52.7102
   -52.6945 -52.6945 -51.7598 -51.7598 -51.7598 -51.7598 -51.7469 -51.7469
   -34.1854 -34.1854 -34.1854 -34.1854 -34.1849 -34.1849 -24.2403 -24.2401
   -24.2164 -24.2164 -24.2162 -24.2162 -24.2025 -24.2024 -24.1347 -24.1347
   -24.1341 -24.1333 -24.1064 -24.1060 -24.0447 -24.0442 -24.0178 -24.0177
   -24.0176 -24.0175 -23.9724 -23.9723 -23.9680 -23.9678 -23.1004 -23.1004
   -23.0990 -23.0988 -23.0988 -23.0988 -23.0682 -23.0682 -23.0681 -23.0680
   -23.0672 -23.0672 -23.0257 -23.0257 -23.0089 -23.0089 -23.0089 -23.0089
    12.6792  12.6793  15.1877  15.1878  15.2305  15.2305  15.3099  15.3100
    15.3101  15.3101  15.5384  15.5385  15.6879  15.6879  15.7506  15.7508
    15.9549  15.9550  16.6817  16.6818  16.6818  16.6820  17.3922  17.3923
    17.4601  17.4601  17.4608  17.4610  17.4874  17.4874  17.7016  17.7018
    17.7816  17.7818  17.7820  17.7824  18.1786  18.1787  18.2236  18.2238
    18.2240  18.2244  18.4925  18.4927  18.4931  18.4934  18.7752  18.7753
    18.7800  18.7801  19.6116  19.6117  19.7835  19.7837  19.7837  19.7839
    19.8681  19.8682  20.3494  20.3496  20.4310  20.4310  20.4997  20.4998
    20.4998  20.4999  20.6159  20.6160  20.8940  20.8940  20.9508  20.9509
    21.0052

          k = 0.0000 0.1667 0.1667 (  9783 PWs)   bands (ev):

   -68.1272 -68.1270 -52.7537 -52.7214 -52.7208 -52.7174 -52.7050 -52.7028
   -52.7024 -52.6886 -51.7664 -51.7663 -51.7534 -51.7522 -51.7510 -51.7439
   -34.1875 -34.1869 -34.1861 -34.1841 -34.1835 -34.1833 -24.3046 -24.2931
   -24.2931 -24.2257 -24.2214 -24.2172 -24.1751 -24.1630 -24.1630 -24.1413
   -24.1367 -24.1167 -24.0615 -24.0462 -24.0423 -24.0116 -24.0073 -24.0021
   -23.9890 -23.9831 -23.9812 -23.9775 -23.9724 -23.9636 -23.1891 -23.1812
   -23.1802 -23.1150 -23.1138 -23.1136 -23.0461 -23.0425 -23.0390 -23.0333
   -23.0331 -23.0315 -23.0280 -23.0196 -23.0116 -23.0064 -22.9804 -22.9730
    11.6883  14.4803  14.6431  14.8217  14.9270  14.9595  15.0877  15.1450
    15.1466  15.1877  15.1953  15.3723  15.4206  15.7545  15.7949  16.4980
    16.6169  16.7011  16.7054  16.7636  16.7841  16.7955  16.8248  16.9906
    16.9925  17.0258  17.1210  17.1908  17.2602  17.2746  17.2773  17.7892
    17.9954  18.1020  18.2275  18.2940  18.3430  18.3570  18.5133  18.5419
    18.6007  18.6384  18.6525  18.8506  18.8600  18.9983  19.0543  19.1183
    19.2268  19.2630  19.3299  19.4146  19.5417  19.6570  19.7297  19.7426
    19.8950  20.1331  20.1454  20.2043  20.2537  20.2969  20.4950  20.5349
    20.5681  20.6402  20.6548  20.6751  20.6985  20.7760  20.8079  20.8463
    20.8743

          k = 0.0000 0.1667 0.3333 (  9771 PWs)   bands (ev):

   -68.1272 -68.1270 -52.7469 -52.7281 -52.7177 -52.7143 -52.7083 -52.7057
   -52.6997 -52.6915 -51.7636 -51.7632 -51.7561 -51.7549 -51.7498 -51.7455
   -34.1872 -34.1863 -34.1850 -34.1850 -34.1842 -34.1835 -24.2777 -24.2608
   -24.2536 -24.2122 -24.2002 -24.1904 -24.1863 -24.1843 -24.1709 -24.1620
   -24.1337 -24.0904 -24.0793 -24.0631 -24.0579 -24.0375 -24.0318 -24.0120
   -24.0055 -23.9982 -23.9882 -23.9785 -23.9780 -23.9677 -23.1605 -23.1473
   -23.1425 -23.0976 -23.0921 -23.0885 -23.0770 -23.0655 -23.0579 -23.0461
   -23.0458 -23.0311 -23.0297 -23.0237 -23.0157 -23.0106 -22.9936 -22.9828
    12.1241  13.6557  14.7255  14.8510  15.1034  15.2391  15.2779  15.2796
    15.4133  15.4423  15.4485  15.4719  15.4969  15.7328  15.8396  16.2041
    16.2332  16.4437  16.6898  16.7668  16.7849  16.7913  16.8580  17.0012
    17.0961  17.1794  17.2110  17.2617  17.3968  17.4378  17.5176  17.7858
    17.8549  17.9769  18.0519  18.0994  18.1404  18.1748  18.1995  18.2102
    18.3466  18.4177  18.4447  18.7007  18.7357  18.7901  18.8485  18.8702
    19.1388  19.1734  19.2195  19.2389  19.3711  19.5034  19.5956  19.9536
    19.9669  19.9794  19.9817  20.3111  20.3524  20.3998  20.4351  20.5594
    20.5774  20.6400  20.6662  20.6806  20.7570  20.7843  20.7971  20.8724
    20.9481

          k = 0.0000 0.1667-0.5000 (  9786 PWs)   bands (ev):

   -68.1271 -68.1271 -52.7376 -52.7376 -52.7133 -52.7131 -52.7099 -52.7098
   -52.6956 -52.6956 -51.7598 -51.7598 -51.7590 -51.7590 -51.7476 -51.7476
   -34.1864 -34.1861 -34.1853 -34.1852 -34.1843 -34.1839 -24.2387 -24.2385
   -24.2243 -24.2239 -24.2050 -24.2048 -24.1926 -24.1925 -24.1327 -24.1326
   -24.1300 -24.1295 -24.1012 -24.1009 -24.0488 -24.0483 -24.0244 -24.0243
   -24.0151 -24.0150 -23.9837 -23.9835 -23.9730 -23.9728 -23.1189 -23.1189
   -23.1036 -23.1033 -23.0975 -23.0975 -23.0770 -23.0770 -23.0666 -23.0666
   -23.0575 -23.0573 -23.0163 -23.0161 -23.0097 -23.0096 -23.0005 -23.0005
    12.8054  12.8055  14.8367  14.8367  15.3157  15.3158  15.4304  15.4305
    15.5212  15.5213  15.6196  15.6197  15.7553  15.7554  15.8117  15.8119
    15.9926  15.9926  16.7132  16.7133  16.7437  16.7438  17.1783  17.1783
    17.2787  17.2787  17.4190  17.4191  17.4502  17.4503  17.6853  17.6854
    17.7855  17.7857  17.8176  17.8177  18.0868  18.0869  18.1492  18.1493
    18.2169  18.2170  18.2315  18.2315  18.3745  18.3745  18.8919  18.8920
    19.0026  19.0028  19.4672  19.4673  19.6514  19.6514  19.6783  19.6784
    19.9719  19.9720  20.2366  20.2367  20.3881  20.3882  20.4549  20.4550
    20.4561  20.4562  20.6514  20.6515  20.8079  20.8080  20.9500  20.9501
    20.9611

          k = 0.0000 0.3333 0.3333 (  9751 PWs)   bands (ev):

   -68.1271 -68.1270 -52.7409 -52.7253 -52.7226 -52.7128 -52.7108 -52.7029
   -52.7025 -52.6945 -51.7619 -51.7606 -51.7576 -51.7544 -51.7511 -51.7473
   -34.1874 -34.1860 -34.1858 -34.1846 -34.1839 -34.1831 -24.2600 -24.2480
   -24.2180 -24.2145 -24.2010 -24.2000 -24.1864 -24.1596 -24.1550 -24.1538
   -24.1234 -24.0895 -24.0856 -24.0762 -24.0533 -24.0438 -24.0416 -24.0254
   -24.0154 -24.0109 -24.0097 -23.9964 -23.9842 -23.9733 -23.1532 -23.1420
   -23.1208 -23.1018 -23.0987 -23.0954 -23.0841 -23.0787 -23.0725 -23.0606
   -23.0521 -23.0206 -23.0188 -23.0121 -23.0058 -23.0045 -23.0016 -22.9811
    12.5335  13.8510  14.0268  14.6169  15.3564  15.4350  15.4714  15.5867
    15.6086  15.6143  15.6416  15.6785  15.6899  15.7734  15.9339  16.1677
    16.2917  16.3727  16.5386  16.7685  16.8496  16.8549  16.9474  16.9475
    16.9546  17.0287  17.1661  17.2354  17.3192  17.3388  17.5307  17.6032
    17.7018  17.8176  17.8634  17.9310  17.9529  17.9795  18.0412  18.0637
    18.1387  18.2226  18.3171  18.3638  18.5148  18.5950  18.9001  18.9820
    19.0410  19.1445  19.1490  19.3465  19.3741  19.4398  19.7069  19.7443
    19.7595  19.9977  20.1396  20.3286  20.3354  20.3533  20.4390  20.4457
    20.5373  20.5478  20.5799  20.5866  20.6133  20.6578  20.7678  20.8238
    20.8778

          k = 0.0000 0.3333-0.5000 (  9776 PWs)   bands (ev):

   -68.1271 -68.1271 -52.7327 -52.7326 -52.7181 -52.7180 -52.7069 -52.7069
   -52.6987 -52.6986 -51.7598 -51.7598 -51.7571 -51.7571 -51.7496 -51.7496
   -34.1871 -34.1868 -34.1853 -34.1852 -34.1834 -34.1831 -24.2334 -24.2331
   -24.2295 -24.2293 -24.1938 -24.1937 -24.1774 -24.1772 -24.1188 -24.1185
   -24.1134 -24.1134 -24.0919 -24.0916 -24.0565 -24.0561 -24.0435 -24.0435
   -24.0204 -24.0203 -24.0067 -24.0064 -23.9803 -23.9800 -23.1290 -23.1290
   -23.1236 -23.1232 -23.1022 -23.1022 -23.0950 -23.0949 -23.0636 -23.0636
   -23.0334 -23.0332 -23.0111 -23.0111 -23.0026 -23.0026 -22.9917 -22.9916
    13.1626  13.1626  14.3006  14.3007  15.5427  15.5428  15.6616  15.6617
    15.7413  15.7415  15.8067  15.8068  15.8644  15.8645  16.0282  16.0283
    16.0834  16.0834  16.7223  16.7224  16.8605  16.8607  16.8825  16.8826
    17.0937  17.0939  17.0979  17.0979  17.3879  17.3879  17.4495  17.4496
    17.6265  17.6267  17.7681  17.7683  17.8425  17.8426  18.0729  18.0729
    18.1598  18.1600  18.1924  18.1925  18.2039  18.2041  19.0673  19.0675
    19.2358  19.2359  19.2726  19.2728  19.3314  19.3317  19.5606  19.5607
    20.0572  20.0575  20.2067  20.2068  20.2458  20.2458  20.4241  20.4243
    20.4762  20.4763  20.6277  20.6277  20.7128  20.7128  20.7261  20.7261
    20.8220

          k = 0.0000-0.5000-0.5000 (  9748 PWs)   bands (ev):

   -68.1271 -68.1271 -52.7277 -52.7273 -52.7235 -52.7231 -52.7030 -52.7030
   -52.7026 -52.7026 -51.7597 -51.7597 -51.7555 -51.7555 -51.7512 -51.7512
   -34.1873 -34.1870 -34.1853 -34.1852 -34.1831 -34.1828 -24.2350 -24.2345
   -24.2222 -24.2217 -24.2029 -24.2025 -24.1599 -24.1595 -24.1091 -24.1088
   -24.0967 -24.0964 -24.0767 -24.0764 -24.0687 -24.0682 -24.0545 -24.0543
   -24.0506 -24.0501 -24.0032 -24.0027 -23.9852 -23.9847 -23.1326 -23.1323
   -23.1233 -23.1230 -23.1220 -23.1216 -23.0938 -23.0937 -23.0620 -23.0620
   -23.0210 -23.0207 -23.0118 -23.0118 -23.0004 -23.0002 -22.9879 -22.9876
    13.6119  13.6120  13.7871  13.7873  15.6142  15.6144  15.8222  15.8224
    15.8836  15.8837  15.9476  15.9478  15.9766  15.9768  16.1419  16.1420
    16.2096  16.2096  16.5774  16.5774  16.7943  16.7947  16.8230  16.8233
    16.8747  16.8751  17.1157  17.1158  17.2879  17.2880  17.4066  17.4066
    17.4808  17.4811  17.5900  17.5903  17.6705  17.6708  18.0188  18.0188
    18.1135  18.1138  18.1208  18.1211  18.5578  18.5584  18.8627  18.8633
    19.1388  19.1390  19.2240  19.2242  19.4587  19.4592  19.5239  19.5241
    19.9487  19.9489  20.3332  20.3333  20.3950  20.3954  20.3976  20.3978
    20.4018  20.4021  20.5310  20.5312  20.5884  20.5886  20.6581  20.6582
    20.7599

          k = 0.1667 0.1667 0.1667 (  9765 PWs)   bands (ev):

   -68.1272 -68.1270 -52.7513 -52.7202 -52.7202 -52.7193 -52.7042 -52.7037
   -52.7037 -52.6897 -51.7654 -51.7654 -51.7539 -51.7520 -51.7520 -51.7445
   -34.1872 -34.1872 -34.1854 -34.1844 -34.1835 -34.1835 -24.2955 -24.2800
   -24.2800 -24.2137 -24.2127 -24.2127 -24.1725 -24.1725 -24.1714 -24.1379
   -24.1277 -24.1277 -24.0574 -24.0574 -24.0358 -24.0142 -24.0142 -24.0054
   -23.9948 -23.9948 -23.9940 -23.9798 -23.9744 -23.9744 -23.1752 -23.1752
   -23.1690 -23.1088 -23.1088 -23.1018 -23.0587 -23.0587 -23.0438 -23.0324
   -23.0240 -23.0240 -23.0234 -23.0234 -23.0221 -23.0183 -22.9791 -22.9791
    11.8357  14.4994  14.7192  14.7192  14.9009  14.9787  14.9787  15.1909
    15.1909  15.2270  15.2874  15.2874  15.8282  15.8282  15.8358  16.4057
    16.6301  16.6301  16.7454  16.7454  16.7967  16.7967  16.8691  16.8979
    17.0140  17.1080  17.1080  17.1116  17.1395  17.1395  17.6368  17.6368
    17.8686  18.0001  18.1943  18.1943  18.2829  18.2829  18.5213  18.5213
    18.6057  18.6057  18.6108  18.7279  18.7775  18.7775  19.0096  19.0659
    19.2158  19.2802  19.2802  19.3108  19.3108  19.4344  19.4344  19.8177
    20.0486  20.1898  20.1898  20.2442  20.2442  20.2732  20.5312  20.5312
    20.6061  20.6061  20.6502  20.6502  20.6629  20.7038  20.7978  20.7978
    20.8964

          k = 0.1667 0.1667 0.3333 (  9771 PWs)   bands (ev):

   -68.1271 -68.1271 -52.7448 -52.7267 -52.7167 -52.7163 -52.7072 -52.7072
   -52.7009 -52.6927 -51.7628 -51.7625 -51.7561 -51.7548 -51.7506 -51.7461
   -34.1871 -34.1864 -34.1853 -34.1845 -34.1843 -34.1835 -24.2700 -24.2494
   -24.2463 -24.2008 -24.1986 -24.1926 -24.1859 -24.1753 -24.1724 -24.1590
   -24.1304 -24.0972 -24.0778 -24.0589 -24.0583 -24.0454 -24.0272 -24.0119
   -24.0099 -24.0081 -23.9943 -23.9934 -23.9818 -23.9801 -23.1543 -23.1418
   -23.1407 -23.0946 -23.0907 -23.0876 -23.0779 -23.0777 -23.0636 -23.0459
   -23.0420 -23.0387 -23.0328 -23.0128 -23.0128 -23.0115 -22.9949 -22.9843
    12.2645  13.7597  14.7713  14.8880  14.9442  15.0166  15.2802  15.3543
    15.4071  15.5038  15.5136  15.5755  15.7971  15.8753  15.9169  16.2329
    16.2492  16.4785  16.7018  16.7177  16.7875  16.8548  16.8827  16.9633
    16.9969  17.1134  17.2156  17.2845  17.3433  17.3497  17.4704  17.6880
    17.7888  17.8885  17.9842  18.0210  18.0292  18.0955  18.1045  18.2153
    18.2190  18.2858  18.2935  18.5207  18.6368  18.6901  18.8416  18.9462
    18.9652  19.0897  19.1577  19.3666  19.4430  19.4915  19.6204  19.8092
    20.0328  20.0343  20.0844  20.2686  20.3969  20.4429  20.4528  20.4672
    20.5310  20.5744  20.6363  20.6886  20.7038  20.7398  20.8486  20.8656
    20.8945

          k = 0.1667 0.1667-0.5000 (  9786 PWs)   bands (ev):

   -68.1271 -68.1271 -52.7359 -52.7358 -52.7127 -52.7125 -52.7112 -52.7110
   -52.6968 -52.6968 -51.7594 -51.7594 -51.7587 -51.7587 -51.7483 -51.7483
   -34.1866 -34.1861 -34.1854 -34.1854 -34.1840 -34.1836 -24.2345 -24.2344
   -24.2190 -24.2185 -24.2023 -24.2021 -24.1849 -24.1845 -24.1368 -24.1361
   -24.1201 -24.1188 -24.0989 -24.0983 -24.0531 -24.0527 -24.0286 -24.0282
   -24.0176 -24.0175 -23.9878 -23.9876 -23.9876 -23.9874 -23.1217 -23.1216
   -23.1055 -23.1051 -23.1028 -23.1027 -23.0755 -23.0753 -23.0659 -23.0658
   -23.0519 -23.0516 -23.0215 -23.0212 -23.0067 -23.0066 -22.9969 -22.9967
    12.9325  12.9326  14.9140  14.9141  15.0086  15.0087  15.5950  15.5952
    15.6485  15.6487  15.7141  15.7142  15.8406  15.8407  15.8606  15.8608
    16.0357  16.0358  16.7368  16.7369  16.7958  16.7960  17.0928  17.0931
    17.2338  17.2342  17.3012  17.3021  17.4081  17.4086  17.6103  17.6103
    17.6916  17.6920  17.8068  17.8072  18.0237  18.0240  18.0351  18.0354
    18.0839  18.0842  18.1457  18.1459  18.2022  18.2025  18.9799  18.9802
    19.1530  19.1533  19.3466  19.3467  19.4431  19.4434  19.7702  19.7703
    20.0533  20.0535  20.0966  20.0968  20.4156  20.4159  20.4691  20.4692
    20.4730  20.4732  20.6840  20.6843  20.7580  20.7582  20.8759  20.8761
    20.9270

          k = 0.1667 0.3333 0.3333 (  9765 PWs)   bands (ev):

   -68.1271 -68.1271 -52.7390 -52.7238 -52.7213 -52.7134 -52.7110 -52.7042
   -52.7041 -52.6957 -51.7612 -51.7602 -51.7573 -51.7544 -51.7518 -51.7479
   -34.1871 -34.1860 -34.1860 -34.1846 -34.1837 -34.1835 -24.2493 -24.2338
   -24.2156 -24.2066 -24.1942 -24.1858 -24.1846 -24.1666 -24.1507 -24.1487
   -24.1194 -24.0997 -24.0812 -24.0708 -24.0554 -24.0509 -24.0429 -24.0243
   -24.0226 -24.0168 -24.0140 -24.0095 -24.0021 -23.9880 -23.1420 -23.1342
   -23.1192 -23.1003 -23.0990 -23.0941 -23.0889 -23.0803 -23.0596 -23.0575
   -23.0482 -23.0349 -23.0263 -23.0137 -23.0043 -23.0039 -23.0038 -22.9880
    12.6704  13.9640  14.1444  14.7501  15.0776  15.3044  15.3716  15.5322
    15.6440  15.7144  15.7687  15.8007  15.8436  16.0307  16.0802  16.2154
    16.2940  16.4459  16.5183  16.7408  16.8153  16.8616  16.9477  16.9530
    17.0076  17.0302  17.0849  17.2087  17.2632  17.3265  17.5111  17.5194
    17.5417  17.7222  17.7672  17.7876  17.8485  17.8991  17.9205  17.9363
    18.0582  18.0585  18.1184  18.1822  18.2928  18.4007  18.5740  19.0505
    19.1251  19.1787  19.1983  19.3047  19.4370  19.4990  19.6450  19.8878
    19.9448  20.1752  20.2432  20.2936  20.3164  20.4290  20.4754  20.4789
    20.5542  20.5855  20.6155  20.6236  20.6315  20.6791  20.7476  20.8266
    20.8276

          k = 0.1667 0.3333-0.5000 (  9772 PWs)   bands (ev):

   -68.1271 -68.1271 -52.7310 -52.7309 -52.7169 -52.7168 -52.7087 -52.7085
   -52.7000 -52.6999 -51.7592 -51.7592 -51.7570 -51.7570 -51.7502 -51.7502
   -34.1869 -34.1865 -34.1853 -34.1853 -34.1836 -34.1832 -24.2232 -24.2230
   -24.2171 -24.2168 -24.1876 -24.1873 -24.1725 -24.1722 -24.1250 -24.1242
   -24.1053 -24.1044 -24.0916 -24.0913 -24.0632 -24.0628 -24.0465 -24.0461
   -24.0257 -24.0256 -24.0169 -24.0167 -23.9967 -23.9964 -23.1221 -23.1220
   -23.1181 -23.1178 -23.1023 -23.1022 -23.0848 -23.0848 -23.0632 -23.0632
   -23.0372 -23.0370 -23.0196 -23.0195 -23.0060 -23.0059 -22.9950 -22.9948
    13.2918  13.2918  14.4298  14.4299  15.2908  15.2908  15.7031  15.7033
    15.8395  15.8396  15.9280  15.9281  15.9537  15.9538  16.0959  16.0961
    16.1626  16.1627  16.7334  16.7334  16.8493  16.8494  16.9105  16.9107
    17.0681  17.0686  17.1239  17.1240  17.3050  17.3051  17.3475  17.3479
    17.5054  17.5057  17.6636  17.6638  17.7958  17.7959  17.9038  17.9040
    17.9661  17.9662  17.9899  17.9903  18.0668  18.0671  18.8905  18.8906
    19.1398  19.1402  19.2589  19.2593  19.4553  19.4554  19.8019  19.8021
    20.1679  20.1681  20.2470  20.2471  20.3771  20.3772  20.4643  20.4644
    20.5050  20.5051  20.6449  20.6451  20.7014  20.7015  20.8116  20.8148
    20.8190

          k = 0.1667-0.5000-0.5000 (  9708 PWs)   bands (ev):

   -68.1270 -68.1270 -52.7260 -52.7256 -52.7222 -52.7218 -52.7046 -52.7043
   -52.7043 -52.7039 -51.7592 -51.7592 -51.7555 -51.7555 -51.7517 -51.7517
   -34.1870 -34.1867 -34.1852 -34.1851 -34.1834 -34.1830 -24.2198 -24.2193
   -24.2100 -24.2095 -24.1937 -24.1933 -24.1537 -24.1534 -24.1131 -24.1122
   -24.0916 -24.0913 -24.0764 -24.0760 -24.0735 -24.0725 -24.0621 -24.0617
   -24.0596 -24.0594 -24.0146 -24.0141 -24.0031 -24.0026 -23.1239 -23.1236
   -23.1138 -23.1135 -23.1116 -23.1112 -23.0892 -23.0892 -23.0623 -23.0623
   -23.0265 -23.0262 -23.0178 -23.0178 -23.0071 -23.0069 -22.9957 -22.9954
    13.7413  13.7415  13.9210  13.9211  15.6099  15.6101  15.7268  15.7269
    15.7756  15.7758  16.0019  16.0021  16.2203  16.2205  16.2223  16.2224
    16.3033  16.3034  16.5990  16.5990  16.7810  16.7812  16.8174  16.8177
    16.9008  16.9011  17.1415  17.1416  17.1741  17.1743  17.3203  17.3204
    17.3526  17.3529  17.4945  17.4948  17.6249  17.6252  17.8599  17.8599
    17.9175  17.9177  17.9454  17.9456  18.3060  18.3065  18.4727  18.4730
    19.2093  19.2098  19.2565  19.2569  19.5612  19.5614  19.7912  19.7915
    20.2398  20.2399  20.3856  20.3856  20.4515  20.4516  20.5239  20.5242
    20.5655  20.5655  20.5755  20.5757  20.5982  20.5985  20.6692  20.6694
    20.7623

          k = 0.3333 0.3333 0.3333 (  9792 PWs)   bands (ev):

   -68.1272 -68.1271 -52.7337 -52.7197 -52.7197 -52.7168 -52.7082 -52.7082
   -52.7074 -52.6990 -51.7592 -51.7592 -51.7571 -51.7538 -51.7538 -51.7496
   -34.1864 -34.1864 -34.1861 -34.1842 -34.1842 -34.1835 -24.2232 -24.2010
   -24.2010 -24.1878 -24.1878 -24.1855 -24.1650 -24.1489 -24.1489 -24.1286
   -24.1286 -24.1079 -24.0689 -24.0689 -24.0611 -24.0611 -24.0533 -24.0480
   -24.0318 -24.0318 -24.0315 -24.0315 -24.0270 -24.0209 -23.1176 -23.1137
   -23.1137 -23.1011 -23.1011 -23.0976 -23.0791 -23.0791 -23.0513 -23.0488
   -23.0465 -23.0403 -23.0403 -23.0338 -23.0067 -23.0067 -23.0046 -23.0046
    13.0636  14.2111  14.4632  14.4632  15.0400  15.1969  15.1969  15.7708
    15.7708  16.0006  16.0198  16.0198  16.0947  16.0947  16.2413  16.3057
    16.4613  16.4613  16.4984  16.5472  16.8229  16.8229  16.9370  16.9370
    17.0366  17.0366  17.1366  17.1366  17.1597  17.1641  17.4319  17.4672
    17.4672  17.4715  17.4829  17.4829  17.5932  17.6560  17.7190  17.7190
    17.8201  17.8201  17.8488  17.8488  17.9999  17.9999  18.1173  18.8301
    19.1921  19.1921  19.2771  19.2771  19.5102  19.7731  19.7731  20.1215
    20.2007  20.2007  20.2901  20.4262  20.5462  20.5462  20.5538  20.5538
    20.5620  20.6010  20.6348  20.6348  20.6541  20.6541  20.8420  20.9126
    20.9126

          k = 0.3333 0.3333-0.5000 (  9770 PWs)   bands (ev):

   -68.1271 -68.1271 -52.7265 -52.7263 -52.7147 -52.7133 -52.7132 -52.7118
   -52.7035 -52.7034 -51.7580 -51.7580 -51.7565 -51.7565 -51.7518 -51.7518
   -34.1865 -34.1860 -34.1853 -34.1853 -34.1840 -34.1835 -24.1992 -24.1991
   -24.1877 -24.1871 -24.1683 -24.1679 -24.1646 -24.1644 -24.1220 -24.1211
   -24.1029 -24.1018 -24.0864 -24.0857 -24.0809 -24.0806 -24.0528 -24.0519
   -24.0458 -24.0456 -24.0413 -24.0408 -24.0294 -24.0290 -23.1071 -23.1068
   -23.1052 -23.1050 -23.0952 -23.0951 -23.0676 -23.0675 -23.0647 -23.0646
   -23.0455 -23.0453 -23.0327 -23.0326 -23.0164 -23.0163 -23.0062 -23.0059
    13.6563  13.6564  14.7293  14.7295  14.8702  14.8705  15.7203  15.7204
    15.9498  15.9500  16.0474  16.0475  16.2662  16.2664  16.2691  16.2692
    16.3744  16.3744  16.6873  16.6874  16.8825  16.8828  16.9572  16.9575
    16.9751  16.9756  17.0774  17.0776  17.1042  17.1045  17.1881  17.1883
    17.3864  17.3869  17.4958  17.4959  17.5768  17.5772  17.6406  17.6410
    17.6583  17.6586  17.6888  17.6889  17.7602  17.7606  18.3208  18.3210
    19.2576  19.2582  19.2927  19.2933  19.6896  19.6897  20.0365  20.0371
    20.3758  20.3760  20.4118  20.4119  20.5202  20.5202  20.5636  20.5638
    20.5858  20.5859  20.6774  20.6776  20.6862  20.6867  20.7971  20.7972
    20.8290

          k = 0.3333-0.5000-0.5000 (  9756 PWs)   bands (ev):

   -68.1271 -68.1271 -52.7216 -52.7212 -52.7188 -52.7182 -52.7091 -52.7088
   -52.7079 -52.7073 -51.7576 -51.7576 -51.7554 -51.7554 -51.7533 -51.7533
   -34.1863 -34.1860 -34.1851 -34.1850 -34.1842 -34.1838 -24.1784 -24.1778
   -24.1768 -24.1764 -24.1682 -24.1678 -24.1375 -24.1372 -24.1192 -24.1181
   -24.0960 -24.0956 -24.0925 -24.0921 -24.0827 -24.0823 -24.0782 -24.0779
   -24.0717 -24.0707 -24.0467 -24.0462 -24.0381 -24.0378 -23.1026 -23.1022
   -23.0898 -23.0895 -23.0847 -23.0844 -23.0771 -23.0770 -23.0634 -23.0633
   -23.0416 -23.0414 -23.0333 -23.0333 -23.0261 -23.0259 -23.0179 -23.0176
    14.1037  14.1038  14.2986  14.2987  15.2542  15.2543  15.3709  15.3710
    16.0227  16.0229  16.2497  16.2499  16.3311  16.3313  16.5261  16.5264
    16.6120  16.6121  16.6751  16.6751  16.7466  16.7467  16.8000  16.8005
    16.9515  16.9516  16.9683  16.9686  17.1234  17.1236  17.1642  17.1645
    17.2246  17.2247  17.3898  17.3900  17.4788  17.4788  17.5066  17.5069
    17.5731  17.5733  17.5864  17.5868  17.7928  17.7931  17.8740  17.8741
    19.3091  19.3098  19.3225  19.3231  19.8267  19.8269  20.0644  20.0650
    20.4137  20.4138  20.4863  20.4864  20.6041  20.6044  20.6527  20.6528
    20.7121  20.7121  20.7200  20.7201  20.7354  20.7357  20.7552  20.7553
    20.9456

          k =-0.5000-0.5000-0.5000 (  9808 PWs)   bands (ev):

   -68.1272 -68.1272 -52.7164 -52.7157 -52.7157 -52.7148 -52.7142 -52.7142
   -52.7117 -52.7102 -51.7554 -51.7554 -51.7554 -51.7554 -51.7554 -51.7554
   -34.1853 -34.1853 -34.1853 -34.1853 -34.1848 -34.1848 -24.1325 -24.1325
   -24.1322 -24.1322 -24.1322 -24.1313 -24.1313 -24.1306 -24.1306 -24.1302
   -24.1150 -24.1150 -24.1148 -24.1135 -24.1135 -24.1133 -24.1129 -24.1117
   -24.0601 -24.0600 -24.0600 -24.0593 -24.0586 -24.0586 -23.0848 -23.0848
   -23.0665 -23.0665 -23.0664 -23.0664 -23.0663 -23.0662 -23.0537 -23.0537
   -23.0536 -23.0536 -23.0464 -23.0463 -23.0462 -23.0462 -23.0461 -23.0461
    14.5017  14.5020  14.8374  14.8374  14.8375  14.8375  14.8378  14.8378
    16.2646  16.2646  16.2649  16.2649  16.6626  16.6626  16.6627  16.6629
    16.6629  16.6630  16.7883  16.7883  16.7883  16.7887  16.7887  16.7890
    16.9340  16.9340  16.9342  16.9346  16.9348  16.9348  17.3395  17.3403
    17.3466  17.3466  17.3475  17.3475  17.3677  17.3677  17.3679  17.3683
    17.3683  17.3684  17.3685  17.3685  17.3690  17.3692  17.3692  17.3694
    19.3557  19.3557  19.3563  19.3563  20.1312  20.1312  20.1315  20.1320
    20.1320  20.1320  20.6601  20.6602  20.6602  20.6606  20.6606  20.6608
    20.7798  20.7799  20.7799  20.7801  20.7804  20.7804  20.9824  20.9826
    20.9830

          k = 0.0000 0.1667-0.1667 (  9783 PWs)   bands (ev):

   -68.1272 -68.1270 -52.7537 -52.7219 -52.7204 -52.7174 -52.7050 -52.7028
   -52.7024 -52.6886 -51.7664 -51.7663 -51.7534 -51.7522 -51.7510 -51.7439
   -34.1873 -34.1867 -34.1865 -34.1843 -34.1837 -34.1829 -24.3048 -24.2931
   -24.2927 -24.2258 -24.2214 -24.2173 -24.1753 -24.1631 -24.1629 -24.1412
   -24.1368 -24.1166 -24.0615 -24.0462 -24.0422 -24.0116 -24.0072 -24.0022
   -23.9890 -23.9836 -23.9806 -23.9775 -23.9725 -23.9636 -23.1890 -23.1814
   -23.1803 -23.1150 -23.1137 -23.1136 -23.0458 -23.0425 -23.0388 -23.0333
   -23.0331 -23.0315 -23.0281 -23.0199 -23.0115 -23.0063 -22.9804 -22.9731
    11.6883  14.4804  14.6430  14.8217  14.9270  14.9595  15.0875  15.1451
    15.1465  15.1878  15.1953  15.3722  15.4206  15.7546  15.7948  16.4979
    16.6167  16.7011  16.7055  16.7636  16.7841  16.7955  16.8249  16.9909
    16.9925  17.0257  17.1210  17.1906  17.2601  17.2746  17.2773  17.7894
    17.9952  18.1020  18.2277  18.2941  18.3427  18.3571  18.5131  18.5420
    18.6007  18.6387  18.6529  18.8506  18.8599  18.9978  19.0540  19.1185
    19.2268  19.2633  19.3300  19.4146  19.5418  19.6569  19.7296  19.7424
    19.8953  20.1330  20.1453  20.2043  20.2536  20.2969  20.4950  20.5349
    20.5682  20.6402  20.6548  20.6750  20.6985  20.7759  20.8080  20.8465
    20.8743

          k = 0.0000 0.3333-0.1667 (  9771 PWs)   bands (ev):

   -68.1272 -68.1270 -52.7469 -52.7282 -52.7176 -52.7144 -52.7083 -52.7057
   -52.6997 -52.6915 -51.7636 -51.7632 -51.7561 -51.7549 -51.7498 -51.7455
   -34.1869 -34.1861 -34.1854 -34.1853 -34.1844 -34.1831 -24.2779 -24.2604
   -24.2536 -24.2123 -24.2003 -24.1905 -24.1864 -24.1844 -24.1707 -24.1621
   -24.1337 -24.0904 -24.0794 -24.0630 -24.0577 -24.0375 -24.0317 -24.0120
   -24.0055 -23.9983 -23.9882 -23.9785 -23.9778 -23.9677 -23.1604 -23.1476
   -23.1426 -23.0977 -23.0921 -23.0884 -23.0769 -23.0653 -23.0579 -23.0460
   -23.0459 -23.0313 -23.0295 -23.0237 -23.0158 -23.0106 -22.9936 -22.9829
    12.1241  13.6557  14.7255  14.8510  15.1034  15.2391  15.2778  15.2796
    15.4134  15.4424  15.4486  15.4719  15.4969  15.7329  15.8395  16.2041
    16.2331  16.4436  16.6899  16.7668  16.7849  16.7914  16.8579  17.0013
    17.0961  17.1793  17.2110  17.2616  17.3967  17.4377  17.5174  17.7858
    17.8549  17.9770  18.0518  18.0994  18.1406  18.1749  18.1994  18.2101
    18.3468  18.4177  18.4447  18.7006  18.7359  18.7901  18.8484  18.8701
    19.1387  19.1734  19.2195  19.2390  19.3713  19.5033  19.5955  19.9537
    19.9668  19.9793  19.9817  20.3112  20.3525  20.3998  20.4351  20.5595
    20.5773  20.6400  20.6662  20.6807  20.7569  20.7843  20.7971  20.8724
    20.9481

          k = 0.0000 0.3333-0.3333 (  9751 PWs)   bands (ev):

   -68.1271 -68.1270 -52.7409 -52.7257 -52.7222 -52.7129 -52.7108 -52.7029
   -52.7026 -52.6945 -51.7619 -51.7606 -51.7576 -51.7544 -51.7511 -51.7473
   -34.1871 -34.1863 -34.1858 -34.1847 -34.1843 -34.1828 -24.2602 -24.2475
   -24.2178 -24.2150 -24.2006 -24.2000 -24.1867 -24.1597 -24.1550 -24.1541
   -24.1234 -24.0895 -24.0857 -24.0760 -24.0529 -24.0439 -24.0417 -24.0253
   -24.0153 -24.0111 -24.0096 -23.9969 -23.9837 -23.9735 -23.1532 -23.1423
   -23.1208 -23.1019 -23.0987 -23.0951 -23.0841 -23.0787 -23.0725 -23.0604
   -23.0521 -23.0209 -23.0188 -23.0118 -23.0057 -23.0046 -23.0015 -22.9813
    12.5335  13.8511  14.0266  14.6169  15.3563  15.4350  15.4713  15.5867
    15.6087  15.6145  15.6415  15.6784  15.6899  15.7736  15.9337  16.1677
    16.2916  16.3726  16.5386  16.7685  16.8497  16.8553  16.9474  16.9475
    16.9546  17.0286  17.1660  17.2354  17.3191  17.3387  17.5307  17.6032
    17.7017  17.8177  17.8631  17.9311  17.9530  17.9796  18.0412  18.0634
    18.1389  18.2225  18.3172  18.3637  18.5147  18.5956  18.8995  18.9823
    19.0408  19.1446  19.1489  19.3463  19.3745  19.4400  19.7069  19.7442
    19.7592  19.9977  20.1398  20.3287  20.3351  20.3536  20.4388  20.4456
    20.5374  20.5477  20.5800  20.5867  20.6133  20.6578  20.7677  20.8069
    20.8236

          k =-0.1667 0.1667 0.1667 (  9765 PWs)   bands (ev):

   -68.1272 -68.1270 -52.7513 -52.7207 -52.7202 -52.7187 -52.7043 -52.7037
   -52.7036 -52.6897 -51.7654 -51.7654 -51.7539 -51.7520 -51.7520 -51.7445
   -34.1872 -34.1868 -34.1858 -34.1848 -34.1835 -34.1831 -24.2958 -24.2798
   -24.2795 -24.2135 -24.2129 -24.2128 -24.1726 -24.1725 -24.1716 -24.1377
   -24.1277 -24.1276 -24.0575 -24.0573 -24.0357 -24.0144 -24.0141 -24.0051
   -23.9948 -23.9946 -23.9943 -23.9799 -23.9744 -23.9744 -23.1751 -23.1750
   -23.1694 -23.1089 -23.1089 -23.1016 -23.0587 -23.0584 -23.0436 -23.0325
   -23.0241 -23.0239 -23.0235 -23.0234 -23.0222 -23.0182 -22.9792 -22.9791
    11.8357  14.4995  14.7191  14.7192  14.9009  14.9787  14.9787  15.1907
    15.1909  15.2269  15.2875  15.2876  15.8281  15.8282  15.8359  16.4056
    16.6302  16.6302  16.7454  16.7454  16.7968  16.7968  16.8689  16.8978
    17.0139  17.1080  17.1082  17.1112  17.1395  17.1399  17.6367  17.6369
    17.8683  18.0002  18.1943  18.1945  18.2825  18.2829  18.5212  18.5213
    18.6058  18.6061  18.6105  18.7277  18.7779  18.7780  19.0095  19.0663
    19.2156  19.2799  19.2801  19.3108  19.3108  19.4341  19.4343  19.8179
    20.0484  20.1898  20.1901  20.2441  20.2443  20.2731  20.5312  20.5312
    20.6061  20.6062  20.6501  20.6502  20.6630  20.7035  20.7979  20.7980
    20.8963

          k =-0.1667 0.3333 0.1667 (  9771 PWs)   bands (ev):

   -68.1271 -68.1271 -52.7448 -52.7267 -52.7171 -52.7158 -52.7075 -52.7069
   -52.7009 -52.6927 -51.7628 -51.7625 -51.7561 -51.7548 -51.7506 -51.7461
   -34.1871 -34.1861 -34.1857 -34.1849 -34.1841 -34.1834 -24.2703 -24.2490
   -24.2461 -24.2010 -24.1987 -24.1928 -24.1856 -24.1756 -24.1725 -24.1589
   -24.1302 -24.0972 -24.0778 -24.0586 -24.0583 -24.0454 -24.0272 -24.0120
   -24.0099 -24.0082 -23.9943 -23.9933 -23.9819 -23.9801 -23.1542 -23.1423
   -23.1406 -23.0947 -23.0909 -23.0875 -23.0776 -23.0775 -23.0634 -23.0459
   -23.0423 -23.0386 -23.0329 -23.0128 -23.0127 -23.0115 -22.9949 -22.9843
    12.2645  13.7597  14.7714  14.8879  14.9442  15.0166  15.2802  15.3542
    15.4070  15.5037  15.5137  15.5756  15.7971  15.8753  15.9169  16.2329
    16.2491  16.4785  16.7019  16.7177  16.7876  16.8547  16.8828  16.9631
    16.9970  17.1132  17.2157  17.2843  17.3435  17.3498  17.4704  17.6879
    17.7890  17.8885  17.9840  18.0211  18.0290  18.0954  18.1044  18.2155
    18.2189  18.2859  18.2938  18.5206  18.6367  18.6900  18.8418  18.9463
    18.9651  19.0901  19.1576  19.3664  19.4430  19.4915  19.6203  19.8090
    20.0329  20.0342  20.0846  20.2686  20.3970  20.4428  20.4527  20.4672
    20.5310  20.5744  20.6362  20.6887  20.7037  20.7399  20.8488  20.8655
    20.8946

          k = 0.1667-0.3333 0.1667 (  9771 PWs)   bands (ev):

   -68.1271 -68.1271 -52.7448 -52.7268 -52.7167 -52.7161 -52.7073 -52.7072
   -52.7008 -52.6927 -51.7628 -51.7625 -51.7561 -51.7548 -51.7506 -51.7461
   -34.1867 -34.1864 -34.1858 -34.1849 -34.1843 -34.1831 -24.2703 -24.2490
   -24.2459 -24.2011 -24.1986 -24.1931 -24.1858 -24.1755 -24.1722 -24.1591
   -24.1303 -24.0972 -24.0779 -24.0586 -24.0581 -24.0453 -24.0272 -24.0119
   -24.0100 -24.0082 -23.9943 -23.9932 -23.9820 -23.9801 -23.1542 -23.1423
   -23.1407 -23.0948 -23.0908 -23.0873 -23.0778 -23.0774 -23.0632 -23.0459
   -23.0421 -23.0385 -23.0331 -23.0129 -23.0128 -23.0114 -22.9948 -22.9844
    12.2645  13.7598  14.7713  14.8880  14.9442  15.0166  15.2802  15.3541
    15.4071  15.5038  15.5138  15.5755  15.7972  15.8754  15.9168  16.2328
    16.2491  16.4784  16.7018  16.7176  16.7875  16.8548  16.8829  16.9633
    16.9970  17.1133  17.2154  17.2844  17.3434  17.3498  17.4703  17.6878
    17.7890  17.8885  17.9841  18.0212  18.0292  18.0956  18.1042  18.2155
    18.2189  18.2859  18.2938  18.5206  18.6367  18.6900  18.8419  18.9461
    18.9652  19.0902  19.1576  19.3665  19.4429  19.4915  19.6201  19.8090
    20.0327  20.0344  20.0845  20.2687  20.3971  20.4428  20.4527  20.4672
    20.5310  20.5744  20.6362  20.6888  20.7037  20.7398  20.8486  20.8655
    20.8946

          k =-0.1667-0.5000 0.1667 (  9786 PWs)   bands (ev):

   -68.1271 -68.1271 -52.7358 -52.7358 -52.7131 -52.7121 -52.7116 -52.7106
   -52.6968 -52.6968 -51.7594 -51.7594 -51.7587 -51.7587 -51.7483 -51.7483
   -34.1866 -34.1866 -34.1851 -34.1851 -34.1839 -34.1839 -24.2346 -24.2344
   -24.2187 -24.2186 -24.2023 -24.2020 -24.1850 -24.1847 -24.1367 -24.1355
   -24.1201 -24.1194 -24.0985 -24.0984 -24.0531 -24.0526 -24.0285 -24.0284
   -24.0178 -24.0175 -23.9878 -23.9876 -23.9875 -23.9874 -23.1216 -23.1216
   -23.1054 -23.1054 -23.1026 -23.1025 -23.0754 -23.0754 -23.0661 -23.0660
   -23.0517 -23.0517 -23.0214 -23.0214 -23.0065 -23.0065 -22.9968 -22.9968
    12.9325  12.9326  14.9141  14.9142  15.0086  15.0087  15.5951  15.5951
    15.6485  15.6486  15.7141  15.7141  15.8406  15.8407  15.8606  15.8608
    16.0357  16.0358  16.7369  16.7370  16.7958  16.7958  17.0929  17.0932
    17.2339  17.2342  17.3012  17.3018  17.4080  17.4083  17.6101  17.6101
    17.6918  17.6920  17.8070  17.8075  18.0237  18.0239  18.0351  18.0355
    18.0840  18.0843  18.1458  18.1458  18.2020  18.2022  18.9800  18.9802
    19.1532  19.1533  19.3465  19.3467  19.4432  19.4432  19.7703  19.7704
    20.0534  20.0534  20.0965  20.0966  20.4157  20.4157  20.4691  20.4692
    20.4732  20.4732  20.6840  20.6842  20.7579  20.7583  20.8759  20.8761
    20.9270

          k =-0.1667 0.3333 0.3333 (  9765 PWs)   bands (ev):

   -68.1271 -68.1271 -52.7390 -52.7238 -52.7215 -52.7133 -52.7110 -52.7042
   -52.7041 -52.6958 -51.7612 -51.7602 -51.7573 -51.7544 -51.7518 -51.7479
   -34.1871 -34.1863 -34.1858 -34.1843 -34.1840 -34.1835 -24.2495 -24.2337
   -24.2150 -24.2066 -24.1945 -24.1859 -24.1850 -24.1662 -24.1508 -24.1490
   -24.1193 -24.0998 -24.0812 -24.0705 -24.0553 -24.0509 -24.0430 -24.0241
   -24.0227 -24.0168 -24.0143 -24.0095 -24.0021 -23.9880 -23.1419 -23.1343
   -23.1192 -23.1002 -23.0989 -23.0942 -23.0887 -23.0805 -23.0597 -23.0574
   -23.0485 -23.0348 -23.0262 -23.0137 -23.0041 -23.0039 -23.0039 -22.9880
    12.6704  13.9641  14.1444  14.7501  15.0776  15.3044  15.3716  15.5322
    15.6438  15.7144  15.7688  15.8008  15.8436  16.0307  16.0802  16.2154
    16.2941  16.4459  16.5183  16.7406  16.8153  16.8618  16.9478  16.9529
    17.0076  17.0301  17.0848  17.2087  17.2635  17.3265  17.5114  17.5194
    17.5417  17.7219  17.7672  17.7875  17.8486  17.8988  17.9205  17.9363
    18.0582  18.0588  18.1183  18.1821  18.2928  18.4009  18.5740  19.0507
    19.1254  19.1787  19.1982  19.3047  19.4368  19.4987  19.6450  19.8876
    19.9448  20.1754  20.2431  20.2935  20.3164  20.4290  20.4755  20.4789
    20.5541  20.5857  20.6153  20.6236  20.6316  20.6791  20.7478  20.8267
    20.8275

          k = 0.1667 0.3333-0.3333 (  9765 PWs)   bands (ev):

   -68.1271 -68.1271 -52.7389 -52.7242 -52.7210 -52.7133 -52.7111 -52.7044
   -52.7038 -52.6958 -51.7612 -51.7602 -51.7573 -51.7544 -51.7518 -51.7479
   -34.1868 -34.1864 -34.1859 -34.1845 -34.1842 -34.1831 -24.2496 -24.2333
   -24.2151 -24.2069 -24.1940 -24.1861 -24.1849 -24.1665 -24.1509 -24.1491
   -24.1193 -24.0997 -24.0814 -24.0705 -24.0550 -24.0508 -24.0430 -24.0242
   -24.0226 -24.0170 -24.0140 -24.0100 -24.0016 -23.9881 -23.1419 -23.1345
   -23.1192 -23.1000 -23.0989 -23.0943 -23.0888 -23.0804 -23.0595 -23.0573
   -23.0484 -23.0347 -23.0265 -23.0137 -23.0043 -23.0039 -23.0038 -22.9881
    12.6704  13.9642  14.1443  14.7501  15.0776  15.3044  15.3717  15.5320
    15.6440  15.7145  15.7687  15.8009  15.8437  16.0306  16.0802  16.2153
    16.2939  16.4457  16.5183  16.7409  16.8151  16.8617  16.9478  16.9532
    17.0076  17.0301  17.0848  17.2086  17.2632  17.3264  17.5113  17.5194
    17.5417  17.7222  17.7670  17.7876  17.8486  17.8992  17.9206  17.9361
    18.0581  18.0588  18.1184  18.1820  18.2927  18.4012  18.5738  19.0508
    19.1254  19.1785  19.1983  19.3045  19.4367  19.4990  19.6449  19.8876
    19.9447  20.1753  20.2431  20.2936  20.3166  20.4291  20.4752  20.4788
    20.5542  20.5857  20.6154  20.6236  20.6315  20.6793  20.7477  20.8264
    20.8275

          k =-0.1667-0.5000 0.3333 (  9772 PWs)   bands (ev):

   -68.1271 -68.1271 -52.7310 -52.7309 -52.7170 -52.7167 -52.7087 -52.7084
   -52.7000 -52.6999 -51.7592 -51.7592 -51.7570 -51.7570 -51.7502 -51.7502
   -34.1869 -34.1868 -34.1851 -34.1851 -34.1836 -34.1834 -24.2232 -24.2231
   -24.2170 -24.2168 -24.1874 -24.1872 -24.1727 -24.1724 -24.1250 -24.1238
   -24.1052 -24.1047 -24.0916 -24.0913 -24.0633 -24.0628 -24.0464 -24.0461
   -24.0258 -24.0256 -24.0170 -24.0167 -23.9967 -23.9964 -23.1221 -23.1221
   -23.1181 -23.1178 -23.1022 -23.1021 -23.0849 -23.0848 -23.0634 -23.0633
   -23.0372 -23.0370 -23.0196 -23.0196 -23.0058 -23.0058 -22.9949 -22.9948
    13.2918  13.2918  14.4298  14.4299  15.2908  15.2908  15.7032  15.7033
    15.8395  15.8396  15.9279  15.9280  15.9536  15.9538  16.0959  16.0960
    16.1627  16.1628  16.7334  16.7335  16.8494  16.8495  16.9105  16.9106
    17.0680  17.0683  17.1239  17.1241  17.3050  17.3052  17.3474  17.3478
    17.5056  17.5057  17.6637  17.6638  17.7958  17.7959  17.9038  17.9040
    17.9661  17.9662  17.9899  17.9903  18.0668  18.0671  18.8905  18.8905
    19.1398  19.1402  19.2591  19.2594  19.4551  19.4553  19.8019  19.8021
    20.1679  20.1680  20.2469  20.2470  20.3771  20.3773  20.4643  20.4644
    20.5050  20.5051  20.6449  20.6451  20.7013  20.7014  20.8116  20.8119
    20.8190

          k =-0.3333 0.3333 0.3333 (  9792 PWs)   bands (ev):

   -68.1272 -68.1271 -52.7336 -52.7202 -52.7197 -52.7162 -52.7088 -52.7082
   -52.7069 -52.6990 -51.7592 -51.7592 -51.7571 -51.7538 -51.7538 -51.7496
   -34.1866 -34.1864 -34.1860 -34.1842 -34.1840 -34.1838 -24.2236 -24.2006
   -24.2004 -24.1881 -24.1878 -24.1858 -24.1648 -24.1493 -24.1492 -24.1287
   -24.1285 -24.1078 -24.0690 -24.0688 -24.0607 -24.0605 -24.0530 -24.0484
   -24.0322 -24.0319 -24.0317 -24.0316 -24.0271 -24.0209 -23.1180 -23.1136
   -23.1136 -23.1011 -23.1008 -23.0973 -23.0794 -23.0793 -23.0511 -23.0486
   -23.0469 -23.0405 -23.0402 -23.0337 -23.0068 -23.0067 -23.0046 -23.0044
    13.0635  14.2112  14.4630  14.4632  15.0400  15.1969  15.1969  15.7706
    15.7708  16.0005  16.0200  16.0200  16.0948  16.0949  16.2413  16.3056
    16.4611  16.4612  16.4984  16.5471  16.8228  16.8229  16.9371  16.9371
    17.0366  17.0370  17.1368  17.1369  17.1595  17.1638  17.4319  17.4671
    17.4672  17.4717  17.4827  17.4829  17.5930  17.6559  17.7187  17.7190
    17.8201  17.8202  17.8487  17.8488  18.0002  18.0005  18.1171  18.8300
    19.1923  19.1923  19.2770  19.2770  19.5101  19.7730  19.7731  20.1214
    20.2006  20.2007  20.2899  20.4263  20.5461  20.5462  20.5539  20.5540
    20.5618  20.6011  20.6347  20.6347  20.6542  20.6544  20.8419  20.9125
    20.9129

          k =-0.3333-0.5000 0.3333 (  9770 PWs)   bands (ev):

   -68.1271 -68.1271 -52.7264 -52.7264 -52.7151 -52.7136 -52.7129 -52.7115
   -52.7035 -52.7034 -51.7580 -51.7580 -51.7565 -51.7565 -51.7518 -51.7518
   -34.1864 -34.1864 -34.1850 -34.1850 -34.1839 -34.1839 -24.1993 -24.1993
   -24.1873 -24.1872 -24.1682 -24.1678 -24.1650 -24.1646 -24.1220 -24.1205
   -24.1027 -24.1023 -24.0864 -24.0860 -24.0809 -24.0802 -24.0527 -24.0521
   -24.0459 -24.0458 -24.0410 -24.0410 -24.0293 -24.0292 -23.1069 -23.1068
   -23.1051 -23.1051 -23.0950 -23.0949 -23.0676 -23.0676 -23.0650 -23.0649
   -23.0454 -23.0454 -23.0327 -23.0327 -23.0162 -23.0162 -23.0061 -23.0060
    13.6563  13.6564  14.7294  14.7296  14.8703  14.8703  15.7203  15.7204
    15.9499  15.9500  16.0473  16.0474  16.2664  16.2664  16.2690  16.2691
    16.3744  16.3745  16.6874  16.6876  16.8826  16.8827  16.9573  16.9573
    16.9751  16.9753  17.0774  17.0776  17.1043  17.1044  17.1882  17.1883
    17.3864  17.3870  17.4958  17.4961  17.5768  17.5770  17.6405  17.6411
    17.6583  17.6586  17.6887  17.6889  17.7604  17.7606  18.3209  18.3209
    19.2577  19.2582  19.2928  19.2933  19.6895  19.6896  20.0367  20.0370
    20.3758  20.3759  20.4117  20.4118  20.5201  20.5202  20.5638  20.5638
    20.5858  20.5858  20.6774  20.6777  20.6862  20.6865  20.7971  20.8076
    20.8288

 ------ SPIN DOWN ----------


          k = 0.0000 0.0000 0.0000 (  9771 PWs)   bands (ev):

   -66.9893 -66.9893 -52.7268 -52.6943 -52.6943 -52.6772 -52.6772 -52.6692
   -51.7789 -51.7789 -51.7772 -51.7681 -51.7611 -51.7611 -51.7594 -51.7439
   -33.0811 -33.0811 -33.0810 -33.0764 -33.0764 -33.0763 -24.2915 -24.2915
   -24.2915 -24.2098 -24.2098 -24.2098 -24.1053 -24.1051 -24.1051 -24.0750
   -24.0749 -24.0749 -23.9789 -23.9788 -23.9788 -23.9358 -23.9358 -23.9356
   -23.2431 -23.2362 -23.2362 -23.2044 -23.2044 -23.2040 -23.1200 -23.1200
   -23.1185 -23.0526 -23.0526 -23.0517 -23.0499 -23.0490 -23.0490 -23.0370
   -23.0320 -23.0320 -23.0130 -23.0123 -23.0123 -22.9689 -22.9686 -22.9686
    11.4225  14.8479  14.9902  14.9904  14.9904  15.0425  15.0425  15.0800
    15.3187  15.3187  15.4253  15.4253  15.4818  15.4818  15.4819  16.8786
    16.8788  16.8788  16.9579  16.9582  16.9582  17.0172  17.0172  17.0174
    17.3399  17.3399  17.3402  17.3526  17.5453  17.5453  17.9783  17.9787
    17.9787  18.4712  18.4714  18.4714  18.5706  18.5710  18.5710  18.6387
    18.6387  18.6391  19.4356  19.4356  19.4365  19.5159  19.5169  19.5169
    19.6021  19.6025  19.6025  20.3324  20.3324  20.3326  20.4787  20.5137
    20.5137  20.5686  20.5686  20.5687  20.5847  20.5847  20.6068  20.6389
    20.6389  20.6438  20.6554  20.6554  20.6690  20.6690  20.6894  20.6899
    20.6899

          k = 0.0000 0.0000 0.1667 (  9767 PWs)   bands (ev):

   -66.9893 -66.9893 -52.7245 -52.6961 -52.6931 -52.6783 -52.6768 -52.6701
   -51.7781 -51.7778 -51.7762 -51.7687 -51.7623 -51.7615 -51.7591 -51.7450
   -33.0807 -33.0807 -33.0806 -33.0767 -33.0767 -33.0766 -24.2798 -24.2798
   -24.2716 -24.2030 -24.2014 -24.2013 -24.1178 -24.1177 -24.1048 -24.0856
   -24.0856 -24.0783 -23.9870 -23.9764 -23.9763 -23.9661 -23.9394 -23.9393
   -23.2340 -23.2170 -23.2146 -23.1936 -23.1931 -23.1928 -23.1271 -23.1202
   -23.1192 -23.0533 -23.0525 -23.0511 -23.0482 -23.0459 -23.0440 -23.0437
   -23.0358 -23.0331 -23.0234 -23.0189 -23.0185 -22.9860 -22.9743 -22.9741
    11.5748  14.5394  14.9216  15.0482  15.0483  15.1050  15.1057  15.1449
    15.2436  15.3894  15.3993  15.4853  15.5159  15.5159  15.9085  16.7398
    16.8375  16.8376  16.9574  16.9574  16.9910  17.0355  17.0776  17.0779
    17.0910  17.1370  17.3859  17.5143  17.5144  17.5259  17.7938  17.7940
    18.4025  18.4469  18.4621  18.4621  18.4846  18.5192  18.5449  18.5450
    18.8421  18.8423  18.9519  18.9520  19.4525  19.5289  19.5583  19.6314
    19.6388  19.6537  19.6538  19.7990  19.7992  20.0264  20.0264  20.2356
    20.2360  20.4534  20.4828  20.5454  20.5472  20.6033  20.6083  20.6087
    20.6355  20.6458  20.6920  20.7255  20.7457  20.8546  20.8644  21.1724
    21.3411

          k = 0.0000 0.0000 0.3333 (  9778 PWs)   bands (ev):

   -66.9893 -66.9893 -52.7182 -52.7017 -52.6900 -52.6815 -52.6758 -52.6721
   -51.7759 -51.7746 -51.7733 -51.7704 -51.7654 -51.7644 -51.7563 -51.7480
   -33.0799 -33.0799 -33.0797 -33.0776 -33.0776 -33.0773 -24.2474 -24.2473
   -24.2155 -24.1836 -24.1781 -24.1781 -24.1534 -24.1533 -24.1233 -24.1121
   -24.1121 -24.0651 -24.0418 -24.0088 -23.9694 -23.9693 -23.9484 -23.9483
   -23.2101 -23.1661 -23.1657 -23.1652 -23.1632 -23.1619 -23.1485 -23.1238
   -23.1229 -23.0768 -23.0557 -23.0544 -23.0537 -23.0480 -23.0449 -23.0394
   -23.0363 -23.0350 -23.0349 -23.0331 -23.0286 -23.0284 -22.9886 -22.9886
    12.0198  13.6023  15.0857  15.2055  15.2055  15.2759  15.2952  15.4266
    15.4433  15.5293  15.5293  15.5622  15.5989  15.6402  15.9815  16.3694
    16.4210  16.6526  16.8109  16.8110  16.9042  16.9043  17.2603  17.3047
    17.3173  17.3176  17.4233  17.5827  17.7488  17.7490  17.9329  17.9330
    18.0312  18.0371  18.2333  18.2337  18.4438  18.4439  18.4799  18.4800
    18.6383  18.6511  18.6599  18.9101  18.9104  19.1535  19.1638  19.2361
    19.2361  19.4600  19.4601  19.8308  19.9056  20.0913  20.0913  20.2398
    20.3287  20.3568  20.3570  20.3711  20.5758  20.6040  20.6263  20.6461
    20.8050  20.8291  20.8909  20.8914  21.0224  21.1767  21.2150  21.2448
    21.2448

          k = 0.0000 0.0000-0.5000 (  9794 PWs)   bands (ev):

   -66.9893 -66.9893 -52.7097 -52.7097 -52.6857 -52.6857 -52.6742 -52.6742
   -51.7734 -51.7731 -51.7713 -51.7691 -51.7687 -51.7683 -51.7525 -51.7519
   -33.0788 -33.0788 -33.0787 -33.0787 -33.0785 -33.0785 -24.2013 -24.2013
   -24.2012 -24.2011 -24.1547 -24.1546 -24.1457 -24.1456 -24.1456 -24.1456
   -24.1335 -24.1334 -24.0377 -24.0377 -23.9595 -23.9595 -23.9594 -23.9594
   -23.1790 -23.1786 -23.1384 -23.1373 -23.1371 -23.1368 -23.1196 -23.1192
   -23.1053 -23.1049 -23.0989 -23.0986 -23.0507 -23.0498 -23.0493 -23.0491
   -23.0442 -23.0437 -23.0411 -23.0406 -23.0085 -23.0085 -23.0081 -23.0079
    12.7195  12.7196  15.2435  15.2436  15.4037  15.4037  15.4037  15.4039
    15.4766  15.4767  15.7803  15.7803  15.8857  15.8857  15.9447  15.9448
    16.0836  16.0839  16.8418  16.8419  16.8420  16.8420  17.6094  17.6096
    17.6339  17.6340  17.7079  17.7085  17.7090  17.7091  17.8520  17.8521
    17.9422  17.9423  18.1524  18.1528  18.1529  18.1531  18.4406  18.4406
    18.4407  18.4408  18.5199  18.5200  18.5201  18.5202  18.8823  18.8824
    19.7599  19.7601  19.9587  19.9591  19.9591  19.9592  20.1116  20.1119
    20.1721  20.1724  20.6143  20.6143  20.6189  20.6190  20.6569  20.6570
    20.6573  20.6574  20.9728  20.9729  20.9846  20.9847  21.3770  21.3774
    21.4642

          k = 0.0000 0.1667 0.1667 (  9783 PWs)   bands (ev):

   -66.9894 -66.9893 -52.7223 -52.6963 -52.6935 -52.6788 -52.6772 -52.6710
   -51.7772 -51.7766 -51.7755 -51.7694 -51.7629 -51.7612 -51.7598 -51.7461
   -33.0810 -33.0805 -33.0799 -33.0775 -33.0770 -33.0764 -24.2694 -24.2686
   -24.2546 -24.1996 -24.1938 -24.1900 -24.1286 -24.1236 -24.1142 -24.0960
   -24.0940 -24.0758 -23.9894 -23.9802 -23.9749 -23.9743 -23.9566 -23.9425
   -23.2282 -23.2025 -23.1990 -23.1945 -23.1812 -23.1719 -23.1332 -23.1225
   -23.1197 -23.0612 -23.0513 -23.0506 -23.0495 -23.0483 -23.0435 -23.0394
   -23.0376 -23.0358 -23.0347 -23.0201 -23.0184 -23.0068 -22.9788 -22.9737
    11.7247  14.5532  14.6865  14.9473  15.1000  15.1539  15.1712  15.2161
    15.2234  15.4211  15.4687  15.4741  15.5631  15.9292  15.9641  16.6324
    16.7659  16.8704  16.9493  17.0167  17.0202  17.0296  17.0369  17.0674
    17.0900  17.2169  17.2562  17.3788  17.4368  17.5768  17.6183  18.1254
    18.1295  18.3141  18.3608  18.3614  18.4134  18.4452  18.6250  18.6560
    18.9409  19.0096  19.0422  19.0516  19.0978  19.1274  19.3349  19.4051
    19.4877  19.6395  19.6425  19.6431  19.6996  19.7366  20.0630  20.0988
    20.3937  20.4741  20.4881  20.5188  20.5267  20.6009  20.6250  20.6445
    20.6460  20.6573  20.6600  20.9007  20.9115  20.9270  21.0112  21.0439
    21.0872

          k = 0.0000 0.1667 0.3333 (  9771 PWs)   bands (ev):

   -66.9893 -66.9892 -52.7163 -52.7008 -52.6908 -52.6819 -52.6765 -52.6730
   -51.7753 -51.7738 -51.7727 -51.7708 -51.7655 -51.7636 -51.7575 -51.7492
   -33.0806 -33.0798 -33.0786 -33.0785 -33.0777 -33.0766 -24.2406 -24.2398
   -24.2073 -24.1829 -24.1731 -24.1633 -24.1589 -24.1570 -24.1313 -24.1166
   -24.1157 -24.0642 -24.0352 -24.0091 -23.9765 -23.9686 -23.9637 -23.9505
   -23.2101 -23.1746 -23.1649 -23.1609 -23.1541 -23.1518 -23.1389 -23.1264
   -23.1233 -23.0800 -23.0697 -23.0658 -23.0578 -23.0516 -23.0491 -23.0461
   -23.0370 -23.0364 -23.0298 -23.0246 -23.0242 -23.0234 -22.9916 -22.9841
    12.1618  13.7053  14.7855  14.9581  15.2875  15.3164  15.4295  15.4833
    15.5138  15.5146  15.6097  15.6814  15.7079  15.9306  16.0411  16.3673
    16.4609  16.5979  16.8447  16.9563  16.9585  16.9708  17.1324  17.2137
    17.2497  17.2656  17.4180  17.4868  17.5105  17.7412  17.8615  17.9331
    17.9842  18.1673  18.1804  18.2505  18.2720  18.3142  18.3438  18.4053
    18.4604  18.5225  18.7741  18.8035  18.8559  18.9181  18.9954  19.1886
    19.3812  19.5101  19.5389  19.8610  19.9204  20.0158  20.0351  20.1398
    20.2865  20.3685  20.3873  20.4658  20.5425  20.6298  20.6343  20.6451
    20.7358  20.7502  20.7549  20.8854  20.9345  21.0616  21.0871  21.1303
    21.1454

          k = 0.0000 0.1667-0.5000 (  9786 PWs)   bands (ev):

   -66.9893 -66.9893 -52.7083 -52.7083 -52.6863 -52.6863 -52.6750 -52.6750
   -51.7736 -51.7730 -51.7708 -51.7689 -51.7678 -51.7676 -51.7537 -51.7530
   -33.0797 -33.0797 -33.0787 -33.0787 -33.0775 -33.0775 -24.2002 -24.2002
   -24.1997 -24.1996 -24.1609 -24.1608 -24.1494 -24.1493 -24.1446 -24.1445
   -24.1124 -24.1123 -24.0377 -24.0376 -23.9696 -23.9695 -23.9602 -23.9601
   -23.1831 -23.1824 -23.1436 -23.1431 -23.1377 -23.1372 -23.1103 -23.1098
   -23.1085 -23.1078 -23.1064 -23.1057 -23.0693 -23.0692 -23.0425 -23.0420
   -23.0415 -23.0411 -23.0305 -23.0299 -23.0085 -23.0081 -23.0034 -23.0028
    12.8466  12.8467  14.9180  14.9180  15.4672  15.4673  15.5079  15.5080
    15.7102  15.7103  15.8571  15.8572  15.9300  15.9300  16.0158  16.0160
    16.1263  16.1265  16.8772  16.8773  16.9061  16.9062  17.4492  17.4493
    17.5069  17.5071  17.5362  17.5362  17.6551  17.6552  17.9269  17.9270
    17.9336  17.9337  18.1751  18.1752  18.1973  18.1973  18.2294  18.2295
    18.2932  18.2933  18.3642  18.3644  18.3773  18.3775  19.0749  19.0751
    19.8421  19.8424  19.8912  19.8914  19.9990  19.9991  20.1499  20.1501
    20.2018  20.2020  20.3817  20.3820  20.5184  20.5188  20.5963  20.5964
    20.6680  20.6680  20.9303  20.9305  20.9405  20.9406  21.1445  21.1447
    21.1648

          k = 0.0000 0.3333 0.3333 (  9751 PWs)   bands (ev):

   -66.9893 -66.9892 -52.7112 -52.7004 -52.6914 -52.6841 -52.6773 -52.6749
   -51.7743 -51.7725 -51.7721 -51.7694 -51.7666 -51.7612 -51.7601 -51.7522
   -33.0808 -33.0796 -33.0793 -33.0781 -33.0775 -33.0762 -24.2223 -24.2220
   -24.1853 -24.1750 -24.1746 -24.1717 -24.1597 -24.1469 -24.1286 -24.1263
   -24.1254 -24.0588 -24.0350 -24.0161 -23.9930 -23.9900 -23.9660 -23.9557
   -23.2039 -23.1693 -23.1662 -23.1545 -23.1503 -23.1333 -23.1287 -23.1238
   -23.1105 -23.0997 -23.0909 -23.0893 -23.0814 -23.0734 -23.0412 -23.0395
   -23.0338 -23.0286 -23.0267 -23.0207 -23.0183 -23.0105 -23.0005 -22.9841
    12.5732  13.9414  14.0352  14.6994  15.5667  15.5897  15.6415  15.6624
    15.7065  15.7313  15.7622  15.8907  15.9153  15.9896  16.1468  16.3071
    16.5075  16.6414  16.7229  16.8765  17.0737  17.0865  17.1005  17.1451
    17.1453  17.2166  17.3313  17.3392  17.4351  17.7850  17.8278  17.8586
    17.8790  17.8893  17.9730  18.0690  18.1321  18.1328  18.1419  18.1607
    18.2357  18.3162  18.4091  18.4917  18.5080  18.7931  18.8872  19.1059
    19.6599  19.7666  19.8028  19.9321  19.9860  20.0085  20.0523  20.2867
    20.2888  20.3116  20.3711  20.4101  20.4502  20.4562  20.5371  20.5716
    20.5972  20.6612  20.6773  20.6916  20.8410  20.8529  20.9025  20.9443
    20.9963

          k = 0.0000 0.3333-0.5000 (  9776 PWs)   bands (ev):

   -66.9893 -66.9893 -52.7048 -52.7048 -52.6883 -52.6883 -52.6767 -52.6767
   -51.7739 -51.7730 -51.7700 -51.7687 -51.7651 -51.7648 -51.7568 -51.7561
   -33.0805 -33.0805 -33.0787 -33.0787 -33.0765 -33.0765 -24.1996 -24.1995
   -24.1982 -24.1982 -24.1634 -24.1633 -24.1482 -24.1481 -24.1424 -24.1423
   -24.0794 -24.0793 -24.0375 -24.0375 -23.9962 -23.9961 -23.9616 -23.9616
   -23.1892 -23.1882 -23.1427 -23.1425 -23.1419 -23.1411 -23.1273 -23.1272
   -23.1060 -23.1056 -23.1044 -23.1035 -23.0871 -23.0863 -23.0344 -23.0341
   -23.0316 -23.0306 -23.0237 -23.0229 -23.0120 -23.0117 -22.9948 -22.9941
    13.2083  13.2084  14.3577  14.3578  15.7587  15.7588  15.7654  15.7655
    15.8457  15.8459  16.0348  16.0349  16.0406  16.0407  16.2226  16.2228
    16.2471  16.2472  16.9361  16.9362  17.0450  17.0452  17.1434  17.1434
    17.1572  17.1573  17.3275  17.3276  17.5514  17.5514  17.7768  17.7768
    17.7991  17.7992  17.9275  17.9276  18.0497  18.0503  18.1315  18.1319
    18.1789  18.1790  18.2230  18.2231  18.3271  18.3272  19.1567  19.1568
    19.7889  19.7890  20.0687  20.0689  20.1190  20.1193  20.1868  20.1871
    20.2302  20.2307  20.2669  20.2671  20.2828  20.2834  20.5235  20.5236
    20.7279  20.7280  20.7300  20.7301  20.7831  20.7832  20.8225  20.8226
    20.9321

          k = 0.0000-0.5000-0.5000 (  9748 PWs)   bands (ev):

   -66.9893 -66.9893 -52.7024 -52.7024 -52.6899 -52.6899 -52.6774 -52.6774
   -51.7740 -51.7730 -51.7698 -51.7686 -51.7613 -51.7613 -51.7607 -51.7596
   -33.0807 -33.0807 -33.0787 -33.0787 -33.0762 -33.0761 -24.2008 -24.2007
   -24.1973 -24.1972 -24.1612 -24.1611 -24.1474 -24.1473 -24.1413 -24.1412
   -24.0542 -24.0542 -24.0363 -24.0363 -24.0215 -24.0212 -23.9623 -23.9622
   -23.1916 -23.1905 -23.1416 -23.1403 -23.1401 -23.1393 -23.1297 -23.1282
   -23.1270 -23.1260 -23.1018 -23.1010 -23.0859 -23.0846 -23.0271 -23.0261
   -23.0230 -23.0219 -23.0218 -23.0211 -23.0211 -23.0200 -22.9910 -22.9902
    13.7059  13.7060  13.7874  13.7875  15.8835  15.8837  15.9443  15.9444
    15.9537  15.9540  16.0957  16.0957  16.1659  16.1661  16.2581  16.2585
    16.5839  16.5840  16.7411  16.7413  16.9423  16.9424  17.0026  17.0029
    17.0284  17.0289  17.3014  17.3018  17.5591  17.5591  17.6166  17.6167
    17.6837  17.6839  17.6957  17.6960  17.9486  17.9493  18.0182  18.0188
    18.1406  18.1408  18.1513  18.1514  18.7464  18.7469  18.8368  18.8371
    19.8364  19.8370  19.9515  19.9523  20.3205  20.3211  20.3231  20.3236
    20.3239  20.3240  20.3562  20.3572  20.3891  20.3897  20.4090  20.4094
    20.4395  20.4401  20.5186  20.5191  20.7458  20.7462  20.7478  20.7481
    20.7735

          k = 0.1667 0.1667 0.1667 (  9765 PWs)   bands (ev):

   -66.9893 -66.9893 -52.7201 -52.6950 -52.6950 -52.6785 -52.6785 -52.6719
   -51.7756 -51.7756 -51.7754 -51.7699 -51.7622 -51.7622 -51.7604 -51.7472
   -33.0807 -33.0807 -33.0792 -33.0781 -33.0767 -33.0767 -24.2632 -24.2472
   -24.2472 -24.1905 -24.1905 -24.1815 -24.1313 -24.1313 -24.1312 -24.0966
   -24.0881 -24.0881 -23.9878 -23.9878 -23.9739 -23.9726 -23.9726 -23.9545
   -23.2217 -23.1888 -23.1888 -23.1831 -23.1831 -23.1527 -23.1338 -23.1338
   -23.1169 -23.0577 -23.0577 -23.0533 -23.0533 -23.0527 -23.0513 -23.0462
   -23.0299 -23.0299 -23.0281 -23.0281 -23.0227 -23.0201 -22.9793 -22.9793
    11.8725  14.5822  14.7677  14.7677  15.0157  15.1503  15.1503  15.2495
    15.3270  15.3270  15.5519  15.5519  15.9147  16.0368  16.0368  16.5477
    16.8444  16.8444  16.8743  17.0248  17.0254  17.0254  17.0589  17.0589
    17.1610  17.1610  17.1905  17.3220  17.4294  17.4294  17.9070  17.9182
    17.9182  18.2537  18.3054  18.3054  18.3412  18.3412  18.7571  18.7571
    18.7877  18.7927  18.9598  18.9598  19.0114  19.1812  19.2050  19.2050
    19.2213  19.3767  19.3767  19.7766  19.7766  19.8459  20.3165  20.3165
    20.3356  20.3851  20.4387  20.4387  20.5729  20.5729  20.5857  20.6314
    20.6314  20.6493  20.6493  20.8715  20.8715  20.9337  21.0107  21.0459
    21.1878

          k = 0.1667 0.1667 0.3333 (  9771 PWs)   bands (ev):

   -66.9893 -66.9893 -52.7144 -52.6997 -52.6915 -52.6820 -52.6776 -52.6740
   -51.7744 -51.7729 -51.7726 -51.7711 -51.7649 -51.7638 -51.7585 -51.7503
   -33.0805 -33.0798 -33.0790 -33.0782 -33.0775 -33.0766 -24.2353 -24.2270
   -24.2028 -24.1782 -24.1636 -24.1618 -24.1610 -24.1556 -24.1422 -24.1191
   -24.1099 -24.0693 -24.0317 -24.0102 -23.9831 -23.9707 -23.9688 -23.9655
   -23.2063 -23.1667 -23.1631 -23.1578 -23.1569 -23.1497 -23.1362 -23.1251
   -23.1189 -23.0794 -23.0712 -23.0670 -23.0638 -23.0633 -23.0539 -23.0433
   -23.0414 -23.0412 -23.0289 -23.0247 -23.0217 -23.0153 -22.9940 -22.9861
    12.3027  13.8117  14.8322  14.9545  15.0435  15.1505  15.4609  15.4988
    15.5466  15.6098  15.7681  15.7875  15.9532  16.0743  16.1152  16.3750
    16.4869  16.6409  16.8491  16.9798  16.9917  17.0219  17.0590  17.1709
    17.1900  17.2133  17.4088  17.4301  17.5693  17.6817  17.7113  17.7617
    18.0302  18.0384  18.1153  18.1712  18.2129  18.2736  18.2887  18.2912
    18.3335  18.3572  18.5554  18.6297  18.6980  18.7396  19.0003  19.0084
    19.5381  19.6058  19.6263  19.9312  19.9823  20.0685  20.1807  20.1936
    20.2364  20.3352  20.4224  20.4860  20.4995  20.5330  20.6360  20.6526
    20.7041  20.7322  20.7624  20.7901  20.7945  20.9861  21.0046  21.1137
    21.1258

          k = 0.1667 0.1667-0.5000 (  9786 PWs)   bands (ev):

   -66.9893 -66.9893 -52.7068 -52.7068 -52.6868 -52.6868 -52.6761 -52.6761
   -51.7736 -51.7726 -51.7702 -51.7684 -51.7676 -51.7671 -51.7547 -51.7541
   -33.0800 -33.0800 -33.0787 -33.0787 -33.0772 -33.0771 -24.1977 -24.1976
   -24.1947 -24.1946 -24.1600 -24.1599 -24.1570 -24.1569 -24.1345 -24.1345
   -24.1052 -24.1051 -24.0405 -24.0404 -23.9755 -23.9755 -23.9681 -23.9681
   -23.1841 -23.1831 -23.1443 -23.1432 -23.1378 -23.1364 -23.1131 -23.1127
   -23.1075 -23.1068 -23.1031 -23.1018 -23.0645 -23.0635 -23.0594 -23.0581
   -23.0349 -23.0348 -23.0288 -23.0280 -23.0121 -23.0115 -22.9999 -22.9991
    12.9745  12.9746  14.9894  14.9895  15.1072  15.1074  15.7623  15.7623
    15.8410  15.8412  15.9353  15.9354  15.9651  15.9652  16.0869  16.0872
    16.1764  16.1766  16.9015  16.9017  16.9660  16.9661  17.3967  17.3968
    17.4408  17.4410  17.4595  17.4602  17.5434  17.5439  17.9120  17.9124
    17.9218  17.9223  18.0284  18.0288  18.1377  18.1381  18.1568  18.1570
    18.1590  18.1595  18.1870  18.1876  18.2262  18.2266  19.1396  19.1398
    19.9450  19.9452  19.9489  19.9493  20.0039  20.0042  20.0756  20.0764
    20.1884  20.1887  20.2201  20.2203  20.5833  20.5834  20.6705  20.6712
    20.7319  20.7323  20.8924  20.8928  20.9100  20.9102  21.0338  21.0343
    21.0464

          k = 0.1667 0.3333 0.3333 (  9765 PWs)   bands (ev):

   -66.9893 -66.9893 -52.7095 -52.6988 -52.6921 -52.6839 -52.6789 -52.6762
   -51.7734 -51.7721 -51.7714 -51.7697 -51.7658 -51.7619 -51.7607 -51.7532
   -33.0805 -33.0798 -33.0794 -33.0778 -33.0773 -33.0766 -24.2145 -24.2083
   -24.1842 -24.1718 -24.1710 -24.1630 -24.1544 -24.1497 -24.1307 -24.1304
   -24.1101 -24.0713 -24.0341 -24.0193 -24.0001 -23.9982 -23.9735 -23.9734
   -23.1961 -23.1672 -23.1577 -23.1493 -23.1457 -23.1447 -23.1285 -23.1169
   -23.1056 -23.0935 -23.0914 -23.0828 -23.0788 -23.0717 -23.0523 -23.0415
   -23.0396 -23.0367 -23.0319 -23.0262 -23.0153 -23.0077 -23.0041 -22.9911
    12.7105  14.0552  14.1549  14.8336  15.1445  15.4246  15.5233  15.7325
    15.7729  15.8570  15.9898  16.0081  16.1148  16.1237  16.3053  16.3585
    16.5609  16.6504  16.6823  16.8853  16.9624  17.0923  17.1073  17.2168
    17.2183  17.2227  17.2470  17.2949  17.4709  17.6897  17.7097  17.7578
    17.8054  17.8143  17.8670  17.9927  18.0016  18.0153  18.0306  18.0861
    18.1191  18.1606  18.1901  18.2707  18.3003  18.5606  18.5858  19.1340
    19.8328  19.8550  19.9047  20.0598  20.0921  20.1105  20.1582  20.1982
    20.3646  20.3806  20.4201  20.4704  20.4773  20.4817  20.5371  20.5778
    20.6212  20.6522  20.6961  20.8349  20.8509  20.9135  20.9296  21.0076
    21.0367

          k = 0.1667 0.3333-0.5000 (  9772 PWs)   bands (ev):

   -66.9893 -66.9893 -52.7032 -52.7032 -52.6884 -52.6884 -52.6781 -52.6781
   -51.7735 -51.7723 -51.7694 -51.7681 -51.7655 -51.7650 -51.7576 -51.7570
   -33.0804 -33.0803 -33.0787 -33.0786 -33.0767 -33.0767 -24.1925 -24.1923
   -24.1878 -24.1877 -24.1581 -24.1580 -24.1529 -24.1528 -24.1316 -24.1316
   -24.0820 -24.0819 -24.0460 -24.0459 -24.0032 -24.0031 -23.9759 -23.9759
   -23.1835 -23.1824 -23.1461 -23.1452 -23.1323 -23.1309 -23.1234 -23.1231
   -23.1033 -23.1029 -23.0962 -23.0959 -23.0860 -23.0852 -23.0457 -23.0449
   -23.0322 -23.0320 -23.0289 -23.0281 -23.0160 -23.0155 -22.9990 -22.9982
    13.3382  13.3382  14.4874  14.4875  15.3803  15.3804  15.9574  15.9576
    15.9893  15.9894  16.0294  16.0295  16.1864  16.1864  16.2938  16.2940
    16.3181  16.3182  16.9710  16.9711  17.0609  17.0610  17.0900  17.0903
    17.1954  17.1955  17.3264  17.3264  17.5072  17.5072  17.6226  17.6226
    17.7204  17.7205  17.8780  17.8781  17.9077  17.9079  17.9696  17.9699
    18.0099  18.0103  18.0729  18.0730  18.1265  18.1266  18.9104  18.9106
    19.9950  19.9951  20.0961  20.0962  20.1967  20.1968  20.2241  20.2242
    20.2871  20.2872  20.3095  20.3096  20.5374  20.5375  20.5645  20.5650
    20.7481  20.7482  20.7820  20.7826  20.8022  20.8025  20.8772  20.8775
    20.9414

          k = 0.1667-0.5000-0.5000 (  9708 PWs)   bands (ev):

   -66.9892 -66.9892 -52.7007 -52.7007 -52.6899 -52.6899 -52.6791 -52.6791
   -51.7733 -51.7723 -51.7693 -51.7680 -51.7621 -51.7618 -51.7613 -51.7602
   -33.0804 -33.0804 -33.0786 -33.0786 -33.0764 -33.0764 -24.1922 -24.1921
   -24.1832 -24.1832 -24.1577 -24.1576 -24.1397 -24.1397 -24.1387 -24.1386
   -24.0586 -24.0586 -24.0473 -24.0472 -24.0307 -24.0304 -23.9793 -23.9793
   -23.1828 -23.1817 -23.1398 -23.1384 -23.1337 -23.1334 -23.1221 -23.1211
   -23.1163 -23.1154 -23.0978 -23.0970 -23.0867 -23.0855 -23.0321 -23.0312
   -23.0290 -23.0286 -23.0283 -23.0273 -23.0270 -23.0265 -22.9990 -22.9981
    13.8349  13.8351  13.9223  13.9224  15.7183  15.7183  15.8465  15.8466
    16.0020  16.0022  16.1346  16.1348  16.4208  16.4212  16.4236  16.4238
    16.6078  16.6079  16.7529  16.7531  16.9332  16.9332  16.9613  16.9614
    17.1135  17.1136  17.3075  17.3079  17.4353  17.4353  17.4732  17.4733
    17.6428  17.6430  17.6561  17.6564  17.8272  17.8277  17.8573  17.8577
    17.9755  17.9757  18.0056  18.0059  18.4574  18.4577  18.4811  18.4813
    20.1371  20.1375  20.1753  20.1758  20.3701  20.3706  20.3775  20.3780
    20.4441  20.4447  20.4571  20.4575  20.4699  20.4704  20.5527  20.5534
    20.5642  20.5647  20.5726  20.5733  20.7383  20.7387  20.7616  20.7890
    20.7891

          k = 0.3333 0.3333 0.3333 (  9792 PWs)   bands (ev):

   -66.9894 -66.9893 -52.7050 -52.6946 -52.6946 -52.6831 -52.6831 -52.6790
   -51.7725 -51.7709 -51.7696 -51.7696 -51.7637 -51.7637 -51.7624 -51.7559
   -33.0800 -33.0798 -33.0798 -33.0774 -33.0774 -33.0771 -24.1894 -24.1813
   -24.1813 -24.1665 -24.1665 -24.1574 -24.1413 -24.1342 -24.1342 -24.1068
   -24.1041 -24.1041 -24.0259 -24.0259 -24.0252 -24.0252 -24.0100 -23.9893
   -23.1792 -23.1585 -23.1585 -23.1428 -23.1428 -23.1218 -23.1218 -23.1112
   -23.1016 -23.0974 -23.0790 -23.0790 -23.0767 -23.0678 -23.0678 -23.0563
   -23.0452 -23.0452 -23.0373 -23.0370 -23.0124 -23.0124 -23.0095 -23.0095
    13.1059  14.3246  14.4823  14.4823  15.1257  15.2868  15.2868  16.0188
    16.0318  16.0318  16.2354  16.2354  16.3270  16.4128  16.4452  16.4452
    16.5498  16.6286  16.7171  16.7171  16.9695  16.9695  17.1785  17.2022
    17.2022  17.3725  17.3725  17.3782  17.3782  17.3923  17.6227  17.6430
    17.6430  17.6526  17.6818  17.6818  17.7331  17.7336  17.7495  17.7495
    17.8783  17.8783  17.9373  17.9373  18.0893  18.1375  18.1375  18.8447
    20.0833  20.0833  20.1231  20.1285  20.3040  20.3567  20.3567  20.4006
    20.4006  20.4697  20.5218  20.5218  20.5353  20.5773  20.5773  20.6804
    20.6804  20.8238  20.8238  20.8258  20.8258  20.8687  20.8711  21.0413
    21.0413

          k = 0.3333 0.3333-0.5000 (  9770 PWs)   bands (ev):

   -66.9893 -66.9893 -52.6993 -52.6993 -52.6889 -52.6889 -52.6816 -52.6816
   -51.7724 -51.7709 -51.7680 -51.7671 -51.7654 -51.7654 -51.7599 -51.7594
   -33.0799 -33.0798 -33.0786 -33.0786 -33.0771 -33.0771 -24.1754 -24.1753
   -24.1685 -24.1684 -24.1468 -24.1467 -24.1458 -24.1458 -24.1192 -24.1191
   -24.0830 -24.0829 -24.0651 -24.0650 -24.0246 -24.0245 -24.0084 -24.0083
   -23.1686 -23.1675 -23.1454 -23.1439 -23.1222 -23.1207 -23.1114 -23.1112
   -23.0928 -23.0920 -23.0914 -23.0897 -23.0787 -23.0776 -23.0614 -23.0602
   -23.0405 -23.0402 -23.0401 -23.0392 -23.0242 -23.0239 -23.0122 -23.0113
    13.7067  13.7068  14.8007  14.8009  14.9129  14.9132  15.8158  15.8159
    16.2631  16.2633  16.2820  16.2821  16.3499  16.3500  16.4926  16.4929
    16.5417  16.5418  17.0036  17.0039  17.0649  17.0651  17.0739  17.0740
    17.1350  17.1352  17.3579  17.3581  17.3824  17.3830  17.4527  17.4530
    17.5327  17.5328  17.6254  17.6257  17.6321  17.6324  17.7073  17.7077
    17.7662  17.7664  17.7691  17.7693  17.8301  17.8306  18.3830  18.3831
    20.2890  20.2892  20.3263  20.3266  20.3911  20.3914  20.4077  20.4081
    20.4504  20.4507  20.5220  20.5225  20.6003  20.6005  20.7359  20.7363
    20.7606  20.7612  20.7847  20.7849  20.8257  20.8262  20.8601  20.8604
    20.8749

          k = 0.3333-0.5000-0.5000 (  9756 PWs)   bands (ev):

   -66.9893 -66.9893 -52.6962 -52.6962 -52.6899 -52.6899 -52.6837 -52.6837
   -51.7717 -51.7703 -51.7680 -51.7667 -51.7639 -51.7631 -51.7627 -51.7619
   -33.0796 -33.0796 -33.0785 -33.0785 -33.0773 -33.0773 -24.1700 -24.1699
   -24.1531 -24.1530 -24.1451 -24.1450 -24.1329 -24.1328 -24.1147 -24.1146
   -24.0746 -24.0746 -24.0695 -24.0694 -24.0563 -24.0561 -24.0240 -24.0240
   -23.1601 -23.1591 -23.1365 -23.1348 -23.1254 -23.1249 -23.1003 -23.1001
   -23.0918 -23.0904 -23.0890 -23.0880 -23.0837 -23.0830 -23.0475 -23.0472
   -23.0460 -23.0453 -23.0431 -23.0421 -23.0400 -23.0398 -23.0214 -23.0206
    14.1987  14.1988  14.3046  14.3046  15.3158  15.3159  15.4302  15.4303
    16.3324  16.3326  16.4448  16.4451  16.6708  16.6709  16.7698  16.7700
    16.7769  16.7771  16.7781  16.7784  16.8504  16.8504  16.9999  17.0001
    17.2374  17.2375  17.2733  17.2733  17.3110  17.3111  17.3374  17.3377
    17.4767  17.4770  17.4919  17.4923  17.5337  17.5338  17.5562  17.5566
    17.6507  17.6509  17.6980  17.6984  17.8896  17.8899  17.9128  17.9131
    20.4423  20.4427  20.4635  20.4637  20.5289  20.5291  20.5604  20.5605
    20.5637  20.5639  20.6336  20.6339  20.7114  20.7118  20.7215  20.7219
    20.7328  20.7329  20.7618  20.7621  20.7812  20.7813  20.8358  20.8359
    21.0275

          k =-0.5000-0.5000-0.5000 (  9808 PWs)   bands (ev):

   -66.9893 -66.9893 -52.6899 -52.6899 -52.6899 -52.6899 -52.6899 -52.6899
   -51.7706 -51.7684 -51.7668 -51.7668 -51.7642 -51.7642 -51.7637 -51.7635
   -33.0785 -33.0785 -33.0785 -33.0785 -33.0785 -33.0785 -24.1522 -24.1522
   -24.1521 -24.1521 -24.1261 -24.1260 -24.0955 -24.0955 -24.0954 -24.0953
   -24.0953 -24.0952 -24.0769 -24.0768 -24.0767 -24.0767 -24.0766 -24.0766
   -23.1355 -23.1355 -23.1337 -23.1333 -23.1333 -23.1323 -23.0926 -23.0907
   -23.0734 -23.0731 -23.0731 -23.0714 -23.0714 -23.0713 -23.0569 -23.0569
   -23.0551 -23.0551 -23.0528 -23.0515 -23.0515 -23.0507 -23.0501 -23.0501
    14.6330  14.6333  14.8577  14.8577  14.8578  14.8581  14.8581  14.8581
    16.7458  16.7459  16.7459  16.7462  16.7462  16.7462  16.7916  16.7916
    16.7916  16.7918  16.7919  16.7919  17.0185  17.0185  17.0188  17.0188
    17.2921  17.2928  17.3573  17.3575  17.3575  17.3581  17.3583  17.3583
    17.3882  17.3885  17.3885  17.3891  17.3892  17.3892  17.4173  17.4173
    17.4175  17.4180  17.4181  17.4181  17.4693  17.4693  17.4702  17.4702
    20.6329  20.6329  20.6336  20.6336  20.6435  20.6440  20.6440  20.6445
    20.6446  20.6446  20.6730  20.6734  20.6734  20.6739  20.6740  20.6740
    20.8369  20.8369  20.8380  20.8382  20.8382  20.8386  21.0541  21.0541
    21.0552

          k = 0.0000 0.1667-0.1667 (  9783 PWs)   bands (ev):

   -66.9894 -66.9893 -52.7223 -52.6963 -52.6935 -52.6788 -52.6772 -52.6710
   -51.7777 -51.7766 -51.7749 -51.7692 -51.7630 -51.7612 -51.7599 -51.7461
   -33.0810 -33.0805 -33.0799 -33.0775 -33.0770 -33.0764 -24.2694 -24.2687
   -24.2546 -24.1997 -24.1938 -24.1900 -24.1286 -24.1236 -24.1141 -24.0960
   -24.0940 -24.0759 -23.9895 -23.9801 -23.9748 -23.9743 -23.9567 -23.9425
   -23.2285 -23.2027 -23.1990 -23.1943 -23.1808 -23.1722 -23.1322 -23.1232
   -23.1200 -23.0610 -23.0514 -23.0503 -23.0498 -23.0481 -23.0425 -23.0395
   -23.0378 -23.0361 -23.0349 -23.0194 -23.0191 -23.0066 -22.9787 -22.9740
    11.7247  14.5532  14.6866  14.9473  15.1001  15.1540  15.1711  15.2160
    15.2234  15.4211  15.4687  15.4741  15.5631  15.9292  15.9641  16.6325
    16.7658  16.8703  16.9493  17.0167  17.0204  17.0293  17.0367  17.0674
    17.0901  17.2169  17.2565  17.3787  17.4367  17.5768  17.6183  18.1255
    18.1295  18.3141  18.3608  18.3613  18.4135  18.4452  18.6250  18.6561
    18.9407  19.0094  19.0424  19.0517  19.0978  19.1272  19.3347  19.4051
    19.4875  19.6396  19.6428  19.6432  19.6987  19.7375  20.0638  20.0981
    20.3937  20.4739  20.4880  20.5189  20.5268  20.6008  20.6254  20.6445
    20.6461  20.6570  20.6600  20.9004  20.9114  20.9269  21.0112  21.0437
    21.0876

          k = 0.0000 0.3333-0.1667 (  9771 PWs)   bands (ev):

   -66.9893 -66.9892 -52.7163 -52.7008 -52.6908 -52.6819 -52.6765 -52.6730
   -51.7760 -51.7737 -51.7722 -51.7705 -51.7657 -51.7637 -51.7575 -51.7492
   -33.0806 -33.0798 -33.0787 -33.0786 -33.0777 -33.0766 -24.2406 -24.2398
   -24.2074 -24.1829 -24.1731 -24.1633 -24.1589 -24.1570 -24.1312 -24.1166
   -24.1157 -24.0643 -24.0352 -24.0091 -23.9764 -23.9687 -23.9638 -23.9505
   -23.2106 -23.1743 -23.1653 -23.1607 -23.1533 -23.1510 -23.1394 -23.1270
   -23.1238 -23.0792 -23.0695 -23.0662 -23.0575 -23.0515 -23.0494 -23.0466
   -23.0370 -23.0356 -23.0291 -23.0250 -23.0245 -23.0232 -22.9915 -22.9845
    12.1618  13.7053  14.7855  14.9581  15.2875  15.3164  15.4294  15.4833
    15.5138  15.5146  15.6097  15.6815  15.7079  15.9306  16.0411  16.3674
    16.4609  16.5978  16.8446  16.9564  16.9586  16.9708  17.1324  17.2137
    17.2497  17.2656  17.4180  17.4867  17.5105  17.7412  17.8616  17.9332
    17.9842  18.1673  18.1804  18.2505  18.2719  18.3143  18.3438  18.4053
    18.4603  18.5224  18.7740  18.8035  18.8560  18.9182  18.9955  19.1885
    19.3811  19.5101  19.5389  19.8611  19.9203  20.0160  20.0352  20.1398
    20.2865  20.3684  20.3874  20.4658  20.5426  20.6298  20.6344  20.6450
    20.7358  20.7501  20.7549  20.8854  20.9343  21.0615  21.0872  21.1301
    21.1454

          k = 0.0000 0.3333-0.3333 (  9751 PWs)   bands (ev):

   -66.9893 -66.9892 -52.7112 -52.7004 -52.6914 -52.6841 -52.6773 -52.6749
   -51.7752 -51.7721 -51.7710 -51.7694 -51.7670 -51.7613 -51.7601 -51.7522
   -33.0808 -33.0796 -33.0793 -33.0781 -33.0775 -33.0762 -24.2224 -24.2221
   -24.1854 -24.1750 -24.1745 -24.1717 -24.1596 -24.1468 -24.1285 -24.1264
   -24.1253 -24.0589 -24.0350 -24.0161 -23.9932 -23.9898 -23.9660 -23.9557
   -23.2046 -23.1683 -23.1660 -23.1552 -23.1496 -23.1342 -23.1278 -23.1247
   -23.1113 -23.0990 -23.0903 -23.0891 -23.0823 -23.0727 -23.0416 -23.0403
   -23.0339 -23.0275 -23.0259 -23.0215 -23.0185 -23.0098 -23.0005 -22.9847
    12.5732  13.9413  14.0353  14.6994  15.5668  15.5897  15.6413  15.6623
    15.7064  15.7312  15.7623  15.8909  15.9152  15.9898  16.1467  16.3072
    16.5074  16.6414  16.7228  16.8764  17.0738  17.0865  17.1009  17.1451
    17.1454  17.2165  17.3313  17.3389  17.4351  17.7850  17.8279  17.8586
    17.8790  17.8896  17.9730  18.0690  18.1323  18.1328  18.1418  18.1605
    18.2358  18.3161  18.4088  18.4917  18.5083  18.7927  18.8875  19.1061
    19.6595  19.7670  19.8026  19.9321  19.9866  20.0077  20.0526  20.2859
    20.2898  20.3117  20.3710  20.4097  20.4505  20.4561  20.5376  20.5711
    20.5973  20.6614  20.6771  20.6917  20.8410  20.8528  20.9026  20.9443
    20.9963

          k =-0.1667 0.1667 0.1667 (  9765 PWs)   bands (ev):

   -66.9893 -66.9893 -52.7202 -52.6950 -52.6950 -52.6785 -52.6785 -52.6719
   -51.7770 -51.7756 -51.7740 -51.7697 -51.7622 -51.7622 -51.7606 -51.7472
   -33.0807 -33.0806 -33.0792 -33.0781 -33.0767 -33.0766 -24.2633 -24.2473
   -24.2473 -24.1905 -24.1905 -24.1815 -24.1313 -24.1312 -24.1310 -24.0966
   -24.0882 -24.0881 -23.9879 -23.9878 -23.9738 -23.9727 -23.9725 -23.9547
   -23.2220 -23.1894 -23.1892 -23.1826 -23.1824 -23.1529 -23.1339 -23.1325
   -23.1184 -23.0583 -23.0575 -23.0532 -23.0523 -23.0519 -23.0510 -23.0468
   -23.0302 -23.0297 -23.0288 -23.0285 -23.0226 -23.0194 -22.9797 -22.9794
    11.8725  14.5821  14.7677  14.7678  15.0157  15.1502  15.1503  15.2496
    15.3269  15.3269  15.5519  15.5520  15.9147  16.0368  16.0368  16.5478
    16.8443  16.8444  16.8744  17.0249  17.0251  17.0253  17.0586  17.0588
    17.1611  17.1613  17.1903  17.3219  17.4294  17.4295  17.9071  17.9181
    17.9182  18.2537  18.3055  18.3057  18.3411  18.3412  18.7569  18.7571
    18.7879  18.7928  18.9597  18.9599  19.0114  19.1809  19.2048  19.2049
    19.2213  19.3768  19.3768  19.7762  19.7769  19.8466  20.3160  20.3162
    20.3359  20.3850  20.4386  20.4387  20.5730  20.5731  20.5859  20.6311
    20.6313  20.6493  20.6494  20.8714  20.8715  20.9338  21.0103  21.0458
    21.1879

          k =-0.1667 0.3333 0.1667 (  9771 PWs)   bands (ev):

   -66.9893 -66.9893 -52.7144 -52.6997 -52.6915 -52.6820 -52.6776 -52.6740
   -51.7753 -51.7730 -51.7719 -51.7706 -51.7649 -51.7639 -51.7585 -51.7503
   -33.0805 -33.0798 -33.0791 -33.0782 -33.0775 -33.0766 -24.2353 -24.2271
   -24.2028 -24.1781 -24.1635 -24.1618 -24.1610 -24.1556 -24.1421 -24.1191
   -24.1099 -24.0694 -24.0318 -24.0102 -23.9831 -23.9706 -23.9687 -23.9657
   -23.2066 -23.1668 -23.1630 -23.1578 -23.1566 -23.1491 -23.1353 -23.1256
   -23.1204 -23.0790 -23.0708 -23.0668 -23.0641 -23.0633 -23.0537 -23.0438
   -23.0419 -23.0409 -23.0294 -23.0242 -23.0212 -23.0153 -22.9940 -22.9864
    12.3027  13.8117  14.8321  14.9546  15.0435  15.1505  15.4609  15.4989
    15.5465  15.6097  15.7682  15.7876  15.9533  16.0743  16.1152  16.3751
    16.4869  16.6409  16.8490  16.9798  16.9918  17.0219  17.0590  17.1707
    17.1901  17.2131  17.4090  17.4299  17.5692  17.6818  17.7113  17.7617
    18.0300  18.0387  18.1152  18.1713  18.2129  18.2737  18.2886  18.2912
    18.3335  18.3572  18.5551  18.6297  18.6981  18.7397  19.0004  19.0084
    19.5380  19.6058  19.6263  19.9312  19.9826  20.0683  20.1809  20.1937
    20.2364  20.3352  20.4220  20.4860  20.4996  20.5330  20.6359  20.6525
    20.7044  20.7320  20.7625  20.7901  20.7944  20.9860  21.0047  21.1135
    21.1260

          k = 0.1667-0.3333 0.1667 (  9771 PWs)   bands (ev):

   -66.9893 -66.9893 -52.7144 -52.6997 -52.6915 -52.6820 -52.6776 -52.6740
   -51.7756 -51.7729 -51.7717 -51.7704 -51.7649 -51.7643 -51.7585 -51.7503
   -33.0805 -33.0798 -33.0791 -33.0782 -33.0775 -33.0766 -24.2353 -24.2271
   -24.2028 -24.1782 -24.1634 -24.1617 -24.1610 -24.1556 -24.1421 -24.1191
   -24.1099 -24.0694 -24.0317 -24.0103 -23.9830 -23.9707 -23.9689 -23.9656
   -23.2069 -23.1659 -23.1637 -23.1581 -23.1558 -23.1488 -23.1363 -23.1256
   -23.1204 -23.0784 -23.0716 -23.0659 -23.0638 -23.0636 -23.0543 -23.0430
   -23.0419 -23.0406 -23.0295 -23.0246 -23.0221 -23.0145 -22.9940 -22.9866
    12.3027  13.8117  14.8322  14.9545  15.0435  15.1505  15.4608  15.4989
    15.5465  15.6098  15.7683  15.7875  15.9532  16.0744  16.1152  16.3752
    16.4868  16.6409  16.8491  16.9798  16.9917  17.0219  17.0589  17.1709
    17.1899  17.2133  17.4089  17.4301  17.5694  17.6819  17.7113  17.7616
    18.0303  18.0385  18.1154  18.1713  18.2128  18.2736  18.2886  18.2912
    18.3335  18.3572  18.5552  18.6296  18.6981  18.7398  19.0005  19.0082
    19.5380  19.6057  19.6263  19.9316  19.9823  20.0683  20.1810  20.1938
    20.2364  20.3352  20.4219  20.4861  20.4994  20.5333  20.6359  20.6524
    20.7041  20.7323  20.7624  20.7901  20.7946  20.9861  21.0047  21.1137
    21.1257

          k =-0.1667-0.5000 0.1667 (  9786 PWs)   bands (ev):

   -66.9893 -66.9893 -52.7068 -52.7068 -52.6868 -52.6868 -52.6761 -52.6761
   -51.7733 -51.7732 -51.7701 -51.7680 -51.7678 -51.7671 -51.7548 -51.7541
   -33.0800 -33.0800 -33.0787 -33.0787 -33.0772 -33.0772 -24.1977 -24.1976
   -24.1947 -24.1947 -24.1599 -24.1598 -24.1570 -24.1569 -24.1345 -24.1345
   -24.1052 -24.1051 -24.0405 -24.0404 -23.9756 -23.9756 -23.9680 -23.9680
   -23.1838 -23.1837 -23.1433 -23.1426 -23.1375 -23.1375 -23.1132 -23.1129
   -23.1069 -23.1068 -23.1032 -23.1024 -23.0644 -23.0637 -23.0598 -23.0582
   -23.0350 -23.0350 -23.0286 -23.0279 -23.0114 -23.0113 -22.9998 -22.9996
    12.9745  12.9746  14.9893  14.9895  15.1073  15.1074  15.7624  15.7624
    15.8410  15.8411  15.9354  15.9354  15.9651  15.9651  16.0870  16.0871
    16.1765  16.1766  16.9015  16.9016  16.9661  16.9662  17.3968  17.3970
    17.4407  17.4409  17.4597  17.4603  17.5430  17.5437  17.9119  17.9124
    17.9221  17.9225  18.0285  18.0285  18.1375  18.1380  18.1571  18.1571
    18.1591  18.1596  18.1874  18.1878  18.2257  18.2264  19.1398  19.1398
    19.9452  19.9452  19.9490  19.9491  20.0040  20.0040  20.0758  20.0759
    20.1883  20.1884  20.2203  20.2204  20.5833  20.5834  20.6710  20.6713
    20.7315  20.7322  20.8927  20.8929  20.9098  20.9101  21.0341  21.0343
    21.0466

          k =-0.1667 0.3333 0.3333 (  9765 PWs)   bands (ev):

   -66.9893 -66.9893 -52.7095 -52.6988 -52.6921 -52.6839 -52.6789 -52.6762
   -51.7740 -51.7722 -51.7714 -51.7688 -51.7659 -51.7619 -51.7610 -51.7533
   -33.0805 -33.0798 -33.0794 -33.0778 -33.0773 -33.0766 -24.2145 -24.2084
   -24.1843 -24.1717 -24.1709 -24.1629 -24.1544 -24.1496 -24.1308 -24.1304
   -24.1102 -24.0713 -24.0342 -24.0192 -24.0001 -23.9983 -23.9736 -23.9733
   -23.1962 -23.1674 -23.1583 -23.1493 -23.1449 -23.1433 -23.1283 -23.1185
   -23.1059 -23.0934 -23.0913 -23.0830 -23.0782 -23.0716 -23.0528 -23.0413
   -23.0399 -23.0368 -23.0323 -23.0257 -23.0145 -23.0079 -23.0042 -22.9911
    12.7105  14.0552  14.1549  14.8336  15.1445  15.4246  15.5232  15.7326
    15.7728  15.8568  15.9898  16.0083  16.1148  16.1237  16.3053  16.3585
    16.5610  16.6502  16.6824  16.8853  16.9622  17.0923  17.1072  17.2168
    17.2183  17.2227  17.2470  17.2950  17.4710  17.6899  17.7097  17.7578
    17.8052  17.8143  17.8670  17.9927  18.0015  18.0153  18.0306  18.0860
    18.1192  18.1608  18.1896  18.2707  18.3005  18.5606  18.5858  19.1342
    19.8327  19.8549  19.9048  20.0598  20.0918  20.1105  20.1583  20.1985
    20.3647  20.3805  20.4200  20.4704  20.4770  20.4816  20.5370  20.5781
    20.6214  20.6520  20.6962  20.8352  20.8509  20.9134  20.9296  21.0078
    21.0365

          k = 0.1667 0.3333-0.3333 (  9765 PWs)   bands (ev):

   -66.9893 -66.9893 -52.7095 -52.6988 -52.6921 -52.6839 -52.6789 -52.6762
   -51.7746 -51.7718 -51.7707 -51.7690 -51.7662 -51.7621 -51.7608 -51.7532
   -33.0805 -33.0798 -33.0794 -33.0778 -33.0774 -33.0765 -24.2146 -24.2084
   -24.1843 -24.1717 -24.1709 -24.1630 -24.1544 -24.1496 -24.1307 -24.1303
   -24.1101 -24.0714 -24.0341 -24.0193 -24.0003 -23.9981 -23.9735 -23.9733
   -23.1968 -23.1662 -23.1577 -23.1489 -23.1459 -23.1447 -23.1276 -23.1186
   -23.1063 -23.0933 -23.0903 -23.0828 -23.0788 -23.0715 -23.0533 -23.0407
   -23.0397 -23.0370 -23.0316 -23.0265 -23.0153 -23.0070 -23.0041 -22.9916
    12.7105  14.0551  14.1550  14.8336  15.1445  15.4246  15.5232  15.7324
    15.7729  15.8568  15.9900  16.0081  16.1150  16.1236  16.3053  16.3586
    16.5610  16.6502  16.6823  16.8853  16.9622  17.0924  17.1072  17.2168
    17.2183  17.2227  17.2472  17.2949  17.4708  17.6898  17.7098  17.7578
    17.8052  17.8145  17.8670  17.9929  18.0014  18.0151  18.0306  18.0862
    18.1193  18.1606  18.1897  18.2710  18.3003  18.5603  18.5860  19.1342
    19.8325  19.8550  19.9048  20.0602  20.0913  20.1108  20.1578  20.1989
    20.3646  20.3805  20.4202  20.4704  20.4765  20.4822  20.5374  20.5776
    20.6214  20.6521  20.6960  20.8350  20.8508  20.9135  20.9297  21.0077
    21.0365

          k =-0.1667-0.5000 0.3333 (  9772 PWs)   bands (ev):

   -66.9893 -66.9893 -52.7032 -52.7032 -52.6884 -52.6884 -52.6781 -52.6781
   -51.7733 -51.7727 -51.7694 -51.7680 -51.7652 -51.7651 -51.7578 -51.7570
   -33.0804 -33.0803 -33.0786 -33.0786 -33.0767 -33.0767 -24.1924 -24.1924
   -24.1878 -24.1877 -24.1581 -24.1580 -24.1528 -24.1528 -24.1317 -24.1316
   -24.0820 -24.0819 -24.0460 -24.0459 -24.0032 -24.0031 -23.9759 -23.9758
   -23.1834 -23.1827 -23.1456 -23.1443 -23.1323 -23.1320 -23.1234 -23.1230
   -23.1033 -23.1029 -23.0964 -23.0963 -23.0857 -23.0852 -23.0460 -23.0452
   -23.0324 -23.0319 -23.0291 -23.0281 -23.0154 -23.0150 -22.9990 -22.9984
    13.3382  13.3382  14.4874  14.4875  15.3803  15.3804  15.9574  15.9576
    15.9893  15.9894  16.0294  16.0296  16.1863  16.1863  16.2938  16.2939
    16.3182  16.3183  16.9710  16.9711  17.0609  17.0611  17.0902  17.0904
    17.1952  17.1953  17.3263  17.3265  17.5071  17.5072  17.6225  17.6226
    17.7205  17.7206  17.8780  17.8781  17.9077  17.9079  17.9694  17.9698
    18.0102  18.0105  18.0727  18.0730  18.1265  18.1265  18.9105  18.9106
    19.9950  19.9951  20.0960  20.0961  20.1967  20.1968  20.2241  20.2243
    20.2869  20.2869  20.3097  20.3098  20.5376  20.5377  20.5646  20.5648
    20.7481  20.7482  20.7823  20.7828  20.8019  20.8024  20.8773  20.8773
    20.9414

          k =-0.3333 0.3333 0.3333 (  9792 PWs)   bands (ev):

   -66.9894 -66.9893 -52.7050 -52.6946 -52.6946 -52.6831 -52.6831 -52.6790
   -51.7730 -51.7715 -51.7696 -51.7677 -51.7645 -51.7637 -51.7624 -51.7560
   -33.0800 -33.0798 -33.0797 -33.0774 -33.0773 -33.0772 -24.1895 -24.1814
   -24.1814 -24.1665 -24.1664 -24.1572 -24.1413 -24.1342 -24.1341 -24.1068
   -24.1042 -24.1041 -24.0260 -24.0259 -24.0253 -24.0252 -24.0101 -23.9892
   -23.1798 -23.1587 -23.1572 -23.1434 -23.1424 -23.1217 -23.1207 -23.1130
   -23.1015 -23.0979 -23.0789 -23.0780 -23.0759 -23.0688 -23.0683 -23.0555
   -23.0460 -23.0457 -23.0373 -23.0363 -23.0127 -23.0114 -23.0099 -23.0095
    13.1059  14.3244  14.4823  14.4824  15.1257  15.2868  15.2868  16.0189
    16.0317  16.0317  16.2354  16.2357  16.3270  16.4128  16.4454  16.4454
    16.5499  16.6286  16.7168  16.7170  16.9693  16.9694  17.1787  17.2021
    17.2021  17.3725  17.3727  17.3782  17.3783  17.3923  17.6228  17.6428
    17.6429  17.6527  17.6817  17.6819  17.7327  17.7335  17.7496  17.7499
    17.8783  17.8786  17.9372  17.9372  18.0895  18.1372  18.1376  18.8449
    20.0830  20.0832  20.1228  20.1287  20.3040  20.3565  20.3571  20.4005
    20.4009  20.4703  20.5219  20.5222  20.5354  20.5770  20.5771  20.6801
    20.6802  20.8236  20.8237  20.8256  20.8258  20.8689  20.8712  21.0413
    21.0416

          k =-0.3333-0.5000 0.3333 (  9770 PWs)   bands (ev):

   -66.9893 -66.9893 -52.6993 -52.6993 -52.6889 -52.6889 -52.6816 -52.6816
   -51.7721 -51.7716 -51.7682 -51.7663 -51.7658 -51.7649 -51.7602 -51.7593
   -33.0799 -33.0799 -33.0785 -33.0785 -33.0771 -33.0771 -24.1754 -24.1753
   -24.1684 -24.1684 -24.1467 -24.1467 -24.1460 -24.1459 -24.1192 -24.1191
   -24.0831 -24.0830 -24.0650 -24.0650 -24.0246 -24.0246 -24.0083 -24.0083
   -23.1683 -23.1682 -23.1443 -23.1432 -23.1228 -23.1223 -23.1109 -23.1108
   -23.0921 -23.0918 -23.0913 -23.0902 -23.0785 -23.0778 -23.0621 -23.0604
   -23.0409 -23.0404 -23.0403 -23.0392 -23.0233 -23.0233 -23.0119 -23.0119
    13.7068  13.7068  14.8006  14.8009  14.9130  14.9132  15.8158  15.8159
    16.2632  16.2632  16.2822  16.2822  16.3498  16.3499  16.4926  16.4927
    16.5418  16.5419  17.0038  17.0041  17.0649  17.0650  17.0738  17.0739
    17.1350  17.1351  17.3577  17.3581  17.3826  17.3831  17.4524  17.4529
    17.5328  17.5329  17.6256  17.6257  17.6320  17.6325  17.7075  17.7077
    17.7663  17.7663  17.7692  17.7692  17.8302  17.8303  18.3831  18.3831
    20.2890  20.2890  20.3263  20.3265  20.3913  20.3913  20.4076  20.4077
    20.4508  20.4509  20.5220  20.5220  20.6006  20.6006  20.7362  20.7364
    20.7610  20.7614  20.7845  20.7848  20.8256  20.8260  20.8603  20.8603
    20.8750

     the Fermi energy is    19.3965 ev

!    total energy              =   -4133.53111621 Ry
     total all-electron energy =    -34515.581682 Ry
     estimated scf accuracy    <       0.00000331 Ry
     smearing contrib. (-TS)   =       0.00121170 Ry
     internal energy E=F+TS    =   -4133.53232791 Ry

     The total energy is F=E-TS. E is the sum of the following terms:
     one-electron contribution =   -1002.35549958 Ry
     hartree contribution      =     641.84665813 Ry
     xc contribution           =    -367.57683100 Ry
     ewald contribution        =   -2200.41331649 Ry
     one-center paw contrib.   =   -1205.03333897 Ry

     total magnetization       =     3.67 Bohr mag/cell
     absolute magnetization    =    14.91 Bohr mag/cell

     convergence has been achieved in  52 iterations


     Computing stress (Cartesian axis) and pressure

          total   stress  (Ry/bohr**3)                   (kbar)     P=        0.53
   0.00000359   0.00000033   0.00000033            0.53        0.05        0.05
   0.00000033   0.00000359   0.00000033            0.05        0.53        0.05
   0.00000033   0.00000033   0.00000359            0.05        0.05        0.53


     Writing all to output data dir ./tmp/fecr_fe02cr14_t0.00.save/ :
     XML data file, charge density, pseudopotentials, collected wavefunctions
 
     init_run     :     35.05s CPU     23.07s WALL (       1 calls)
     electrons    :   2111.34s CPU   1464.20s WALL (       1 calls)
     stress       :      9.71s CPU      9.43s WALL (       1 calls)

     Called by init_run:
     wfcinit      :      3.01s CPU      3.70s WALL (       1 calls)
     potinit      :     30.99s CPU     18.22s WALL (       1 calls)
     hinit0       :      0.80s CPU      0.78s WALL (       1 calls)

     Called by electrons:
     c_bands      :    482.86s CPU    484.19s WALL (      52 calls)
     sum_band     :     49.40s CPU     49.42s WALL (      52 calls)
     v_of_rho     :      2.84s CPU      2.36s WALL (      53 calls)
     newd         :      3.06s CPU      3.10s WALL (      53 calls)
                                        3.10s GPU  (      53 calls)
     PAW_pot      :   1599.29s CPU    938.41s WALL (      53 calls)
     mix_rho      :      3.41s CPU      3.47s WALL (      52 calls)

     Called by c_bands:
     init_us_2    :      4.19s CPU      3.99s WALL (    6784 calls)
     cegterg      :    433.89s CPU    435.28s WALL (    3328 calls)

     Called by *egterg:
     cdiaghg      :    146.81s CPU    147.97s WALL (   17382 calls)
                                      147.89s GPU  (   17382 calls)
     h_psi        :    133.40s CPU    134.12s WALL (   17446 calls)
                                      133.98s GPU  (   17446 calls)
     s_psi        :      8.73s CPU      8.87s WALL (   17446 calls)
     g_psi        :      0.08s CPU      0.75s WALL (   14054 calls)
                                        0.71s GPU  (   14054 calls)

     Called by h_psi:
     h_psi:calbec :      0.64s CPU     29.19s WALL (   17446 calls)
                                       29.13s GPU  (   17446 calls)
     vloc_psi     :     69.18s CPU     69.00s WALL (   17446 calls)
                                       68.94s GPU  (   17446 calls)
     add_vuspsi   :      8.50s CPU     34.96s WALL (   17446 calls)
                                       34.90s GPU  (   17446 calls)

     General routines
     calbec       :      0.79s CPU      0.85s WALL (   20838 calls)
     fft          :      0.61s CPU      0.74s WALL (    1344 calls)
                                        0.17s GPU  (    1238 calls)
     ffts         :      0.22s CPU      0.25s WALL (    1227 calls)
                                        0.05s GPU  (    1121 calls)
     fftw         :      3.94s CPU     64.89s WALL (  186090 calls)
                                       64.45s GPU  (  186090 calls)
     interpolate  :      0.85s CPU      0.85s WALL (     106 calls)
 
     Parallel routines
 
     PWSCF        :  35m58.80s CPU  24m59.88s WALL

 
   This run was terminated on:  10:50:32  24May2026            

=------------------------------------------------------------------------------=
   JOB DONE.
=------------------------------------------------------------------------------=
Warning: ieee_divide_by_zero is signaling
Warning: ieee_inexact is signaling
FORTRAN STOP
