--------------------------------------------------------------------------
WARNING: Open MPI tried to bind a process but failed.  This is a
warning only; your job will continue, though performance may
be degraded.

  Local host:        4b82db919bf5
  Application name:  /root/q-e-qe-7.3.1/bin/pw.x
  Error message:     failed to bind memory
  Location:          ../../../../../orte/mca/rtc/hwloc/rtc_hwloc.c:447

--------------------------------------------------------------------------

     Program PWSCF v.7.3.1 starts on 21May2026 at  3:23:45 

     This program is part of the open-source Quantum ESPRESSO suite
     for quantum simulation of materials; please cite
         "P. Giannozzi et al., J. Phys.:Condens. Matter 21 395502 (2009);
         "P. Giannozzi et al., J. Phys.:Condens. Matter 29 465901 (2017);
         "P. Giannozzi et al., J. Chem. Phys. 152 154105 (2020);
          URL http://www.quantum-espresso.org", 
     in publications or presentations arising from this work. More details at
     http://www.quantum-espresso.org/quote

     Parallel version (MPI & OpenMP), running on       8 processor cores
     Number of MPI processes:                 1
     Threads/MPI process:                     8

     MPI processes distributed on     1 nodes
     192030 MiB available memory on the printing compute node when the environment starts
 
     Reading input from inputs/fecr_fe05cr11_s-0.01.in

     Current dimensions of program PWSCF are:
     Max number of different atomic species (ntypx) = 10
     Max number of k-points (npk) =  40000
     Max angular momentum in pseudopotentials (lmaxx) =  4
     file Fe.pbe-spn-kjpaw_psl.1.0.0.UPF: wavefunction(s)  3P 3D renormalized
     file Cr.pbe-spn-kjpaw_psl.1.0.0.UPF: wavefunction(s)  3S 3P 3D renormalized
     Message from routine setup:
     using ibrav=0 with symmetry is DISCOURAGED, use correct ibrav instead
 
     Subspace diagonalization in iterative solution of the eigenvalue problem:
     a serial algorithm will be used

 
     G-vector sticks info
     --------------------
     sticks:   dense  smooth     PW     G-vecs:    dense   smooth      PW
     Sum        4337    2177    607               214539    75877   11467
 
     Using Slab Decomposition
 


     bravais-lattice index     =            0
     lattice parameter (alat)  =      10.6527  a.u.
     unit-cell volume          =    1208.5498 (a.u.)^3
     number of atoms/cell      =           16
     number of atomic types    =            2
     number of electrons       =       234.00
     number of Kohn-Sham states=          140
     kinetic-energy cutoff     =      60.0000  Ry
     charge density cutoff     =     480.0000  Ry
     scf convergence threshold =      1.0E-07
     mixing beta               =       0.3000
     number of iterations used =            8  plain     mixing
     Exchange-correlation= SLA  PW   PBX  PBC
                           (   1   4   3   4   0   0   0)

     GPU acceleration is ACTIVE.  1 visible GPUs per MPI rank


     celldm(1)=  10.652651  celldm(2)=   0.000000  celldm(3)=   0.000000
     celldm(4)=   0.000000  celldm(5)=   0.000000  celldm(6)=   0.000000

     crystal axes: (cart. coord. in units of alat)
               a(1) = (   0.999950  -0.010000   0.000000 )  
               a(2) = (  -0.010000   0.999950   0.000000 )  
               a(3) = (   0.000000   0.000000   0.999950 )  

     reciprocal axes: (cart. coord. in units 2 pi/alat)
               b(1) = (  1.000150  0.010002 -0.000000 )  
               b(2) = (  0.010002  1.000150 -0.000000 )  
               b(3) = ( -0.000000 -0.000000  1.000050 )  


     PseudoPot. # 1 for Fe read from file:
     ./pseudo/Fe.pbe-spn-kjpaw_psl.1.0.0.UPF
     MD5 check sum: fc81f059e5c5069939230b1155715ae8
     Pseudo is Projector augmented-wave + core cor, Zval = 16.0
     Generated using &quot;atomic&quot; code by A. Dal Corso  v.6.3
     Shape of augmentation charge: PSQ
     Using radial grid of 1191 points,  6 beta functions with: 
                l(1) =   0
                l(2) =   0
                l(3) =   1
                l(4) =   1
                l(5) =   2
                l(6) =   2
     Q(r) pseudized with 0 coefficients 


     PseudoPot. # 2 for Cr read from file:
     ./pseudo/Cr.pbe-spn-kjpaw_psl.1.0.0.UPF
     MD5 check sum: 198f1a2427a48552563eee314eba32ba
     Pseudo is Projector augmented-wave + core cor, Zval = 14.0
     Generated using &quot;atomic&quot; code by A. Dal Corso  v.6.3
     Shape of augmentation charge: PSQ
     Using radial grid of 1183 points,  6 beta functions with: 
                l(1) =   0
                l(2) =   0
                l(3) =   1
                l(4) =   1
                l(5) =   2
                l(6) =   2
     Q(r) pseudized with 0 coefficients 


     atomic species   valence    mass     pseudopotential
     Fe               16.00    55.84500     Fe( 1.00)
     Cr               14.00    51.99600     Cr( 1.00)

     Starting magnetic structure 
     atomic species   magnetization
     Fe              0.500
     Cr              0.300

      2 Sym. Ops., with inversion, found



   Cartesian axes

     site n.     atom                  positions (alat units)
         1        Cr     tau(   1) = (   0.0000000   0.0000000   0.0000000  )
         2        Fe     tau(   2) = (   0.2474876   0.2474876   0.2499875  )
         3        Cr     tau(   3) = (   0.0000000   0.0000000   0.4999750  )
         4        Cr     tau(   4) = (   0.2474876   0.2474876   0.7499625  )
         5        Cr     tau(   5) = (  -0.0049998   0.4999750   0.0000000  )
         6        Fe     tau(   6) = (   0.2424878   0.7474626   0.2499875  )
         7        Cr     tau(   7) = (  -0.0049998   0.4999750   0.4999750  )
         8        Cr     tau(   8) = (   0.2424878   0.7474626   0.7499625  )
         9        Cr     tau(   9) = (   0.4999750  -0.0049998   0.0000000  )
        10        Cr     tau(  10) = (   0.7474626   0.2424878   0.2499875  )
        11        Cr     tau(  11) = (   0.4999750  -0.0049998   0.4999750  )
        12        Fe     tau(  12) = (   0.7474626   0.2424878   0.7499625  )
        13        Fe     tau(  13) = (   0.4949752   0.4949752   0.0000000  )
        14        Cr     tau(  14) = (   0.7424628   0.7424628   0.2499875  )
        15        Cr     tau(  15) = (   0.4949752   0.4949752   0.4999750  )
        16        Fe     tau(  16) = (   0.7424628   0.7424628   0.7499625  )

     number of k points=   112  Marzari-Vanderbilt smearing, width (Ry)=  0.0200

     Number of k-points >= 100: set verbosity='high' to print them.

     Dense  grid:   214539 G-vectors     FFT dimensions: (  75,  75,  75)

     Smooth grid:    75877 G-vectors     FFT dimensions: (  54,  54,  54)

     Estimated max dynamical RAM per process >       5.34 GB

     Check: negative core charge=   -0.000003
     Generating pointlists ...
     new r_m :   0.1774 (alat units)  1.8900 (a.u.) for type    1
     new r_m :   0.1774 (alat units)  1.8900 (a.u.) for type    2

     Initial potential from superposition of free atoms

     starting charge     233.9893, renormalised to     234.0000
     Starting wfcs are  160 randomized atomic wfcs
     Checking if some PAW data can be deallocated... 

     total cpu time spent up to now is       32.1 secs

     Self-consistent Calculation

     iteration #  1     ecut=    60.00 Ry     beta= 0.30
     Davidson diagonalization with overlap
     ethr =  1.00E-02,  avg # of iterations =  5.9

     negative rho (up, down):  6.034E-01 4.513E+00

     total cpu time spent up to now is       94.6 secs

     total energy              =   -4346.79361667 Ry
     estimated scf accuracy    <     647.24240161 Ry

     total magnetization       =    42.43 Bohr mag/cell
     absolute magnetization    =    92.24 Bohr mag/cell

     iteration #  2     ecut=    60.00 Ry     beta= 0.30
     Davidson diagonalization with overlap
     ethr =  1.00E-02,  avg # of iterations =  6.3

     negative rho (up, down):  4.453E-01 3.309E+00

     total cpu time spent up to now is      155.8 secs

     total energy              =   -4359.56857074 Ry
     estimated scf accuracy    <     118.48359265 Ry

     total magnetization       =    22.93 Bohr mag/cell
     absolute magnetization    =    23.62 Bohr mag/cell

     iteration #  3     ecut=    60.00 Ry     beta= 0.30
     Davidson diagonalization with overlap
     ethr =  1.00E-02,  avg # of iterations =  5.5

     negative rho (up, down):  3.921E-01 2.956E+00

     total cpu time spent up to now is      224.4 secs

     total energy              =   -4360.91599967 Ry
     estimated scf accuracy    <     236.36052643 Ry

     total magnetization       =    18.51 Bohr mag/cell
     absolute magnetization    =    18.94 Bohr mag/cell

     iteration #  4     ecut=    60.00 Ry     beta= 0.30
     Davidson diagonalization with overlap
     ethr =  1.00E-02,  avg # of iterations =  5.0

     negative rho (up, down):  3.488E-01 2.664E+00

     total cpu time spent up to now is      282.6 secs

     total energy              =   -4372.85423213 Ry
     estimated scf accuracy    <      40.27186782 Ry

     total magnetization       =    26.42 Bohr mag/cell
     absolute magnetization    =    27.04 Bohr mag/cell

     iteration #  5     ecut=    60.00 Ry     beta= 0.30
     Davidson diagonalization with overlap
     ethr =  1.00E-02,  avg # of iterations =  1.3

     negative rho (up, down):  2.575E-01 2.038E+00

     total cpu time spent up to now is      324.4 secs

     total energy              =   -4373.65779568 Ry
     estimated scf accuracy    <      31.70160044 Ry

     total magnetization       =    24.87 Bohr mag/cell
     absolute magnetization    =    25.45 Bohr mag/cell

     iteration #  6     ecut=    60.00 Ry     beta= 0.30
     Davidson diagonalization with overlap
     ethr =  1.00E-02,  avg # of iterations =  2.7

     negative rho (up, down):  1.747E-01 1.489E+00

     total cpu time spent up to now is      371.4 secs

     total energy              =   -4374.35147668 Ry
     estimated scf accuracy    <      26.12970791 Ry

     total magnetization       =    25.13 Bohr mag/cell
     absolute magnetization    =    25.46 Bohr mag/cell

     iteration #  7     ecut=    60.00 Ry     beta= 0.30
     Davidson diagonalization with overlap
     ethr =  1.00E-02,  avg # of iterations =  1.0

     negative rho (up, down):  1.242E-01 1.138E+00

     total cpu time spent up to now is      413.3 secs

     total energy              =   -4374.89313664 Ry
     estimated scf accuracy    <      14.60900959 Ry

     total magnetization       =    23.14 Bohr mag/cell
     absolute magnetization    =    23.56 Bohr mag/cell

     iteration #  8     ecut=    60.00 Ry     beta= 0.30
     Davidson diagonalization with overlap
     ethr =  6.24E-03,  avg # of iterations =  1.0

     negative rho (up, down):  3.831E-02 5.207E-01

     total cpu time spent up to now is      455.0 secs

     total energy              =   -4375.68371457 Ry
     estimated scf accuracy    <       9.89708707 Ry

     total magnetization       =    21.35 Bohr mag/cell
     absolute magnetization    =    21.84 Bohr mag/cell

     iteration #  9     ecut=    60.00 Ry     beta= 0.30
     Davidson diagonalization with overlap
     ethr =  4.23E-03,  avg # of iterations =  1.0

     negative rho (up, down):  4.831E-03 1.852E-01

     total cpu time spent up to now is      495.8 secs

     total energy              =   -4376.01461913 Ry
     estimated scf accuracy    <       5.65801257 Ry

     total magnetization       =    18.48 Bohr mag/cell
     absolute magnetization    =    19.43 Bohr mag/cell

     iteration # 10     ecut=    60.00 Ry     beta= 0.30
     Davidson diagonalization with overlap
     ethr =  2.42E-03,  avg # of iterations =  1.0

     negative rho (up, down):  0.000E+00 1.171E-03

     total cpu time spent up to now is      537.2 secs

     total energy              =   -4376.37149400 Ry
     estimated scf accuracy    <       2.18089093 Ry

     total magnetization       =    16.69 Bohr mag/cell
     absolute magnetization    =    17.97 Bohr mag/cell

     iteration # 11     ecut=    60.00 Ry     beta= 0.30
     Davidson diagonalization with overlap
     ethr =  9.32E-04,  avg # of iterations =  1.5

     negative rho (up, down):  0.000E+00 8.056E-04

     total cpu time spent up to now is      581.3 secs

     total energy              =   -4376.34322229 Ry
     estimated scf accuracy    <       1.91670338 Ry

     total magnetization       =    14.14 Bohr mag/cell
     absolute magnetization    =    15.94 Bohr mag/cell

     iteration # 12     ecut=    60.00 Ry     beta= 0.30
     Davidson diagonalization with overlap
     ethr =  8.19E-04,  avg # of iterations =  1.4

     negative rho (up, down):  0.000E+00 5.543E-04

     total cpu time spent up to now is      623.8 secs

     total energy              =   -4376.39446873 Ry
     estimated scf accuracy    <       0.90818760 Ry

     total magnetization       =    12.65 Bohr mag/cell
     absolute magnetization    =    14.77 Bohr mag/cell

     iteration # 13     ecut=    60.00 Ry     beta= 0.30
     Davidson diagonalization with overlap
     c_bands:  1 eigenvalues not converged
     ethr =  3.88E-04,  avg # of iterations =  8.8

     negative rho (up, down):  0.000E+00 5.206E-04

     total cpu time spent up to now is      691.2 secs

     total energy              =   -4376.32253111 Ry
     estimated scf accuracy    <       3.74744813 Ry

     total magnetization       =    12.40 Bohr mag/cell
     absolute magnetization    =    14.34 Bohr mag/cell

     iteration # 14     ecut=    60.00 Ry     beta= 0.30
     Davidson diagonalization with overlap
     ethr =  3.88E-04,  avg # of iterations =  4.2

     negative rho (up, down):  0.000E+00 4.859E-04

     total cpu time spent up to now is      742.8 secs

     total energy              =   -4376.41236187 Ry
     estimated scf accuracy    <       1.57121852 Ry

     total magnetization       =    12.34 Bohr mag/cell
     absolute magnetization    =    14.27 Bohr mag/cell

     iteration # 15     ecut=    60.00 Ry     beta= 0.30
     Davidson diagonalization with overlap
     ethr =  3.88E-04,  avg # of iterations =  1.4

     negative rho (up, down):  0.000E+00 3.732E-04

     total cpu time spent up to now is      785.7 secs

     total energy              =   -4376.50233986 Ry
     estimated scf accuracy    <       0.16928520 Ry

     total magnetization       =    12.42 Bohr mag/cell
     absolute magnetization    =    14.40 Bohr mag/cell

     iteration # 16     ecut=    60.00 Ry     beta= 0.30
     Davidson diagonalization with overlap
     c_bands:  1 eigenvalues not converged
     c_bands:  1 eigenvalues not converged
     c_bands:  1 eigenvalues not converged
     c_bands:  3 eigenvalues not converged
     c_bands:  4 eigenvalues not converged
     ethr =  7.23E-05,  avg # of iterations = 10.0

     negative rho (up, down):  0.000E+00 2.521E-04

     total cpu time spent up to now is      858.1 secs

     total energy              =   -4376.52980725 Ry
     estimated scf accuracy    <       0.24162536 Ry

     total magnetization       =    12.13 Bohr mag/cell
     absolute magnetization    =    14.03 Bohr mag/cell

     iteration # 17     ecut=    60.00 Ry     beta= 0.30
     Davidson diagonalization with overlap
     ethr =  7.23E-05,  avg # of iterations =  2.3

     negative rho (up, down):  0.000E+00 1.815E-04

     total cpu time spent up to now is      903.5 secs

     total energy              =   -4376.54179907 Ry
     estimated scf accuracy    <       0.11216006 Ry

     total magnetization       =    11.74 Bohr mag/cell
     absolute magnetization    =    13.70 Bohr mag/cell

     iteration # 18     ecut=    60.00 Ry     beta= 0.30
     Davidson diagonalization with overlap
     c_bands:  1 eigenvalues not converged
     ethr =  4.79E-05,  avg # of iterations =  2.6

     total cpu time spent up to now is      950.0 secs

     total energy              =   -4376.56491878 Ry
     estimated scf accuracy    <       0.10872874 Ry

     total magnetization       =    11.35 Bohr mag/cell
     absolute magnetization    =    13.37 Bohr mag/cell

     iteration # 19     ecut=    60.00 Ry     beta= 0.30
     Davidson diagonalization with overlap
     ethr =  4.65E-05,  avg # of iterations =  2.1

     total cpu time spent up to now is      995.8 secs

     total energy              =   -4376.57169788 Ry
     estimated scf accuracy    <       0.15049008 Ry

     total magnetization       =    10.23 Bohr mag/cell
     absolute magnetization    =    12.57 Bohr mag/cell

     iteration # 20     ecut=    60.00 Ry     beta= 0.30
     Davidson diagonalization with overlap
     c_bands:  2 eigenvalues not converged
     ethr =  4.65E-05,  avg # of iterations =  1.4

     total cpu time spent up to now is     1038.5 secs

     total energy              =   -4376.57979058 Ry
     estimated scf accuracy    <       0.04441787 Ry

     total magnetization       =     9.88 Bohr mag/cell
     absolute magnetization    =    12.23 Bohr mag/cell

     iteration # 21     ecut=    60.00 Ry     beta= 0.30
     Davidson diagonalization with overlap
     c_bands:  1 eigenvalues not converged
     c_bands:  1 eigenvalues not converged
     c_bands:  1 eigenvalues not converged
     c_bands:  3 eigenvalues not converged
     c_bands:  1 eigenvalues not converged
     c_bands:  1 eigenvalues not converged
     c_bands:  2 eigenvalues not converged
     c_bands:  1 eigenvalues not converged
     c_bands:  2 eigenvalues not converged
     c_bands:  1 eigenvalues not converged
     ethr =  1.90E-05,  avg # of iterations =  5.1

     total cpu time spent up to now is     1093.0 secs

     total energy              =   -4376.58226139 Ry
     estimated scf accuracy    <       0.02582940 Ry

     total magnetization       =     9.60 Bohr mag/cell
     absolute magnetization    =    11.93 Bohr mag/cell

     iteration # 22     ecut=    60.00 Ry     beta= 0.30
     Davidson diagonalization with overlap
     c_bands:  2 eigenvalues not converged
     c_bands:  2 eigenvalues not converged
     c_bands:  1 eigenvalues not converged
     c_bands:  1 eigenvalues not converged
     c_bands:  2 eigenvalues not converged
     c_bands:  1 eigenvalues not converged
     c_bands:  3 eigenvalues not converged
     c_bands:  2 eigenvalues not converged
     c_bands:  2 eigenvalues not converged
     c_bands:  2 eigenvalues not converged
     c_bands:  1 eigenvalues not converged
     c_bands:  1 eigenvalues not converged
     c_bands:  2 eigenvalues not converged
     c_bands:  1 eigenvalues not converged
     c_bands:  2 eigenvalues not converged
     c_bands:  1 eigenvalues not converged
     ethr =  1.10E-05,  avg # of iterations =  5.9

     total cpu time spent up to now is     1150.2 secs

     total energy              =   -4376.58311059 Ry
     estimated scf accuracy    <       0.00815681 Ry

     total magnetization       =     9.53 Bohr mag/cell
     absolute magnetization    =    11.82 Bohr mag/cell

     iteration # 23     ecut=    60.00 Ry     beta= 0.30
     Davidson diagonalization with overlap
     c_bands:  1 eigenvalues not converged
     c_bands:  1 eigenvalues not converged
     c_bands:  1 eigenvalues not converged
     c_bands:  1 eigenvalues not converged
     c_bands:  1 eigenvalues not converged
     c_bands:  1 eigenvalues not converged
     c_bands:  1 eigenvalues not converged
     c_bands:  1 eigenvalues not converged
     c_bands:  3 eigenvalues not converged
     c_bands:  1 eigenvalues not converged
     c_bands:  2 eigenvalues not converged
     c_bands:  1 eigenvalues not converged
     c_bands:  1 eigenvalues not converged
     c_bands:  1 eigenvalues not converged
     c_bands:  2 eigenvalues not converged
     c_bands:  1 eigenvalues not converged
     c_bands:  1 eigenvalues not converged
     ethr =  3.49E-06,  avg # of iterations =  9.7

     total cpu time spent up to now is     1222.5 secs

     total energy              =   -4376.58448624 Ry
     estimated scf accuracy    <       0.00563256 Ry

     total magnetization       =     9.52 Bohr mag/cell
     absolute magnetization    =    11.78 Bohr mag/cell

     iteration # 24     ecut=    60.00 Ry     beta= 0.30
     Davidson diagonalization with overlap
     c_bands:  1 eigenvalues not converged
     c_bands:  1 eigenvalues not converged
     c_bands:  1 eigenvalues not converged
     c_bands:  1 eigenvalues not converged
     c_bands:  1 eigenvalues not converged
     c_bands:  1 eigenvalues not converged
     ethr =  2.41E-06,  avg # of iterations =  8.9

     total cpu time spent up to now is     1294.6 secs

     total energy              =   -4376.58403120 Ry
     estimated scf accuracy    <       0.03056796 Ry

     total magnetization       =     9.25 Bohr mag/cell
     absolute magnetization    =    11.51 Bohr mag/cell

     iteration # 25     ecut=    60.00 Ry     beta= 0.30
     Davidson diagonalization with overlap
     c_bands:  1 eigenvalues not converged
     c_bands:  1 eigenvalues not converged
     ethr =  2.41E-06,  avg # of iterations =  5.0

     total cpu time spent up to now is     1349.1 secs

     total energy              =   -4376.58511531 Ry
     estimated scf accuracy    <       0.00617052 Ry

     total magnetization       =     9.30 Bohr mag/cell
     absolute magnetization    =    11.55 Bohr mag/cell

     iteration # 26     ecut=    60.00 Ry     beta= 0.30
     Davidson diagonalization with overlap
     ethr =  2.41E-06,  avg # of iterations =  1.4

     total cpu time spent up to now is     1392.1 secs

     total energy              =   -4376.58602638 Ry
     estimated scf accuracy    <       0.00144475 Ry

     total magnetization       =     9.26 Bohr mag/cell
     absolute magnetization    =    11.51 Bohr mag/cell

     iteration # 27     ecut=    60.00 Ry     beta= 0.30
     Davidson diagonalization with overlap
     c_bands:  1 eigenvalues not converged
     c_bands:  1 eigenvalues not converged
     c_bands:  1 eigenvalues not converged
     c_bands:  1 eigenvalues not converged
     ethr =  6.17E-07,  avg # of iterations =  8.0

     total cpu time spent up to now is     1461.4 secs

     total energy              =   -4376.58636618 Ry
     estimated scf accuracy    <       0.00407684 Ry

     total magnetization       =     9.17 Bohr mag/cell
     absolute magnetization    =    11.36 Bohr mag/cell

     iteration # 28     ecut=    60.00 Ry     beta= 0.30
     Davidson diagonalization with overlap
     c_bands:  1 eigenvalues not converged
     ethr =  6.17E-07,  avg # of iterations =  2.1

     total cpu time spent up to now is     1507.0 secs

     total energy              =   -4376.58654734 Ry
     estimated scf accuracy    <       0.00205749 Ry

     total magnetization       =     9.10 Bohr mag/cell
     absolute magnetization    =    11.30 Bohr mag/cell

     iteration # 29     ecut=    60.00 Ry     beta= 0.30
     Davidson diagonalization with overlap
     ethr =  6.17E-07,  avg # of iterations =  2.9

     total cpu time spent up to now is     1555.2 secs

     total energy              =   -4376.58674375 Ry
     estimated scf accuracy    <       0.00247976 Ry

     total magnetization       =     9.16 Bohr mag/cell
     absolute magnetization    =    11.33 Bohr mag/cell

     iteration # 30     ecut=    60.00 Ry     beta= 0.30
     Davidson diagonalization with overlap
     ethr =  6.17E-07,  avg # of iterations =  2.3

     total cpu time spent up to now is     1601.3 secs

     total energy              =   -4376.58704851 Ry
     estimated scf accuracy    <       0.00099870 Ry

     total magnetization       =     9.09 Bohr mag/cell
     absolute magnetization    =    11.27 Bohr mag/cell

     iteration # 31     ecut=    60.00 Ry     beta= 0.30
     Davidson diagonalization with overlap
     c_bands:  1 eigenvalues not converged
     ethr =  4.27E-07,  avg # of iterations =  5.4

     total cpu time spent up to now is     1658.6 secs

     total energy              =   -4376.58710011 Ry
     estimated scf accuracy    <       0.00315265 Ry

     total magnetization       =     9.14 Bohr mag/cell
     absolute magnetization    =    11.29 Bohr mag/cell

     iteration # 32     ecut=    60.00 Ry     beta= 0.30
     Davidson diagonalization with overlap
     c_bands:  1 eigenvalues not converged
     ethr =  4.27E-07,  avg # of iterations =  4.0

     total cpu time spent up to now is     1709.7 secs

     total energy              =   -4376.58723479 Ry
     estimated scf accuracy    <       0.00095238 Ry

     total magnetization       =     9.09 Bohr mag/cell
     absolute magnetization    =    11.24 Bohr mag/cell

     iteration # 33     ecut=    60.00 Ry     beta= 0.30
     Davidson diagonalization with overlap
     ethr =  4.07E-07,  avg # of iterations =  1.4

     total cpu time spent up to now is     1752.0 secs

     total energy              =   -4376.58734640 Ry
     estimated scf accuracy    <       0.00050387 Ry

     total magnetization       =     9.09 Bohr mag/cell
     absolute magnetization    =    11.24 Bohr mag/cell

     iteration # 34     ecut=    60.00 Ry     beta= 0.30
     Davidson diagonalization with overlap
     c_bands:  1 eigenvalues not converged
     c_bands:  1 eigenvalues not converged
     ethr =  2.15E-07,  avg # of iterations =  3.2

     total cpu time spent up to now is     1801.6 secs

     total energy              =   -4376.58752671 Ry
     estimated scf accuracy    <       0.00025509 Ry

     total magnetization       =     9.10 Bohr mag/cell
     absolute magnetization    =    11.24 Bohr mag/cell

     iteration # 35     ecut=    60.00 Ry     beta= 0.30
     Davidson diagonalization with overlap
     ethr =  1.09E-07,  avg # of iterations =  6.7

     total cpu time spent up to now is     1868.1 secs

     total energy              =   -4376.58766604 Ry
     estimated scf accuracy    <       0.00129640 Ry

     total magnetization       =     9.13 Bohr mag/cell
     absolute magnetization    =    11.28 Bohr mag/cell

     iteration # 36     ecut=    60.00 Ry     beta= 0.30
     Davidson diagonalization with overlap
     ethr =  1.09E-07,  avg # of iterations =  5.1

     total cpu time spent up to now is     1922.7 secs

     total energy              =   -4376.58776227 Ry
     estimated scf accuracy    <       0.00022551 Ry

     total magnetization       =     9.13 Bohr mag/cell
     absolute magnetization    =    11.27 Bohr mag/cell

     iteration # 37     ecut=    60.00 Ry     beta= 0.30
     Davidson diagonalization with overlap
     ethr =  9.64E-08,  avg # of iterations =  2.3

     total cpu time spent up to now is     1969.0 secs

     total energy              =   -4376.58780005 Ry
     estimated scf accuracy    <       0.00033137 Ry

     total magnetization       =     9.14 Bohr mag/cell
     absolute magnetization    =    11.28 Bohr mag/cell

     iteration # 38     ecut=    60.00 Ry     beta= 0.30
     Davidson diagonalization with overlap
     ethr =  9.64E-08,  avg # of iterations =  6.5

     total cpu time spent up to now is     2034.0 secs

     total energy              =   -4376.58799939 Ry
     estimated scf accuracy    <       0.00028201 Ry

     total magnetization       =     9.17 Bohr mag/cell
     absolute magnetization    =    11.36 Bohr mag/cell

     iteration # 39     ecut=    60.00 Ry     beta= 0.30
     Davidson diagonalization with overlap
     ethr =  9.64E-08,  avg # of iterations =  1.2

     total cpu time spent up to now is     2075.9 secs

     total energy              =   -4376.58802074 Ry
     estimated scf accuracy    <       0.00017265 Ry

     total magnetization       =     9.18 Bohr mag/cell
     absolute magnetization    =    11.38 Bohr mag/cell

     iteration # 40     ecut=    60.00 Ry     beta= 0.30
     Davidson diagonalization with overlap
     ethr =  7.38E-08,  avg # of iterations =  2.0

     total cpu time spent up to now is     2120.3 secs

     total energy              =   -4376.58805894 Ry
     estimated scf accuracy    <       0.00023513 Ry

     total magnetization       =     9.19 Bohr mag/cell
     absolute magnetization    =    11.41 Bohr mag/cell

     iteration # 41     ecut=    60.00 Ry     beta= 0.30
     Davidson diagonalization with overlap
     ethr =  7.38E-08,  avg # of iterations =  3.3

     total cpu time spent up to now is     2169.2 secs

     total energy              =   -4376.58812146 Ry
     estimated scf accuracy    <       0.00014989 Ry

     total magnetization       =     9.19 Bohr mag/cell
     absolute magnetization    =    11.44 Bohr mag/cell

     iteration # 42     ecut=    60.00 Ry     beta= 0.30
     Davidson diagonalization with overlap
     ethr =  6.41E-08,  avg # of iterations =  5.4

     total cpu time spent up to now is     2228.8 secs

     total energy              =   -4376.58818758 Ry
     estimated scf accuracy    <       0.00041911 Ry

     total magnetization       =     9.23 Bohr mag/cell
     absolute magnetization    =    11.56 Bohr mag/cell

     iteration # 43     ecut=    60.00 Ry     beta= 0.30
     Davidson diagonalization with overlap
     ethr =  6.41E-08,  avg # of iterations =  2.7

     total cpu time spent up to now is     2274.8 secs

     total energy              =   -4376.58816335 Ry
     estimated scf accuracy    <       0.00018205 Ry

     total magnetization       =     9.23 Bohr mag/cell
     absolute magnetization    =    11.59 Bohr mag/cell

     iteration # 44     ecut=    60.00 Ry     beta= 0.30
     Davidson diagonalization with overlap
     ethr =  6.41E-08,  avg # of iterations =  3.0

     total cpu time spent up to now is     2323.3 secs

     total energy              =   -4376.58820627 Ry
     estimated scf accuracy    <       0.00011804 Ry

     total magnetization       =     9.23 Bohr mag/cell
     absolute magnetization    =    11.56 Bohr mag/cell

     iteration # 45     ecut=    60.00 Ry     beta= 0.30
     Davidson diagonalization with overlap
     ethr =  5.04E-08,  avg # of iterations =  2.0

     total cpu time spent up to now is     2368.7 secs

     total energy              =   -4376.58822267 Ry
     estimated scf accuracy    <       0.00008431 Ry

     total magnetization       =     9.23 Bohr mag/cell
     absolute magnetization    =    11.59 Bohr mag/cell

     iteration # 46     ecut=    60.00 Ry     beta= 0.30
     Davidson diagonalization with overlap
     ethr =  3.60E-08,  avg # of iterations =  3.6

     total cpu time spent up to now is     2418.7 secs

     total energy              =   -4376.58825065 Ry
     estimated scf accuracy    <       0.00014920 Ry

     total magnetization       =     9.23 Bohr mag/cell
     absolute magnetization    =    11.62 Bohr mag/cell

     iteration # 47     ecut=    60.00 Ry     beta= 0.30
     Davidson diagonalization with overlap
     c_bands:  1 eigenvalues not converged
     ethr =  3.60E-08,  avg # of iterations =  5.8

     total cpu time spent up to now is     2482.5 secs

     total energy              =   -4376.58826346 Ry
     estimated scf accuracy    <       0.00015848 Ry

     total magnetization       =     9.25 Bohr mag/cell
     absolute magnetization    =    11.75 Bohr mag/cell

     iteration # 48     ecut=    60.00 Ry     beta= 0.30
     Davidson diagonalization with overlap
     ethr =  3.60E-08,  avg # of iterations =  3.6

     total cpu time spent up to now is     2532.8 secs

     total energy              =   -4376.58829719 Ry
     estimated scf accuracy    <       0.00012290 Ry

     total magnetization       =     9.24 Bohr mag/cell
     absolute magnetization    =    11.70 Bohr mag/cell

     iteration # 49     ecut=    60.00 Ry     beta= 0.30
     Davidson diagonalization with overlap
     ethr =  3.60E-08,  avg # of iterations =  1.0

     total cpu time spent up to now is     2573.0 secs

     total energy              =   -4376.58833209 Ry
     estimated scf accuracy    <       0.00007015 Ry

     total magnetization       =     9.25 Bohr mag/cell
     absolute magnetization    =    11.72 Bohr mag/cell

     iteration # 50     ecut=    60.00 Ry     beta= 0.30
     Davidson diagonalization with overlap
     ethr =  3.00E-08,  avg # of iterations =  3.9

     total cpu time spent up to now is     2624.5 secs

     total energy              =   -4376.58835825 Ry
     estimated scf accuracy    <       0.00009600 Ry

     total magnetization       =     9.25 Bohr mag/cell
     absolute magnetization    =    11.77 Bohr mag/cell

     iteration # 51     ecut=    60.00 Ry     beta= 0.30
     Davidson diagonalization with overlap
     ethr =  3.00E-08,  avg # of iterations =  4.2

     total cpu time spent up to now is     2676.3 secs

     total energy              =   -4376.58839383 Ry
     estimated scf accuracy    <       0.00007318 Ry

     total magnetization       =     9.25 Bohr mag/cell
     absolute magnetization    =    11.81 Bohr mag/cell

     iteration # 52     ecut=    60.00 Ry     beta= 0.30
     Davidson diagonalization with overlap
     ethr =  3.00E-08,  avg # of iterations =  5.3

     total cpu time spent up to now is     2734.6 secs

     total energy              =   -4376.58840051 Ry
     estimated scf accuracy    <       0.00018502 Ry

     total magnetization       =     9.26 Bohr mag/cell
     absolute magnetization    =    11.88 Bohr mag/cell

     iteration # 53     ecut=    60.00 Ry     beta= 0.30
     Davidson diagonalization with overlap
     ethr =  3.00E-08,  avg # of iterations =  2.2

     total cpu time spent up to now is     2780.2 secs

     total energy              =   -4376.58836945 Ry
     estimated scf accuracy    <       0.00011113 Ry

     total magnetization       =     9.25 Bohr mag/cell
     absolute magnetization    =    11.87 Bohr mag/cell

     iteration # 54     ecut=    60.00 Ry     beta= 0.30
     Davidson diagonalization with overlap
     ethr =  3.00E-08,  avg # of iterations =  7.1

     total cpu time spent up to now is     2849.5 secs

     total energy              =   -4376.58857208 Ry
     estimated scf accuracy    <       0.00012190 Ry

     total magnetization       =     9.27 Bohr mag/cell
     absolute magnetization    =    12.11 Bohr mag/cell

     iteration # 55     ecut=    60.00 Ry     beta= 0.30
     Davidson diagonalization with overlap
     ethr =  3.00E-08,  avg # of iterations =  5.2

     total cpu time spent up to now is     2906.3 secs

     total energy              =   -4376.58859658 Ry
     estimated scf accuracy    <       0.00011973 Ry

     total magnetization       =     9.28 Bohr mag/cell
     absolute magnetization    =    12.20 Bohr mag/cell

     iteration # 56     ecut=    60.00 Ry     beta= 0.30
     Davidson diagonalization with overlap
     ethr =  3.00E-08,  avg # of iterations =  1.0

     total cpu time spent up to now is     2947.8 secs

     total energy              =   -4376.58861656 Ry
     estimated scf accuracy    <       0.00007039 Ry

     total magnetization       =     9.28 Bohr mag/cell
     absolute magnetization    =    12.20 Bohr mag/cell

     iteration # 57     ecut=    60.00 Ry     beta= 0.30
     Davidson diagonalization with overlap
     ethr =  3.00E-08,  avg # of iterations =  5.1

     total cpu time spent up to now is     3002.9 secs

     total energy              =   -4376.58862738 Ry
     estimated scf accuracy    <       0.00008494 Ry

     total magnetization       =     9.28 Bohr mag/cell
     absolute magnetization    =    12.27 Bohr mag/cell

     iteration # 58     ecut=    60.00 Ry     beta= 0.30
     Davidson diagonalization with overlap
     ethr =  3.00E-08,  avg # of iterations =  1.3

     total cpu time spent up to now is     3044.1 secs

     total energy              =   -4376.58838555 Ry
     estimated scf accuracy    <       0.00010489 Ry

     total magnetization       =     9.28 Bohr mag/cell
     absolute magnetization    =    12.26 Bohr mag/cell

     iteration # 59     ecut=    60.00 Ry     beta= 0.30
     Davidson diagonalization with overlap
     ethr =  3.00E-08,  avg # of iterations =  6.1

     total cpu time spent up to now is     3109.6 secs

     total energy              =   -4376.58854443 Ry
     estimated scf accuracy    <       0.00009666 Ry

     total magnetization       =     9.26 Bohr mag/cell
     absolute magnetization    =    12.05 Bohr mag/cell

     iteration # 60     ecut=    60.00 Ry     beta= 0.30
     Davidson diagonalization with overlap
     ethr =  3.00E-08,  avg # of iterations =  5.1

     total cpu time spent up to now is     3167.9 secs

     total energy              =   -4376.58860614 Ry
     estimated scf accuracy    <       0.00013002 Ry

     total magnetization       =     9.27 Bohr mag/cell
     absolute magnetization    =    12.17 Bohr mag/cell

     iteration # 61     ecut=    60.00 Ry     beta= 0.30
     Davidson diagonalization with overlap
     ethr =  3.00E-08,  avg # of iterations =  3.7

     total cpu time spent up to now is     3217.9 secs

     total energy              =   -4376.58863500 Ry
     estimated scf accuracy    <       0.00005107 Ry

     total magnetization       =     9.27 Bohr mag/cell
     absolute magnetization    =    12.23 Bohr mag/cell

     iteration # 62     ecut=    60.00 Ry     beta= 0.30
     Davidson diagonalization with overlap
     ethr =  2.18E-08,  avg # of iterations =  5.0

     total cpu time spent up to now is     3274.6 secs

     total energy              =   -4376.58864006 Ry
     estimated scf accuracy    <       0.00011631 Ry

     total magnetization       =     9.28 Bohr mag/cell
     absolute magnetization    =    12.28 Bohr mag/cell

     iteration # 63     ecut=    60.00 Ry     beta= 0.30
     Davidson diagonalization with overlap
     ethr =  2.18E-08,  avg # of iterations =  2.2

     total cpu time spent up to now is     3320.5 secs

     total energy              =   -4376.58866276 Ry
     estimated scf accuracy    <       0.00007443 Ry

     total magnetization       =     9.27 Bohr mag/cell
     absolute magnetization    =    12.27 Bohr mag/cell

     iteration # 64     ecut=    60.00 Ry     beta= 0.30
     Davidson diagonalization with overlap
     ethr =  2.18E-08,  avg # of iterations =  4.0

     total cpu time spent up to now is     3372.6 secs

     total energy              =   -4376.58806433 Ry
     estimated scf accuracy    <       0.00007698 Ry

     total magnetization       =     9.27 Bohr mag/cell
     absolute magnetization    =    12.32 Bohr mag/cell

     iteration # 65     ecut=    60.00 Ry     beta= 0.30
     Davidson diagonalization with overlap
     ethr =  2.18E-08,  avg # of iterations =  9.9

     total cpu time spent up to now is     3459.4 secs

     total energy              =   -4376.58842201 Ry
     estimated scf accuracy    <       0.00004516 Ry

     total magnetization       =     9.28 Bohr mag/cell
     absolute magnetization    =    12.81 Bohr mag/cell

     iteration # 66     ecut=    60.00 Ry     beta= 0.30
     Davidson diagonalization with overlap
     ethr =  1.93E-08,  avg # of iterations =  8.1

     total cpu time spent up to now is     3536.8 secs

     total energy              =   -4376.58875635 Ry
     estimated scf accuracy    <       0.00014925 Ry

     total magnetization       =     9.28 Bohr mag/cell
     absolute magnetization    =    12.50 Bohr mag/cell

     iteration # 67     ecut=    60.00 Ry     beta= 0.30
     Davidson diagonalization with overlap
     ethr =  1.93E-08,  avg # of iterations =  5.5

     total cpu time spent up to now is     3599.6 secs

     total energy              =   -4376.58880552 Ry
     estimated scf accuracy    <       0.00005228 Ry

     total magnetization       =     9.28 Bohr mag/cell
     absolute magnetization    =    12.63 Bohr mag/cell

     iteration # 68     ecut=    60.00 Ry     beta= 0.30
     Davidson diagonalization with overlap
     ethr =  1.93E-08,  avg # of iterations =  1.3

     total cpu time spent up to now is     3641.6 secs

     total energy              =   -4376.58846478 Ry
     estimated scf accuracy    <       0.00006342 Ry

     total magnetization       =     9.28 Bohr mag/cell
     absolute magnetization    =    12.61 Bohr mag/cell

     iteration # 69     ecut=    60.00 Ry     beta= 0.30
     Davidson diagonalization with overlap
     ethr =  1.93E-08,  avg # of iterations =  9.9

     total cpu time spent up to now is     3727.4 secs

     total energy              =   -4376.58890416 Ry
     estimated scf accuracy    <       0.00009646 Ry

     total magnetization       =     9.28 Bohr mag/cell
     absolute magnetization    =    12.97 Bohr mag/cell

     iteration # 70     ecut=    60.00 Ry     beta= 0.30
     Davidson diagonalization with overlap
     ethr =  1.93E-08,  avg # of iterations =  6.2

     total cpu time spent up to now is     3793.0 secs

     total energy              =   -4376.58892693 Ry
     estimated scf accuracy    <       0.00001859 Ry

     total magnetization       =     9.28 Bohr mag/cell
     absolute magnetization    =    13.09 Bohr mag/cell

     iteration # 71     ecut=    60.00 Ry     beta= 0.30
     Davidson diagonalization with overlap
     ethr =  7.94E-09,  avg # of iterations =  5.2

     total cpu time spent up to now is     3853.9 secs

     total energy              =   -4376.58884021 Ry
     estimated scf accuracy    <       0.00004403 Ry

     total magnetization       =     9.28 Bohr mag/cell
     absolute magnetization    =    13.01 Bohr mag/cell

     iteration # 72     ecut=    60.00 Ry     beta= 0.30
     Davidson diagonalization with overlap
     ethr =  7.94E-09,  avg # of iterations =  8.1

     total cpu time spent up to now is     3930.6 secs

     total energy              =   -4376.58898723 Ry
     estimated scf accuracy    <       0.00001980 Ry

     total magnetization       =     9.28 Bohr mag/cell
     absolute magnetization    =    13.22 Bohr mag/cell

     iteration # 73     ecut=    60.00 Ry     beta= 0.30
     Davidson diagonalization with overlap
     ethr =  7.94E-09,  avg # of iterations =  5.2

     total cpu time spent up to now is     3989.3 secs

     total energy              =   -4376.58899426 Ry
     estimated scf accuracy    <       0.00003301 Ry

     total magnetization       =     9.28 Bohr mag/cell
     absolute magnetization    =    13.27 Bohr mag/cell

     iteration # 74     ecut=    60.00 Ry     beta= 0.30
     Davidson diagonalization with overlap
     ethr =  7.94E-09,  avg # of iterations =  5.2

     total cpu time spent up to now is     4047.5 secs

     total energy              =   -4376.58898098 Ry
     estimated scf accuracy    <       0.00001430 Ry

     total magnetization       =     9.28 Bohr mag/cell
     absolute magnetization    =    13.31 Bohr mag/cell

     iteration # 75     ecut=    60.00 Ry     beta= 0.30
     Davidson diagonalization with overlap
     ethr =  6.11E-09,  avg # of iterations =  7.1

     total cpu time spent up to now is     4117.8 secs

     total energy              =   -4376.58901275 Ry
     estimated scf accuracy    <       0.00005991 Ry

     total magnetization       =     9.27 Bohr mag/cell
     absolute magnetization    =    13.38 Bohr mag/cell

     iteration # 76     ecut=    60.00 Ry     beta= 0.30
     Davidson diagonalization with overlap
     ethr =  6.11E-09,  avg # of iterations =  5.6

     total cpu time spent up to now is     4180.4 secs

     total energy              =   -4376.58886760 Ry
     estimated scf accuracy    <       0.00006803 Ry

     total magnetization       =     9.27 Bohr mag/cell
     absolute magnetization    =    13.44 Bohr mag/cell

     iteration # 77     ecut=    60.00 Ry     beta= 0.30
     Davidson diagonalization with overlap
     ethr =  6.11E-09,  avg # of iterations =  8.8

     total cpu time spent up to now is     4263.2 secs

     total energy              =   -4376.58890720 Ry
     estimated scf accuracy    <       0.00001134 Ry

     total magnetization       =     9.26 Bohr mag/cell
     absolute magnetization    =    13.62 Bohr mag/cell

     iteration # 78     ecut=    60.00 Ry     beta= 0.30
     Davidson diagonalization with overlap
     ethr =  4.84E-09,  avg # of iterations =  8.1

     total cpu time spent up to now is     4341.7 secs

     total energy              =   -4376.58899212 Ry
     estimated scf accuracy    <       0.00006080 Ry

     total magnetization       =     9.27 Bohr mag/cell
     absolute magnetization    =    13.46 Bohr mag/cell

     iteration # 79     ecut=    60.00 Ry     beta= 0.30
     Davidson diagonalization with overlap
     ethr =  4.84E-09,  avg # of iterations =  6.9

     total cpu time spent up to now is     4412.4 secs

     total energy              =   -4376.58901829 Ry
     estimated scf accuracy    <       0.00001328 Ry

     total magnetization       =     9.26 Bohr mag/cell
     absolute magnetization    =    13.53 Bohr mag/cell

     iteration # 80     ecut=    60.00 Ry     beta= 0.30
     Davidson diagonalization with overlap
     ethr =  4.84E-09,  avg # of iterations =  5.2

     total cpu time spent up to now is     4473.7 secs

     total energy              =   -4376.58902900 Ry
     estimated scf accuracy    <       0.00000970 Ry

     total magnetization       =     9.26 Bohr mag/cell
     absolute magnetization    =    13.58 Bohr mag/cell

     iteration # 81     ecut=    60.00 Ry     beta= 0.30
     Davidson diagonalization with overlap
     ethr =  4.15E-09,  avg # of iterations =  2.1

     total cpu time spent up to now is     4518.7 secs

     total energy              =   -4376.58902972 Ry
     estimated scf accuracy    <       0.00000638 Ry

     total magnetization       =     9.26 Bohr mag/cell
     absolute magnetization    =    13.59 Bohr mag/cell

     iteration # 82     ecut=    60.00 Ry     beta= 0.30
     Davidson diagonalization with overlap
     ethr =  2.73E-09,  avg # of iterations =  2.9

     total cpu time spent up to now is     4567.0 secs

     total energy              =   -4376.58902619 Ry
     estimated scf accuracy    <       0.00000509 Ry

     total magnetization       =     9.26 Bohr mag/cell
     absolute magnetization    =    13.57 Bohr mag/cell

     iteration # 83     ecut=    60.00 Ry     beta= 0.30
     Davidson diagonalization with overlap
     ethr =  2.18E-09,  avg # of iterations =  5.4

     total cpu time spent up to now is     4625.9 secs

     total energy              =   -4376.58903090 Ry
     estimated scf accuracy    <       0.00000620 Ry

     total magnetization       =     9.25 Bohr mag/cell
     absolute magnetization    =    13.59 Bohr mag/cell

     iteration # 84     ecut=    60.00 Ry     beta= 0.30
     Davidson diagonalization with overlap
     ethr =  2.18E-09,  avg # of iterations =  5.0

     total cpu time spent up to now is     4681.4 secs

     total energy              =   -4376.58903312 Ry
     estimated scf accuracy    <       0.00000327 Ry

     total magnetization       =     9.25 Bohr mag/cell
     absolute magnetization    =    13.57 Bohr mag/cell

     iteration # 85     ecut=    60.00 Ry     beta= 0.30
     Davidson diagonalization with overlap
     ethr =  1.40E-09,  avg # of iterations =  2.9

     total cpu time spent up to now is     4729.0 secs

     total energy              =   -4376.58903329 Ry
     estimated scf accuracy    <       0.00000268 Ry

     total magnetization       =     9.25 Bohr mag/cell
     absolute magnetization    =    13.56 Bohr mag/cell

     iteration # 86     ecut=    60.00 Ry     beta= 0.30
     Davidson diagonalization with overlap
     ethr =  1.14E-09,  avg # of iterations =  3.8

     total cpu time spent up to now is     4779.5 secs

     total energy              =   -4376.58903364 Ry
     estimated scf accuracy    <       0.00000060 Ry

     total magnetization       =     9.25 Bohr mag/cell
     absolute magnetization    =    13.55 Bohr mag/cell

     iteration # 87     ecut=    60.00 Ry     beta= 0.30
     Davidson diagonalization with overlap
     ethr =  2.58E-10,  avg # of iterations =  7.0

     total cpu time spent up to now is     4847.7 secs

     total energy              =   -4376.58903407 Ry
     estimated scf accuracy    <       0.00000162 Ry

     total magnetization       =     9.25 Bohr mag/cell
     absolute magnetization    =    13.54 Bohr mag/cell

     iteration # 88     ecut=    60.00 Ry     beta= 0.30
     Davidson diagonalization with overlap
     ethr =  2.58E-10,  avg # of iterations =  4.6

     total cpu time spent up to now is     4901.3 secs

     total energy              =   -4376.58903414 Ry
     estimated scf accuracy    <       0.00000222 Ry

     total magnetization       =     9.25 Bohr mag/cell
     absolute magnetization    =    13.54 Bohr mag/cell

     iteration # 89     ecut=    60.00 Ry     beta= 0.30
     Davidson diagonalization with overlap
     ethr =  2.58E-10,  avg # of iterations =  1.6

     total cpu time spent up to now is     4944.7 secs

     total energy              =   -4376.58903435 Ry
     estimated scf accuracy    <       0.00000045 Ry

     total magnetization       =     9.25 Bohr mag/cell
     absolute magnetization    =    13.54 Bohr mag/cell

     iteration # 90     ecut=    60.00 Ry     beta= 0.30
     Davidson diagonalization with overlap
     ethr =  1.93E-10,  avg # of iterations =  5.4

     total cpu time spent up to now is     5001.5 secs

     total energy              =   -4376.58903448 Ry
     estimated scf accuracy    <       0.00000089 Ry

     total magnetization       =     9.25 Bohr mag/cell
     absolute magnetization    =    13.53 Bohr mag/cell

     iteration # 91     ecut=    60.00 Ry     beta= 0.30
     Davidson diagonalization with overlap
     ethr =  1.93E-10,  avg # of iterations =  5.5

     total cpu time spent up to now is     5063.8 secs

     total energy              =   -4376.58903321 Ry
     estimated scf accuracy    <       0.00000093 Ry

     total magnetization       =     9.25 Bohr mag/cell
     absolute magnetization    =    13.53 Bohr mag/cell

     iteration # 92     ecut=    60.00 Ry     beta= 0.30
     Davidson diagonalization with overlap
     ethr =  1.93E-10,  avg # of iterations =  8.1

     total cpu time spent up to now is     5140.4 secs

     total energy              =   -4376.58903470 Ry
     estimated scf accuracy    <       0.00000193 Ry

     total magnetization       =     9.25 Bohr mag/cell
     absolute magnetization    =    13.50 Bohr mag/cell

     iteration # 93     ecut=    60.00 Ry     beta= 0.30
     Davidson diagonalization with overlap
     ethr =  1.93E-10,  avg # of iterations =  5.7

     total cpu time spent up to now is     5205.5 secs

     total energy              =   -4376.58903518 Ry
     estimated scf accuracy    <       0.00000251 Ry

     total magnetization       =     9.25 Bohr mag/cell
     absolute magnetization    =    13.51 Bohr mag/cell

     iteration # 94     ecut=    60.00 Ry     beta= 0.30
     Davidson diagonalization with overlap
     ethr =  1.93E-10,  avg # of iterations =  4.4

     total cpu time spent up to now is     5258.2 secs

     total energy              =   -4376.58903531 Ry
     estimated scf accuracy    <       0.00000054 Ry

     total magnetization       =     9.25 Bohr mag/cell
     absolute magnetization    =    13.51 Bohr mag/cell

     iteration # 95     ecut=    60.00 Ry     beta= 0.30
     Davidson diagonalization with overlap
     ethr =  1.93E-10,  avg # of iterations =  3.8

     total cpu time spent up to now is     5309.9 secs

     total energy              =   -4376.58903529 Ry
     estimated scf accuracy    <       0.00000048 Ry

     total magnetization       =     9.25 Bohr mag/cell
     absolute magnetization    =    13.50 Bohr mag/cell

     iteration # 96     ecut=    60.00 Ry     beta= 0.30
     Davidson diagonalization with overlap
     ethr =  1.93E-10,  avg # of iterations =  2.8

     total cpu time spent up to now is     5358.2 secs

     total energy              =   -4376.58903515 Ry
     estimated scf accuracy    <       0.00000090 Ry

     total magnetization       =     9.25 Bohr mag/cell
     absolute magnetization    =    13.51 Bohr mag/cell

     iteration # 97     ecut=    60.00 Ry     beta= 0.30
     Davidson diagonalization with overlap
     ethr =  1.93E-10,  avg # of iterations =  5.3

     total cpu time spent up to now is     5418.2 secs

     total energy              =   -4376.58903551 Ry
     estimated scf accuracy    <       0.00000054 Ry

     total magnetization       =     9.25 Bohr mag/cell
     absolute magnetization    =    13.50 Bohr mag/cell

     iteration # 98     ecut=    60.00 Ry     beta= 0.30
     Davidson diagonalization with overlap
     ethr =  1.93E-10,  avg # of iterations =  1.4

     total cpu time spent up to now is     5459.4 secs

     total energy              =   -4376.58903522 Ry
     estimated scf accuracy    <       0.00000010 Ry

     total magnetization       =     9.25 Bohr mag/cell
     absolute magnetization    =    13.50 Bohr mag/cell

     iteration # 99     ecut=    60.00 Ry     beta= 0.30
     Davidson diagonalization with overlap
     ethr =  4.38E-11,  avg # of iterations =  6.7

     total cpu time spent up to now is     5527.7 secs

     total energy              =   -4376.58903545 Ry
     estimated scf accuracy    <       0.00000023 Ry

     total magnetization       =     9.25 Bohr mag/cell
     absolute magnetization    =    13.50 Bohr mag/cell

     iteration #100     ecut=    60.00 Ry     beta= 0.30
     Davidson diagonalization with overlap
     ethr =  4.38E-11,  avg # of iterations =  4.3
 
     Magnetic moment per site  (integrated on atomic sphere of radius R)
     atom   1 (R=0.177)  charge= 12.1156  magn=  0.4835
     atom   2 (R=0.177)  charge= 14.4251  magn=  1.4772
     atom   3 (R=0.177)  charge= 12.1177  magn=  0.5343
     atom   4 (R=0.177)  charge= 12.1383  magn= -0.4404
     atom   5 (R=0.177)  charge= 12.1124  magn=  0.4378
     atom   6 (R=0.177)  charge= 14.4258  magn=  1.4216
     atom   7 (R=0.177)  charge= 12.1140  magn=  0.4303
     atom   8 (R=0.177)  charge= 12.1394  magn= -0.4400
     atom   9 (R=0.177)  charge= 12.1140  magn=  0.5086
     atom  10 (R=0.177)  charge= 12.1394  magn= -0.4400
     atom  11 (R=0.177)  charge= 12.1153  magn=  0.4834
     atom  12 (R=0.177)  charge= 14.4258  magn=  1.4216
     atom  13 (R=0.177)  charge= 14.3788  magn=  2.0253
     atom  14 (R=0.177)  charge= 12.1383  magn= -0.4404
     atom  15 (R=0.177)  charge= 12.1119  magn=  0.4380
     atom  16 (R=0.177)  charge= 14.4251  magn=  1.4772

     total cpu time spent up to now is     5580.1 secs

     End of self-consistent calculation

     Number of k-points >= 100: set verbosity='high' to print the bands.

     the Fermi energy is    19.8355 ev

!    total energy              =   -4376.58903544 Ry
     total all-electron energy =    -35846.931165 Ry
     estimated scf accuracy    <       0.00000008 Ry
     smearing contrib. (-TS)   =      -0.00096375 Ry
     internal energy E=F+TS    =   -4376.58807169 Ry

     The total energy is F=E-TS. E is the sum of the following terms:
     one-electron contribution =   -1139.65613746 Ry
     hartree contribution      =     719.98300415 Ry
     xc contribution           =    -383.97430185 Ry
     ewald contribution        =   -2342.24851780 Ry
     one-center paw contrib.   =   -1230.69211874 Ry

     total magnetization       =     9.25 Bohr mag/cell
     absolute magnetization    =    13.50 Bohr mag/cell

     convergence has been achieved in 100 iterations


     Computing stress (Cartesian axis) and pressure

          total   stress  (Ry/bohr**3)                   (kbar)     P=       39.62
   0.00020091   0.00016340   0.00005557           29.55       24.04        8.17
   0.00016340   0.00040424  -0.00000273           24.04       59.47       -0.40
   0.00005557  -0.00000273   0.00020278            8.17       -0.40       29.83


     Writing all to output data dir ./tmp/fecr_fe05cr11_s-0.01.save/ :
     XML data file, charge density, pseudopotentials, collected wavefunctions
 
     init_run     :     41.96s CPU     31.69s WALL (       1 calls)
     electrons    :   6792.30s CPU   5547.99s WALL (       1 calls)
     stress       :     32.09s CPU     31.93s WALL (       1 calls)

     Called by init_run:
     wfcinit      :     10.29s CPU     12.43s WALL (       1 calls)
     potinit      :     30.74s CPU     18.26s WALL (       1 calls)
     hinit0       :      0.59s CPU      0.56s WALL (       1 calls)

     Called by electrons:
     c_bands      :   3432.49s CPU   3442.87s WALL (     100 calls)
     sum_band     :    308.25s CPU    308.75s WALL (     100 calls)
     v_of_rho     :      5.91s CPU      4.92s WALL (     101 calls)
     newd         :      3.94s CPU      3.97s WALL (     101 calls)
                                        3.97s GPU  (     101 calls)
     PAW_pot      :   3066.47s CPU   1799.77s WALL (     101 calls)
     mix_rho      :      3.35s CPU      3.37s WALL (     100 calls)

     Called by c_bands:
     init_us_2    :     26.57s CPU     25.16s WALL (   45248 calls)
     cegterg      :   3107.91s CPU   3118.48s WALL (   22401 calls)

     Called by *egterg:
     cdiaghg      :   1074.02s CPU   1082.06s WALL (  121519 calls)
                                     1081.56s GPU  (  121519 calls)
     h_psi        :    941.72s CPU    947.65s WALL (  121743 calls)
                                      946.71s GPU  (  121743 calls)
     s_psi        :     61.49s CPU     62.43s WALL (  121743 calls)
     g_psi        :      0.54s CPU      5.23s WALL (   99118 calls)
                                        4.94s GPU  (   99118 calls)

     Called by h_psi:
     h_psi:calbec :      4.38s CPU    199.46s WALL (  121743 calls)
                                      199.01s GPU  (  121743 calls)
     vloc_psi     :    495.98s CPU    495.46s WALL (  121743 calls)
                                      495.05s GPU  (  121743 calls)
     add_vuspsi   :     59.95s CPU    246.18s WALL (  121743 calls)
                                      245.73s GPU  (  121743 calls)

     General routines
     calbec       :      5.31s CPU      5.54s WALL (  144367 calls)
     fft          :      1.17s CPU      1.41s WALL (    2544 calls)
                                        0.32s GPU  (    2342 calls)
     ffts         :      0.38s CPU      0.38s WALL (     402 calls)
                                        0.01s GPU  (     200 calls)
     fftw         :     28.06s CPU    464.79s WALL ( 1298180 calls)
                                      461.70s GPU  ( 1298180 calls)
     interpolate  :      1.61s CPU      1.60s WALL (     202 calls)
 
     Parallel routines
 
     PWSCF        :      1h54m CPU      1h33m WALL

 
   This run was terminated on:   4:57:27  21May2026            

=------------------------------------------------------------------------------=
   JOB DONE.
=------------------------------------------------------------------------------=
Warning: ieee_divide_by_zero is signaling
Warning: ieee_inexact is signaling
FORTRAN STOP
