--------------------------------------------------------------------------
WARNING: Open MPI tried to bind a process but failed.  This is a
warning only; your job will continue, though performance may
be degraded.

  Local host:        4b82db919bf5
  Application name:  /root/q-e-qe-7.3.1/bin/pw.x
  Error message:     failed to bind memory
  Location:          ../../../../../orte/mca/rtc/hwloc/rtc_hwloc.c:447

--------------------------------------------------------------------------

     Program PWSCF v.7.3.1 starts on 22May2026 at 14:11:17 

     This program is part of the open-source Quantum ESPRESSO suite
     for quantum simulation of materials; please cite
         "P. Giannozzi et al., J. Phys.:Condens. Matter 21 395502 (2009);
         "P. Giannozzi et al., J. Phys.:Condens. Matter 29 465901 (2017);
         "P. Giannozzi et al., J. Chem. Phys. 152 154105 (2020);
          URL http://www.quantum-espresso.org", 
     in publications or presentations arising from this work. More details at
     http://www.quantum-espresso.org/quote

     Parallel version (MPI & OpenMP), running on       8 processor cores
     Number of MPI processes:                 1
     Threads/MPI process:                     8

     MPI processes distributed on     1 nodes
     164152 MiB available memory on the printing compute node when the environment starts
 
     Reading input from inputs/fecr_fe02cr14_vcr.in

     Current dimensions of program PWSCF are:
     Max number of different atomic species (ntypx) = 10
     Max number of k-points (npk) =  40000
     Max angular momentum in pseudopotentials (lmaxx) =  4
     file Fe.pbe-spn-kjpaw_psl.1.0.0.UPF: wavefunction(s)  3P 3D renormalized
     file Cr.pbe-spn-kjpaw_psl.1.0.0.UPF: wavefunction(s)  3S 3P 3D renormalized
     Found identity + ( -0.5000 -0.5000 -0.5000) symmetry
     This is a supercell, fractional translations are disabled
     Message from routine setup:
     using ibrav=0 with symmetry is DISCOURAGED, use correct ibrav instead
 
     Subspace diagonalization in iterative solution of the eigenvalue problem:
     a serial algorithm will be used

 
     G-vector sticks info
     --------------------
     sticks:   dense  smooth     PW     G-vecs:    dense   smooth      PW
     Sum        4373    2185    621               217471    76813   11633
 
     Using Slab Decomposition
 


     bravais-lattice index     =            0
     lattice parameter (alat)  =      10.6928  a.u.
     unit-cell volume          =    1222.5561 (a.u.)^3
     number of atoms/cell      =           16
     number of atomic types    =            2
     number of electrons       =       228.00
     number of Kohn-Sham states=          137
     kinetic-energy cutoff     =      60.0000  Ry
     charge density cutoff     =     480.0000  Ry
     scf convergence threshold =      1.0E-07
     mixing beta               =       0.3000
     number of iterations used =            8  plain     mixing
     energy convergence thresh.=      1.0E-04
     force convergence thresh. =      1.0E-04
     press convergence thresh. =      5.0E-01
     Exchange-correlation= SLA  PW   PBX  PBC
                           (   1   4   3   4   0   0   0)
     nstep                     =           50


     GPU acceleration is ACTIVE.  1 visible GPUs per MPI rank


     celldm(1)=  10.692754  celldm(2)=   0.000000  celldm(3)=   0.000000
     celldm(4)=   0.000000  celldm(5)=   0.000000  celldm(6)=   0.000000

     crystal axes: (cart. coord. in units of alat)
               a(1) = (   1.000000   0.000000   0.000000 )  
               a(2) = (   0.000000   1.000000   0.000000 )  
               a(3) = (   0.000000   0.000000   1.000000 )  

     reciprocal axes: (cart. coord. in units 2 pi/alat)
               b(1) = (  1.000000  0.000000  0.000000 )  
               b(2) = (  0.000000  1.000000  0.000000 )  
               b(3) = (  0.000000  0.000000  1.000000 )  


     PseudoPot. # 1 for Fe read from file:
     ./pseudo/Fe.pbe-spn-kjpaw_psl.1.0.0.UPF
     MD5 check sum: fc81f059e5c5069939230b1155715ae8
     Pseudo is Projector augmented-wave + core cor, Zval = 16.0
     Generated using &quot;atomic&quot; code by A. Dal Corso  v.6.3
     Shape of augmentation charge: PSQ
     Using radial grid of 1191 points,  6 beta functions with: 
                l(1) =   0
                l(2) =   0
                l(3) =   1
                l(4) =   1
                l(5) =   2
                l(6) =   2
     Q(r) pseudized with 0 coefficients 


     PseudoPot. # 2 for Cr read from file:
     ./pseudo/Cr.pbe-spn-kjpaw_psl.1.0.0.UPF
     MD5 check sum: 198f1a2427a48552563eee314eba32ba
     Pseudo is Projector augmented-wave + core cor, Zval = 14.0
     Generated using &quot;atomic&quot; code by A. Dal Corso  v.6.3
     Shape of augmentation charge: PSQ
     Using radial grid of 1183 points,  6 beta functions with: 
                l(1) =   0
                l(2) =   0
                l(3) =   1
                l(4) =   1
                l(5) =   2
                l(6) =   2
     Q(r) pseudized with 0 coefficients 


     atomic species   valence    mass     pseudopotential
     Fe               16.00    55.84500     Fe( 1.00)
     Cr               14.00    51.99600     Cr( 1.00)

     Starting magnetic structure 
     atomic species   magnetization
     Fe              0.500
     Cr              0.300

     12 Sym. Ops., with inversion, found



   Cartesian axes

     site n.     atom                  positions (alat units)
         1        Cr     tau(   1) = (   0.0000000   0.0000000   0.0000000  )
         2        Fe     tau(   2) = (   0.2500000   0.2500000   0.2500000  )
         3        Cr     tau(   3) = (   0.0000000   0.0000000   0.5000000  )
         4        Cr     tau(   4) = (   0.2500000   0.2500000   0.7500000  )
         5        Cr     tau(   5) = (   0.0000000   0.5000000   0.0000000  )
         6        Cr     tau(   6) = (   0.2500000   0.7500000   0.2500000  )
         7        Cr     tau(   7) = (   0.0000000   0.5000000   0.5000000  )
         8        Cr     tau(   8) = (   0.2500000   0.7500000   0.7500000  )
         9        Cr     tau(   9) = (   0.5000000   0.0000000   0.0000000  )
        10        Cr     tau(  10) = (   0.7500000   0.2500000   0.2500000  )
        11        Cr     tau(  11) = (   0.5000000   0.0000000   0.5000000  )
        12        Cr     tau(  12) = (   0.7500000   0.2500000   0.7500000  )
        13        Cr     tau(  13) = (   0.5000000   0.5000000   0.0000000  )
        14        Cr     tau(  14) = (   0.7500000   0.7500000   0.2500000  )
        15        Cr     tau(  15) = (   0.5000000   0.5000000   0.5000000  )
        16        Fe     tau(  16) = (   0.7500000   0.7500000   0.7500000  )

     number of k points=    32  Marzari-Vanderbilt smearing, width (Ry)=  0.0200
                       cart. coord. in units 2pi/alat
        k(    1) = (   0.0000000   0.0000000   0.0000000), wk =   0.0046296
        k(    2) = (   0.0000000   0.0000000   0.1666667), wk =   0.0277778
        k(    3) = (   0.0000000   0.0000000   0.3333333), wk =   0.0277778
        k(    4) = (   0.0000000   0.0000000  -0.5000000), wk =   0.0138889
        k(    5) = (   0.0000000   0.1666667   0.1666667), wk =   0.0277778
        k(    6) = (   0.0000000   0.1666667   0.3333333), wk =   0.0555556
        k(    7) = (   0.0000000   0.1666667  -0.5000000), wk =   0.0555556
        k(    8) = (   0.0000000   0.3333333   0.3333333), wk =   0.0277778
        k(    9) = (   0.0000000   0.3333333  -0.5000000), wk =   0.0555556
        k(   10) = (   0.0000000  -0.5000000  -0.5000000), wk =   0.0138889
        k(   11) = (   0.1666667   0.1666667   0.1666667), wk =   0.0092593
        k(   12) = (   0.1666667   0.1666667   0.3333333), wk =   0.0277778
        k(   13) = (   0.1666667   0.1666667  -0.5000000), wk =   0.0277778
        k(   14) = (   0.1666667   0.3333333   0.3333333), wk =   0.0277778
        k(   15) = (   0.1666667   0.3333333  -0.5000000), wk =   0.0555556
        k(   16) = (   0.1666667  -0.5000000  -0.5000000), wk =   0.0277778
        k(   17) = (   0.3333333   0.3333333   0.3333333), wk =   0.0092593
        k(   18) = (   0.3333333   0.3333333  -0.5000000), wk =   0.0277778
        k(   19) = (   0.3333333  -0.5000000  -0.5000000), wk =   0.0277778
        k(   20) = (  -0.5000000  -0.5000000  -0.5000000), wk =   0.0046296
        k(   21) = (   0.0000000   0.1666667  -0.1666667), wk =   0.0277778
        k(   22) = (   0.0000000   0.3333333  -0.1666667), wk =   0.0555556
        k(   23) = (   0.0000000   0.3333333  -0.3333333), wk =   0.0277778
        k(   24) = (  -0.1666667   0.1666667   0.1666667), wk =   0.0277778
        k(   25) = (  -0.1666667   0.3333333   0.1666667), wk =   0.0555556
        k(   26) = (   0.1666667  -0.3333333   0.1666667), wk =   0.0277778
        k(   27) = (  -0.1666667  -0.5000000   0.1666667), wk =   0.0277778
        k(   28) = (  -0.1666667   0.3333333   0.3333333), wk =   0.0277778
        k(   29) = (   0.1666667   0.3333333  -0.3333333), wk =   0.0555556
        k(   30) = (  -0.1666667  -0.5000000   0.3333333), wk =   0.0555556
        k(   31) = (  -0.3333333   0.3333333   0.3333333), wk =   0.0277778
        k(   32) = (  -0.3333333  -0.5000000   0.3333333), wk =   0.0277778

     Dense  grid:   217471 G-vectors     FFT dimensions: (  75,  75,  75)

     Smooth grid:    76813 G-vectors     FFT dimensions: (  54,  54,  54)

     Estimated max dynamical RAM per process >       2.26 GB

     Check: negative core charge=   -0.000003
     Generating pointlists ...
     new r_m :   0.1786 (alat units)  1.9099 (a.u.) for type    1
     new r_m :   0.1786 (alat units)  1.9099 (a.u.) for type    2

     Initial potential from superposition of free atoms

     starting charge     227.9883, renormalised to     228.0000
     Starting wfcs are  160 randomized atomic wfcs
     Checking if some PAW data can be deallocated... 

     total cpu time spent up to now is       23.0 secs

     Self-consistent Calculation

     iteration #  1     ecut=    60.00 Ry     beta= 0.30
     Davidson diagonalization with overlap
     ethr =  1.00E-02,  avg # of iterations =  5.1

     negative rho (up, down):  5.916E-02 1.653E+00

     total cpu time spent up to now is       51.8 secs

     total energy              =   -4120.87404903 Ry
     estimated scf accuracy    <     129.01266759 Ry

     total magnetization       =    35.62 Bohr mag/cell
     absolute magnetization    =    58.50 Bohr mag/cell

     iteration #  2     ecut=    60.00 Ry     beta= 0.30
     Davidson diagonalization with overlap
     ethr =  1.00E-02,  avg # of iterations =  3.8

     negative rho (up, down):  3.475E-02 1.192E+00

     total cpu time spent up to now is       78.9 secs

     total energy              =   -4126.45311758 Ry
     estimated scf accuracy    <      33.51952458 Ry

     total magnetization       =    23.56 Bohr mag/cell
     absolute magnetization    =    23.90 Bohr mag/cell

     iteration #  3     ecut=    60.00 Ry     beta= 0.30
     Davidson diagonalization with overlap
     ethr =  1.00E-02,  avg # of iterations =  5.2

     negative rho (up, down):  2.215E-02 1.027E+00

     total cpu time spent up to now is      107.9 secs

     total energy              =   -4126.96829006 Ry
     estimated scf accuracy    <      75.83225353 Ry

     total magnetization       =    28.68 Bohr mag/cell
     absolute magnetization    =    28.90 Bohr mag/cell

     iteration #  4     ecut=    60.00 Ry     beta= 0.30
     Davidson diagonalization with overlap
     ethr =  1.00E-02,  avg # of iterations =  2.0

     negative rho (up, down):  1.655E-02 9.374E-01

     total cpu time spent up to now is      133.6 secs

     total energy              =   -4130.89288025 Ry
     estimated scf accuracy    <      10.09314949 Ry

     total magnetization       =    18.62 Bohr mag/cell
     absolute magnetization    =    19.27 Bohr mag/cell

     iteration #  5     ecut=    60.00 Ry     beta= 0.30
     Davidson diagonalization with overlap
     ethr =  4.43E-03,  avg # of iterations =  2.8

     negative rho (up, down):  5.327E-03 6.864E-01

     total cpu time spent up to now is      160.0 secs

     total energy              =   -4131.76085255 Ry
     estimated scf accuracy    <       7.84924030 Ry

     total magnetization       =    18.71 Bohr mag/cell
     absolute magnetization    =    19.17 Bohr mag/cell

     iteration #  6     ecut=    60.00 Ry     beta= 0.30
     Davidson diagonalization with overlap
     ethr =  3.44E-03,  avg # of iterations =  1.5

     negative rho (up, down):  7.399E-04 4.308E-01

     total cpu time spent up to now is      184.1 secs

     total energy              =   -4132.20615129 Ry
     estimated scf accuracy    <       5.52907498 Ry

     total magnetization       =    16.17 Bohr mag/cell
     absolute magnetization    =    16.68 Bohr mag/cell

     iteration #  7     ecut=    60.00 Ry     beta= 0.30
     Davidson diagonalization with overlap
     ethr =  2.43E-03,  avg # of iterations =  1.7

     negative rho (up, down):  0.000E+00 5.174E-03

     total cpu time spent up to now is      207.5 secs

     total energy              =   -4132.85650699 Ry
     estimated scf accuracy    <       5.34682105 Ry

     total magnetization       =    15.32 Bohr mag/cell
     absolute magnetization    =    15.58 Bohr mag/cell

     iteration #  8     ecut=    60.00 Ry     beta= 0.30
     Davidson diagonalization with overlap
     ethr =  2.35E-03,  avg # of iterations =  1.3

     negative rho (up, down):  0.000E+00 2.301E-04

     total cpu time spent up to now is      232.5 secs

     total energy              =   -4133.29716858 Ry
     estimated scf accuracy    <       2.17222745 Ry

     total magnetization       =     8.97 Bohr mag/cell
     absolute magnetization    =    10.43 Bohr mag/cell

     iteration #  9     ecut=    60.00 Ry     beta= 0.30
     Davidson diagonalization with overlap
     ethr =  9.53E-04,  avg # of iterations =  2.1

     negative rho (up, down):  0.000E+00 2.555E-02

     total cpu time spent up to now is      257.1 secs

     total energy              =   -4133.32132866 Ry
     estimated scf accuracy    <       0.89296753 Ry

     total magnetization       =     7.07 Bohr mag/cell
     absolute magnetization    =     9.30 Bohr mag/cell

     iteration # 10     ecut=    60.00 Ry     beta= 0.30
     Davidson diagonalization with overlap
     ethr =  3.92E-04,  avg # of iterations =  8.5

     negative rho (up, down):  0.000E+00 1.058E-04

     total cpu time spent up to now is      288.9 secs

     total energy              =   -4133.47989967 Ry
     estimated scf accuracy    <       2.81857841 Ry

     total magnetization       =     4.83 Bohr mag/cell
     absolute magnetization    =     7.03 Bohr mag/cell

     iteration # 11     ecut=    60.00 Ry     beta= 0.30
     Davidson diagonalization with overlap
     ethr =  3.92E-04,  avg # of iterations =  1.5

     total cpu time spent up to now is      313.5 secs

     total energy              =   -4133.41511600 Ry
     estimated scf accuracy    <       1.34528869 Ry

     total magnetization       =     5.58 Bohr mag/cell
     absolute magnetization    =     7.12 Bohr mag/cell

     iteration # 12     ecut=    60.00 Ry     beta= 0.30
     Davidson diagonalization with overlap
     ethr =  3.92E-04,  avg # of iterations =  1.8

     total cpu time spent up to now is      338.6 secs

     total energy              =   -4133.47929076 Ry
     estimated scf accuracy    <       0.09579747 Ry

     total magnetization       =     5.12 Bohr mag/cell
     absolute magnetization    =     6.89 Bohr mag/cell

     iteration # 13     ecut=    60.00 Ry     beta= 0.30
     Davidson diagonalization with overlap
     c_bands:  1 eigenvalues not converged
     c_bands:  1 eigenvalues not converged
     c_bands:  1 eigenvalues not converged
     c_bands:  2 eigenvalues not converged
     c_bands:  1 eigenvalues not converged
     ethr =  4.20E-05,  avg # of iterations =  9.9

     total cpu time spent up to now is      373.1 secs

     total energy              =   -4133.50509911 Ry
     estimated scf accuracy    <       0.22440728 Ry

     total magnetization       =     4.76 Bohr mag/cell
     absolute magnetization    =     6.61 Bohr mag/cell

     iteration # 14     ecut=    60.00 Ry     beta= 0.30
     Davidson diagonalization with overlap
     ethr =  4.20E-05,  avg # of iterations =  3.5

     total cpu time spent up to now is      399.6 secs

     total energy              =   -4133.51093797 Ry
     estimated scf accuracy    <       0.15203545 Ry

     total magnetization       =     4.06 Bohr mag/cell
     absolute magnetization    =     5.90 Bohr mag/cell

     iteration # 15     ecut=    60.00 Ry     beta= 0.30
     Davidson diagonalization with overlap
     ethr =  4.20E-05,  avg # of iterations =  1.7

     total cpu time spent up to now is      423.7 secs

     total energy              =   -4133.51472150 Ry
     estimated scf accuracy    <       0.01438123 Ry

     total magnetization       =     3.90 Bohr mag/cell
     absolute magnetization    =     5.72 Bohr mag/cell

     iteration # 16     ecut=    60.00 Ry     beta= 0.30
     Davidson diagonalization with overlap
     c_bands:  1 eigenvalues not converged
     c_bands:  1 eigenvalues not converged
     c_bands:  2 eigenvalues not converged
     c_bands:  1 eigenvalues not converged
     c_bands:  1 eigenvalues not converged
     c_bands:  1 eigenvalues not converged
     c_bands:  4 eigenvalues not converged
     c_bands:  1 eigenvalues not converged
     ethr =  6.31E-06,  avg # of iterations = 12.8

     total cpu time spent up to now is      461.5 secs

     total energy              =   -4133.51871180 Ry
     estimated scf accuracy    <       0.06603758 Ry

     total magnetization       =     3.82 Bohr mag/cell
     absolute magnetization    =     5.46 Bohr mag/cell

     iteration # 17     ecut=    60.00 Ry     beta= 0.30
     Davidson diagonalization with overlap
     c_bands:  1 eigenvalues not converged
     ethr =  6.31E-06,  avg # of iterations =  2.3

     total cpu time spent up to now is      486.8 secs

     total energy              =   -4133.51903942 Ry
     estimated scf accuracy    <       0.01582386 Ry

     total magnetization       =     3.75 Bohr mag/cell
     absolute magnetization    =     5.38 Bohr mag/cell

     iteration # 18     ecut=    60.00 Ry     beta= 0.30
     Davidson diagonalization with overlap
     ethr =  6.31E-06,  avg # of iterations =  3.7

     total cpu time spent up to now is      513.5 secs

     total energy              =   -4133.51987695 Ry
     estimated scf accuracy    <       0.00137742 Ry

     total magnetization       =     3.69 Bohr mag/cell
     absolute magnetization    =     5.28 Bohr mag/cell

     iteration # 19     ecut=    60.00 Ry     beta= 0.30
     Davidson diagonalization with overlap
     c_bands:  2 eigenvalues not converged
     c_bands:  1 eigenvalues not converged
     c_bands:  1 eigenvalues not converged
     c_bands:  1 eigenvalues not converged
     c_bands:  1 eigenvalues not converged
     c_bands:  1 eigenvalues not converged
     c_bands:  1 eigenvalues not converged
     c_bands:  1 eigenvalues not converged
     c_bands:  2 eigenvalues not converged
     c_bands:  1 eigenvalues not converged
     c_bands:  1 eigenvalues not converged
     c_bands:  3 eigenvalues not converged
     c_bands:  1 eigenvalues not converged
     c_bands:  2 eigenvalues not converged
     c_bands:  3 eigenvalues not converged
     c_bands:  1 eigenvalues not converged
     ethr =  6.04E-07,  avg # of iterations = 14.3

     total cpu time spent up to now is      551.7 secs

     total energy              =   -4133.52057555 Ry
     estimated scf accuracy    <       0.00167206 Ry

     total magnetization       =     3.60 Bohr mag/cell
     absolute magnetization    =     5.11 Bohr mag/cell

     iteration # 20     ecut=    60.00 Ry     beta= 0.30
     Davidson diagonalization with overlap
     c_bands:  1 eigenvalues not converged
     ethr =  6.04E-07,  avg # of iterations =  3.5

     total cpu time spent up to now is      578.8 secs

     total energy              =   -4133.52037519 Ry
     estimated scf accuracy    <       0.00171179 Ry

     total magnetization       =     3.58 Bohr mag/cell
     absolute magnetization    =     5.02 Bohr mag/cell

     iteration # 21     ecut=    60.00 Ry     beta= 0.30
     Davidson diagonalization with overlap
     ethr =  6.04E-07,  avg # of iterations =  7.2

     total cpu time spent up to now is      609.2 secs

     total energy              =   -4133.52062406 Ry
     estimated scf accuracy    <       0.00752299 Ry

     total magnetization       =     3.64 Bohr mag/cell
     absolute magnetization    =     5.01 Bohr mag/cell

     iteration # 22     ecut=    60.00 Ry     beta= 0.30
     Davidson diagonalization with overlap
     ethr =  6.04E-07,  avg # of iterations =  3.7

     total cpu time spent up to now is      635.7 secs

     total energy              =   -4133.52087741 Ry
     estimated scf accuracy    <       0.00095764 Ry

     total magnetization       =     3.61 Bohr mag/cell
     absolute magnetization    =     4.90 Bohr mag/cell

     iteration # 23     ecut=    60.00 Ry     beta= 0.30
     Davidson diagonalization with overlap
     ethr =  4.20E-07,  avg # of iterations =  6.6

     total cpu time spent up to now is      665.2 secs

     total energy              =   -4133.52103750 Ry
     estimated scf accuracy    <       0.00022759 Ry

     total magnetization       =     3.62 Bohr mag/cell
     absolute magnetization    =     4.86 Bohr mag/cell

     iteration # 24     ecut=    60.00 Ry     beta= 0.30
     Davidson diagonalization with overlap
     ethr =  9.98E-08,  avg # of iterations =  6.4

     total cpu time spent up to now is      695.2 secs

     total energy              =   -4133.52109517 Ry
     estimated scf accuracy    <       0.00017605 Ry

     total magnetization       =     3.64 Bohr mag/cell
     absolute magnetization    =     4.84 Bohr mag/cell

     iteration # 25     ecut=    60.00 Ry     beta= 0.30
     Davidson diagonalization with overlap
     ethr =  7.72E-08,  avg # of iterations =  3.3

     total cpu time spent up to now is      721.1 secs

     total energy              =   -4133.52112293 Ry
     estimated scf accuracy    <       0.00006404 Ry

     total magnetization       =     3.64 Bohr mag/cell
     absolute magnetization    =     4.82 Bohr mag/cell

     iteration # 26     ecut=    60.00 Ry     beta= 0.30
     Davidson diagonalization with overlap
     ethr =  2.81E-08,  avg # of iterations =  7.7

     total cpu time spent up to now is      754.0 secs

     total energy              =   -4133.52124388 Ry
     estimated scf accuracy    <       0.00055645 Ry

     total magnetization       =     3.65 Bohr mag/cell
     absolute magnetization    =     4.77 Bohr mag/cell

     iteration # 27     ecut=    60.00 Ry     beta= 0.30
     Davidson diagonalization with overlap
     ethr =  2.81E-08,  avg # of iterations =  2.9

     total cpu time spent up to now is      780.0 secs

     total energy              =   -4133.52125627 Ry
     estimated scf accuracy    <       0.00035196 Ry

     total magnetization       =     3.65 Bohr mag/cell
     absolute magnetization    =     4.76 Bohr mag/cell

     iteration # 28     ecut=    60.00 Ry     beta= 0.30
     Davidson diagonalization with overlap
     ethr =  2.81E-08,  avg # of iterations =  6.2

     total cpu time spent up to now is      809.9 secs

     total energy              =   -4133.52128663 Ry
     estimated scf accuracy    <       0.00006767 Ry

     total magnetization       =     3.65 Bohr mag/cell
     absolute magnetization    =     4.75 Bohr mag/cell

     iteration # 29     ecut=    60.00 Ry     beta= 0.30
     Davidson diagonalization with overlap
     ethr =  2.81E-08,  avg # of iterations =  1.0

     total cpu time spent up to now is      833.5 secs

     total energy              =   -4133.52124624 Ry
     estimated scf accuracy    <       0.00009953 Ry

     total magnetization       =     3.64 Bohr mag/cell
     absolute magnetization    =     4.75 Bohr mag/cell

     iteration # 30     ecut=    60.00 Ry     beta= 0.30
     Davidson diagonalization with overlap
     ethr =  2.81E-08,  avg # of iterations =  4.3

     total cpu time spent up to now is      860.4 secs

     total energy              =   -4133.52126749 Ry
     estimated scf accuracy    <       0.00017237 Ry

     total magnetization       =     3.64 Bohr mag/cell
     absolute magnetization    =     4.74 Bohr mag/cell

     iteration # 31     ecut=    60.00 Ry     beta= 0.30
     Davidson diagonalization with overlap
     ethr =  2.81E-08,  avg # of iterations =  5.4

     total cpu time spent up to now is      890.4 secs

     total energy              =   -4133.52141475 Ry
     estimated scf accuracy    <       0.00025133 Ry

     total magnetization       =     3.68 Bohr mag/cell
     absolute magnetization    =     4.78 Bohr mag/cell

     iteration # 32     ecut=    60.00 Ry     beta= 0.30
     Davidson diagonalization with overlap
     ethr =  2.81E-08,  avg # of iterations =  5.3

     total cpu time spent up to now is      918.6 secs

     total energy              =   -4133.52149328 Ry
     estimated scf accuracy    <       0.00009608 Ry

     total magnetization       =     3.69 Bohr mag/cell
     absolute magnetization    =     4.82 Bohr mag/cell

     iteration # 33     ecut=    60.00 Ry     beta= 0.30
     Davidson diagonalization with overlap
     ethr =  2.81E-08,  avg # of iterations =  5.1

     total cpu time spent up to now is      946.5 secs

     total energy              =   -4133.52156044 Ry
     estimated scf accuracy    <       0.00008428 Ry

     total magnetization       =     3.70 Bohr mag/cell
     absolute magnetization    =     4.88 Bohr mag/cell

     iteration # 34     ecut=    60.00 Ry     beta= 0.30
     Davidson diagonalization with overlap
     ethr =  2.81E-08,  avg # of iterations =  5.0

     total cpu time spent up to now is      974.1 secs

     total energy              =   -4133.52145684 Ry
     estimated scf accuracy    <       0.00008664 Ry

     total magnetization       =     3.70 Bohr mag/cell
     absolute magnetization    =     4.94 Bohr mag/cell

     iteration # 35     ecut=    60.00 Ry     beta= 0.30
     Davidson diagonalization with overlap
     ethr =  2.81E-08,  avg # of iterations =  5.0

     total cpu time spent up to now is     1001.8 secs

     total energy              =   -4133.51789219 Ry
     estimated scf accuracy    <       0.00008239 Ry

     total magnetization       =     3.68 Bohr mag/cell
     absolute magnetization    =     4.85 Bohr mag/cell

     iteration # 36     ecut=    60.00 Ry     beta= 0.30
     Davidson diagonalization with overlap
     ethr =  2.81E-08,  avg # of iterations = 11.9

     total cpu time spent up to now is     1040.6 secs

     total energy              =   -4133.52026218 Ry
     estimated scf accuracy    <       0.00020326 Ry

     total magnetization       =     3.76 Bohr mag/cell
     absolute magnetization    =     6.17 Bohr mag/cell

     iteration # 37     ecut=    60.00 Ry     beta= 0.30
     Davidson diagonalization with overlap
     ethr =  2.81E-08,  avg # of iterations =  9.2

     total cpu time spent up to now is     1076.9 secs

     total energy              =   -4133.52171905 Ry
     estimated scf accuracy    <       0.00008760 Ry

     total magnetization       =     3.71 Bohr mag/cell
     absolute magnetization    =     5.31 Bohr mag/cell

     iteration # 38     ecut=    60.00 Ry     beta= 0.30
     Davidson diagonalization with overlap
     ethr =  2.81E-08,  avg # of iterations =  5.4

     total cpu time spent up to now is     1106.2 secs

     total energy              =   -4133.52179411 Ry
     estimated scf accuracy    <       0.00008484 Ry

     total magnetization       =     3.72 Bohr mag/cell
     absolute magnetization    =     5.18 Bohr mag/cell

     iteration # 39     ecut=    60.00 Ry     beta= 0.30
     Davidson diagonalization with overlap
     ethr =  2.81E-08,  avg # of iterations =  5.2

     total cpu time spent up to now is     1135.5 secs

     total energy              =   -4133.51945799 Ry
     estimated scf accuracy    <       0.00007381 Ry

     total magnetization       =     3.73 Bohr mag/cell
     absolute magnetization    =     5.38 Bohr mag/cell

     iteration # 40     ecut=    60.00 Ry     beta= 0.30
     Davidson diagonalization with overlap
     ethr =  2.81E-08,  avg # of iterations = 11.1

     total cpu time spent up to now is     1173.7 secs

     total energy              =   -4133.51686703 Ry
     estimated scf accuracy    <       0.00006359 Ry

     total magnetization       =     3.81 Bohr mag/cell
     absolute magnetization    =     6.64 Bohr mag/cell

     iteration # 41     ecut=    60.00 Ry     beta= 0.30
     Davidson diagonalization with overlap
     ethr =  2.79E-08,  avg # of iterations = 11.4

     total cpu time spent up to now is     1212.3 secs

     total energy              =   -4133.52161624 Ry
     estimated scf accuracy    <       0.00012825 Ry

     total magnetization       =     3.71 Bohr mag/cell
     absolute magnetization    =     5.10 Bohr mag/cell

     iteration # 42     ecut=    60.00 Ry     beta= 0.30
     Davidson diagonalization with overlap
     ethr =  2.79E-08,  avg # of iterations =  6.7

     total cpu time spent up to now is     1243.6 secs

     total energy              =   -4133.52120681 Ry
     estimated scf accuracy    <       0.00008416 Ry

     total magnetization       =     3.75 Bohr mag/cell
     absolute magnetization    =     5.46 Bohr mag/cell

     iteration # 43     ecut=    60.00 Ry     beta= 0.30
     Davidson diagonalization with overlap
     ethr =  2.79E-08,  avg # of iterations =  7.0

     total cpu time spent up to now is     1276.2 secs

     total energy              =   -4133.51937052 Ry
     estimated scf accuracy    <       0.00006773 Ry

     total magnetization       =     3.72 Bohr mag/cell
     absolute magnetization    =     5.03 Bohr mag/cell

     iteration # 44     ecut=    60.00 Ry     beta= 0.30
     Davidson diagonalization with overlap
     c_bands:  1 eigenvalues not converged
     ethr =  2.79E-08,  avg # of iterations = 10.8

     total cpu time spent up to now is     1313.7 secs

     total energy              =   -4133.52239405 Ry
     estimated scf accuracy    <       0.00006861 Ry

     total magnetization       =     3.78 Bohr mag/cell
     absolute magnetization    =     6.20 Bohr mag/cell

     iteration # 45     ecut=    60.00 Ry     beta= 0.30
     Davidson diagonalization with overlap
     ethr =  2.79E-08,  avg # of iterations =  5.3

     total cpu time spent up to now is     1342.0 secs

     total energy              =   -4133.52246140 Ry
     estimated scf accuracy    <       0.00007739 Ry

     total magnetization       =     3.78 Bohr mag/cell
     absolute magnetization    =     6.30 Bohr mag/cell

     iteration # 46     ecut=    60.00 Ry     beta= 0.30
     Davidson diagonalization with overlap
     ethr =  2.79E-08,  avg # of iterations =  5.9

     total cpu time spent up to now is     1371.4 secs

     total energy              =   -4133.52242600 Ry
     estimated scf accuracy    <       0.00007445 Ry

     total magnetization       =     3.79 Bohr mag/cell
     absolute magnetization    =     6.46 Bohr mag/cell

     iteration # 47     ecut=    60.00 Ry     beta= 0.30
     Davidson diagonalization with overlap
     ethr =  2.79E-08,  avg # of iterations =  5.0

     total cpu time spent up to now is     1399.1 secs

     total energy              =   -4133.50584143 Ry
     estimated scf accuracy    <       0.00006069 Ry

     total magnetization       =     3.78 Bohr mag/cell
     absolute magnetization    =     6.35 Bohr mag/cell

     iteration # 48     ecut=    60.00 Ry     beta= 0.30
     Davidson diagonalization with overlap
     c_bands:  1 eigenvalues not converged
     c_bands:  1 eigenvalues not converged
     c_bands:  3 eigenvalues not converged
     c_bands:  1 eigenvalues not converged
     c_bands:  1 eigenvalues not converged
     ethr =  2.66E-08,  avg # of iterations = 13.3

     total cpu time spent up to now is     1442.4 secs

     total energy              =   -4133.51473641 Ry
     estimated scf accuracy    <       0.00008023 Ry

     total magnetization       =     3.62 Bohr mag/cell
     absolute magnetization    =     4.94 Bohr mag/cell

     iteration # 49     ecut=    60.00 Ry     beta= 0.30
     Davidson diagonalization with overlap
     c_bands:  1 eigenvalues not converged
     ethr =  2.66E-08,  avg # of iterations = 12.3

     total cpu time spent up to now is     1482.4 secs

     total energy              =   -4133.51691562 Ry
     estimated scf accuracy    <       0.00019932 Ry

     total magnetization       =     3.76 Bohr mag/cell
     absolute magnetization    =     5.51 Bohr mag/cell

     iteration # 50     ecut=    60.00 Ry     beta= 0.30
     Davidson diagonalization with overlap
     c_bands:  1 eigenvalues not converged
     c_bands:  1 eigenvalues not converged
     ethr =  2.66E-08,  avg # of iterations = 12.1

     total cpu time spent up to now is     1522.1 secs

     total energy              =   -4133.49539317 Ry
     estimated scf accuracy    <       0.00007364 Ry

     total magnetization       =     3.66 Bohr mag/cell
     absolute magnetization    =     4.79 Bohr mag/cell

     iteration # 51     ecut=    60.00 Ry     beta= 0.30
     Davidson diagonalization with overlap
     c_bands:  1 eigenvalues not converged
     c_bands:  3 eigenvalues not converged
     c_bands:  4 eigenvalues not converged
     c_bands:  1 eigenvalues not converged
     c_bands:  1 eigenvalues not converged
     c_bands:  5 eigenvalues not converged
     c_bands:  2 eigenvalues not converged
     c_bands:  1 eigenvalues not converged
     c_bands:  2 eigenvalues not converged
     c_bands:  1 eigenvalues not converged
     ethr =  2.66E-08,  avg # of iterations = 14.7

     total cpu time spent up to now is     1567.2 secs

     total energy              =   -4133.48873880 Ry
     estimated scf accuracy    <       0.00009617 Ry

     total magnetization       =     3.86 Bohr mag/cell
     absolute magnetization    =     7.88 Bohr mag/cell

     iteration # 52     ecut=    60.00 Ry     beta= 0.30
     Davidson diagonalization with overlap
     c_bands:  3 eigenvalues not converged
     c_bands:  3 eigenvalues not converged
     c_bands:  2 eigenvalues not converged
     c_bands:  3 eigenvalues not converged
     c_bands:  1 eigenvalues not converged
     c_bands:  1 eigenvalues not converged
     c_bands:  1 eigenvalues not converged
     ethr =  2.66E-08,  avg # of iterations = 15.0

     total cpu time spent up to now is     1613.3 secs

     total energy              =   -4133.52084340 Ry
     estimated scf accuracy    <       0.00012316 Ry

     total magnetization       =     3.64 Bohr mag/cell
     absolute magnetization    =     4.88 Bohr mag/cell

     iteration # 53     ecut=    60.00 Ry     beta= 0.30
     Davidson diagonalization with overlap
     ethr =  2.66E-08,  avg # of iterations =  7.3

     total cpu time spent up to now is     1644.9 secs

     total energy              =   -4133.51916402 Ry
     estimated scf accuracy    <       0.00008326 Ry

     total magnetization       =     3.63 Bohr mag/cell
     absolute magnetization    =     4.95 Bohr mag/cell

     iteration # 54     ecut=    60.00 Ry     beta= 0.30
     Davidson diagonalization with overlap
     ethr =  2.66E-08,  avg # of iterations = 10.1

     total cpu time spent up to now is     1682.7 secs

     total energy              =   -4133.50970418 Ry
     estimated scf accuracy    <       0.00007504 Ry

     total magnetization       =     3.69 Bohr mag/cell
     absolute magnetization    =     4.85 Bohr mag/cell

     iteration # 55     ecut=    60.00 Ry     beta= 0.30
     Davidson diagonalization with overlap
     ethr =  2.66E-08,  avg # of iterations = 12.4

     total cpu time spent up to now is     1723.9 secs

     total energy              =   -4133.49562794 Ry
     estimated scf accuracy    <       0.00033049 Ry

     total magnetization       =     3.52 Bohr mag/cell
     absolute magnetization    =     5.73 Bohr mag/cell

     iteration # 56     ecut=    60.00 Ry     beta= 0.30
     Davidson diagonalization with overlap
     c_bands:  1 eigenvalues not converged
     c_bands:  2 eigenvalues not converged
     c_bands:  2 eigenvalues not converged
     c_bands:  1 eigenvalues not converged
     c_bands:  1 eigenvalues not converged
     c_bands:  1 eigenvalues not converged
     c_bands:  2 eigenvalues not converged
     c_bands:  1 eigenvalues not converged
     c_bands:  2 eigenvalues not converged
     ethr =  2.66E-08,  avg # of iterations = 14.5

     total cpu time spent up to now is     1768.1 secs

     total energy              =   -4133.52037592 Ry
     estimated scf accuracy    <       0.00006313 Ry

     total magnetization       =     3.77 Bohr mag/cell
     absolute magnetization    =     6.05 Bohr mag/cell

     iteration # 57     ecut=    60.00 Ry     beta= 0.30
     Davidson diagonalization with overlap
     ethr =  2.66E-08,  avg # of iterations =  9.1

     total cpu time spent up to now is     1803.9 secs

     total energy              =   -4133.51809485 Ry
     estimated scf accuracy    <       0.00006084 Ry

     total magnetization       =     3.73 Bohr mag/cell
     absolute magnetization    =     5.23 Bohr mag/cell

     iteration # 58     ecut=    60.00 Ry     beta= 0.30
     Davidson diagonalization with overlap
     c_bands:  1 eigenvalues not converged
     ethr =  2.66E-08,  avg # of iterations = 10.9

     total cpu time spent up to now is     1842.3 secs

     total energy              =   -4133.52085355 Ry
     estimated scf accuracy    <       0.00006370 Ry

     total magnetization       =     3.64 Bohr mag/cell
     absolute magnetization    =     4.80 Bohr mag/cell

     iteration # 59     ecut=    60.00 Ry     beta= 0.30
     Davidson diagonalization with overlap
     ethr =  2.66E-08,  avg # of iterations =  7.3

     total cpu time spent up to now is     1875.1 secs

     total energy              =   -4133.52115667 Ry
     estimated scf accuracy    <       0.00006175 Ry

     total magnetization       =     3.68 Bohr mag/cell
     absolute magnetization    =     4.78 Bohr mag/cell

     iteration # 60     ecut=    60.00 Ry     beta= 0.30
     Davidson diagonalization with overlap
     ethr =  2.66E-08,  avg # of iterations =  5.2

     total cpu time spent up to now is     1904.6 secs

     total energy              =   -4133.47493732 Ry
     estimated scf accuracy    <       0.00013336 Ry

     total magnetization       =     3.66 Bohr mag/cell
     absolute magnetization    =     4.75 Bohr mag/cell

     iteration # 61     ecut=    60.00 Ry     beta= 0.30
     Davidson diagonalization with overlap
     c_bands:  1 eigenvalues not converged
     c_bands:  2 eigenvalues not converged
     c_bands:  2 eigenvalues not converged
     c_bands:  1 eigenvalues not converged
     c_bands:  1 eigenvalues not converged
     c_bands:  2 eigenvalues not converged
     c_bands:  1 eigenvalues not converged
     c_bands:  2 eigenvalues not converged
     c_bands:  1 eigenvalues not converged
     c_bands:  2 eigenvalues not converged
     c_bands:  4 eigenvalues not converged
     c_bands:  1 eigenvalues not converged
     c_bands:  3 eigenvalues not converged
     c_bands:  3 eigenvalues not converged
     c_bands:  2 eigenvalues not converged
     c_bands:  2 eigenvalues not converged
     c_bands:  4 eigenvalues not converged
     c_bands:  1 eigenvalues not converged
     c_bands:  1 eigenvalues not converged
     c_bands:  1 eigenvalues not converged
     c_bands:  4 eigenvalues not converged
     c_bands:  4 eigenvalues not converged
     c_bands:  4 eigenvalues not converged
     c_bands:  1 eigenvalues not converged
     c_bands:  1 eigenvalues not converged
     c_bands:  3 eigenvalues not converged
     c_bands:  3 eigenvalues not converged
     c_bands:  3 eigenvalues not converged
     c_bands:  3 eigenvalues not converged
     ethr =  2.66E-08,  avg # of iterations = 17.8

     total cpu time spent up to now is     1955.1 secs

     total energy              =   -4133.51957931 Ry
     estimated scf accuracy    <       0.00030436 Ry

     total magnetization       =     3.86 Bohr mag/cell
     absolute magnetization    =     9.37 Bohr mag/cell

     iteration # 62     ecut=    60.00 Ry     beta= 0.30
     Davidson diagonalization with overlap
     c_bands:  1 eigenvalues not converged
     c_bands:  1 eigenvalues not converged
     c_bands:  1 eigenvalues not converged
     ethr =  2.66E-08,  avg # of iterations = 11.6

     total cpu time spent up to now is     1994.5 secs

     total energy              =   -4133.52279346 Ry
     estimated scf accuracy    <       0.00016619 Ry

     total magnetization       =     3.83 Bohr mag/cell
     absolute magnetization    =     7.90 Bohr mag/cell

     iteration # 63     ecut=    60.00 Ry     beta= 0.30
     Davidson diagonalization with overlap
     ethr =  2.66E-08,  avg # of iterations =  9.3

     total cpu time spent up to now is     2029.8 secs

     total energy              =   -4133.52147079 Ry
     estimated scf accuracy    <       0.00018317 Ry

     total magnetization       =     3.85 Bohr mag/cell
     absolute magnetization    =     8.61 Bohr mag/cell

     iteration # 64     ecut=    60.00 Ry     beta= 0.30
     Davidson diagonalization with overlap
     ethr =  2.66E-08,  avg # of iterations =  9.2

     total cpu time spent up to now is     2066.1 secs

     total energy              =   -4133.52040525 Ry
     estimated scf accuracy    <       0.00014553 Ry

     total magnetization       =     3.83 Bohr mag/cell
     absolute magnetization    =     7.66 Bohr mag/cell

     iteration # 65     ecut=    60.00 Ry     beta= 0.30
     Davidson diagonalization with overlap
     ethr =  2.66E-08,  avg # of iterations = 11.0

     total cpu time spent up to now is     2104.9 secs

     total energy              =   -4133.50374093 Ry
     estimated scf accuracy    <       0.00025151 Ry

     total magnetization       =     3.85 Bohr mag/cell
     absolute magnetization    =     9.03 Bohr mag/cell

     iteration # 66     ecut=    60.00 Ry     beta= 0.30
     Davidson diagonalization with overlap
     c_bands:  1 eigenvalues not converged
     c_bands:  1 eigenvalues not converged
     c_bands:  1 eigenvalues not converged
     c_bands:  1 eigenvalues not converged
     c_bands:  1 eigenvalues not converged
     c_bands:  2 eigenvalues not converged
     c_bands:  1 eigenvalues not converged
     c_bands:  1 eigenvalues not converged
     ethr =  2.66E-08,  avg # of iterations = 14.1

     total cpu time spent up to now is     2148.8 secs

     total energy              =   -4133.49750605 Ry
     estimated scf accuracy    <       0.00249719 Ry

     total magnetization       =     3.85 Bohr mag/cell
     absolute magnetization    =    12.46 Bohr mag/cell

     iteration # 67     ecut=    60.00 Ry     beta= 0.30
     Davidson diagonalization with overlap
     ethr =  2.66E-08,  avg # of iterations = 13.1

     total cpu time spent up to now is     2191.8 secs

     total energy              =   -4133.37516820 Ry
     estimated scf accuracy    <       0.00020284 Ry

     total magnetization       =     3.83 Bohr mag/cell
     absolute magnetization    =     8.62 Bohr mag/cell

     iteration # 68     ecut=    60.00 Ry     beta= 0.30
     Davidson diagonalization with overlap
     c_bands:  1 eigenvalues not converged
     c_bands:  4 eigenvalues not converged
     c_bands:  5 eigenvalues not converged
     c_bands:  1 eigenvalues not converged
     c_bands:  4 eigenvalues not converged
     c_bands:  4 eigenvalues not converged
     c_bands:  3 eigenvalues not converged
     c_bands:  2 eigenvalues not converged
     c_bands:  2 eigenvalues not converged
     c_bands:  1 eigenvalues not converged
     c_bands:  2 eigenvalues not converged
     c_bands:  1 eigenvalues not converged
     c_bands:  2 eigenvalues not converged
     c_bands:  4 eigenvalues not converged
     c_bands:  2 eigenvalues not converged
     c_bands:  4 eigenvalues not converged
     c_bands:  3 eigenvalues not converged
     c_bands:  3 eigenvalues not converged
     c_bands:  1 eigenvalues not converged
     c_bands:  1 eigenvalues not converged
     c_bands:  4 eigenvalues not converged
     c_bands:  3 eigenvalues not converged
     c_bands:  3 eigenvalues not converged
     c_bands:  2 eigenvalues not converged
     c_bands:  2 eigenvalues not converged
     c_bands:  2 eigenvalues not converged
     c_bands:  5 eigenvalues not converged
     c_bands:  3 eigenvalues not converged
     c_bands:  3 eigenvalues not converged
     c_bands:  1 eigenvalues not converged
     c_bands:  4 eigenvalues not converged
     c_bands:  5 eigenvalues not converged
     c_bands:  3 eigenvalues not converged
     c_bands:  2 eigenvalues not converged
     c_bands:  2 eigenvalues not converged
     c_bands:  2 eigenvalues not converged
     c_bands:  3 eigenvalues not converged
     c_bands:  5 eigenvalues not converged
     c_bands:  4 eigenvalues not converged
     c_bands:  4 eigenvalues not converged
     ethr =  2.66E-08,  avg # of iterations = 19.9

     total cpu time spent up to now is     2245.9 secs

     total energy              =   -4133.27575723 Ry
     estimated scf accuracy    <       0.00051818 Ry

     total magnetization       =     3.23 Bohr mag/cell
     absolute magnetization    =     8.25 Bohr mag/cell

     iteration # 69     ecut=    60.00 Ry     beta= 0.30
     Davidson diagonalization with overlap
     c_bands:  2 eigenvalues not converged
     c_bands:  1 eigenvalues not converged
     c_bands:  5 eigenvalues not converged
     c_bands:  2 eigenvalues not converged
     c_bands:  3 eigenvalues not converged
     c_bands:  4 eigenvalues not converged
     c_bands:  2 eigenvalues not converged
     c_bands:  5 eigenvalues not converged
     c_bands:  1 eigenvalues not converged
     c_bands:  2 eigenvalues not converged
     c_bands:  1 eigenvalues not converged
     c_bands:  3 eigenvalues not converged
     c_bands:  5 eigenvalues not converged
     c_bands:  4 eigenvalues not converged
     c_bands:  1 eigenvalues not converged
     c_bands:  5 eigenvalues not converged
     c_bands:  3 eigenvalues not converged
     c_bands:  5 eigenvalues not converged
     c_bands:  1 eigenvalues not converged
     c_bands:  2 eigenvalues not converged
     c_bands:  3 eigenvalues not converged
     c_bands:  1 eigenvalues not converged
     c_bands:  5 eigenvalues not converged
     c_bands:  5 eigenvalues not converged
     c_bands:  5 eigenvalues not converged
     c_bands:  3 eigenvalues not converged
     c_bands:  4 eigenvalues not converged
     c_bands:  1 eigenvalues not converged
     c_bands:  1 eigenvalues not converged
     c_bands:  1 eigenvalues not converged
     c_bands:  5 eigenvalues not converged
     c_bands:  2 eigenvalues not converged
     c_bands:  1 eigenvalues not converged
     c_bands:  1 eigenvalues not converged
     c_bands:  5 eigenvalues not converged
     c_bands:  2 eigenvalues not converged
     c_bands:  4 eigenvalues not converged
     ethr =  2.66E-08,  avg # of iterations = 22.4

     total cpu time spent up to now is     2304.5 secs

     total energy              =   -4133.52474520 Ry
     estimated scf accuracy    <       0.00153967 Ry

     total magnetization       =     3.89 Bohr mag/cell
     absolute magnetization    =    11.49 Bohr mag/cell

     iteration # 70     ecut=    60.00 Ry     beta= 0.30
     Davidson diagonalization with overlap
     c_bands:  1 eigenvalues not converged
     c_bands:  1 eigenvalues not converged
     ethr =  2.66E-08,  avg # of iterations =  8.4

     total cpu time spent up to now is     2338.3 secs

     total energy              =   -4133.51387811 Ry
     estimated scf accuracy    <       0.00176679 Ry

     total magnetization       =     3.89 Bohr mag/cell
     absolute magnetization    =    11.80 Bohr mag/cell

     iteration # 71     ecut=    60.00 Ry     beta= 0.30
     Davidson diagonalization with overlap
     c_bands:  1 eigenvalues not converged
     c_bands:  1 eigenvalues not converged
     c_bands:  1 eigenvalues not converged
     c_bands:  2 eigenvalues not converged
     c_bands:  1 eigenvalues not converged
     c_bands:  1 eigenvalues not converged
     ethr =  2.66E-08,  avg # of iterations = 12.8

     total cpu time spent up to now is     2381.2 secs

     total energy              =   -4133.42972061 Ry
     estimated scf accuracy    <       0.00696776 Ry

     total magnetization       =     3.86 Bohr mag/cell
     absolute magnetization    =    14.18 Bohr mag/cell

     iteration # 72     ecut=    60.00 Ry     beta= 0.30
     Davidson diagonalization with overlap
     c_bands:  2 eigenvalues not converged
     c_bands:  1 eigenvalues not converged
     c_bands:  3 eigenvalues not converged
     c_bands:  4 eigenvalues not converged
     c_bands:  2 eigenvalues not converged
     c_bands:  4 eigenvalues not converged
     c_bands:  3 eigenvalues not converged
     c_bands:  1 eigenvalues not converged
     c_bands:  1 eigenvalues not converged
     c_bands:  2 eigenvalues not converged
     c_bands:  2 eigenvalues not converged
     c_bands:  2 eigenvalues not converged
     c_bands:  1 eigenvalues not converged
     c_bands:  2 eigenvalues not converged
     c_bands:  4 eigenvalues not converged
     c_bands:  3 eigenvalues not converged
     c_bands:  1 eigenvalues not converged
     c_bands:  2 eigenvalues not converged
     c_bands:  1 eigenvalues not converged
     c_bands:  1 eigenvalues not converged
     c_bands:  1 eigenvalues not converged
     c_bands:  1 eigenvalues not converged
     c_bands:  2 eigenvalues not converged
     c_bands:  1 eigenvalues not converged
     c_bands:  3 eigenvalues not converged
     c_bands:  1 eigenvalues not converged
     c_bands:  2 eigenvalues not converged
     c_bands:  1 eigenvalues not converged
     c_bands:  2 eigenvalues not converged
     c_bands:  2 eigenvalues not converged
     c_bands:  2 eigenvalues not converged
     c_bands:  1 eigenvalues not converged
     c_bands:  1 eigenvalues not converged
     c_bands:  3 eigenvalues not converged
     c_bands:  1 eigenvalues not converged
     c_bands:  2 eigenvalues not converged
     c_bands:  2 eigenvalues not converged
     c_bands:  3 eigenvalues not converged
     c_bands:  1 eigenvalues not converged
     ethr =  2.66E-08,  avg # of iterations = 19.0

     total cpu time spent up to now is     2433.8 secs

     total energy              =   -4133.51505229 Ry
     estimated scf accuracy    <       0.00008605 Ry

     total magnetization       =     3.84 Bohr mag/cell
     absolute magnetization    =     6.99 Bohr mag/cell

     iteration # 73     ecut=    60.00 Ry     beta= 0.30
     Davidson diagonalization with overlap
     c_bands:  1 eigenvalues not converged
     ethr =  2.66E-08,  avg # of iterations = 12.2

     total cpu time spent up to now is     2474.4 secs

     total energy              =   -4133.49287573 Ry
     estimated scf accuracy    <       0.00038934 Ry

     total magnetization       =     3.93 Bohr mag/cell
     absolute magnetization    =     9.25 Bohr mag/cell

     iteration # 74     ecut=    60.00 Ry     beta= 0.30
     Davidson diagonalization with overlap
     c_bands:  1 eigenvalues not converged
     c_bands:  4 eigenvalues not converged
     c_bands:  1 eigenvalues not converged
     c_bands:  3 eigenvalues not converged
     c_bands:  1 eigenvalues not converged
     c_bands:  1 eigenvalues not converged
     c_bands:  1 eigenvalues not converged
     c_bands:  1 eigenvalues not converged
     ethr =  2.66E-08,  avg # of iterations = 14.7

     total cpu time spent up to now is     2519.9 secs

     total energy              =   -4133.51625568 Ry
     estimated scf accuracy    <       0.00016912 Ry

     total magnetization       =     3.76 Bohr mag/cell
     absolute magnetization    =     5.27 Bohr mag/cell

     iteration # 75     ecut=    60.00 Ry     beta= 0.30
     Davidson diagonalization with overlap
     ethr =  2.66E-08,  avg # of iterations = 11.7

     total cpu time spent up to now is     2560.4 secs

     total energy              =   -4133.49353071 Ry
     estimated scf accuracy    <       0.00010155 Ry

     total magnetization       =     3.84 Bohr mag/cell
     absolute magnetization    =     7.09 Bohr mag/cell

     iteration # 76     ecut=    60.00 Ry     beta= 0.30
     Davidson diagonalization with overlap
     c_bands:  1 eigenvalues not converged
     c_bands:  1 eigenvalues not converged
     c_bands:  3 eigenvalues not converged
     c_bands:  3 eigenvalues not converged
     c_bands:  3 eigenvalues not converged
     c_bands:  3 eigenvalues not converged
     c_bands:  2 eigenvalues not converged
     c_bands:  3 eigenvalues not converged
     c_bands:  1 eigenvalues not converged
     c_bands:  1 eigenvalues not converged
     c_bands:  3 eigenvalues not converged
     c_bands:  1 eigenvalues not converged
     c_bands:  1 eigenvalues not converged
     ethr =  2.66E-08,  avg # of iterations = 15.3

     total cpu time spent up to now is     2605.3 secs

     total energy              =   -4133.51940754 Ry
     estimated scf accuracy    <       0.00033062 Ry

     total magnetization       =     3.56 Bohr mag/cell
     absolute magnetization    =     5.00 Bohr mag/cell

     iteration # 77     ecut=    60.00 Ry     beta= 0.30
     Davidson diagonalization with overlap
     ethr =  2.66E-08,  avg # of iterations =  9.6

     total cpu time spent up to now is     2642.9 secs

     total energy              =   -4133.51760108 Ry
     estimated scf accuracy    <       0.00023844 Ry

     total magnetization       =     3.64 Bohr mag/cell
     absolute magnetization    =     4.70 Bohr mag/cell

     iteration # 78     ecut=    60.00 Ry     beta= 0.30
     Davidson diagonalization with overlap
     c_bands:  1 eigenvalues not converged
     c_bands:  1 eigenvalues not converged
     c_bands:  1 eigenvalues not converged
     c_bands:  1 eigenvalues not converged
     c_bands:  1 eigenvalues not converged
     ethr =  2.66E-08,  avg # of iterations = 11.7

     total cpu time spent up to now is     2681.5 secs

     total energy              =   -4133.51868952 Ry
     estimated scf accuracy    <       0.00025272 Ry

     total magnetization       =     3.52 Bohr mag/cell
     absolute magnetization    =     5.14 Bohr mag/cell

     iteration # 79     ecut=    60.00 Ry     beta= 0.30
     Davidson diagonalization with overlap
     ethr =  2.66E-08,  avg # of iterations = 10.4

     total cpu time spent up to now is     2718.6 secs

     total energy              =   -4133.51998340 Ry
     estimated scf accuracy    <       0.00049484 Ry

     total magnetization       =     3.59 Bohr mag/cell
     absolute magnetization    =     4.66 Bohr mag/cell

     iteration # 80     ecut=    60.00 Ry     beta= 0.30
     Davidson diagonalization with overlap
     ethr =  2.66E-08,  avg # of iterations =  9.5

     total cpu time spent up to now is     2754.7 secs

     total energy              =   -4133.32792876 Ry
     estimated scf accuracy    <       0.00063806 Ry

     total magnetization       =     3.64 Bohr mag/cell
     absolute magnetization    =     5.07 Bohr mag/cell

     iteration # 81     ecut=    60.00 Ry     beta= 0.30
     Davidson diagonalization with overlap
     c_bands:  1 eigenvalues not converged
     c_bands:  1 eigenvalues not converged
     c_bands:  3 eigenvalues not converged
     c_bands:  1 eigenvalues not converged
     c_bands:  3 eigenvalues not converged
     c_bands:  4 eigenvalues not converged
     c_bands:  5 eigenvalues not converged
     c_bands:  5 eigenvalues not converged
     c_bands:  5 eigenvalues not converged
     c_bands:  1 eigenvalues not converged
     c_bands:  1 eigenvalues not converged
     c_bands:  1 eigenvalues not converged
     c_bands:  1 eigenvalues not converged
     c_bands:  3 eigenvalues not converged
     c_bands:  5 eigenvalues not converged
     c_bands:  5 eigenvalues not converged
     c_bands:  5 eigenvalues not converged
     c_bands:  4 eigenvalues not converged
     c_bands:  1 eigenvalues not converged
     c_bands:  1 eigenvalues not converged
     c_bands:  1 eigenvalues not converged
     c_bands:  1 eigenvalues not converged
     c_bands:  4 eigenvalues not converged
     c_bands:  1 eigenvalues not converged
     c_bands:  4 eigenvalues not converged
     c_bands:  5 eigenvalues not converged
     c_bands:  4 eigenvalues not converged
     c_bands:  1 eigenvalues not converged
     c_bands:  2 eigenvalues not converged
     c_bands:  4 eigenvalues not converged
     c_bands:  1 eigenvalues not converged
     c_bands:  1 eigenvalues not converged
     c_bands:  3 eigenvalues not converged
     c_bands:  2 eigenvalues not converged
     c_bands:  3 eigenvalues not converged
     c_bands:  3 eigenvalues not converged
     c_bands:  5 eigenvalues not converged
     c_bands:  5 eigenvalues not converged
     c_bands:  3 eigenvalues not converged
     ethr =  2.66E-08,  avg # of iterations = 21.6

     total cpu time spent up to now is     2811.7 secs

     total energy              =   -4133.43846600 Ry
     estimated scf accuracy    <       0.01154886 Ry

     total magnetization       =     3.81 Bohr mag/cell
     absolute magnetization    =    15.25 Bohr mag/cell

     iteration # 82     ecut=    60.00 Ry     beta= 0.30
     Davidson diagonalization with overlap
     c_bands:  1 eigenvalues not converged
     c_bands:  1 eigenvalues not converged
     c_bands:  1 eigenvalues not converged
     c_bands:  2 eigenvalues not converged
     c_bands:  3 eigenvalues not converged
     c_bands:  3 eigenvalues not converged
     c_bands:  1 eigenvalues not converged
     c_bands:  1 eigenvalues not converged
     c_bands:  1 eigenvalues not converged
     c_bands:  2 eigenvalues not converged
     c_bands:  3 eigenvalues not converged
     c_bands:  5 eigenvalues not converged
     c_bands:  2 eigenvalues not converged
     c_bands:  1 eigenvalues not converged
     c_bands:  1 eigenvalues not converged
     c_bands:  1 eigenvalues not converged
     c_bands:  1 eigenvalues not converged
     c_bands:  2 eigenvalues not converged
     c_bands:  4 eigenvalues not converged
     c_bands:  1 eigenvalues not converged
     c_bands:  2 eigenvalues not converged
     c_bands:  1 eigenvalues not converged
     c_bands:  1 eigenvalues not converged
     c_bands:  1 eigenvalues not converged
     c_bands:  1 eigenvalues not converged
     c_bands:  3 eigenvalues not converged
     c_bands:  3 eigenvalues not converged
     c_bands:  3 eigenvalues not converged
     c_bands:  2 eigenvalues not converged
     ethr =  2.66E-08,  avg # of iterations = 18.5

     total cpu time spent up to now is     2864.1 secs

     total energy              =   -4133.50460384 Ry
     estimated scf accuracy    <       0.00017481 Ry

     total magnetization       =     3.79 Bohr mag/cell
     absolute magnetization    =     8.39 Bohr mag/cell

     iteration # 83     ecut=    60.00 Ry     beta= 0.30
     Davidson diagonalization with overlap
     c_bands:  1 eigenvalues not converged
     c_bands:  1 eigenvalues not converged
     c_bands:  1 eigenvalues not converged
     c_bands:  1 eigenvalues not converged
     c_bands:  1 eigenvalues not converged
     c_bands:  1 eigenvalues not converged
     ethr =  2.66E-08,  avg # of iterations = 14.0

     total cpu time spent up to now is     2908.1 secs

     total energy              =   -4133.52138800 Ry
     estimated scf accuracy    <       0.00020184 Ry

     total magnetization       =     3.72 Bohr mag/cell
     absolute magnetization    =     5.40 Bohr mag/cell

     iteration # 84     ecut=    60.00 Ry     beta= 0.30
     Davidson diagonalization with overlap
     ethr =  2.66E-08,  avg # of iterations =  9.1

     total cpu time spent up to now is     2942.9 secs

     total energy              =   -4133.52214842 Ry
     estimated scf accuracy    <       0.00022339 Ry

     total magnetization       =     3.75 Bohr mag/cell
     absolute magnetization    =     6.06 Bohr mag/cell

     iteration # 85     ecut=    60.00 Ry     beta= 0.30
     Davidson diagonalization with overlap
     ethr =  2.66E-08,  avg # of iterations =  6.0

     total cpu time spent up to now is     2972.5 secs

     total energy              =   -4133.52225533 Ry
     estimated scf accuracy    <       0.00028289 Ry

     total magnetization       =     3.73 Bohr mag/cell
     absolute magnetization    =     5.87 Bohr mag/cell

     iteration # 86     ecut=    60.00 Ry     beta= 0.30
     Davidson diagonalization with overlap
     ethr =  2.66E-08,  avg # of iterations =  5.0

     total cpu time spent up to now is     3000.5 secs

     total energy              =   -4133.51549162 Ry
     estimated scf accuracy    <       0.00027980 Ry

     total magnetization       =     3.74 Bohr mag/cell
     absolute magnetization    =     6.00 Bohr mag/cell

     iteration # 87     ecut=    60.00 Ry     beta= 0.30
     Davidson diagonalization with overlap
     c_bands:  1 eigenvalues not converged
     c_bands:  1 eigenvalues not converged
     c_bands:  1 eigenvalues not converged
     ethr =  2.66E-08,  avg # of iterations = 12.6

     total cpu time spent up to now is     3041.4 secs

     total energy              =   -4133.51939274 Ry
     estimated scf accuracy    <       0.00039903 Ry

     total magnetization       =     3.61 Bohr mag/cell
     absolute magnetization    =     4.66 Bohr mag/cell

     iteration # 88     ecut=    60.00 Ry     beta= 0.30
     Davidson diagonalization with overlap
     ethr =  2.66E-08,  avg # of iterations = 10.5

     total cpu time spent up to now is     3078.0 secs

     total energy              =   -4133.48034557 Ry
     estimated scf accuracy    <       0.00032432 Ry

     total magnetization       =     3.69 Bohr mag/cell
     absolute magnetization    =     5.41 Bohr mag/cell

     iteration # 89     ecut=    60.00 Ry     beta= 0.30
     Davidson diagonalization with overlap
     c_bands:  2 eigenvalues not converged
     c_bands:  1 eigenvalues not converged
     c_bands:  1 eigenvalues not converged
     c_bands:  1 eigenvalues not converged
     c_bands:  3 eigenvalues not converged
     c_bands:  4 eigenvalues not converged
     c_bands:  3 eigenvalues not converged
     c_bands:  2 eigenvalues not converged
     c_bands:  2 eigenvalues not converged
     c_bands:  1 eigenvalues not converged
     c_bands:  4 eigenvalues not converged
     c_bands:  5 eigenvalues not converged
     c_bands:  1 eigenvalues not converged
     c_bands:  2 eigenvalues not converged
     c_bands:  1 eigenvalues not converged
     c_bands:  1 eigenvalues not converged
     c_bands:  1 eigenvalues not converged
     c_bands:  3 eigenvalues not converged
     c_bands:  5 eigenvalues not converged
     c_bands:  3 eigenvalues not converged
     c_bands:  1 eigenvalues not converged
     c_bands:  1 eigenvalues not converged
     c_bands:  3 eigenvalues not converged
     c_bands:  4 eigenvalues not converged
     c_bands:  5 eigenvalues not converged
     c_bands:  4 eigenvalues not converged
     c_bands:  4 eigenvalues not converged
     ethr =  2.66E-08,  avg # of iterations = 17.6

     total cpu time spent up to now is     3128.0 secs

     total energy              =   -4133.52394779 Ry
     estimated scf accuracy    <       0.00014534 Ry

     total magnetization       =     3.83 Bohr mag/cell
     absolute magnetization    =    10.31 Bohr mag/cell

     iteration # 90     ecut=    60.00 Ry     beta= 0.30
     Davidson diagonalization with overlap
     ethr =  2.66E-08,  avg # of iterations =  7.2

     total cpu time spent up to now is     3160.0 secs

     total energy              =   -4133.47003388 Ry
     estimated scf accuracy    <       0.00006681 Ry

     total magnetization       =     3.81 Bohr mag/cell
     absolute magnetization    =     9.84 Bohr mag/cell

     iteration # 91     ecut=    60.00 Ry     beta= 0.30
     Davidson diagonalization with overlap
     c_bands:  2 eigenvalues not converged
     c_bands:  3 eigenvalues not converged
     c_bands:  4 eigenvalues not converged
     c_bands:  1 eigenvalues not converged
     c_bands:  2 eigenvalues not converged
     c_bands:  1 eigenvalues not converged
     c_bands:  2 eigenvalues not converged
     c_bands:  2 eigenvalues not converged
     c_bands:  1 eigenvalues not converged
     c_bands:  1 eigenvalues not converged
     c_bands:  1 eigenvalues not converged
     c_bands:  1 eigenvalues not converged
     c_bands:  2 eigenvalues not converged
     c_bands:  1 eigenvalues not converged
     c_bands:  1 eigenvalues not converged
     c_bands:  1 eigenvalues not converged
     c_bands:  4 eigenvalues not converged
     c_bands:  3 eigenvalues not converged
     c_bands:  1 eigenvalues not converged
     c_bands:  1 eigenvalues not converged
     ethr =  2.66E-08,  avg # of iterations = 17.2

     total cpu time spent up to now is     3208.6 secs

     total energy              =   -4133.46486782 Ry
     estimated scf accuracy    <       0.00010323 Ry

     total magnetization       =     3.67 Bohr mag/cell
     absolute magnetization    =     4.82 Bohr mag/cell

     iteration # 92     ecut=    60.00 Ry     beta= 0.30
     Davidson diagonalization with overlap
     c_bands:  1 eigenvalues not converged
     c_bands:  2 eigenvalues not converged
     c_bands:  1 eigenvalues not converged
     c_bands:  2 eigenvalues not converged
     c_bands:  4 eigenvalues not converged
     c_bands:  1 eigenvalues not converged
     c_bands:  3 eigenvalues not converged
     c_bands:  3 eigenvalues not converged
     c_bands:  5 eigenvalues not converged
     c_bands:  4 eigenvalues not converged
     c_bands:  1 eigenvalues not converged
     c_bands:  2 eigenvalues not converged
     c_bands:  2 eigenvalues not converged
     c_bands:  5 eigenvalues not converged
     c_bands:  1 eigenvalues not converged
     c_bands:  1 eigenvalues not converged
     c_bands:  1 eigenvalues not converged
     c_bands:  3 eigenvalues not converged
     c_bands:  5 eigenvalues not converged
     c_bands:  4 eigenvalues not converged
     c_bands:  1 eigenvalues not converged
     c_bands:  2 eigenvalues not converged
     c_bands:  4 eigenvalues not converged
     c_bands:  5 eigenvalues not converged
     c_bands:  1 eigenvalues not converged
     c_bands:  3 eigenvalues not converged
     c_bands:  2 eigenvalues not converged
     c_bands:  1 eigenvalues not converged
     c_bands:  5 eigenvalues not converged
     c_bands:  5 eigenvalues not converged
     c_bands:  5 eigenvalues not converged
     c_bands:  3 eigenvalues not converged
     c_bands:  3 eigenvalues not converged
     c_bands:  4 eigenvalues not converged
     c_bands:  1 eigenvalues not converged
     c_bands:  1 eigenvalues not converged
     c_bands:  5 eigenvalues not converged
     c_bands:  5 eigenvalues not converged
     c_bands:  5 eigenvalues not converged
     c_bands:  3 eigenvalues not converged
     c_bands:  4 eigenvalues not converged
     ethr =  2.66E-08,  avg # of iterations = 20.1

     total cpu time spent up to now is     3262.4 secs

     total energy              =   -4133.50413802 Ry
     estimated scf accuracy    <       0.00050279 Ry

     total magnetization       =     3.10 Bohr mag/cell
     absolute magnetization    =     8.92 Bohr mag/cell

     iteration # 93     ecut=    60.00 Ry     beta= 0.30
     Davidson diagonalization with overlap
     c_bands:  2 eigenvalues not converged
     c_bands:  1 eigenvalues not converged
     c_bands:  1 eigenvalues not converged
     c_bands:  3 eigenvalues not converged
     c_bands:  3 eigenvalues not converged
     c_bands:  1 eigenvalues not converged
     c_bands:  1 eigenvalues not converged
     c_bands:  1 eigenvalues not converged
     c_bands:  1 eigenvalues not converged
     c_bands:  2 eigenvalues not converged
     c_bands:  1 eigenvalues not converged
     c_bands:  1 eigenvalues not converged
     c_bands:  2 eigenvalues not converged
     c_bands:  1 eigenvalues not converged
     c_bands:  1 eigenvalues not converged
     c_bands:  1 eigenvalues not converged
     ethr =  2.66E-08,  avg # of iterations = 14.8

     total cpu time spent up to now is     3307.0 secs

     total energy              =   -4133.51681417 Ry
     estimated scf accuracy    <       0.00373663 Ry

     total magnetization       =     2.82 Bohr mag/cell
     absolute magnetization    =    12.07 Bohr mag/cell

     iteration # 94     ecut=    60.00 Ry     beta= 0.30
     Davidson diagonalization with overlap
     c_bands:  1 eigenvalues not converged
     c_bands:  1 eigenvalues not converged
     ethr =  2.66E-08,  avg # of iterations =  7.6

     total cpu time spent up to now is     3338.9 secs

     total energy              =   -4133.51381869 Ry
     estimated scf accuracy    <       0.00356995 Ry

     total magnetization       =     2.84 Bohr mag/cell
     absolute magnetization    =    11.89 Bohr mag/cell

     iteration # 95     ecut=    60.00 Ry     beta= 0.30
     Davidson diagonalization with overlap
     ethr =  2.66E-08,  avg # of iterations = 12.2

     total cpu time spent up to now is     3379.1 secs

     total energy              =   -4133.51217958 Ry
     estimated scf accuracy    <       0.00216782 Ry

     total magnetization       =     3.05 Bohr mag/cell
     absolute magnetization    =    10.09 Bohr mag/cell

     iteration # 96     ecut=    60.00 Ry     beta= 0.30
     Davidson diagonalization with overlap
     c_bands:  1 eigenvalues not converged
     c_bands:  1 eigenvalues not converged
     ethr =  2.66E-08,  avg # of iterations = 12.5

     total cpu time spent up to now is     3419.9 secs

     total energy              =   -4133.31624682 Ry
     estimated scf accuracy    <       0.00088153 Ry

     total magnetization       =     3.30 Bohr mag/cell
     absolute magnetization    =     7.76 Bohr mag/cell

     iteration # 97     ecut=    60.00 Ry     beta= 0.30
     Davidson diagonalization with overlap
     c_bands:  1 eigenvalues not converged
     c_bands:  1 eigenvalues not converged
     c_bands:  4 eigenvalues not converged
     c_bands:  1 eigenvalues not converged
     c_bands:  2 eigenvalues not converged
     c_bands:  2 eigenvalues not converged
     c_bands:  4 eigenvalues not converged
     c_bands:  1 eigenvalues not converged
     c_bands:  5 eigenvalues not converged
     c_bands:  5 eigenvalues not converged
     c_bands:  3 eigenvalues not converged
     c_bands:  1 eigenvalues not converged
     c_bands:  5 eigenvalues not converged
     c_bands:  1 eigenvalues not converged
     c_bands:  1 eigenvalues not converged
     c_bands:  4 eigenvalues not converged
     c_bands:  1 eigenvalues not converged
     c_bands:  5 eigenvalues not converged
     c_bands:  5 eigenvalues not converged
     c_bands:  5 eigenvalues not converged
     c_bands:  2 eigenvalues not converged
     c_bands:  5 eigenvalues not converged
     c_bands:  4 eigenvalues not converged
     c_bands:  1 eigenvalues not converged
     c_bands:  2 eigenvalues not converged
     c_bands:  1 eigenvalues not converged
     c_bands:  3 eigenvalues not converged
     c_bands:  1 eigenvalues not converged
     c_bands:  3 eigenvalues not converged
     c_bands:  1 eigenvalues not converged
     c_bands:  1 eigenvalues not converged
     c_bands:  5 eigenvalues not converged
     c_bands:  5 eigenvalues not converged
     c_bands:  5 eigenvalues not converged
     c_bands:  2 eigenvalues not converged
     c_bands:  3 eigenvalues not converged
     c_bands:  2 eigenvalues not converged
     c_bands:  2 eigenvalues not converged
     c_bands:  1 eigenvalues not converged
     c_bands:  1 eigenvalues not converged
     c_bands:  5 eigenvalues not converged
     c_bands:  4 eigenvalues not converged
     c_bands:  5 eigenvalues not converged
     c_bands:  5 eigenvalues not converged
     c_bands:  5 eigenvalues not converged
     c_bands:  5 eigenvalues not converged
     c_bands:  1 eigenvalues not converged
     c_bands:  3 eigenvalues not converged
     ethr =  2.66E-08,  avg # of iterations = 21.2

     total cpu time spent up to now is     3477.1 secs

     total energy              =   -4133.50286572 Ry
     estimated scf accuracy    <       0.00084952 Ry

     total magnetization       =     3.90 Bohr mag/cell
     absolute magnetization    =    10.91 Bohr mag/cell

     iteration # 98     ecut=    60.00 Ry     beta= 0.30
     Davidson diagonalization with overlap
     c_bands:  1 eigenvalues not converged
     c_bands:  1 eigenvalues not converged
     ethr =  2.66E-08,  avg # of iterations = 12.8

     total cpu time spent up to now is     3520.1 secs

     total energy              =   -4133.52314058 Ry
     estimated scf accuracy    <       0.00008882 Ry

     total magnetization       =     3.84 Bohr mag/cell
     absolute magnetization    =     7.51 Bohr mag/cell

     iteration # 99     ecut=    60.00 Ry     beta= 0.30
     Davidson diagonalization with overlap
     c_bands:  1 eigenvalues not converged
     ethr =  2.66E-08,  avg # of iterations =  6.1

     total cpu time spent up to now is     3550.0 secs

     total energy              =   -4133.52297646 Ry
     estimated scf accuracy    <       0.00009241 Ry

     total magnetization       =     3.85 Bohr mag/cell
     absolute magnetization    =     7.66 Bohr mag/cell

     iteration #100     ecut=    60.00 Ry     beta= 0.30
     Davidson diagonalization with overlap
     ethr =  2.66E-08,  avg # of iterations =  5.9

     total cpu time spent up to now is     3580.2 secs

     total energy              =   -4133.52248092 Ry
     estimated scf accuracy    <       0.00018620 Ry

     total magnetization       =     3.88 Bohr mag/cell
     absolute magnetization    =     7.50 Bohr mag/cell

     iteration #101     ecut=    60.00 Ry     beta= 0.30
     Davidson diagonalization with overlap
     ethr =  2.66E-08,  avg # of iterations =  8.6

     total cpu time spent up to now is     3615.7 secs

     total energy              =   -4133.52269431 Ry
     estimated scf accuracy    <       0.00040248 Ry

     total magnetization       =     3.91 Bohr mag/cell
     absolute magnetization    =     8.25 Bohr mag/cell

     iteration #102     ecut=    60.00 Ry     beta= 0.30
     Davidson diagonalization with overlap
     ethr =  2.66E-08,  avg # of iterations =  8.7

     total cpu time spent up to now is     3650.3 secs

     total energy              =   -4133.50251827 Ry
     estimated scf accuracy    <       0.00069953 Ry

     total magnetization       =     3.94 Bohr mag/cell
     absolute magnetization    =     9.07 Bohr mag/cell

     iteration #103     ecut=    60.00 Ry     beta= 0.30
     Davidson diagonalization with overlap
     ethr =  2.66E-08,  avg # of iterations = 12.8

     total cpu time spent up to now is     3692.5 secs

     total energy              =   -4133.48726295 Ry
     estimated scf accuracy    <       0.00026305 Ry

     total magnetization       =     3.73 Bohr mag/cell
     absolute magnetization    =     5.68 Bohr mag/cell

     iteration #104     ecut=    60.00 Ry     beta= 0.30
     Davidson diagonalization with overlap
     c_bands:  1 eigenvalues not converged
     c_bands:  1 eigenvalues not converged
     c_bands:  1 eigenvalues not converged
     c_bands:  5 eigenvalues not converged
     c_bands:  3 eigenvalues not converged
     c_bands:  3 eigenvalues not converged
     c_bands:  1 eigenvalues not converged
     c_bands:  1 eigenvalues not converged
     c_bands:  4 eigenvalues not converged
     c_bands:  2 eigenvalues not converged
     c_bands:  3 eigenvalues not converged
     c_bands:  3 eigenvalues not converged
     c_bands:  1 eigenvalues not converged
     c_bands:  1 eigenvalues not converged
     c_bands:  1 eigenvalues not converged
     c_bands:  4 eigenvalues not converged
     c_bands:  2 eigenvalues not converged
     c_bands:  1 eigenvalues not converged
     c_bands:  2 eigenvalues not converged
     c_bands:  1 eigenvalues not converged
     c_bands:  5 eigenvalues not converged
     c_bands:  2 eigenvalues not converged
     c_bands:  2 eigenvalues not converged
     ethr =  2.66E-08,  avg # of iterations = 16.9

     total cpu time spent up to now is     3740.5 secs

     total energy              =   -4133.51758466 Ry
     estimated scf accuracy    <       0.00045680 Ry

     total magnetization       =     3.45 Bohr mag/cell
     absolute magnetization    =     6.37 Bohr mag/cell

     iteration #105     ecut=    60.00 Ry     beta= 0.30
     Davidson diagonalization with overlap
     c_bands:  1 eigenvalues not converged
     ethr =  2.66E-08,  avg # of iterations = 11.5

     total cpu time spent up to now is     3779.6 secs

     total energy              =   -4133.52000728 Ry
     estimated scf accuracy    <       0.00021537 Ry

     total magnetization       =     3.58 Bohr mag/cell
     absolute magnetization    =     5.36 Bohr mag/cell

     iteration #106     ecut=    60.00 Ry     beta= 0.30
     Davidson diagonalization with overlap
     ethr =  2.66E-08,  avg # of iterations =  8.9

     total cpu time spent up to now is     3814.5 secs

     total energy              =   -4133.46326380 Ry
     estimated scf accuracy    <       0.00016344 Ry

     total magnetization       =     3.64 Bohr mag/cell
     absolute magnetization    =     4.99 Bohr mag/cell

     iteration #107     ecut=    60.00 Ry     beta= 0.30
     Davidson diagonalization with overlap
     c_bands:  1 eigenvalues not converged
     c_bands:  1 eigenvalues not converged
     c_bands:  1 eigenvalues not converged
     c_bands:  3 eigenvalues not converged
     c_bands:  2 eigenvalues not converged
     c_bands:  1 eigenvalues not converged
     c_bands:  3 eigenvalues not converged
     c_bands:  1 eigenvalues not converged
     c_bands:  1 eigenvalues not converged
     c_bands:  1 eigenvalues not converged
     c_bands:  1 eigenvalues not converged
     c_bands:  3 eigenvalues not converged
     c_bands:  1 eigenvalues not converged
     c_bands:  1 eigenvalues not converged
     c_bands:  1 eigenvalues not converged
     c_bands:  1 eigenvalues not converged
     c_bands:  2 eigenvalues not converged
     c_bands:  1 eigenvalues not converged
     c_bands:  1 eigenvalues not converged
     c_bands:  4 eigenvalues not converged
     c_bands:  5 eigenvalues not converged
     c_bands:  3 eigenvalues not converged
     c_bands:  3 eigenvalues not converged
     c_bands:  2 eigenvalues not converged
     c_bands:  1 eigenvalues not converged
     c_bands:  1 eigenvalues not converged
     c_bands:  5 eigenvalues not converged
     c_bands:  5 eigenvalues not converged
     c_bands:  5 eigenvalues not converged
     c_bands:  3 eigenvalues not converged
     c_bands:  1 eigenvalues not converged
     c_bands:  3 eigenvalues not converged
     ethr =  2.66E-08,  avg # of iterations = 18.6

     total cpu time spent up to now is     3866.2 secs

     total energy              =   -4133.52372864 Ry
     estimated scf accuracy    <       0.00132251 Ry

     total magnetization       =     3.96 Bohr mag/cell
     absolute magnetization    =     9.33 Bohr mag/cell

     iteration #108     ecut=    60.00 Ry     beta= 0.30
     Davidson diagonalization with overlap
     c_bands:  1 eigenvalues not converged
     c_bands:  1 eigenvalues not converged
     c_bands:  1 eigenvalues not converged
     ethr =  2.66E-08,  avg # of iterations =  9.6

     total cpu time spent up to now is     3900.9 secs

     total energy              =   -4133.51829300 Ry
     estimated scf accuracy    <       0.00133104 Ry

     total magnetization       =     3.94 Bohr mag/cell
     absolute magnetization    =     9.78 Bohr mag/cell

     iteration #109     ecut=    60.00 Ry     beta= 0.30
     Davidson diagonalization with overlap
     c_bands:  2 eigenvalues not converged
     c_bands:  1 eigenvalues not converged
     c_bands:  1 eigenvalues not converged
     c_bands:  1 eigenvalues not converged
     c_bands:  1 eigenvalues not converged
     ethr =  2.66E-08,  avg # of iterations = 13.2

     total cpu time spent up to now is     3942.9 secs

     total energy              =   -4133.42337413 Ry
     estimated scf accuracy    <       0.00349554 Ry

     total magnetization       =     3.97 Bohr mag/cell
     absolute magnetization    =    11.71 Bohr mag/cell

     iteration #110     ecut=    60.00 Ry     beta= 0.30
     Davidson diagonalization with overlap
     c_bands:  1 eigenvalues not converged
     c_bands:  1 eigenvalues not converged
     c_bands:  1 eigenvalues not converged
     c_bands:  5 eigenvalues not converged
     c_bands:  5 eigenvalues not converged
     c_bands:  4 eigenvalues not converged
     c_bands:  4 eigenvalues not converged
     c_bands:  3 eigenvalues not converged
     c_bands:  2 eigenvalues not converged
     c_bands:  1 eigenvalues not converged
     c_bands:  3 eigenvalues not converged
     c_bands:  1 eigenvalues not converged
     c_bands:  1 eigenvalues not converged
     c_bands:  1 eigenvalues not converged
     c_bands:  3 eigenvalues not converged
     c_bands:  4 eigenvalues not converged
     c_bands:  4 eigenvalues not converged
     c_bands:  4 eigenvalues not converged
     c_bands:  2 eigenvalues not converged
     c_bands:  3 eigenvalues not converged
     c_bands:  2 eigenvalues not converged
     c_bands:  1 eigenvalues not converged
     c_bands:  1 eigenvalues not converged
     c_bands:  1 eigenvalues not converged
     c_bands:  1 eigenvalues not converged
     c_bands:  2 eigenvalues not converged
     c_bands:  1 eigenvalues not converged
     c_bands:  1 eigenvalues not converged
     c_bands:  3 eigenvalues not converged
     c_bands:  5 eigenvalues not converged
     c_bands:  4 eigenvalues not converged
     c_bands:  3 eigenvalues not converged
     c_bands:  1 eigenvalues not converged
     c_bands:  1 eigenvalues not converged
     c_bands:  2 eigenvalues not converged
     c_bands:  1 eigenvalues not converged
     c_bands:  1 eigenvalues not converged
     c_bands:  3 eigenvalues not converged
     c_bands:  3 eigenvalues not converged
     c_bands:  5 eigenvalues not converged
     c_bands:  4 eigenvalues not converged
     c_bands:  4 eigenvalues not converged
     c_bands:  3 eigenvalues not converged
     c_bands:  1 eigenvalues not converged
     c_bands:  1 eigenvalues not converged
     ethr =  2.66E-08,  avg # of iterations = 19.2

     total cpu time spent up to now is     3996.0 secs

     total energy              =   -4133.51956017 Ry
     estimated scf accuracy    <       0.00148219 Ry

     total magnetization       =     3.52 Bohr mag/cell
     absolute magnetization    =     4.56 Bohr mag/cell

     iteration #111     ecut=    60.00 Ry     beta= 0.30
     Davidson diagonalization with overlap
     c_bands:  1 eigenvalues not converged
     ethr =  2.66E-08,  avg # of iterations = 10.7

     total cpu time spent up to now is     4033.7 secs

     total energy              =   -4133.52182914 Ry
     estimated scf accuracy    <       0.00149617 Ry

     total magnetization       =     3.59 Bohr mag/cell
     absolute magnetization    =     5.18 Bohr mag/cell

     iteration #112     ecut=    60.00 Ry     beta= 0.30
     Davidson diagonalization with overlap
     ethr =  2.66E-08,  avg # of iterations =  5.4

     total cpu time spent up to now is     4062.4 secs

     total energy              =   -4133.51449342 Ry
     estimated scf accuracy    <       0.00271761 Ry

     total magnetization       =     3.54 Bohr mag/cell
     absolute magnetization    =     5.15 Bohr mag/cell

     iteration #113     ecut=    60.00 Ry     beta= 0.30
     Davidson diagonalization with overlap
     ethr =  2.66E-08,  avg # of iterations = 12.6

     total cpu time spent up to now is     4103.6 secs

     total energy              =   -4133.52268995 Ry
     estimated scf accuracy    <       0.00143080 Ry

     total magnetization       =     3.66 Bohr mag/cell
     absolute magnetization    =     7.29 Bohr mag/cell

     iteration #114     ecut=    60.00 Ry     beta= 0.30
     Davidson diagonalization with overlap
     ethr =  2.66E-08,  avg # of iterations =  6.0

     total cpu time spent up to now is     4134.8 secs

     total energy              =   -4133.49938448 Ry
     estimated scf accuracy    <       0.00131626 Ry

     total magnetization       =     3.67 Bohr mag/cell
     absolute magnetization    =     6.98 Bohr mag/cell

     iteration #115     ecut=    60.00 Ry     beta= 0.30
     Davidson diagonalization with overlap
     c_bands:  1 eigenvalues not converged
     c_bands:  1 eigenvalues not converged
     c_bands:  1 eigenvalues not converged
     c_bands:  1 eigenvalues not converged
     c_bands:  1 eigenvalues not converged
     ethr =  2.66E-08,  avg # of iterations = 14.0

     total cpu time spent up to now is     4179.4 secs

     total energy              =   -4133.52439801 Ry
     estimated scf accuracy    <       0.00053030 Ry

     total magnetization       =     3.68 Bohr mag/cell
     absolute magnetization    =    10.66 Bohr mag/cell

     iteration #116     ecut=    60.00 Ry     beta= 0.30
     Davidson diagonalization with overlap
     ethr =  2.66E-08,  avg # of iterations =  6.7

     total cpu time spent up to now is     4210.4 secs

     total energy              =   -4133.51935297 Ry
     estimated scf accuracy    <       0.00018465 Ry

     total magnetization       =     3.72 Bohr mag/cell
     absolute magnetization    =    10.40 Bohr mag/cell

     iteration #117     ecut=    60.00 Ry     beta= 0.30
     Davidson diagonalization with overlap
     ethr =  2.66E-08,  avg # of iterations = 11.3

     total cpu time spent up to now is     4247.7 secs

     total energy              =   -4133.52391454 Ry
     estimated scf accuracy    <       0.00139010 Ry

     total magnetization       =     3.68 Bohr mag/cell
     absolute magnetization    =     8.78 Bohr mag/cell

     iteration #118     ecut=    60.00 Ry     beta= 0.30
     Davidson diagonalization with overlap
     ethr =  2.66E-08,  avg # of iterations =  5.1

     total cpu time spent up to now is     4276.6 secs

     total energy              =   -4133.52184539 Ry
     estimated scf accuracy    <       0.00100446 Ry

     total magnetization       =     3.70 Bohr mag/cell
     absolute magnetization    =     8.95 Bohr mag/cell

     iteration #119     ecut=    60.00 Ry     beta= 0.30
     Davidson diagonalization with overlap
     c_bands:  1 eigenvalues not converged
     ethr =  2.66E-08,  avg # of iterations = 10.4

     total cpu time spent up to now is     4314.5 secs

     total energy              =   -4133.48887430 Ry
     estimated scf accuracy    <       0.00074404 Ry

     total magnetization       =     3.69 Bohr mag/cell
     absolute magnetization    =    10.13 Bohr mag/cell

     iteration #120     ecut=    60.00 Ry     beta= 0.30
     Davidson diagonalization with overlap
     c_bands:  2 eigenvalues not converged
     c_bands:  2 eigenvalues not converged
     c_bands:  1 eigenvalues not converged
     c_bands:  2 eigenvalues not converged
     ethr =  2.66E-08,  avg # of iterations = 14.7

     total cpu time spent up to now is     4359.9 secs

     total energy              =   -4133.47924360 Ry
     estimated scf accuracy    <       0.00292654 Ry

     total magnetization       =     3.60 Bohr mag/cell
     absolute magnetization    =     5.82 Bohr mag/cell

     iteration #121     ecut=    60.00 Ry     beta= 0.30
     Davidson diagonalization with overlap
     c_bands:  1 eigenvalues not converged
     c_bands:  1 eigenvalues not converged
     c_bands:  1 eigenvalues not converged
     c_bands:  2 eigenvalues not converged
     c_bands:  1 eigenvalues not converged
     c_bands:  1 eigenvalues not converged
     c_bands:  1 eigenvalues not converged
     c_bands:  2 eigenvalues not converged
     c_bands:  1 eigenvalues not converged
     c_bands:  1 eigenvalues not converged
     c_bands:  1 eigenvalues not converged
     c_bands:  1 eigenvalues not converged
     ethr =  2.66E-08,  avg # of iterations = 17.0

     total cpu time spent up to now is     4408.9 secs

     total energy              =   -4133.51759885 Ry
     estimated scf accuracy    <       0.00091832 Ry

     total magnetization       =     3.67 Bohr mag/cell
     absolute magnetization    =    10.75 Bohr mag/cell

     iteration #122     ecut=    60.00 Ry     beta= 0.30
     Davidson diagonalization with overlap
     c_bands:  1 eigenvalues not converged
     c_bands:  2 eigenvalues not converged
     c_bands:  1 eigenvalues not converged
     ethr =  2.66E-08,  avg # of iterations = 13.0

     total cpu time spent up to now is     4449.6 secs

     total energy              =   -4133.51724057 Ry
     estimated scf accuracy    <       0.00000460 Ry

     total magnetization       =     3.65 Bohr mag/cell
     absolute magnetization    =    12.72 Bohr mag/cell

     iteration #123     ecut=    60.00 Ry     beta= 0.30
     Davidson diagonalization with overlap
     c_bands:  1 eigenvalues not converged
     c_bands:  1 eigenvalues not converged
     c_bands:  3 eigenvalues not converged
     c_bands:  1 eigenvalues not converged
     c_bands:  1 eigenvalues not converged
     c_bands:  1 eigenvalues not converged
     c_bands:  1 eigenvalues not converged
     c_bands:  1 eigenvalues not converged
     c_bands:  1 eigenvalues not converged
     c_bands:  1 eigenvalues not converged
     c_bands:  1 eigenvalues not converged
     c_bands:  1 eigenvalues not converged
     c_bands:  1 eigenvalues not converged
     ethr =  2.02E-09,  avg # of iterations = 17.5

     total cpu time spent up to now is     4499.4 secs

     total energy              =   -4133.52445937 Ry
     estimated scf accuracy    <       0.00137627 Ry

     total magnetization       =     3.63 Bohr mag/cell
     absolute magnetization    =    14.61 Bohr mag/cell

     iteration #124     ecut=    60.00 Ry     beta= 0.30
     Davidson diagonalization with overlap
     ethr =  2.02E-09,  avg # of iterations = 11.7

     total cpu time spent up to now is     4537.9 secs

     total energy              =   -4133.52491755 Ry
     estimated scf accuracy    <       0.00070138 Ry

     total magnetization       =     3.63 Bohr mag/cell
     absolute magnetization    =    14.15 Bohr mag/cell

     iteration #125     ecut=    60.00 Ry     beta= 0.30
     Davidson diagonalization with overlap
     ethr =  2.02E-09,  avg # of iterations =  8.9

     total cpu time spent up to now is     4573.1 secs

     total energy              =   -4133.52141721 Ry
     estimated scf accuracy    <       0.00052125 Ry

     total magnetization       =     3.64 Bohr mag/cell
     absolute magnetization    =    13.98 Bohr mag/cell

     iteration #126     ecut=    60.00 Ry     beta= 0.30
     Davidson diagonalization with overlap
     c_bands:  1 eigenvalues not converged
     c_bands:  1 eigenvalues not converged
     c_bands:  1 eigenvalues not converged
     c_bands:  1 eigenvalues not converged
     ethr =  2.02E-09,  avg # of iterations = 15.8

     total cpu time spent up to now is     4619.3 secs

     total energy              =   -4133.52489884 Ry
     estimated scf accuracy    <       0.00004372 Ry

     total magnetization       =     3.65 Bohr mag/cell
     absolute magnetization    =    12.59 Bohr mag/cell

     iteration #127     ecut=    60.00 Ry     beta= 0.30
     Davidson diagonalization with overlap
     ethr =  2.02E-09,  avg # of iterations = 11.0

     total cpu time spent up to now is     4656.9 secs

     total energy              =   -4133.52469015 Ry
     estimated scf accuracy    <       0.00000199 Ry

     total magnetization       =     3.64 Bohr mag/cell
     absolute magnetization    =    12.98 Bohr mag/cell

     iteration #128     ecut=    60.00 Ry     beta= 0.30
     Davidson diagonalization with overlap
     ethr =  8.74E-10,  avg # of iterations = 12.2

     total cpu time spent up to now is     4697.4 secs

     total energy              =   -4133.52518442 Ry
     estimated scf accuracy    <       0.00010553 Ry

     total magnetization       =     3.65 Bohr mag/cell
     absolute magnetization    =    12.46 Bohr mag/cell

     iteration #129     ecut=    60.00 Ry     beta= 0.30
     Davidson diagonalization with overlap
     ethr =  8.74E-10,  avg # of iterations =  8.8

     total cpu time spent up to now is     4732.8 secs

     total energy              =   -4133.52473455 Ry
     estimated scf accuracy    <       0.00005599 Ry

     total magnetization       =     3.65 Bohr mag/cell
     absolute magnetization    =    12.61 Bohr mag/cell

     iteration #130     ecut=    60.00 Ry     beta= 0.30
     Davidson diagonalization with overlap
     ethr =  8.74E-10,  avg # of iterations = 12.0

     total cpu time spent up to now is     4773.4 secs

     total energy              =   -4133.52520972 Ry
     estimated scf accuracy    <       0.00000675 Ry

     total magnetization       =     3.64 Bohr mag/cell
     absolute magnetization    =    13.11 Bohr mag/cell

     iteration #131     ecut=    60.00 Ry     beta= 0.30
     Davidson diagonalization with overlap
     ethr =  8.74E-10,  avg # of iterations =  6.6

     total cpu time spent up to now is     4804.4 secs

     total energy              =   -4133.52521883 Ry
     estimated scf accuracy    <       0.00000247 Ry

     total magnetization       =     3.64 Bohr mag/cell
     absolute magnetization    =    13.04 Bohr mag/cell

     iteration #132     ecut=    60.00 Ry     beta= 0.30
     Davidson diagonalization with overlap
     ethr =  8.74E-10,  avg # of iterations =  5.0

     total cpu time spent up to now is     4832.3 secs

     total energy              =   -4133.52520624 Ry
     estimated scf accuracy    <       0.00000419 Ry

     total magnetization       =     3.64 Bohr mag/cell
     absolute magnetization    =    13.03 Bohr mag/cell

     iteration #133     ecut=    60.00 Ry     beta= 0.30
     Davidson diagonalization with overlap
     ethr =  8.74E-10,  avg # of iterations =  8.3

     total cpu time spent up to now is     4866.9 secs

     total energy              =   -4133.52518891 Ry
     estimated scf accuracy    <       0.00000116 Ry

     total magnetization       =     3.65 Bohr mag/cell
     absolute magnetization    =    12.93 Bohr mag/cell

     iteration #134     ecut=    60.00 Ry     beta= 0.30
     Davidson diagonalization with overlap
     ethr =  5.10E-10,  avg # of iterations =  9.8

     total cpu time spent up to now is     4903.6 secs

     total energy              =   -4133.52523264 Ry
     estimated scf accuracy    <       0.00000069 Ry

     total magnetization       =     3.66 Bohr mag/cell
     absolute magnetization    =    12.80 Bohr mag/cell

     iteration #135     ecut=    60.00 Ry     beta= 0.30
     Davidson diagonalization with overlap
     ethr =  3.04E-10,  avg # of iterations =  5.5

     total cpu time spent up to now is     4933.2 secs

     total energy              =   -4133.52520415 Ry
     estimated scf accuracy    <       0.00000086 Ry

     total magnetization       =     3.66 Bohr mag/cell
     absolute magnetization    =    12.79 Bohr mag/cell

     iteration #136     ecut=    60.00 Ry     beta= 0.30
     Davidson diagonalization with overlap
     ethr =  3.04E-10,  avg # of iterations = 10.6

     total cpu time spent up to now is     4971.5 secs

     total energy              =   -4133.52523337 Ry
     estimated scf accuracy    <       0.00000081 Ry

     total magnetization       =     3.66 Bohr mag/cell
     absolute magnetization    =    12.68 Bohr mag/cell

     iteration #137     ecut=    60.00 Ry     beta= 0.30
     Davidson diagonalization with overlap
     ethr =  3.04E-10,  avg # of iterations =  5.1

     total cpu time spent up to now is     4999.8 secs

     total energy              =   -4133.52523361 Ry
     estimated scf accuracy    <       0.00000024 Ry

     total magnetization       =     3.66 Bohr mag/cell
     absolute magnetization    =    12.69 Bohr mag/cell

     iteration #138     ecut=    60.00 Ry     beta= 0.30
     Davidson diagonalization with overlap
     ethr =  1.05E-10,  avg # of iterations =  5.5

     total cpu time spent up to now is     5029.5 secs

     total energy              =   -4133.52522775 Ry
     estimated scf accuracy    <       0.00000014 Ry

     total magnetization       =     3.66 Bohr mag/cell
     absolute magnetization    =    12.71 Bohr mag/cell

     iteration #139     ecut=    60.00 Ry     beta= 0.30
     Davidson diagonalization with overlap
     ethr =  6.28E-11,  avg # of iterations = 10.8

     total cpu time spent up to now is     5068.7 secs

     total energy              =   -4133.52523381 Ry
     estimated scf accuracy    <       0.00000010 Ry

     total magnetization       =     3.66 Bohr mag/cell
     absolute magnetization    =    12.75 Bohr mag/cell

     iteration #140     ecut=    60.00 Ry     beta= 0.30
     Davidson diagonalization with overlap
     ethr =  4.44E-11,  avg # of iterations =  6.5
 
     Magnetic moment per site  (integrated on atomic sphere of radius R)
     atom   1 (R=0.179)  charge= 12.1880  magn=  0.7094
     atom   2 (R=0.179)  charge= 14.4974  magn=  1.0794
     atom   3 (R=0.179)  charge= 12.1877  magn=  0.7089
     atom   4 (R=0.179)  charge= 12.2055  magn= -0.6936
     atom   5 (R=0.179)  charge= 12.1877  magn=  0.7089
     atom   6 (R=0.179)  charge= 12.2055  magn= -0.6936
     atom   7 (R=0.179)  charge= 12.1878  magn=  0.7089
     atom   8 (R=0.179)  charge= 12.2055  magn= -0.6936
     atom   9 (R=0.179)  charge= 12.1877  magn=  0.7089
     atom  10 (R=0.179)  charge= 12.2055  magn= -0.6936
     atom  11 (R=0.179)  charge= 12.1878  magn=  0.7089
     atom  12 (R=0.179)  charge= 12.2055  magn= -0.6936
     atom  13 (R=0.179)  charge= 12.1878  magn=  0.7089
     atom  14 (R=0.179)  charge= 12.2055  magn= -0.6936
     atom  15 (R=0.179)  charge= 12.1876  magn=  0.7092
     atom  16 (R=0.179)  charge= 14.4974  magn=  1.0794

     total cpu time spent up to now is     5101.0 secs

     End of self-consistent calculation

 ------ SPIN UP ------------


          k = 0.0000 0.0000 0.0000 (  9627 PWs)   bands (ev):

   -67.8133 -67.8131 -52.2923 -52.2432 -52.2431 -52.2431 -52.2246 -52.2245
   -52.2245 -52.2069 -51.4615 -51.4615 -51.4423 -51.4423 -51.4359 -51.4335
   -33.8748 -33.8748 -33.8748 -33.8704 -33.8704 -33.8704 -23.9023 -23.9023
   -23.9023 -23.8022 -23.8022 -23.8022 -23.6996 -23.6890 -23.6890 -23.6583
   -23.6583 -23.6583 -23.5890 -23.5889 -23.5889 -23.5026 -23.5025 -23.5025
   -23.4975 -23.4975 -23.4974 -23.4875 -23.4794 -23.4794 -22.9122 -22.9122
   -22.9122 -22.8287 -22.8286 -22.8286 -22.7288 -22.7287 -22.7287 -22.6997
   -22.6997 -22.6997 -22.6613 -22.6613 -22.6613 -22.6310 -22.6310 -22.6310
    11.7273  15.0385  15.1073  15.1073  15.2732  15.2732  15.2733  15.3243
    15.3243  15.5020  15.6421  15.6421  15.6421  15.7785  15.7785  17.0470
    17.0470  17.0470  17.1783  17.1783  17.1783  17.2936  17.2936  17.2936
    17.3653  17.3653  17.3654  17.5289  17.5289  17.7402  17.7402  17.7403
    18.2256  18.7113  18.7113  18.7114  18.9478  18.9478  18.9478  19.0911
    19.0911  19.0912  19.1211  19.1212  19.1212  19.4582  19.4582  19.8018
    19.8019  19.8019  20.1564  20.1564  20.3024  20.6972  20.6972  20.6973
    20.7038  20.7038  20.7038  20.7128  20.7129  20.7129  20.9125  20.9125
    21.0388  21.0388  21.0388  21.0825  21.0825  21.0958  21.0958  21.1430
    21.1452

          k = 0.0000 0.0000 0.1667 (  9595 PWs)   bands (ev):

   -67.8133 -67.8131 -52.2891 -52.2465 -52.2419 -52.2418 -52.2258 -52.2258
   -52.2234 -52.2081 -51.4602 -51.4597 -51.4436 -51.4420 -51.4373 -51.4340
   -33.8746 -33.8746 -33.8745 -33.8706 -33.8706 -33.8704 -23.8889 -23.8852
   -23.8852 -23.7963 -23.7890 -23.7890 -23.7039 -23.7030 -23.6870 -23.6736
   -23.6736 -23.6460 -23.5963 -23.5838 -23.5838 -23.5299 -23.5297 -23.5079
   -23.5078 -23.5011 -23.4960 -23.4955 -23.4846 -23.4807 -22.8938 -22.8873
   -22.8873 -22.8172 -22.8153 -22.8153 -22.7232 -22.7232 -22.7232 -22.7097
   -22.7051 -22.7051 -22.6742 -22.6742 -22.6657 -22.6477 -22.6387 -22.6387
    11.8817  14.8543  15.1143  15.1686  15.2076  15.3273  15.3273  15.3992
    15.4023  15.4173  15.6535  15.6907  15.6907  15.7903  16.0955  17.0146
    17.0540  17.0651  17.0651  17.0742  17.0742  17.1264  17.2117  17.3320
    17.3321  17.3820  17.4496  17.5537  17.5537  17.7339  17.7339  17.8935
    18.4619  18.6914  18.7013  18.7013  18.7566  18.7566  18.7637  18.9454
    18.9455  19.1924  19.2481  19.3032  19.3156  19.3492  19.3493  19.4279
    19.8897  19.9669  19.9670  19.9795  19.9796  20.3033  20.3033  20.3446
    20.4339  20.4909  20.7158  20.7210  20.7352  20.7353  20.8740  20.9381
    20.9381  20.9654  20.9942  21.0062  21.0863  21.0924  21.1419  21.1429
    21.1531

          k = 0.0000 0.0000 0.3333 (  9606 PWs)   bands (ev):

   -67.8133 -67.8131 -52.2803 -52.2557 -52.2385 -52.2384 -52.2292 -52.2292
   -52.2202 -52.2114 -51.4567 -51.4550 -51.4471 -51.4432 -51.4389 -51.4355
   -33.8738 -33.8738 -33.8737 -33.8714 -33.8714 -33.8712 -23.8512 -23.8380
   -23.8379 -23.7788 -23.7491 -23.7490 -23.7444 -23.7244 -23.7160 -23.7159
   -23.6694 -23.6168 -23.6144 -23.6029 -23.6027 -23.5700 -23.5699 -23.5269
   -23.5269 -23.5268 -23.4979 -23.4928 -23.4889 -23.4839 -22.8466 -22.8294
   -22.8294 -22.7873 -22.7831 -22.7831 -22.7389 -22.7207 -22.7207 -22.7100
   -22.7100 -22.7097 -22.7082 -22.7081 -22.6911 -22.6768 -22.6593 -22.6593
    12.3323  13.9234  15.2980  15.3387  15.4728  15.4728  15.5021  15.6321
    15.6749  15.6827  15.7403  15.7403  15.7444  15.7533  16.1099  16.4876
    16.6034  16.8005  17.0138  17.0138  17.0591  17.0591  17.3595  17.4517
    17.5112  17.5113  17.6422  17.6988  17.6989  18.0336  18.0394  18.0394
    18.2015  18.3970  18.3971  18.5133  18.6072  18.6733  18.6733  18.8095
    18.8096  18.8821  18.9188  18.9980  18.9981  19.2753  19.4441  19.5040
    19.5239  19.5239  19.7083  19.7579  19.7606  19.7606  20.2382  20.3888
    20.3889  20.5196  20.5197  20.7027  20.7594  20.7641  20.8142  20.9523
    21.0975  21.1032  21.1265  21.1881  21.2527  21.3960  21.4050  21.4075
    21.4075

          k = 0.0000 0.0000-0.5000 (  9626 PWs)   bands (ev):

   -67.8132 -67.8132 -52.2683 -52.2680 -52.2340 -52.2339 -52.2338 -52.2337
   -52.2159 -52.2157 -51.4519 -51.4519 -51.4488 -51.4488 -51.4374 -51.4374
   -33.8726 -33.8726 -33.8726 -33.8726 -33.8724 -33.8724 -23.7985 -23.7985
   -23.7756 -23.7756 -23.7755 -23.7755 -23.7528 -23.7528 -23.6842 -23.6841
   -23.6841 -23.6840 -23.6436 -23.6434 -23.5708 -23.5706 -23.5497 -23.5496
   -23.5496 -23.5495 -23.4935 -23.4934 -23.4884 -23.4883 -22.7874 -22.7874
   -22.7648 -22.7648 -22.7648 -22.7648 -22.7477 -22.7477 -22.7477 -22.7477
   -22.7436 -22.7436 -22.6926 -22.6926 -22.6853 -22.6853 -22.6853 -22.6853
    13.0383  13.0383  15.5271  15.5271  15.5651  15.5652  15.6491  15.6491
    15.6491  15.6492  15.8624  15.8625  16.0009  16.0009  16.1037  16.1037
    16.2622  16.2622  17.0238  17.0238  17.0238  17.0238  17.7291  17.7291
    17.8260  17.8260  17.8260  17.8260  17.8308  17.8308  18.0591  18.0591
    18.1876  18.1876  18.1876  18.1877  18.5361  18.5362  18.6102  18.6102
    18.6103  18.6103  18.8851  18.8851  18.8852  18.8852  19.1699  19.1700
    19.1827  19.1827  20.0507  20.0507  20.1850  20.1850  20.1851  20.1851
    20.2645  20.2645  20.8128  20.8128  20.8237  20.8237  20.8999  20.8999
    20.9000  20.9000  21.1126  21.1126  21.2689  21.2689  21.4021  21.4138
    21.4148

          k = 0.0000 0.1667 0.1667 (  9601 PWs)   bands (ev):

   -67.8133 -67.8131 -52.2861 -52.2458 -52.2444 -52.2406 -52.2272 -52.2247
   -52.2246 -52.2093 -51.4587 -51.4584 -51.4440 -51.4424 -51.4385 -51.4346
   -33.8749 -33.8744 -33.8737 -33.8712 -33.8708 -33.8702 -23.8808 -23.8684
   -23.8664 -23.7863 -23.7800 -23.7765 -23.7156 -23.7027 -23.7027 -23.6759
   -23.6747 -23.6475 -23.6004 -23.5820 -23.5793 -23.5436 -23.5360 -23.5285
   -23.5121 -23.5066 -23.5036 -23.4991 -23.4932 -23.4840 -22.8835 -22.8732
   -22.8669 -22.8060 -22.8038 -22.8033 -22.7238 -22.7228 -22.7187 -22.7140
   -22.7097 -22.7093 -22.6849 -22.6809 -22.6737 -22.6649 -22.6456 -22.6340
    12.0336  14.8483  15.0194  15.1467  15.2506  15.2803  15.3957  15.4523
    15.4542  15.4950  15.5037  15.7531  15.7735  16.1057  16.1470  16.8705
    16.9562  17.0405  17.0496  17.0970  17.1168  17.1577  17.1782  17.2994
    17.3409  17.3721  17.4700  17.5618  17.5875  17.6086  17.6496  18.1532
    18.3647  18.4587  18.6038  18.6731  18.7459  18.7539  18.8986  18.9287
    18.9870  19.0002  19.0420  19.2443  19.2997  19.4143  19.4668  19.5125
    19.6592  19.6657  19.7515  19.8623  19.9668  20.0678  20.1016  20.1695
    20.2636  20.5329  20.5867  20.6194  20.6922  20.7365  20.8767  20.9009
    20.9775  21.0848  21.0939  21.1247  21.1441  21.1779  21.1780  21.2974
    21.3272

          k = 0.0000 0.1667 0.3333 (  9577 PWs)   bands (ev):

   -67.8132 -67.8131 -52.2776 -52.2541 -52.2412 -52.2373 -52.2310 -52.2280
   -52.2214 -52.2125 -51.4555 -51.4542 -51.4468 -51.4435 -51.4400 -51.4362
   -33.8745 -33.8736 -33.8725 -33.8724 -33.8715 -33.8704 -23.8483 -23.8273
   -23.8230 -23.7691 -23.7487 -23.7403 -23.7400 -23.7393 -23.7168 -23.7089
   -23.6693 -23.6204 -23.6172 -23.6036 -23.5940 -23.5708 -23.5664 -23.5396
   -23.5293 -23.5255 -23.5108 -23.5004 -23.5002 -23.4885 -22.8528 -22.8343
   -22.8181 -22.7850 -22.7757 -22.7695 -22.7572 -22.7395 -22.7234 -22.7221
   -22.7157 -22.7062 -22.7041 -22.6962 -22.6911 -22.6686 -22.6636 -22.6455
    12.4757  14.0237  15.0911  15.1845  15.4333  15.5617  15.5977  15.5982
    15.7261  15.7644  15.7991  15.8059  15.8377  16.0723  16.1788  16.5335
    16.6013  16.7569  17.0505  17.1053  17.1212  17.1269  17.2025  17.3364
    17.4504  17.5288  17.5827  17.6121  17.7526  17.7861  17.8859  18.1486
    18.2232  18.3461  18.4315  18.4697  18.5158  18.5551  18.5794  18.5996
    18.7249  18.8372  18.8395  19.1042  19.1436  19.1825  19.2647  19.2832
    19.5470  19.5917  19.6027  19.7032  19.7654  19.9061  20.0288  20.2938
    20.3437  20.3741  20.4140  20.7514  20.7585  20.8253  20.8551  20.9583
    21.0032  21.0181  21.1273  21.1306  21.1906  21.2236  21.2427  21.2898
    21.3576

          k = 0.0000 0.1667-0.5000 (  9608 PWs)   bands (ev):

   -67.8132 -67.8132 -52.2661 -52.2659 -52.2362 -52.2360 -52.2327 -52.2325
   -52.2171 -52.2169 -51.4511 -51.4511 -51.4486 -51.4486 -51.4383 -51.4383
   -33.8736 -33.8736 -33.8726 -33.8726 -33.8713 -33.8713 -23.7994 -23.7994
   -23.7825 -23.7824 -23.7638 -23.7637 -23.7443 -23.7442 -23.6797 -23.6796
   -23.6790 -23.6789 -23.6370 -23.6368 -23.5757 -23.5755 -23.5543 -23.5543
   -23.5462 -23.5462 -23.5060 -23.5060 -23.4946 -23.4945 -22.8055 -22.8055
   -22.7834 -22.7834 -22.7628 -22.7627 -22.7609 -22.7609 -22.7451 -22.7450
   -22.7292 -22.7292 -22.6866 -22.6866 -22.6799 -22.6799 -22.6698 -22.6698
    13.1657  13.1657  15.1864  15.1864  15.6557  15.6557  15.7695  15.7695
    15.8457  15.8458  15.9498  15.9498  16.0755  16.0755  16.1617  16.1617
    16.3016  16.3016  17.0598  17.0598  17.0843  17.0843  17.5333  17.5333
    17.6187  17.6187  17.7793  17.7793  17.8139  17.8139  18.0553  18.0554
    18.1552  18.1552  18.2134  18.2134  18.4730  18.4730  18.5298  18.5298
    18.5920  18.5920  18.6214  18.6214  18.7597  18.7597  19.2987  19.2987
    19.4116  19.4116  19.9018  19.9019  20.0717  20.0717  20.0737  20.0737
    20.3747  20.3748  20.6288  20.6289  20.7785  20.7785  20.8529  20.8529
    20.8934  20.8935  21.1341  21.1341  21.1960  21.1961  21.3694  21.3694
    21.4063

          k = 0.0000 0.3333 0.3333 (  9582 PWs)   bands (ev):

   -67.8132 -67.8131 -52.2702 -52.2513 -52.2470 -52.2357 -52.2339 -52.2248
   -52.2247 -52.2158 -51.4523 -51.4521 -51.4474 -51.4436 -51.4425 -51.4381
   -33.8748 -33.8735 -33.8732 -33.8719 -33.8713 -33.8700 -23.8289 -23.8101
   -23.7837 -23.7674 -23.7583 -23.7551 -23.7431 -23.7107 -23.7061 -23.7011
   -23.6561 -23.6223 -23.6203 -23.6185 -23.5836 -23.5735 -23.5704 -23.5579
   -23.5395 -23.5354 -23.5351 -23.5246 -23.5073 -23.4952 -22.8474 -22.8347
   -22.7929 -22.7906 -22.7831 -22.7774 -22.7708 -22.7579 -22.7334 -22.7326
   -22.7277 -22.7000 -22.6879 -22.6770 -22.6753 -22.6730 -22.6636 -22.6402
    12.8901  14.2143  14.3973  14.9631  15.6845  15.7698  15.8000  15.9254
    15.9339  15.9382  15.9619  16.0165  16.0363  16.1051  16.2689  16.5357
    16.6214  16.6869  16.8798  17.1501  17.1734  17.1925  17.2786  17.2863
    17.3150  17.3778  17.5116  17.5854  17.6454  17.7460  17.8976  17.9651
    18.0699  18.1810  18.2364  18.3203  18.3227  18.3323  18.4490  18.4542
    18.5139  18.6444  18.7046  18.7263  18.9255  18.9676  19.3253  19.3963
    19.4535  19.5603  19.5725  19.7741  19.8018  19.8306  20.1407  20.1449
    20.1628  20.3610  20.5092  20.6993  20.7583  20.7648  20.8251  20.8425
    20.9429  20.9825  20.9987  21.0152  21.0264  21.0672  21.2237  21.2316
    21.3010

          k = 0.0000 0.3333-0.5000 (  9578 PWs)   bands (ev):

   -67.8131 -67.8131 -52.2601 -52.2599 -52.2423 -52.2421 -52.2294 -52.2292
   -52.2204 -52.2202 -51.4497 -51.4497 -51.4477 -51.4477 -51.4406 -51.4406
   -33.8744 -33.8744 -33.8725 -33.8725 -33.8704 -33.8704 -23.7935 -23.7934
   -23.7899 -23.7898 -23.7523 -23.7522 -23.7367 -23.7366 -23.6658 -23.6657
   -23.6503 -23.6503 -23.6255 -23.6254 -23.5843 -23.5842 -23.5708 -23.5708
   -23.5466 -23.5466 -23.5356 -23.5355 -23.5029 -23.5028 -22.8204 -22.8204
   -22.8135 -22.8134 -22.7927 -22.7927 -22.7591 -22.7591 -22.7394 -22.7394
   -22.7016 -22.7015 -22.6892 -22.6892 -22.6642 -22.6642 -22.6518 -22.6518
    13.5251  13.5251  14.6608  14.6608  15.8760  15.8760  15.9988  15.9989
    16.0769  16.0769  16.1387  16.1388  16.2073  16.2073  16.3665  16.3666
    16.3994  16.3995  17.0775  17.0775  17.1890  17.1890  17.2358  17.2358
    17.4406  17.4406  17.4565  17.4565  17.7436  17.7436  17.7918  17.7919
    18.0240  18.0241  18.1745  18.1746  18.2183  18.2183  18.4214  18.4214
    18.5524  18.5525  18.5744  18.5744  18.5810  18.5810  19.4809  19.4810
    19.6837  19.6837  19.7006  19.7007  19.7350  19.7351  19.9521  19.9522
    20.4544  20.4545  20.5764  20.5765  20.6337  20.6337  20.8503  20.8504
    20.8743  20.8744  21.0871  21.0871  21.1252  21.1252  21.1260  21.1260
    21.2283

          k = 0.0000-0.5000-0.5000 (  9580 PWs)   bands (ev):

   -67.8132 -67.8132 -52.2541 -52.2540 -52.2482 -52.2482 -52.2251 -52.2248
   -52.2248 -52.2246 -51.4493 -51.4493 -51.4460 -51.4460 -51.4426 -51.4426
   -33.8747 -33.8747 -33.8725 -33.8725 -33.8700 -33.8700 -23.7934 -23.7933
   -23.7818 -23.7816 -23.7676 -23.7675 -23.7204 -23.7203 -23.6555 -23.6554
   -23.6285 -23.6283 -23.6071 -23.6069 -23.5970 -23.5969 -23.5815 -23.5814
   -23.5768 -23.5766 -23.5329 -23.5328 -23.5082 -23.5081 -22.8259 -22.8259
   -22.8163 -22.8163 -22.8154 -22.8154 -22.7574 -22.7573 -22.7365 -22.7365
   -22.6908 -22.6908 -22.6890 -22.6890 -22.6609 -22.6609 -22.6442 -22.6442
    13.9723  13.9723  14.1546  14.1546  15.9355  15.9355  16.1805  16.1806
    16.2064  16.2065  16.2965  16.2965  16.3140  16.3141  16.4757  16.4757
    16.5442  16.5442  16.9194  16.9194  17.1144  17.1145  17.1867  17.1867
    17.2419  17.2419  17.4540  17.4540  17.6099  17.6099  17.7669  17.7669
    17.8888  17.8889  18.0009  18.0010  18.0356  18.0356  18.3549  18.3549
    18.4936  18.4937  18.5165  18.5166  18.9352  18.9353  19.2869  19.2870
    19.5567  19.5567  19.6500  19.6500  19.8961  19.8962  19.9173  19.9173
    20.3249  20.3249  20.7358  20.7358  20.7609  20.7609  20.7962  20.7962
    20.8087  20.8088  20.9231  20.9232  21.0643  21.0644  21.0676  21.0677
    21.1753

          k = 0.1667 0.1667 0.1667 (  9591 PWs)   bands (ev):

   -67.8132 -67.8131 -52.2831 -52.2444 -52.2444 -52.2425 -52.2260 -52.2260
   -52.2260 -52.2105 -51.4573 -51.4573 -51.4435 -51.4435 -51.4397 -51.4352
   -33.8746 -33.8746 -33.8730 -33.8719 -33.8705 -33.8705 -23.8710 -23.8520
   -23.8520 -23.7714 -23.7714 -23.7706 -23.7161 -23.7154 -23.7154 -23.6726
   -23.6624 -23.6624 -23.5952 -23.5952 -23.5692 -23.5453 -23.5453 -23.5334
   -23.5188 -23.5188 -23.5188 -23.5019 -23.4957 -23.4957 -22.8648 -22.8648
   -22.8587 -22.7979 -22.7979 -22.7862 -22.7338 -22.7338 -22.7298 -22.7062
   -22.7028 -22.7028 -22.6972 -22.6844 -22.6844 -22.6710 -22.6417 -22.6417
    12.1832  14.8650  15.0942  15.0942  15.2303  15.3032  15.3032  15.4978
    15.4978  15.5392  15.5993  15.5993  16.1793  16.1793  16.1912  16.7587
    16.9681  16.9681  17.1077  17.1077  17.1304  17.1304  17.2154  17.2321
    17.3612  17.4592  17.4592  17.4627  17.4757  17.4757  17.9989  17.9989
    18.2379  18.3557  18.5706  18.5706  18.6816  18.6816  18.9082  18.9082
    18.9683  18.9683  18.9997  19.1370  19.1961  19.1961  19.4264  19.4884
    19.6200  19.6873  19.6873  19.7388  19.7388  19.8720  19.8720  20.1602
    20.4901  20.5719  20.5719  20.6679  20.6679  20.7255  20.9158  20.9158
    21.0158  21.0158  21.0574  21.0764  21.1319  21.1319  21.2333  21.2333
    21.3054

          k = 0.1667 0.1667 0.3333 (  9577 PWs)   bands (ev):

   -67.8132 -67.8131 -52.2750 -52.2525 -52.2405 -52.2393 -52.2299 -52.2296
   -52.2227 -52.2138 -51.4544 -51.4535 -51.4464 -51.4440 -51.4410 -51.4369
   -33.8744 -33.8737 -33.8729 -33.8720 -33.8714 -33.8705 -23.8403 -23.8167
   -23.8115 -23.7568 -23.7495 -23.7445 -23.7395 -23.7286 -23.7213 -23.7035
   -23.6654 -23.6289 -23.6150 -23.5959 -23.5956 -23.5811 -23.5576 -23.5394
   -23.5380 -23.5326 -23.5190 -23.5174 -23.5041 -23.5025 -22.8455 -22.8279
   -22.8201 -22.7803 -22.7751 -22.7678 -22.7542 -22.7534 -22.7416 -22.7197
   -22.7188 -22.7100 -22.6979 -22.6851 -22.6849 -22.6708 -22.6630 -22.6471
    12.6180  14.1279  15.1369  15.2560  15.2813  15.3516  15.6115  15.6665
    15.7269  15.8223  15.8308  15.8926  16.1374  16.2145  16.2646  16.5777
    16.5945  16.8047  17.0520  17.0551  17.1245  17.1940  17.2384  17.3173
    17.3349  17.4646  17.5693  17.6436  17.6987  17.7063  17.8246  18.0542
    18.1503  18.2554  18.3569  18.4022  18.4064  18.4707  18.4893  18.5919
    18.6075  18.6774  18.6862  18.9157  19.0467  19.0993  19.2501  19.3579
    19.3628  19.5172  19.5729  19.7927  19.8755  19.8894  20.0219  20.2400
    20.3888  20.4455  20.4536  20.6908  20.8051  20.8434  20.8609  20.9054
    20.9198  20.9753  21.0992  21.1428  21.1456  21.1620  21.2641  21.2861
    21.3298

          k = 0.1667 0.1667-0.5000 (  9588 PWs)   bands (ev):

   -67.8132 -67.8132 -52.2639 -52.2637 -52.2353 -52.2351 -52.2346 -52.2343
   -52.2184 -52.2182 -51.4504 -51.4504 -51.4485 -51.4485 -51.4391 -51.4391
   -33.8739 -33.8738 -33.8725 -33.8725 -33.8710 -33.8710 -23.7956 -23.7956
   -23.7787 -23.7785 -23.7581 -23.7580 -23.7374 -23.7373 -23.6845 -23.6844
   -23.6652 -23.6651 -23.6337 -23.6335 -23.5810 -23.5808 -23.5606 -23.5605
   -23.5455 -23.5454 -23.5115 -23.5114 -23.5107 -23.5106 -22.8090 -22.8090
   -22.7881 -22.7880 -22.7774 -22.7774 -22.7519 -22.7519 -22.7449 -22.7449
   -22.7219 -22.7219 -22.6928 -22.6928 -22.6737 -22.6737 -22.6637 -22.6637
    13.2940  13.2940  15.2663  15.2663  15.3605  15.3606  15.9191  15.9192
    15.9746  15.9747  16.0529  16.0529  16.1631  16.1632  16.2117  16.2117
    16.3471  16.3471  17.0792  17.0792  17.1435  17.1435  17.4462  17.4462
    17.5755  17.5755  17.6609  17.6609  17.7769  17.7770  17.9716  17.9716
    18.0605  18.0606  18.1922  18.1923  18.4080  18.4080  18.4277  18.4277
    18.4600  18.4600  18.5151  18.5151  18.5853  18.5853  19.3904  19.3905
    19.5785  19.5786  19.7776  19.7776  19.8562  19.8562  20.1702  20.1702
    20.4578  20.4578  20.4585  20.4585  20.8547  20.8547  20.8726  20.8727
    20.8843  20.8843  21.0995  21.0996  21.2074  21.2075  21.3192  21.3193
    21.3430

          k = 0.1667 0.3333 0.3333 (  9595 PWs)   bands (ev):

   -67.8132 -67.8132 -52.2679 -52.2495 -52.2457 -52.2362 -52.2344 -52.2265
   -52.2262 -52.2172 -51.4516 -51.4515 -51.4468 -51.4441 -51.4432 -51.4387
   -33.8745 -33.8737 -33.8733 -33.8717 -33.8711 -33.8704 -23.8173 -23.7949
   -23.7795 -23.7610 -23.7491 -23.7419 -23.7409 -23.7170 -23.6991 -23.6963
   -23.6529 -23.6325 -23.6171 -23.6121 -23.5875 -23.5841 -23.5730 -23.5521
   -23.5494 -23.5430 -23.5397 -23.5385 -23.5281 -23.5119 -22.8321 -22.8239
   -22.7931 -22.7841 -22.7823 -22.7785 -22.7760 -22.7607 -22.7283 -22.7247
   -22.7232 -22.7142 -22.6941 -22.6746 -22.6726 -22.6718 -22.6706 -22.6488
    13.0288  14.3286  14.5163  15.0993  15.4445  15.6490  15.7132  15.8479
    15.9610  16.0371  16.0942  16.1281  16.1717  16.3697  16.4293  16.5797
    16.6221  16.7719  16.8594  17.0850  17.1813  17.2008  17.2838  17.2871
    17.3658  17.3680  17.4473  17.5618  17.6249  17.6794  17.8782  17.8841
    17.8989  18.0843  18.1382  18.1475  18.2417  18.2752  18.2905  18.3160
    18.4330  18.4580  18.4983  18.5583  18.6925  18.7807  18.9751  19.4641
    19.5445  19.6079  19.6346  19.7327  19.8311  19.9201  20.0574  20.2929
    20.3471  20.5461  20.6290  20.7066  20.7181  20.8381  20.8639  20.8785
    20.9829  21.0135  21.0193  21.0422  21.0656  21.1159  21.1792  21.2488
    21.2646

          k = 0.1667 0.3333-0.5000 (  9622 PWs)   bands (ev):

   -67.8132 -67.8132 -52.2581 -52.2579 -52.2409 -52.2407 -52.2314 -52.2312
   -52.2219 -52.2217 -51.4491 -51.4491 -51.4476 -51.4476 -51.4411 -51.4411
   -33.8743 -33.8742 -33.8725 -33.8725 -33.8706 -33.8706 -23.7840 -23.7840
   -23.7760 -23.7759 -23.7452 -23.7451 -23.7288 -23.7288 -23.6705 -23.6704
   -23.6441 -23.6440 -23.6249 -23.6247 -23.5933 -23.5931 -23.5759 -23.5758
   -23.5530 -23.5530 -23.5458 -23.5458 -23.5221 -23.5220 -22.8113 -22.8113
   -22.8060 -22.8059 -22.7869 -22.7869 -22.7546 -22.7546 -22.7400 -22.7400
   -22.7053 -22.7053 -22.6952 -22.6952 -22.6689 -22.6689 -22.6566 -22.6566
    13.6559  13.6559  14.7924  14.7924  15.6487  15.6487  16.0250  16.0250
    16.1911  16.1911  16.2608  16.2608  16.2819  16.2819  16.4341  16.4342
    16.4863  16.4863  17.0854  17.0854  17.1891  17.1891  17.2544  17.2544
    17.4269  17.4269  17.4744  17.4744  17.6530  17.6530  17.7089  17.7089
    17.8798  17.8798  18.0565  18.0565  18.1664  18.1665  18.2607  18.2607
    18.3346  18.3346  18.3723  18.3723  18.4464  18.4465  19.3033  19.3033
    19.5571  19.5572  19.6844  19.6845  19.8760  19.8761  20.2088  20.2088
    20.5584  20.5584  20.6423  20.6424  20.7827  20.7827  20.8844  20.8845
    20.9082  20.9082  21.0685  21.0686  21.1356  21.1356  21.2224  21.2224
    21.2554

          k = 0.1667-0.5000-0.5000 (  9588 PWs)   bands (ev):

   -67.8132 -67.8132 -52.2522 -52.2521 -52.2468 -52.2467 -52.2269 -52.2267
   -52.2263 -52.2263 -51.4488 -51.4488 -51.4460 -51.4460 -51.4430 -51.4430
   -33.8744 -33.8744 -33.8725 -33.8725 -33.8703 -33.8703 -23.7768 -23.7766
   -23.7687 -23.7685 -23.7569 -23.7568 -23.7121 -23.7119 -23.6592 -23.6591
   -23.6229 -23.6227 -23.6083 -23.6081 -23.6038 -23.6036 -23.5921 -23.5920
   -23.5884 -23.5883 -23.5447 -23.5446 -23.5294 -23.5293 -22.8145 -22.8145
   -22.8028 -22.8028 -22.8021 -22.8021 -22.7542 -22.7542 -22.7370 -22.7370
   -22.6962 -22.6962 -22.6953 -22.6953 -22.6691 -22.6690 -22.6539 -22.6539
    14.1038  14.1039  14.2907  14.2907  15.9648  15.9649  16.0842  16.0842
    16.1071  16.1071  16.3280  16.3281  16.5572  16.5572  16.5575  16.5576
    16.6425  16.6425  16.9415  16.9416  17.1077  17.1078  17.1777  17.1777
    17.2605  17.2605  17.4839  17.4839  17.4994  17.4994  17.6919  17.6920
    17.7419  17.7420  17.8745  17.8745  17.9887  17.9888  18.2060  18.2061
    18.2984  18.2984  18.3194  18.3194  18.6861  18.6861  18.8715  18.8715
    19.6296  19.6297  19.6841  19.6842  19.9875  19.9875  20.2091  20.2091
    20.6394  20.6394  20.7849  20.7849  20.8631  20.8632  20.9248  20.9248
    20.9692  20.9692  20.9793  20.9793  21.0230  21.0231  21.0791  21.0791
    21.1875

          k = 0.3333 0.3333 0.3333 (  9594 PWs)   bands (ev):

   -67.8132 -67.8131 -52.2614 -52.2447 -52.2447 -52.2399 -52.2314 -52.2314
   -52.2296 -52.2208 -51.4498 -51.4498 -51.4457 -51.4450 -51.4450 -51.4404
   -33.8737 -33.8736 -33.8736 -33.8713 -33.8713 -33.8710 -23.7877 -23.7601
   -23.7601 -23.7437 -23.7437 -23.7419 -23.7140 -23.6993 -23.6993 -23.6707
   -23.6707 -23.6406 -23.6027 -23.6027 -23.5974 -23.5974 -23.5880 -23.5829
   -23.5618 -23.5618 -23.5594 -23.5594 -23.5524 -23.5473 -22.8023 -22.7943
   -22.7943 -22.7862 -22.7820 -22.7820 -22.7609 -22.7609 -22.7285 -22.7237
   -22.7194 -22.7087 -22.7087 -22.6937 -22.6727 -22.6727 -22.6699 -22.6699
    13.4267  14.5764  14.8371  14.8371  15.3987  15.5536  15.5536  16.0905
    16.0905  16.3317  16.3505  16.3505  16.4278  16.4278  16.6312  16.6460
    16.8025  16.8025  16.8237  16.8851  17.1702  17.1702  17.2745  17.2745
    17.3876  17.3876  17.4952  17.5018  17.5018  17.5171  17.7830  17.8276
    17.8276  17.8368  17.8368  17.8486  17.9617  18.0285  18.0873  18.0873
    18.1972  18.1972  18.2200  18.2200  18.3762  18.3762  18.4975  19.2450
    19.6130  19.6130  19.7034  19.7034  19.9268  20.1979  20.1979  20.5252
    20.6207  20.6207  20.6740  20.8124  20.9489  20.9489  20.9641  20.9641
    21.0004  21.0171  21.0674  21.0674  21.0820  21.0820  21.2709  21.3293
    21.3293

          k = 0.3333 0.3333-0.5000 (  9598 PWs)   bands (ev):

   -67.8132 -67.8132 -52.2527 -52.2525 -52.2381 -52.2380 -52.2357 -52.2355
   -52.2258 -52.2256 -51.4477 -51.4477 -51.4474 -51.4474 -51.4427 -51.4427
   -33.8738 -33.8738 -33.8724 -33.8724 -33.8710 -33.8709 -23.7585 -23.7585
   -23.7449 -23.7447 -23.7200 -23.7199 -23.7195 -23.7195 -23.6661 -23.6660
   -23.6456 -23.6454 -23.6176 -23.6174 -23.6165 -23.6163 -23.5862 -23.5861
   -23.5770 -23.5769 -23.5710 -23.5708 -23.5564 -23.5562 -22.7945 -22.7945
   -22.7867 -22.7867 -22.7739 -22.7739 -22.7434 -22.7434 -22.7411 -22.7411
   -22.7139 -22.7139 -22.7053 -22.7053 -22.6810 -22.6810 -22.6703 -22.6703
    14.0243  14.0244  15.0978  15.0979  15.2408  15.2408  16.0914  16.0914
    16.2748  16.2748  16.3762  16.3763  16.6017  16.6018  16.6070  16.6070
    16.7077  16.7077  17.0333  17.0334  17.2220  17.2221  17.2980  17.2981
    17.3287  17.3288  17.4353  17.4353  17.4683  17.4683  17.5371  17.5372
    17.7410  17.7411  17.8564  17.8564  17.9483  17.9483  18.0012  18.0012
    18.0228  18.0228  18.0570  18.0570  18.1286  18.1287  18.7103  18.7103
    19.6827  19.6828  19.7211  19.7212  20.1172  20.1172  20.4622  20.4623
    20.7829  20.7829  20.8436  20.8437  20.9213  20.9213  20.9748  20.9749
    20.9890  20.9891  21.0967  21.0968  21.1046  21.1047  21.2060  21.2060
    21.2582

          k = 0.3333-0.5000-0.5000 (  9632 PWs)   bands (ev):

   -67.8132 -67.8132 -52.2468 -52.2468 -52.2430 -52.2429 -52.2322 -52.2321
   -52.2302 -52.2301 -51.4476 -51.4476 -51.4459 -51.4459 -51.4442 -51.4442
   -33.8736 -33.8735 -33.8725 -33.8725 -33.8713 -33.8712 -23.7322 -23.7321
   -23.7312 -23.7311 -23.7261 -23.7260 -23.6897 -23.6896 -23.6653 -23.6653
   -23.6352 -23.6350 -23.6319 -23.6318 -23.6204 -23.6202 -23.6075 -23.6074
   -23.6057 -23.6057 -23.5766 -23.5765 -23.5658 -23.5657 -22.7871 -22.7871
   -22.7717 -22.7716 -22.7664 -22.7664 -22.7460 -22.7460 -22.7383 -22.7383
   -22.7126 -22.7126 -22.7088 -22.7088 -22.6917 -22.6916 -22.6811 -22.6811
    14.4718  14.4718  14.6741  14.6742  15.6316  15.6316  15.7464  15.7464
    16.3496  16.3497  16.5852  16.5852  16.6666  16.6667  16.8598  16.8598
    16.9599  16.9600  17.0218  17.0218  17.0812  17.0813  17.1547  17.1547
    17.2936  17.2936  17.2997  17.2997  17.4913  17.4914  17.5273  17.5274
    17.5746  17.5746  17.7481  17.7481  17.8278  17.8278  17.8675  17.8676
    17.9375  17.9376  17.9487  17.9487  18.1646  18.1647  18.2496  18.2496
    19.7375  19.7376  19.7535  19.7536  20.2568  20.2569  20.4990  20.4990
    20.8562  20.8562  20.8956  20.8956  21.0192  21.0193  21.0558  21.0558
    21.1143  21.1143  21.1296  21.1296  21.1488  21.1489  21.1781  21.1781
    21.3613

          k =-0.5000-0.5000-0.5000 (  9568 PWs)   bands (ev):

   -67.8132 -67.8132 -52.2398 -52.2395 -52.2395 -52.2394 -52.2394 -52.2394
   -52.2336 -52.2336 -51.4459 -51.4459 -51.4459 -51.4459 -51.4459 -51.4459
   -33.8723 -33.8723 -33.8723 -33.8723 -33.8723 -33.8723 -23.6812 -23.6812
   -23.6812 -23.6812 -23.6805 -23.6805 -23.6805 -23.6805 -23.6805 -23.6803
   -23.6590 -23.6590 -23.6589 -23.6589 -23.6589 -23.6589 -23.6560 -23.6560
   -23.5869 -23.5867 -23.5867 -23.5867 -23.5865 -23.5865 -22.7654 -22.7654
   -22.7413 -22.7413 -22.7413 -22.7413 -22.7413 -22.7413 -22.7268 -22.7268
   -22.7268 -22.7268 -22.7165 -22.7165 -22.7165 -22.7165 -22.7165 -22.7165
    14.8734  14.8734  15.2181  15.2181  15.2181  15.2182  15.2182  15.2182
    16.6004  16.6004  16.6004  16.6004  16.9982  16.9982  16.9982  16.9982
    16.9983  16.9983  17.1411  17.1411  17.1411  17.1411  17.1411  17.1412
    17.2754  17.2754  17.2754  17.2754  17.2754  17.2754  17.6977  17.6977
    17.7018  17.7018  17.7018  17.7018  17.7263  17.7263  17.7263  17.7263
    17.7264  17.7264  17.7281  17.7281  17.7281  17.7281  17.7282  17.7282
    19.7887  19.7887  19.7887  19.7887  20.5679  20.5679  20.5679  20.5680
    20.5680  20.5681  21.0747  21.0747  21.0747  21.0748  21.0748  21.0748
    21.1892  21.1892  21.1892  21.1892  21.1892  21.1892  21.4036  21.4036
    21.4036

          k = 0.0000 0.1667-0.1667 (  9601 PWs)   bands (ev):

   -67.8133 -67.8131 -52.2861 -52.2459 -52.2444 -52.2406 -52.2272 -52.2247
   -52.2246 -52.2093 -51.4587 -51.4584 -51.4440 -51.4424 -51.4385 -51.4346
   -33.8749 -33.8744 -33.8737 -33.8713 -33.8708 -33.8702 -23.8808 -23.8684
   -23.8664 -23.7863 -23.7799 -23.7765 -23.7157 -23.7028 -23.7027 -23.6758
   -23.6747 -23.6475 -23.6004 -23.5819 -23.5793 -23.5436 -23.5359 -23.5285
   -23.5121 -23.5067 -23.5034 -23.4991 -23.4932 -23.4840 -22.8835 -22.8733
   -22.8669 -22.8060 -22.8038 -22.8033 -22.7238 -22.7228 -22.7187 -22.7140
   -22.7097 -22.7093 -22.6849 -22.6809 -22.6737 -22.6649 -22.6456 -22.6340
    12.0336  14.8483  15.0194  15.1467  15.2506  15.2803  15.3956  15.4523
    15.4542  15.4951  15.5037  15.7531  15.7735  16.1058  16.1470  16.8705
    16.9562  17.0405  17.0496  17.0970  17.1168  17.1577  17.1782  17.2994
    17.3409  17.3720  17.4700  17.5617  17.5875  17.6086  17.6495  18.1532
    18.3647  18.4587  18.6038  18.6731  18.7458  18.7539  18.8985  18.9288
    18.9870  19.0003  19.0421  19.2443  19.2997  19.4142  19.4668  19.5125
    19.6592  19.6657  19.7515  19.8623  19.9668  20.0678  20.1016  20.1695
    20.2636  20.5329  20.5866  20.6194  20.6922  20.7365  20.8767  20.9009
    20.9775  21.0848  21.0939  21.1247  21.1441  21.1779  21.1780  21.2975
    21.3273

          k = 0.0000 0.3333-0.1667 (  9577 PWs)   bands (ev):

   -67.8132 -67.8131 -52.2776 -52.2541 -52.2412 -52.2373 -52.2310 -52.2280
   -52.2214 -52.2125 -51.4555 -51.4542 -51.4468 -51.4435 -51.4400 -51.4362
   -33.8745 -33.8736 -33.8725 -33.8724 -33.8715 -33.8704 -23.8483 -23.8272
   -23.8230 -23.7691 -23.7487 -23.7403 -23.7400 -23.7393 -23.7168 -23.7089
   -23.6693 -23.6205 -23.6172 -23.6035 -23.5940 -23.5707 -23.5664 -23.5396
   -23.5293 -23.5256 -23.5108 -23.5003 -23.5002 -23.4885 -22.8528 -22.8343
   -22.8181 -22.7850 -22.7757 -22.7695 -22.7572 -22.7395 -22.7234 -22.7221
   -22.7157 -22.7062 -22.7040 -22.6962 -22.6911 -22.6686 -22.6636 -22.6455
    12.4757  14.0237  15.0911  15.1845  15.4333  15.5617  15.5977  15.5982
    15.7262  15.7644  15.7991  15.8059  15.8377  16.0723  16.1788  16.5335
    16.6013  16.7569  17.0505  17.1053  17.1212  17.1269  17.2025  17.3364
    17.4504  17.5288  17.5827  17.6121  17.7526  17.7861  17.8858  18.1487
    18.2232  18.3461  18.4315  18.4697  18.5158  18.5552  18.5794  18.5996
    18.7249  18.8372  18.8395  19.1042  19.1437  19.1825  19.2647  19.2832
    19.5470  19.5917  19.6027  19.7032  19.7654  19.9061  20.0288  20.2938
    20.3437  20.3741  20.4139  20.7514  20.7585  20.8253  20.8551  20.9583
    21.0032  21.0181  21.1273  21.1306  21.1906  21.2236  21.2427  21.2898
    21.3576

          k = 0.0000 0.3333-0.3333 (  9582 PWs)   bands (ev):

   -67.8132 -67.8131 -52.2702 -52.2514 -52.2469 -52.2357 -52.2339 -52.2248
   -52.2247 -52.2158 -51.4523 -51.4521 -51.4474 -51.4436 -51.4425 -51.4381
   -33.8748 -33.8735 -33.8732 -33.8719 -33.8713 -33.8700 -23.8289 -23.8100
   -23.7837 -23.7675 -23.7583 -23.7549 -23.7432 -23.7108 -23.7062 -23.7011
   -23.6561 -23.6225 -23.6202 -23.6185 -23.5835 -23.5736 -23.5704 -23.5578
   -23.5395 -23.5354 -23.5351 -23.5248 -23.5072 -23.4952 -22.8474 -22.8347
   -22.7929 -22.7906 -22.7830 -22.7774 -22.7708 -22.7579 -22.7334 -22.7326
   -22.7277 -22.7000 -22.6879 -22.6769 -22.6753 -22.6730 -22.6636 -22.6402
    12.8901  14.2143  14.3973  14.9631  15.6844  15.7699  15.8000  15.9254
    15.9340  15.9382  15.9619  16.0165  16.0362  16.1051  16.2689  16.5357
    16.6214  16.6869  16.8798  17.1501  17.1735  17.1925  17.2787  17.2863
    17.3150  17.3777  17.5115  17.5854  17.6453  17.7459  17.8976  17.9651
    18.0699  18.1810  18.2364  18.3203  18.3227  18.3323  18.4490  18.4541
    18.5139  18.6444  18.7047  18.7263  18.9255  18.9677  19.3253  19.3963
    19.4534  19.5603  19.5726  19.7740  19.8019  19.8306  20.1407  20.1449
    20.1627  20.3610  20.5092  20.6992  20.7583  20.7649  20.8251  20.8425
    20.9429  20.9825  20.9986  21.0153  21.0264  21.0672  21.2237  21.2315
    21.3009

          k =-0.1667 0.1667 0.1667 (  9591 PWs)   bands (ev):

   -67.8132 -67.8131 -52.2831 -52.2445 -52.2444 -52.2424 -52.2261 -52.2260
   -52.2259 -52.2105 -51.4573 -51.4573 -51.4435 -51.4435 -51.4397 -51.4352
   -33.8746 -33.8745 -33.8731 -33.8719 -33.8705 -33.8705 -23.8711 -23.8519
   -23.8519 -23.7714 -23.7714 -23.7705 -23.7162 -23.7155 -23.7154 -23.6725
   -23.6624 -23.6624 -23.5953 -23.5952 -23.5691 -23.5453 -23.5453 -23.5333
   -23.5189 -23.5189 -23.5187 -23.5019 -23.4957 -23.4957 -22.8648 -22.8648
   -22.8588 -22.7979 -22.7979 -22.7862 -22.7338 -22.7337 -22.7298 -22.7062
   -22.7028 -22.7028 -22.6972 -22.6844 -22.6843 -22.6710 -22.6417 -22.6417
    12.1832  14.8650  15.0942  15.0942  15.2303  15.3032  15.3032  15.4978
    15.4978  15.5392  15.5993  15.5993  16.1793  16.1793  16.1912  16.7587
    16.9681  16.9681  17.1077  17.1077  17.1304  17.1304  17.2154  17.2321
    17.3612  17.4592  17.4592  17.4627  17.4757  17.4757  17.9989  17.9989
    18.2378  18.3557  18.5707  18.5707  18.6815  18.6816  18.9082  18.9083
    18.9683  18.9683  18.9997  19.1370  19.1962  19.1963  19.4263  19.4884
    19.6200  19.6872  19.6872  19.7388  19.7388  19.8719  19.8720  20.1602
    20.4900  20.5719  20.5719  20.6679  20.6680  20.7255  20.9158  20.9158
    21.0158  21.0158  21.0574  21.0764  21.1319  21.1319  21.2333  21.2333
    21.3053

          k =-0.1667 0.3333 0.1667 (  9577 PWs)   bands (ev):

   -67.8132 -67.8131 -52.2750 -52.2525 -52.2406 -52.2392 -52.2300 -52.2295
   -52.2227 -52.2138 -51.4544 -51.4535 -51.4464 -51.4440 -51.4410 -51.4369
   -33.8744 -33.8736 -33.8729 -33.8720 -33.8713 -33.8705 -23.8403 -23.8166
   -23.8114 -23.7568 -23.7496 -23.7445 -23.7394 -23.7287 -23.7213 -23.7036
   -23.6654 -23.6290 -23.6151 -23.5959 -23.5954 -23.5811 -23.5575 -23.5394
   -23.5381 -23.5326 -23.5190 -23.5174 -23.5041 -23.5025 -22.8455 -22.8280
   -22.8201 -22.7803 -22.7751 -22.7678 -22.7542 -22.7534 -22.7415 -22.7197
   -22.7188 -22.7100 -22.6979 -22.6851 -22.6849 -22.6708 -22.6630 -22.6471
    12.6180  14.1279  15.1369  15.2560  15.2813  15.3516  15.6115  15.6665
    15.7268  15.8223  15.8309  15.8926  16.1375  16.2145  16.2645  16.5777
    16.5945  16.8047  17.0520  17.0552  17.1245  17.1939  17.2384  17.3173
    17.3349  17.4646  17.5693  17.6435  17.6987  17.7063  17.8245  18.0541
    18.1504  18.2554  18.3568  18.4022  18.4063  18.4707  18.4893  18.5919
    18.6075  18.6775  18.6862  18.9157  19.0467  19.0993  19.2501  19.3579
    19.3628  19.5173  19.5729  19.7926  19.8755  19.8894  20.0218  20.2399
    20.3888  20.4455  20.4536  20.6908  20.8051  20.8433  20.8609  20.9054
    20.9198  20.9753  21.0992  21.1429  21.1456  21.1620  21.2641  21.2861
    21.3299

          k = 0.1667-0.3333 0.1667 (  9577 PWs)   bands (ev):

   -67.8132 -67.8131 -52.2750 -52.2525 -52.2405 -52.2393 -52.2299 -52.2296
   -52.2227 -52.2138 -51.4544 -51.4535 -51.4464 -51.4440 -51.4410 -51.4369
   -33.8744 -33.8737 -33.8729 -33.8720 -33.8714 -33.8704 -23.8403 -23.8166
   -23.8113 -23.7568 -23.7495 -23.7446 -23.7395 -23.7287 -23.7213 -23.7036
   -23.6654 -23.6290 -23.6152 -23.5958 -23.5954 -23.5811 -23.5575 -23.5394
   -23.5381 -23.5326 -23.5190 -23.5174 -23.5042 -23.5025 -22.8455 -22.8280
   -22.8201 -22.7803 -22.7751 -22.7678 -22.7542 -22.7534 -22.7415 -22.7197
   -22.7188 -22.7100 -22.6979 -22.6851 -22.6849 -22.6708 -22.6630 -22.6471
    12.6180  14.1279  15.1369  15.2560  15.2813  15.3516  15.6115  15.6665
    15.7268  15.8223  15.8309  15.8926  16.1375  16.2145  16.2646  16.5777
    16.5945  16.8047  17.0520  17.0551  17.1245  17.1940  17.2384  17.3173
    17.3349  17.4646  17.5692  17.6435  17.6987  17.7064  17.8245  18.0541
    18.1504  18.2554  18.3568  18.4022  18.4064  18.4708  18.4893  18.5919
    18.6075  18.6775  18.6862  18.9157  19.0467  19.0993  19.2502  19.3579
    19.3628  19.5173  19.5729  19.7927  19.8755  19.8894  20.0218  20.2399
    20.3888  20.4454  20.4536  20.6909  20.8052  20.8433  20.8609  20.9054
    20.9198  20.9753  21.0992  21.1429  21.1456  21.1620  21.2641  21.2861
    21.3299

          k =-0.1667-0.5000 0.1667 (  9588 PWs)   bands (ev):

   -67.8132 -67.8132 -52.2639 -52.2637 -52.2354 -52.2352 -52.2345 -52.2343
   -52.2184 -52.2182 -51.4504 -51.4504 -51.4485 -51.4485 -51.4391 -51.4391
   -33.8739 -33.8739 -33.8725 -33.8725 -33.8710 -33.8710 -23.7956 -23.7956
   -23.7786 -23.7786 -23.7581 -23.7580 -23.7374 -23.7374 -23.6844 -23.6843
   -23.6653 -23.6652 -23.6336 -23.6335 -23.5810 -23.5808 -23.5607 -23.5606
   -23.5454 -23.5454 -23.5115 -23.5114 -23.5106 -23.5106 -22.8090 -22.8090
   -22.7881 -22.7881 -22.7774 -22.7774 -22.7519 -22.7519 -22.7449 -22.7449
   -22.7219 -22.7219 -22.6928 -22.6928 -22.6737 -22.6737 -22.6637 -22.6637
    13.2940  13.2940  15.2663  15.2663  15.3605  15.3606  15.9191  15.9192
    15.9746  15.9747  16.0529  16.0529  16.1631  16.1632  16.2117  16.2117
    16.3471  16.3471  17.0792  17.0792  17.1435  17.1435  17.4462  17.4462
    17.5755  17.5756  17.6608  17.6609  17.7769  17.7769  17.9715  17.9716
    18.0606  18.0606  18.1923  18.1923  18.4080  18.4080  18.4277  18.4277
    18.4600  18.4600  18.5151  18.5151  18.5853  18.5853  19.3904  19.3904
    19.5786  19.5786  19.7776  19.7776  19.8562  19.8562  20.1702  20.1702
    20.4578  20.4578  20.4585  20.4585  20.8547  20.8547  20.8726  20.8727
    20.8843  20.8843  21.0996  21.0996  21.2074  21.2075  21.3193  21.3194
    21.3430

          k =-0.1667 0.3333 0.3333 (  9595 PWs)   bands (ev):

   -67.8132 -67.8132 -52.2679 -52.2495 -52.2457 -52.2362 -52.2344 -52.2265
   -52.2262 -52.2172 -51.4516 -51.4515 -51.4468 -51.4441 -51.4432 -51.4387
   -33.8745 -33.8737 -33.8733 -33.8717 -33.8712 -33.8704 -23.8174 -23.7949
   -23.7794 -23.7610 -23.7492 -23.7419 -23.7410 -23.7169 -23.6992 -23.6964
   -23.6529 -23.6325 -23.6171 -23.6119 -23.5874 -23.5842 -23.5730 -23.5520
   -23.5494 -23.5430 -23.5398 -23.5385 -23.5281 -23.5119 -22.8321 -22.8239
   -22.7931 -22.7841 -22.7823 -22.7785 -22.7760 -22.7607 -22.7283 -22.7247
   -22.7232 -22.7142 -22.6941 -22.6746 -22.6726 -22.6718 -22.6706 -22.6488
    13.0288  14.3286  14.5163  15.0993  15.4445  15.6490  15.7133  15.8479
    15.9609  16.0371  16.0942  16.1282  16.1717  16.3697  16.4293  16.5797
    16.6221  16.7719  16.8594  17.0850  17.1813  17.2008  17.2838  17.2871
    17.3658  17.3680  17.4472  17.5618  17.6250  17.6794  17.8783  17.8841
    17.8989  18.0843  18.1381  18.1475  18.2418  18.2751  18.2905  18.3160
    18.4331  18.4580  18.4983  18.5583  18.6925  18.7807  18.9751  19.4642
    19.5446  19.6079  19.6346  19.7327  19.8310  19.9200  20.0574  20.2928
    20.3471  20.5461  20.6290  20.7066  20.7181  20.8381  20.8639  20.8785
    20.9829  21.0135  21.0193  21.0423  21.0656  21.1160  21.1793  21.2487
    21.2645

          k = 0.1667 0.3333-0.3333 (  9595 PWs)   bands (ev):

   -67.8132 -67.8132 -52.2679 -52.2496 -52.2456 -52.2362 -52.2345 -52.2266
   -52.2261 -52.2172 -51.4516 -51.4515 -51.4468 -51.4441 -51.4432 -51.4387
   -33.8744 -33.8737 -33.8733 -33.8717 -33.8712 -33.8704 -23.8174 -23.7948
   -23.7794 -23.7611 -23.7490 -23.7420 -23.7409 -23.7169 -23.6992 -23.6964
   -23.6528 -23.6325 -23.6172 -23.6119 -23.5874 -23.5841 -23.5730 -23.5520
   -23.5494 -23.5430 -23.5397 -23.5386 -23.5279 -23.5120 -22.8321 -22.8239
   -22.7931 -22.7841 -22.7823 -22.7785 -22.7760 -22.7607 -22.7283 -22.7247
   -22.7232 -22.7142 -22.6941 -22.6746 -22.6726 -22.6718 -22.6706 -22.6488
    13.0288  14.3286  14.5163  15.0993  15.4445  15.6490  15.7133  15.8478
    15.9610  16.0371  16.0942  16.1282  16.1717  16.3696  16.4293  16.5797
    16.6221  16.7719  16.8593  17.0851  17.1813  17.2008  17.2838  17.2871
    17.3658  17.3680  17.4472  17.5618  17.6249  17.6794  17.8783  17.8841
    17.8990  18.0843  18.1381  18.1475  18.2418  18.2752  18.2905  18.3159
    18.4331  18.4580  18.4983  18.5583  18.6925  18.7808  18.9750  19.4642
    19.5446  19.6079  19.6346  19.7326  19.8310  19.9201  20.0574  20.2928
    20.3471  20.5461  20.6290  20.7066  20.7181  20.8381  20.8639  20.8785
    20.9829  21.0135  21.0193  21.0423  21.0656  21.1160  21.1792  21.2487
    21.2645

          k =-0.1667-0.5000 0.3333 (  9622 PWs)   bands (ev):

   -67.8132 -67.8132 -52.2581 -52.2579 -52.2409 -52.2407 -52.2314 -52.2312
   -52.2219 -52.2217 -51.4491 -51.4491 -51.4476 -51.4476 -51.4411 -51.4411
   -33.8743 -33.8742 -33.8725 -33.8725 -33.8706 -33.8706 -23.7840 -23.7840
   -23.7760 -23.7759 -23.7451 -23.7451 -23.7289 -23.7288 -23.6705 -23.6704
   -23.6441 -23.6440 -23.6248 -23.6247 -23.5933 -23.5931 -23.5759 -23.5759
   -23.5530 -23.5530 -23.5458 -23.5457 -23.5221 -23.5220 -22.8113 -22.8113
   -22.8060 -22.8060 -22.7869 -22.7869 -22.7546 -22.7546 -22.7400 -22.7400
   -22.7053 -22.7053 -22.6952 -22.6952 -22.6689 -22.6689 -22.6566 -22.6566
    13.6559  13.6559  14.7924  14.7924  15.6487  15.6487  16.0250  16.0250
    16.1911  16.1911  16.2608  16.2608  16.2819  16.2819  16.4341  16.4342
    16.4863  16.4864  17.0854  17.0854  17.1891  17.1891  17.2544  17.2544
    17.4268  17.4269  17.4744  17.4744  17.6530  17.6530  17.7089  17.7089
    17.8798  17.8798  18.0565  18.0565  18.1664  18.1664  18.2607  18.2607
    18.3346  18.3346  18.3723  18.3723  18.4464  18.4465  19.3033  19.3033
    19.5571  19.5572  19.6845  19.6845  19.8760  19.8760  20.2088  20.2088
    20.5584  20.5584  20.6423  20.6424  20.7827  20.7827  20.8844  20.8844
    20.9082  20.9082  21.0686  21.0686  21.1356  21.1356  21.2224  21.2224
    21.2553

          k =-0.3333 0.3333 0.3333 (  9594 PWs)   bands (ev):

   -67.8132 -67.8131 -52.2614 -52.2448 -52.2447 -52.2398 -52.2315 -52.2314
   -52.2295 -52.2208 -51.4498 -51.4498 -51.4457 -51.4450 -51.4450 -51.4404
   -33.8738 -33.8736 -33.8736 -33.8713 -33.8712 -33.8710 -23.7878 -23.7600
   -23.7600 -23.7438 -23.7436 -23.7420 -23.7139 -23.6994 -23.6993 -23.6707
   -23.6706 -23.6406 -23.6028 -23.6027 -23.5973 -23.5973 -23.5877 -23.5830
   -23.5619 -23.5618 -23.5596 -23.5595 -23.5523 -23.5473 -22.8023 -22.7943
   -22.7943 -22.7862 -22.7820 -22.7819 -22.7609 -22.7609 -22.7285 -22.7237
   -22.7194 -22.7087 -22.7086 -22.6937 -22.6727 -22.6727 -22.6699 -22.6699
    13.4266  14.5764  14.8370  14.8371  15.3987  15.5536  15.5536  16.0904
    16.0905  16.3316  16.3506  16.3506  16.4278  16.4278  16.6312  16.6460
    16.8025  16.8025  16.8237  16.8851  17.1702  17.1702  17.2745  17.2745
    17.3876  17.3877  17.4952  17.5019  17.5019  17.5170  17.7830  17.8276
    17.8276  17.8368  17.8368  17.8487  17.9616  18.0284  18.0873  18.0873
    18.1972  18.1972  18.2200  18.2200  18.3763  18.3763  18.4975  19.2449
    19.6131  19.6131  19.7033  19.7033  19.9268  20.1979  20.1979  20.5252
    20.6206  20.6207  20.6740  20.8124  20.9488  20.9488  20.9641  20.9641
    21.0004  21.0170  21.0674  21.0674  21.0821  21.0821  21.2709  21.3293
    21.3293

          k =-0.3333-0.5000 0.3333 (  9598 PWs)   bands (ev):

   -67.8132 -67.8132 -52.2527 -52.2525 -52.2382 -52.2380 -52.2356 -52.2354
   -52.2258 -52.2256 -51.4477 -51.4477 -51.4474 -51.4474 -51.4427 -51.4427
   -33.8738 -33.8738 -33.8724 -33.8724 -33.8710 -33.8710 -23.7585 -23.7585
   -23.7447 -23.7447 -23.7200 -23.7199 -23.7196 -23.7196 -23.6661 -23.6659
   -23.6455 -23.6455 -23.6176 -23.6175 -23.6164 -23.6163 -23.5862 -23.5862
   -23.5771 -23.5770 -23.5709 -23.5709 -23.5563 -23.5563 -22.7945 -22.7945
   -22.7867 -22.7867 -22.7739 -22.7738 -22.7434 -22.7434 -22.7411 -22.7411
   -22.7139 -22.7139 -22.7053 -22.7053 -22.6810 -22.6810 -22.6703 -22.6703
    14.0243  14.0243  15.0979  15.0979  15.2407  15.2408  16.0914  16.0914
    16.2748  16.2748  16.3762  16.3763  16.6018  16.6018  16.6070  16.6070
    16.7077  16.7077  17.0334  17.0334  17.2221  17.2221  17.2980  17.2980
    17.3287  17.3287  17.4353  17.4353  17.4683  17.4683  17.5372  17.5372
    17.7410  17.7410  17.8565  17.8565  17.9483  17.9483  18.0012  18.0012
    18.0228  18.0228  18.0570  18.0570  18.1286  18.1286  18.7103  18.7103
    19.6827  19.6828  19.7212  19.7212  20.1171  20.1172  20.4623  20.4623
    20.7829  20.7829  20.8436  20.8437  20.9213  20.9213  20.9749  20.9749
    20.9890  20.9891  21.0967  21.0968  21.1046  21.1047  21.2060  21.2060
    21.2581

 ------ SPIN DOWN ----------


          k = 0.0000 0.0000 0.0000 (  9627 PWs)   bands (ev):

   -66.5469 -66.5465 -52.2506 -52.2075 -52.2075 -52.1889 -52.1889 -52.1803
   -51.4663 -51.4663 -51.4660 -51.4473 -51.4473 -51.4472 -51.4468 -51.4291
   -32.6433 -32.6433 -32.6433 -32.6384 -32.6384 -32.6383 -23.8629 -23.8629
   -23.8629 -23.7694 -23.7694 -23.7694 -23.6273 -23.6273 -23.6273 -23.5969
   -23.5969 -23.5969 -23.5042 -23.5042 -23.5042 -23.4458 -23.4458 -23.4458
   -22.9379 -22.9323 -22.9323 -22.8980 -22.8980 -22.8980 -22.7864 -22.7864
   -22.7862 -22.7359 -22.7359 -22.7357 -22.7340 -22.7339 -22.7339 -22.7183
   -22.7151 -22.7151 -22.6546 -22.6545 -22.6545 -22.6244 -22.6243 -22.6243
    11.7615  15.1457  15.3191  15.3191  15.3191  15.3499  15.3499  15.4514
    15.6093  15.6093  15.8220  15.8220  15.8318  15.8318  15.8318  17.2885
    17.2885  17.2885  17.3096  17.3096  17.3096  17.3609  17.3609  17.3610
    17.6424  17.6424  17.6424  17.7592  17.9301  17.9301  18.2650  18.2651
    18.2651  18.8671  18.8671  18.8671  19.0205  19.0205  19.0205  19.1064
    19.1064  19.1064  19.7443  19.7443  19.7444  19.8286  19.8287  19.8287
    20.0961  20.0961  20.0961  20.7689  20.7689  20.7689  20.9237  20.9291
    20.9340  20.9340  20.9932  20.9932  21.0334  21.0334  21.0334  21.0562
    21.0562  21.0837  21.0837  21.0914  21.0916  21.0916  21.1231  21.1231
    21.1519

          k = 0.0000 0.0000 0.1667 (  9595 PWs)   bands (ev):

   -66.5467 -66.5466 -52.2476 -52.2101 -52.2063 -52.1902 -52.1885 -52.1813
   -51.4651 -51.4650 -51.4647 -51.4485 -51.4484 -51.4481 -51.4459 -51.4303
   -32.6431 -32.6431 -32.6430 -32.6385 -32.6385 -32.6383 -23.8492 -23.8491
   -23.8414 -23.7612 -23.7591 -23.7590 -23.6439 -23.6439 -23.6306 -23.6112
   -23.6112 -23.6002 -23.5120 -23.5009 -23.5009 -23.4859 -23.4505 -23.4505
   -22.9264 -22.9087 -22.9010 -22.8853 -22.8820 -22.8819 -22.7959 -22.7881
   -22.7879 -22.7344 -22.7344 -22.7343 -22.7325 -22.7286 -22.7255 -22.7254
   -22.7185 -22.7166 -22.6675 -22.6636 -22.6636 -22.6436 -22.6312 -22.6312
    11.9162  14.9107  15.2231  15.3788  15.3788  15.4167  15.4382  15.4545
    15.6209  15.6818  15.6930  15.8672  15.8672  15.8780  16.2656  17.1427
    17.2216  17.2216  17.3073  17.3073  17.3361  17.3902  17.4250  17.4251
    17.4379  17.4445  17.7751  17.8460  17.8460  17.9007  18.1108  18.1109
    18.8243  18.8324  18.8584  18.8584  18.8906  18.9170  18.9787  18.9787
    19.2273  19.2273  19.3741  19.3741  19.8843  19.9169  19.9605  19.9664
    19.9894  19.9894  20.0962  20.2066  20.2067  20.4596  20.4596  20.6640
    20.6641  20.8946  20.8948  20.9632  20.9763  21.0122  21.0123  21.0881
    21.0947  21.1071  21.1200  21.1235  21.1257  21.2100  21.2138  21.6477
    21.7403

          k = 0.0000 0.0000 0.3333 (  9606 PWs)   bands (ev):

   -66.5467 -66.5466 -52.2395 -52.2176 -52.2029 -52.1936 -52.1874 -52.1835
   -51.4616 -51.4614 -51.4611 -51.4520 -51.4519 -51.4515 -51.4426 -51.4336
   -32.6422 -32.6421 -32.6420 -32.6394 -32.6394 -32.6392 -23.8095 -23.8095
   -23.7793 -23.7374 -23.7301 -23.7301 -23.6909 -23.6909 -23.6597 -23.6459
   -23.6459 -23.5876 -23.5799 -23.5335 -23.4914 -23.4914 -23.4628 -23.4628
   -22.8967 -22.8527 -22.8480 -22.8451 -22.8451 -22.8329 -22.8217 -22.7939
   -22.7938 -22.7620 -22.7310 -22.7294 -22.7292 -22.7291 -22.7219 -22.7199
   -22.7041 -22.7038 -22.7038 -22.6962 -22.6869 -22.6868 -22.6501 -22.6500
    12.3679  13.9690  15.4008  15.5414  15.5414  15.5986  15.6583  15.7563
    15.7718  15.8800  15.8800  15.8969  15.9365  15.9427  16.3206  16.7415
    16.7545  16.9636  17.1749  17.1749  17.2546  17.2546  17.6251  17.6613
    17.6707  17.6707  17.8204  17.9544  18.0848  18.0848  18.2938  18.2938
    18.4294  18.4456  18.6023  18.6024  18.8426  18.8426  18.8958  18.8958
    19.0492  19.0637  19.0957  19.2897  19.2898  19.5185  19.5973  19.6446
    19.6446  19.8737  19.8738  20.1916  20.2635  20.4584  20.4584  20.6377
    20.7524  20.7627  20.7627  20.7795  21.0144  21.0933  21.1089  21.1117
    21.2234  21.2246  21.3239  21.3239  21.3935  21.5976  21.6161  21.6362
    21.6527

          k = 0.0000 0.0000-0.5000 (  9626 PWs)   bands (ev):

   -66.5467 -66.5467 -52.2284 -52.2284 -52.1982 -52.1982 -52.1857 -52.1857
   -51.4569 -51.4567 -51.4567 -51.4566 -51.4564 -51.4560 -51.4382 -51.4380
   -32.6408 -32.6408 -32.6408 -32.6408 -32.6406 -32.6406 -23.7524 -23.7524
   -23.7524 -23.7524 -23.7009 -23.7009 -23.6891 -23.6891 -23.6891 -23.6891
   -23.6866 -23.6865 -23.5614 -23.5614 -23.4778 -23.4778 -23.4778 -23.4778
   -22.8582 -22.8582 -22.8111 -22.8111 -22.8110 -22.8110 -22.8076 -22.8075
   -22.7705 -22.7704 -22.7616 -22.7616 -22.7265 -22.7264 -22.7245 -22.7245
   -22.7137 -22.7136 -22.7136 -22.7135 -22.6762 -22.6762 -22.6761 -22.6761
    13.0770  13.0770  15.5815  15.5815  15.7475  15.7475  15.7475  15.7476
    15.8215  15.8215  16.1027  16.1027  16.2494  16.2494  16.2514  16.2515
    16.3938  16.3938  17.1962  17.1962  17.1963  17.1963  17.9920  17.9920
    18.0074  18.0074  18.0689  18.0689  18.0689  18.0690  18.2726  18.2727
    18.3302  18.3302  18.5092  18.5092  18.5093  18.5093  18.8448  18.8448
    18.8448  18.8448  18.9046  18.9046  18.9047  18.9047  19.2973  19.2973
    20.1442  20.1442  20.3680  20.3680  20.3680  20.3680  20.5078  20.5078
    20.5592  20.5592  21.0472  21.0472  21.0472  21.0472  21.0679  21.0679
    21.1009  21.1009  21.3718  21.3718  21.3983  21.3983  21.7658  21.7658
    21.7744

          k = 0.0000 0.1667 0.1667 (  9601 PWs)   bands (ev):

   -66.5467 -66.5466 -52.2448 -52.2104 -52.2069 -52.1907 -52.1890 -52.1823
   -51.4644 -51.4637 -51.4631 -51.4502 -51.4486 -51.4473 -51.4471 -51.4315
   -32.6434 -32.6428 -32.6420 -32.6393 -32.6388 -32.6381 -23.8376 -23.8365
   -23.8210 -23.7571 -23.7497 -23.7449 -23.6584 -23.6560 -23.6434 -23.6248
   -23.6222 -23.5966 -23.5146 -23.5030 -23.4981 -23.4970 -23.4710 -23.4549
   -22.9212 -22.8906 -22.8868 -22.8824 -22.8645 -22.8566 -22.8041 -22.7912
   -22.7899 -22.7457 -22.7322 -22.7318 -22.7305 -22.7303 -22.7242 -22.7175
   -22.7169 -22.7158 -22.6840 -22.6693 -22.6679 -22.6644 -22.6374 -22.6288
    12.0684  14.9186  15.0645  15.2608  15.4201  15.4889  15.5059  15.5318
    15.5365  15.7647  15.7704  15.8018  15.9165  16.2854  16.3218  17.0152
    17.1199  17.2749  17.3009  17.3704  17.3736  17.3746  17.3817  17.4124
    17.4374  17.5706  17.5736  17.7440  17.7986  17.9037  17.9510  18.4994
    18.5004  18.7191  18.7528  18.7792  18.8329  18.8419  19.0078  19.0618
    19.3482  19.4144  19.4523  19.4689  19.5086  19.5485  19.7636  19.8451
    19.8873  19.9755  20.0355  20.0583  20.0802  20.0931  20.4547  20.4743
    20.7989  20.8998  20.9216  20.9362  20.9444  21.0171  21.0230  21.0596
    21.0733  21.1184  21.1279  21.2610  21.3460  21.3949  21.4173  21.4729
    21.4932

          k = 0.0000 0.1667 0.3333 (  9577 PWs)   bands (ev):

   -66.5466 -66.5466 -52.2370 -52.2166 -52.2040 -52.1941 -52.1883 -52.1845
   -51.4618 -51.4602 -51.4594 -51.4537 -51.4510 -51.4506 -51.4439 -51.4348
   -32.6429 -32.6419 -32.6407 -32.6406 -32.6396 -32.6383 -23.8032 -23.8010
   -23.7680 -23.7368 -23.7236 -23.7115 -23.7002 -23.6981 -23.6713 -23.6525
   -23.6505 -23.5862 -23.5670 -23.5333 -23.4970 -23.4902 -23.4790 -23.4659
   -22.8998 -22.8643 -22.8479 -22.8396 -22.8299 -22.8225 -22.8186 -22.7979
   -22.7976 -22.7628 -22.7529 -22.7377 -22.7278 -22.7236 -22.7206 -22.7186
   -22.7166 -22.7132 -22.6978 -22.6932 -22.6813 -22.6788 -22.6538 -22.6404
    12.5119  14.0720  15.1517  15.2910  15.6092  15.6567  15.7523  15.8301
    15.8310  15.8808  15.9644  15.9839  16.0130  16.2803  16.3811  16.7468
    16.7841  16.9174  17.2230  17.3103  17.3104  17.3216  17.4910  17.5761
    17.6037  17.6173  17.7805  17.8376  17.8745  18.1109  18.2095  18.3152
    18.3585  18.5513  18.5626  18.6475  18.6613  18.7146  18.7390  18.8032
    18.8567  18.9438  19.1499  19.2127  19.2752  19.3406  19.3916  19.6499
    19.7677  19.9182  19.9523  20.2211  20.2780  20.3477  20.4004  20.5376
    20.6856  20.7847  20.7882  20.8774  20.9745  21.0294  21.0941  21.1207
    21.1436  21.1712  21.2127  21.3265  21.3404  21.4739  21.5102  21.5198
    21.6008

          k = 0.0000 0.1667-0.5000 (  9608 PWs)   bands (ev):

   -66.5466 -66.5466 -52.2266 -52.2266 -52.1991 -52.1991 -52.1867 -52.1867
   -51.4581 -51.4579 -51.4556 -51.4554 -51.4551 -51.4548 -51.4395 -51.4393
   -32.6420 -32.6419 -32.6408 -32.6408 -32.6393 -32.6393 -23.7541 -23.7541
   -23.7509 -23.7509 -23.7102 -23.7102 -23.6975 -23.6975 -23.6875 -23.6875
   -23.6538 -23.6538 -23.5600 -23.5600 -23.4870 -23.4870 -23.4789 -23.4789
   -22.8657 -22.8656 -22.8266 -22.8265 -22.8116 -22.8116 -22.7887 -22.7885
   -22.7871 -22.7870 -22.7667 -22.7666 -22.7490 -22.7490 -22.7223 -22.7223
   -22.7016 -22.7015 -22.6990 -22.6989 -22.6759 -22.6759 -22.6644 -22.6644
    13.2053  13.2053  15.2691  15.2691  15.8086  15.8086  15.8561  15.8562
    16.0451  16.0451  16.1814  16.1815  16.2945  16.2945  16.3267  16.3267
    16.4386  16.4387  17.2374  17.2374  17.2596  17.2596  17.8224  17.8224
    17.8690  17.8690  17.9015  17.9015  18.0256  18.0257  18.3111  18.3111
    18.3311  18.3311  18.5327  18.5328  18.5806  18.5806  18.6195  18.6195
    18.6880  18.6880  18.7512  18.7512  18.7647  18.7647  19.5177  19.5178
    20.2382  20.2382  20.2828  20.2828  20.4014  20.4014  20.5429  20.5429
    20.5928  20.5928  20.7437  20.7437  20.9069  20.9070  21.0401  21.0402
    21.1457  21.1457  21.3295  21.3295  21.3542  21.3542  21.5811  21.5811
    21.6115

          k = 0.0000 0.3333 0.3333 (  9582 PWs)   bands (ev):

   -66.5467 -66.5465 -52.2305 -52.2162 -52.2053 -52.1969 -52.1891 -52.1867
   -51.4610 -51.4568 -51.4567 -51.4564 -51.4517 -51.4475 -51.4472 -51.4382
   -32.6432 -32.6418 -32.6414 -32.6400 -32.6393 -32.6379 -23.7846 -23.7782
   -23.7423 -23.7254 -23.7251 -23.7184 -23.7064 -23.6947 -23.6684 -23.6678
   -23.6638 -23.5781 -23.5612 -23.5393 -23.5095 -23.5070 -23.4867 -23.4731
   -22.8950 -22.8569 -22.8509 -22.8418 -22.8324 -22.8089 -22.8046 -22.7928
   -22.7877 -22.7837 -22.7753 -22.7707 -22.7542 -22.7383 -22.7181 -22.7131
   -22.7041 -22.7027 -22.6867 -22.6794 -22.6764 -22.6694 -22.6661 -22.6366
    12.9283  14.3008  14.4082  15.0470  15.8876  15.9426  15.9620  16.0136
    16.0594  16.0663  16.1247  16.2014  16.2280  16.3250  16.4812  16.6809
    16.8265  16.9755  17.0669  17.2677  17.4327  17.4401  17.4489  17.4883
    17.5004  17.5723  17.6720  17.6881  17.8536  18.1592  18.1638  18.2358
    18.2443  18.2715  18.3687  18.4501  18.4996  18.5285  18.5305  18.5719
    18.6462  18.7127  18.7684  18.8815  18.9136  19.2184  19.3194  19.5566
    20.0549  20.1733  20.2047  20.3135  20.3537  20.3723  20.4229  20.6450
    20.6616  20.7137  20.7247  20.8322  20.8615  20.8677  20.9281  20.9717
    21.0429  21.0587  21.1046  21.1451  21.2745  21.3002  21.3785  21.3813
    21.4310

          k = 0.0000 0.3333-0.5000 (  9578 PWs)   bands (ev):

   -66.5466 -66.5466 -52.2221 -52.2221 -52.2019 -52.2019 -52.1884 -52.1884
   -51.4591 -51.4589 -51.4540 -51.4538 -51.4522 -51.4519 -51.4429 -51.4427
   -32.6428 -32.6428 -32.6407 -32.6407 -32.6383 -32.6383 -23.7568 -23.7568
   -23.7478 -23.7478 -23.7159 -23.7159 -23.6994 -23.6994 -23.6841 -23.6841
   -23.6092 -23.6092 -23.5576 -23.5576 -23.5122 -23.5122 -23.4807 -23.4806
   -22.8762 -22.8761 -22.8301 -22.8301 -22.8227 -22.8226 -22.8144 -22.8143
   -22.7911 -22.7910 -22.7661 -22.7660 -22.7631 -22.7629 -22.7100 -22.7100
   -22.6905 -22.6904 -22.6855 -22.6854 -22.6782 -22.6782 -22.6475 -22.6474
    13.5695  13.5695  14.7182  14.7182  16.0962  16.0962  16.1263  16.1263
    16.1732  16.1732  16.3671  16.3671  16.4014  16.4014  16.5396  16.5397
    16.5732  16.5732  17.3104  17.3105  17.3902  17.3902  17.5007  17.5007
    17.5258  17.5259  17.6718  17.6718  17.9156  17.9156  18.1790  18.1790
    18.2079  18.2079  18.3042  18.3042  18.3916  18.3916  18.4863  18.4863
    18.5799  18.5799  18.6199  18.6199  18.7245  18.7245  19.6298  19.6298
    20.1695  20.1695  20.4442  20.4442  20.4698  20.4698  20.5837  20.5837
    20.6180  20.6180  20.6601  20.6601  20.6747  20.6748  20.9521  20.9521
    21.1190  21.1190  21.1799  21.1799  21.1941  21.1942  21.2424  21.2425
    21.3454

          k = 0.0000-0.5000-0.5000 (  9580 PWs)   bands (ev):

   -66.5466 -66.5466 -52.2191 -52.2191 -52.2042 -52.2042 -52.1892 -52.1892
   -51.4595 -51.4593 -51.4535 -51.4533 -51.4475 -51.4475 -51.4475 -51.4471
   -32.6431 -32.6431 -32.6407 -32.6407 -32.6379 -32.6378 -23.7584 -23.7584
   -23.7465 -23.7465 -23.7145 -23.7144 -23.7021 -23.7021 -23.6825 -23.6825
   -23.5772 -23.5772 -23.5551 -23.5551 -23.5381 -23.5380 -23.4816 -23.4816
   -22.8802 -22.8800 -22.8286 -22.8285 -22.8277 -22.8276 -22.8170 -22.8168
   -22.8157 -22.8156 -22.7649 -22.7648 -22.7594 -22.7592 -22.6947 -22.6946
   -22.6942 -22.6941 -22.6820 -22.6819 -22.6793 -22.6791 -22.6407 -22.6406
    14.0622  14.0622  14.1574  14.1575  16.2104  16.2104  16.2791  16.2792
    16.3166  16.3166  16.4630  16.4630  16.5022  16.5022  16.5755  16.5756
    16.9289  16.9289  17.0851  17.0851  17.3213  17.3213  17.3636  17.3637
    17.3710  17.3710  17.6260  17.6261  17.9812  17.9812  18.0297  18.0297
    18.0469  18.0469  18.0692  18.0693  18.2802  18.2803  18.3613  18.3614
    18.5430  18.5430  18.5458  18.5458  19.1722  19.1723  19.2688  19.2688
    20.2131  20.2132  20.3336  20.3337  20.6783  20.6785  20.7130  20.7131
    20.7286  20.7287  20.7318  20.7319  20.8074  20.8075  20.8105  20.8106
    20.8336  20.8337  20.9176  20.9177  21.1570  21.1571  21.1948  21.1949
    21.2094

          k = 0.1667 0.1667 0.1667 (  9591 PWs)   bands (ev):

   -66.5467 -66.5466 -52.2421 -52.2090 -52.2090 -52.1904 -52.1904 -52.1834
   -51.4638 -51.4620 -51.4620 -51.4509 -51.4484 -51.4484 -51.4475 -51.4327
   -32.6430 -32.6430 -32.6413 -32.6400 -32.6384 -32.6384 -23.8310 -23.8120
   -23.8120 -23.7455 -23.7455 -23.7345 -23.6675 -23.6662 -23.6662 -23.6229
   -23.6140 -23.6140 -23.5124 -23.5124 -23.4947 -23.4928 -23.4928 -23.4681
   -22.9144 -22.8747 -22.8747 -22.8689 -22.8689 -22.8313 -22.8068 -22.8068
   -22.7860 -22.7402 -22.7402 -22.7342 -22.7334 -22.7310 -22.7310 -22.7250
   -22.7039 -22.7039 -22.6899 -22.6827 -22.6827 -22.6650 -22.6359 -22.6359
    12.2184  14.9438  15.1448  15.1448  15.3310  15.4826  15.4826  15.5779
    15.6458  15.6458  15.8519  15.8519  16.2665  16.3963  16.3963  16.9110
    17.2254  17.2254  17.2269  17.3628  17.3628  17.3795  17.4087  17.4087
    17.5167  17.5167  17.5402  17.6728  17.7600  17.7600  18.2848  18.2875
    18.2875  18.6461  18.7104  18.7104  18.7327  18.7327  19.1625  19.1625
    19.1989  19.2034  19.3610  19.3610  19.4330  19.5977  19.6072  19.6072
    19.6268  19.8137  19.8137  20.1198  20.1198  20.1973  20.7105  20.7105
    20.7463  20.8023  20.8450  20.8450  20.9785  20.9785  20.9927  21.0434
    21.0434  21.1227  21.1227  21.3107  21.3107  21.3819  21.3906  21.4429
    21.5864

          k = 0.1667 0.1667 0.3333 (  9577 PWs)   bands (ev):

   -66.5466 -66.5466 -52.2347 -52.2153 -52.2051 -52.1944 -52.1895 -52.1857
   -51.4615 -51.4592 -51.4584 -51.4540 -51.4513 -51.4501 -51.4450 -51.4360
   -32.6429 -32.6420 -32.6411 -32.6401 -32.6394 -32.6384 -23.7978 -23.7870
   -23.7617 -23.7304 -23.7101 -23.7087 -23.7085 -23.6979 -23.6851 -23.6558
   -23.6410 -23.5919 -23.5630 -23.5345 -23.5060 -23.4890 -23.4859 -23.4825
   -22.8973 -22.8540 -22.8446 -22.8412 -22.8360 -22.8228 -22.8131 -22.8003
   -22.7910 -22.7606 -22.7452 -22.7446 -22.7438 -22.7361 -22.7299 -22.7175
   -22.7147 -22.7116 -22.6899 -22.6871 -22.6820 -22.6766 -22.6543 -22.6428
    12.6546  14.1787  15.1964  15.3262  15.3766  15.4925  15.7908  15.8383
    15.8698  15.9336  16.0758  16.0979  16.3027  16.4276  16.4579  16.7444
    16.8112  16.9744  17.2133  17.3322  17.3481  17.3920  17.4153  17.5158
    17.5478  17.5660  17.7727  17.7902  17.9187  18.0554  18.0764  18.1199
    18.4071  18.4228  18.5032  18.5636  18.6003  18.6765  18.6768  18.6819
    18.7245  18.7502  18.9477  19.0228  19.1113  19.1483  19.4379  19.4494
    19.9294  20.0116  20.0339  20.2926  20.3423  20.4233  20.5532  20.5934
    20.6340  20.7344  20.8112  20.8963  20.9185  20.9275  21.0911  21.1080
    21.1125  21.1377  21.1992  21.2191  21.2482  21.4219  21.4458  21.5078
    21.5505

          k = 0.1667 0.1667-0.5000 (  9588 PWs)   bands (ev):

   -66.5466 -66.5466 -52.2248 -52.2248 -52.1997 -52.1997 -52.1879 -52.1879
   -51.4581 -51.4578 -51.4553 -51.4551 -51.4542 -51.4538 -51.4406 -51.4404
   -32.6422 -32.6422 -32.6407 -32.6407 -32.6390 -32.6390 -23.7510 -23.7510
   -23.7478 -23.7478 -23.7081 -23.7081 -23.7057 -23.7057 -23.6740 -23.6740
   -23.6459 -23.6458 -23.5633 -23.5633 -23.4959 -23.4959 -23.4847 -23.4847
   -22.8699 -22.8697 -22.8229 -22.8228 -22.8182 -22.8181 -22.7947 -22.7946
   -22.7788 -22.7787 -22.7707 -22.7706 -22.7431 -22.7431 -22.7343 -22.7342
   -22.6999 -22.6999 -22.6950 -22.6950 -22.6752 -22.6751 -22.6598 -22.6596
    13.3345  13.3346  15.3405  15.3405  15.4650  15.4650  16.0996  16.0996
    16.1763  16.1764  16.2621  16.2621  16.3301  16.3301  16.4016  16.4016
    16.4925  16.4925  17.2576  17.2576  17.3286  17.3286  17.7734  17.7734
    17.8068  17.8068  17.8223  17.8223  17.8966  17.8967  18.3066  18.3066
    18.3119  18.3119  18.3973  18.3974  18.5200  18.5200  18.5279  18.5279
    18.5442  18.5442  18.5739  18.5739  18.6140  18.6141  19.6078  19.6078
    20.3354  20.3354  20.3466  20.3466  20.3990  20.3991  20.4147  20.4148
    20.5803  20.5803  20.6112  20.6112  21.0235  21.0235  21.0806  21.0806
    21.1831  21.1831  21.2979  21.2979  21.3171  21.3171  21.4746  21.4746
    21.4866

          k = 0.1667 0.3333 0.3333 (  9595 PWs)   bands (ev):

   -66.5466 -66.5466 -52.2284 -52.2144 -52.2062 -52.1967 -52.1909 -52.1882
   -51.4605 -51.4562 -51.4561 -51.4561 -51.4515 -51.4481 -51.4478 -51.4392
   -32.6429 -32.6420 -32.6416 -32.6398 -32.6391 -32.6383 -23.7749 -23.7647
   -23.7397 -23.7219 -23.7180 -23.7132 -23.7006 -23.6966 -23.6713 -23.6704
   -23.6440 -23.5952 -23.5621 -23.5436 -23.5198 -23.5196 -23.4938 -23.4909
   -22.8870 -22.8514 -22.8455 -22.8321 -22.8294 -22.8273 -22.7985 -22.7913
   -22.7795 -22.7773 -22.7712 -22.7665 -22.7518 -22.7371 -22.7280 -22.7168
   -22.7166 -22.7034 -22.6884 -22.6798 -22.6793 -22.6675 -22.6674 -22.6455
    13.0674  14.4156  14.5293  15.1837  15.5132  15.7692  15.8733  16.0604
    16.1011  16.1868  16.3070  16.3282  16.4538  16.4699  16.6556  16.7315
    16.8881  16.9807  17.0278  17.2538  17.3174  17.4534  17.4633  17.5698
    17.5769  17.5823  17.6190  17.6518  17.8286  18.0360  18.0825  18.1309
    18.1735  18.1934  18.2469  18.3810  18.3839  18.4114  18.4157  18.4809
    18.4959  18.5361  18.5701  18.6522  18.7025  18.9677  18.9948  19.6070
    20.2348  20.2543  20.3102  20.4030  20.4622  20.4842  20.5263  20.5794
    20.7748  20.7813  20.8276  20.8590  20.8767  20.8804  20.9447  20.9786
    21.0653  21.0663  21.1552  21.2734  21.2767  21.3713  21.3863  21.3947
    21.4329

          k = 0.1667 0.3333-0.5000 (  9622 PWs)   bands (ev):

   -66.5467 -66.5467 -52.2203 -52.2203 -52.2020 -52.2020 -52.1902 -52.1902
   -51.4586 -51.4584 -51.4536 -51.4534 -51.4521 -51.4519 -51.4438 -51.4435
   -32.6427 -32.6426 -32.6407 -32.6407 -32.6385 -32.6385 -23.7480 -23.7480
   -23.7386 -23.7386 -23.7083 -23.7083 -23.7009 -23.7009 -23.6732 -23.6732
   -23.6140 -23.6140 -23.5692 -23.5692 -23.5230 -23.5230 -23.4958 -23.4958
   -22.8717 -22.8715 -22.8305 -22.8305 -22.8149 -22.8148 -22.8088 -22.8088
   -22.7797 -22.7797 -22.7662 -22.7661 -22.7600 -22.7600 -22.7195 -22.7195
   -22.6959 -22.6959 -22.6922 -22.6922 -22.6775 -22.6775 -22.6535 -22.6534
    13.7010  13.7010  14.8502  14.8502  15.7412  15.7412  16.2883  16.2883
    16.3474  16.3474  16.3702  16.3702  16.5251  16.5252  16.6180  16.6181
    16.6467  16.6467  17.3412  17.3412  17.4135  17.4136  17.4530  17.4530
    17.5559  17.5559  17.6790  17.6790  17.8695  17.8695  17.9983  17.9983
    18.1176  18.1176  18.2481  18.2481  18.2712  18.2713  18.3313  18.3313
    18.4000  18.4000  18.4591  18.4591  18.5094  18.5095  19.3521  19.3522
    20.3831  20.3831  20.4632  20.4633  20.5880  20.5880  20.6225  20.6225
    20.6833  20.6833  20.7069  20.7069  20.9437  20.9437  20.9747  20.9747
    21.1596  21.1596  21.2089  21.2090  21.2236  21.2237  21.3048  21.3049
    21.3994

          k = 0.1667-0.5000-0.5000 (  9588 PWs)   bands (ev):

   -66.5466 -66.5466 -52.2171 -52.2171 -52.2042 -52.2042 -52.1912 -52.1912
   -51.4589 -51.4587 -51.4531 -51.4529 -51.4481 -51.4480 -51.4479 -51.4475
   -32.6428 -32.6428 -32.6407 -32.6407 -32.6382 -32.6382 -23.7483 -23.7483
   -23.7315 -23.7315 -23.7086 -23.7086 -23.6911 -23.6911 -23.6814 -23.6814
   -23.5837 -23.5837 -23.5701 -23.5701 -23.5509 -23.5509 -23.5019 -23.5019
   -22.8712 -22.8711 -22.8261 -22.8260 -22.8214 -22.8213 -22.8061 -22.8060
   -22.8012 -22.8010 -22.7648 -22.7647 -22.7568 -22.7567 -22.7018 -22.7017
   -22.6999 -22.6997 -22.6891 -22.6890 -22.6849 -22.6849 -22.6505 -22.6504
    14.1933  14.1933  14.2946  14.2946  16.0828  16.0828  16.2127  16.2127
    16.3320  16.3321  16.4647  16.4648  16.7532  16.7533  16.7708  16.7708
    16.9530  16.9530  17.0992  17.0993  17.2849  17.2849  17.3349  17.3349
    17.4656  17.4656  17.6365  17.6366  17.8394  17.8394  17.8627  17.8627
    18.0049  18.0050  18.0276  18.0277  18.1770  18.1770  18.2088  18.2089
    18.3673  18.3674  18.3860  18.3860  18.8623  18.8623  18.8876  18.8876
    20.5333  20.5333  20.5678  20.5679  20.7665  20.7666  20.7774  20.7775
    20.8512  20.8513  20.8591  20.8592  20.8684  20.8684  20.9450  20.9451
    20.9608  20.9609  20.9652  20.9653  21.1498  21.1499  21.1821  21.1822
    21.2379

          k = 0.3333 0.3333 0.3333 (  9594 PWs)   bands (ev):

   -66.5467 -66.5466 -52.2227 -52.2095 -52.2095 -52.1959 -52.1959 -52.1915
   -51.4592 -51.4564 -51.4544 -51.4544 -51.4497 -51.4497 -51.4493 -51.4421
   -32.6421 -32.6419 -32.6419 -32.6393 -32.6393 -32.6389 -23.7458 -23.7345
   -23.7345 -23.7157 -23.7157 -23.7063 -23.6841 -23.6769 -23.6769 -23.6385
   -23.6385 -23.6377 -23.5540 -23.5540 -23.5524 -23.5524 -23.5347 -23.5059
   -22.8692 -22.8452 -22.8452 -22.8272 -22.8272 -22.7969 -22.7969 -22.7895
   -22.7841 -22.7711 -22.7541 -22.7504 -22.7504 -22.7451 -22.7451 -22.7305
   -22.7112 -22.7112 -22.7014 -22.6895 -22.6717 -22.6717 -22.6692 -22.6692
    13.4676  14.6831  14.8590  14.8590  15.4791  15.6501  15.6501  16.3550
    16.3605  16.3605  16.5638  16.5638  16.7029  16.7838  16.7945  16.7945
    16.8927  16.9520  17.0494  17.0494  17.3407  17.3407  17.5431  17.5602
    17.5602  17.7169  17.7169  17.7480  17.7480  17.7512  17.9999  18.0075
    18.0075  18.0307  18.0485  18.0485  18.0983  18.1066  18.1254  18.1254
    18.2559  18.2559  18.3132  18.3132  18.4767  18.5216  18.5216  19.2852
    20.4753  20.4830  20.4830  20.5349  20.7043  20.7399  20.7399  20.8022
    20.8022  20.8649  20.9241  20.9241  20.9483  20.9883  20.9883  21.1170
    21.1170  21.2500  21.2500  21.2519  21.2519  21.3021  21.3036  21.4371
    21.4371

          k = 0.3333 0.3333-0.5000 (  9598 PWs)   bands (ev):

   -66.5466 -66.5466 -52.2155 -52.2155 -52.2027 -52.2027 -52.1943 -52.1943
   -51.4578 -51.4576 -51.4521 -51.4520 -51.4520 -51.4517 -51.4461 -51.4459
   -32.6422 -32.6421 -32.6406 -32.6406 -32.6389 -32.6389 -23.7269 -23.7269
   -23.7199 -23.7199 -23.6934 -23.6934 -23.6910 -23.6910 -23.6556 -23.6556
   -23.6185 -23.6185 -23.5950 -23.5950 -23.5529 -23.5529 -23.5302 -23.5302
   -22.8572 -22.8570 -22.8309 -22.8308 -22.8068 -22.8067 -22.7897 -22.7896
   -22.7643 -22.7642 -22.7587 -22.7586 -22.7555 -22.7554 -22.7338 -22.7337
   -22.7061 -22.7061 -22.7031 -22.7030 -22.6833 -22.6832 -22.6696 -22.6695
    14.0734  14.0734  15.1660  15.1661  15.2876  15.2876  16.1914  16.1914
    16.5983  16.5983  16.6231  16.6231  16.6875  16.6875  16.8244  16.8244
    16.8808  16.8808  17.3663  17.3663  17.4225  17.4226  17.4377  17.4377
    17.5076  17.5077  17.7091  17.7092  17.7440  17.7440  17.7971  17.7972
    17.8926  17.8926  18.0043  18.0043  18.0116  18.0116  18.0742  18.0742
    18.1384  18.1384  18.1426  18.1426  18.1908  18.1909  18.7865  18.7865
    20.6800  20.6800  20.7291  20.7291  20.7995  20.7996  20.8080  20.8080
    20.8469  20.8469  20.9185  20.9186  21.0241  21.0241  21.1501  21.1502
    21.1847  21.1847  21.1875  21.1875  21.2344  21.2345  21.2870  21.2871
    21.3043

          k = 0.3333-0.5000-0.5000 (  9632 PWs)   bands (ev):

   -66.5467 -66.5467 -52.2117 -52.2117 -52.2042 -52.2042 -52.1967 -52.1967
   -51.4575 -51.4573 -51.4520 -51.4518 -51.4495 -51.4494 -51.4490 -51.4487
   -32.6419 -32.6418 -32.6406 -32.6406 -32.6392 -32.6392 -23.7206 -23.7206
   -23.6992 -23.6991 -23.6908 -23.6908 -23.6736 -23.6736 -23.6598 -23.6598
   -23.6072 -23.6072 -23.6001 -23.6001 -23.5858 -23.5858 -23.5529 -23.5529
   -22.8481 -22.8479 -22.8230 -22.8229 -22.8120 -22.8119 -22.7769 -22.7769
   -22.7646 -22.7645 -22.7644 -22.7644 -22.7494 -22.7493 -22.7157 -22.7156
   -22.7126 -22.7125 -22.7099 -22.7098 -22.6997 -22.6996 -22.6782 -22.6781
    14.5620  14.5620  14.6826  14.6826  15.6909  15.6909  15.8111  15.8111
    16.6718  16.6718  16.7787  16.7788  17.0177  17.0178  17.1160  17.1160
    17.1300  17.1300  17.1306  17.1307  17.2008  17.2008  17.3575  17.3575
    17.5921  17.5921  17.6537  17.6537  17.6803  17.6803  17.6817  17.6817
    17.8280  17.8280  17.8418  17.8418  17.8939  17.8939  17.9216  17.9216
    18.0260  18.0260  18.0624  18.0624  18.2697  18.2697  18.2927  18.2927
    20.8432  20.8434  20.8672  20.8672  20.9305  20.9305  20.9643  20.9644
    20.9796  20.9796  21.0302  21.0303  21.1219  21.1220  21.1403  21.1404
    21.1436  21.1436  21.1720  21.1721  21.2038  21.2038  21.2730  21.2730
    21.4428

          k =-0.5000-0.5000-0.5000 (  9568 PWs)   bands (ev):

   -66.5466 -66.5466 -52.2042 -52.2042 -52.2042 -52.2042 -52.2042 -52.2042
   -51.4565 -51.4565 -51.4506 -51.4506 -51.4504 -51.4504 -51.4504 -51.4499
   -32.6405 -32.6405 -32.6405 -32.6405 -32.6404 -32.6404 -23.6963 -23.6963
   -23.6963 -23.6963 -23.6637 -23.6637 -23.6355 -23.6355 -23.6355 -23.6355
   -23.6355 -23.6355 -23.6122 -23.6121 -23.6121 -23.6121 -23.6121 -23.6121
   -22.8216 -22.8216 -22.8214 -22.8214 -22.8213 -22.8213 -22.7642 -22.7641
   -22.7411 -22.7411 -22.7411 -22.7410 -22.7410 -22.7410 -22.7230 -22.7230
   -22.7229 -22.7229 -22.7154 -22.7152 -22.7152 -22.7152 -22.7152 -22.7152
    14.9941  14.9941  15.2414  15.2414  15.2414  15.2414  15.2414  15.2414
    17.0923  17.0923  17.0923  17.0923  17.0924  17.0924  17.1484  17.1485
    17.1485  17.1485  17.1485  17.1485  17.3651  17.3651  17.3652  17.3652
    17.6595  17.6595  17.7219  17.7219  17.7219  17.7219  17.7219  17.7219
    17.7551  17.7551  17.7551  17.7551  17.7551  17.7551  17.7710  17.7710
    17.7710  17.7711  17.7711  17.7711  17.8193  17.8193  17.8194  17.8194
    21.0267  21.0267  21.0267  21.0267  21.0566  21.0566  21.0567  21.0567
    21.0568  21.0568  21.0932  21.0932  21.0932  21.0932  21.0933  21.0933
    21.2461  21.2461  21.2462  21.2462  21.2462  21.2463  21.4740  21.4740
    21.4740

          k = 0.0000 0.1667-0.1667 (  9601 PWs)   bands (ev):

   -66.5467 -66.5466 -52.2448 -52.2104 -52.2069 -52.1907 -52.1890 -52.1823
   -51.4646 -51.4637 -51.4629 -51.4500 -51.4488 -51.4473 -51.4471 -51.4315
   -32.6434 -32.6428 -32.6421 -32.6393 -32.6388 -32.6381 -23.8376 -23.8365
   -23.8210 -23.7571 -23.7497 -23.7449 -23.6584 -23.6560 -23.6434 -23.6248
   -23.6222 -23.5966 -23.5146 -23.5030 -23.4981 -23.4970 -23.4710 -23.4549
   -22.9212 -22.8907 -22.8868 -22.8824 -22.8644 -22.8566 -22.8039 -22.7913
   -22.7899 -22.7457 -22.7323 -22.7317 -22.7305 -22.7303 -22.7240 -22.7175
   -22.7169 -22.7158 -22.6840 -22.6692 -22.6679 -22.6643 -22.6374 -22.6288
    12.0684  14.9186  15.0645  15.2608  15.4202  15.4889  15.5059  15.5318
    15.5365  15.7647  15.7704  15.8018  15.9165  16.2854  16.3218  17.0152
    17.1199  17.2749  17.3009  17.3704  17.3736  17.3747  17.3817  17.4124
    17.4374  17.5706  17.5736  17.7440  17.7986  17.9037  17.9510  18.4994
    18.5004  18.7191  18.7528  18.7792  18.8329  18.8419  19.0078  19.0618
    19.3482  19.4143  19.4523  19.4689  19.5086  19.5485  19.7635  19.8451
    19.8873  19.9755  20.0355  20.0583  20.0803  20.0930  20.4548  20.4742
    20.7989  20.8998  20.9216  20.9362  20.9444  21.0170  21.0231  21.0595
    21.0734  21.1184  21.1279  21.2610  21.3460  21.3950  21.4172  21.4730
    21.4932

          k = 0.0000 0.3333-0.1667 (  9577 PWs)   bands (ev):

   -66.5466 -66.5466 -52.2370 -52.2166 -52.2040 -52.1941 -52.1883 -52.1845
   -51.4620 -51.4602 -51.4592 -51.4535 -51.4512 -51.4507 -51.4439 -51.4348
   -32.6429 -32.6419 -32.6407 -32.6406 -32.6396 -32.6383 -23.8032 -23.8011
   -23.7680 -23.7368 -23.7236 -23.7115 -23.7002 -23.6981 -23.6713 -23.6525
   -23.6505 -23.5862 -23.5670 -23.5333 -23.4970 -23.4902 -23.4790 -23.4659
   -22.8999 -22.8642 -22.8480 -22.8396 -22.8298 -22.8224 -22.8187 -22.7980
   -22.7977 -22.7627 -22.7529 -22.7376 -22.7279 -22.7235 -22.7206 -22.7186
   -22.7167 -22.7131 -22.6978 -22.6931 -22.6814 -22.6787 -22.6538 -22.6404
    12.5119  14.0720  15.1517  15.2910  15.6092  15.6567  15.7523  15.8301
    15.8310  15.8808  15.9644  15.9839  16.0131  16.2803  16.3811  16.7468
    16.7841  16.9173  17.2230  17.3103  17.3104  17.3216  17.4909  17.5761
    17.6037  17.6173  17.7804  17.8376  17.8745  18.1109  18.2095  18.3152
    18.3585  18.5513  18.5626  18.6475  18.6613  18.7146  18.7390  18.8031
    18.8567  18.9438  19.1499  19.2127  19.2752  19.3406  19.3916  19.6499
    19.7677  19.9182  19.9523  20.2211  20.2780  20.3478  20.4005  20.5376
    20.6856  20.7847  20.7882  20.8774  20.9745  21.0294  21.0941  21.1207
    21.1436  21.1712  21.2127  21.3265  21.3404  21.4739  21.5102  21.5198
    21.5825

          k = 0.0000 0.3333-0.3333 (  9582 PWs)   bands (ev):

   -66.5467 -66.5465 -52.2305 -52.2162 -52.2053 -52.1969 -52.1891 -52.1867
   -51.4612 -51.4568 -51.4565 -51.4560 -51.4520 -51.4475 -51.4472 -51.4382
   -32.6432 -32.6418 -32.6414 -32.6400 -32.6394 -32.6379 -23.7847 -23.7782
   -23.7423 -23.7254 -23.7251 -23.7184 -23.7064 -23.6947 -23.6684 -23.6678
   -23.6638 -23.5781 -23.5612 -23.5393 -23.5095 -23.5070 -23.4867 -23.4731
   -22.8952 -22.8569 -22.8507 -22.8419 -22.8323 -22.8090 -22.8048 -22.7927
   -22.7878 -22.7836 -22.7753 -22.7706 -22.7541 -22.7384 -22.7182 -22.7131
   -22.7039 -22.7028 -22.6867 -22.6795 -22.6763 -22.6693 -22.6661 -22.6367
    12.9283  14.3007  14.4082  15.0470  15.8876  15.9426  15.9619  16.0136
    16.0594  16.0663  16.1247  16.2015  16.2280  16.3250  16.4811  16.6809
    16.8265  16.9755  17.0669  17.2677  17.4328  17.4401  17.4489  17.4883
    17.5004  17.5723  17.6720  17.6881  17.8536  18.1593  18.1638  18.2358
    18.2443  18.2715  18.3687  18.4500  18.4996  18.5285  18.5305  18.5719
    18.6462  18.7127  18.7683  18.8816  18.9136  19.2184  19.3194  19.5566
    20.0548  20.1733  20.2046  20.3135  20.3538  20.3722  20.4229  20.6449
    20.6617  20.7137  20.7246  20.8322  20.8615  20.8677  20.9282  20.9715
    21.0429  21.0587  21.1046  21.1451  21.2745  21.3002  21.3785  21.3813
    21.4310

          k =-0.1667 0.1667 0.1667 (  9591 PWs)   bands (ev):

   -66.5467 -66.5466 -52.2421 -52.2090 -52.2090 -52.1904 -52.1904 -52.1834
   -51.4641 -51.4620 -51.4618 -51.4507 -51.4484 -51.4481 -51.4479 -51.4327
   -32.6430 -32.6430 -32.6413 -32.6401 -32.6384 -32.6384 -23.8310 -23.8120
   -23.8120 -23.7455 -23.7455 -23.7345 -23.6675 -23.6662 -23.6662 -23.6229
   -23.6140 -23.6140 -23.5124 -23.5124 -23.4947 -23.4928 -23.4928 -23.4681
   -22.9145 -22.8748 -22.8747 -22.8689 -22.8688 -22.8313 -22.8068 -22.8066
   -22.7863 -22.7403 -22.7402 -22.7341 -22.7333 -22.7310 -22.7309 -22.7251
   -22.7039 -22.7038 -22.6899 -22.6828 -22.6828 -22.6649 -22.6359 -22.6359
    12.2184  14.9438  15.1448  15.1448  15.3310  15.4826  15.4826  15.5779
    15.6457  15.6458  15.8519  15.8519  16.2665  16.3963  16.3963  16.9110
    17.2254  17.2254  17.2269  17.3627  17.3627  17.3795  17.4086  17.4087
    17.5167  17.5168  17.5402  17.6728  17.7600  17.7600  18.2848  18.2875
    18.2875  18.6461  18.7104  18.7105  18.7327  18.7327  19.1624  19.1625
    19.1989  19.2034  19.3610  19.3610  19.4330  19.5977  19.6071  19.6071
    19.6268  19.8137  19.8137  20.1197  20.1198  20.1974  20.7104  20.7105
    20.7463  20.8023  20.8449  20.8449  20.9785  20.9786  20.9927  21.0434
    21.0434  21.1227  21.1227  21.3107  21.3107  21.3819  21.3906  21.4429
    21.5864

          k =-0.1667 0.3333 0.1667 (  9577 PWs)   bands (ev):

   -66.5466 -66.5466 -52.2347 -52.2153 -52.2051 -52.1943 -52.1895 -52.1857
   -51.4618 -51.4590 -51.4583 -51.4539 -51.4511 -51.4504 -51.4450 -51.4360
   -32.6428 -32.6420 -32.6412 -32.6401 -32.6394 -32.6384 -23.7978 -23.7870
   -23.7617 -23.7304 -23.7101 -23.7087 -23.7085 -23.6979 -23.6851 -23.6558
   -23.6410 -23.5919 -23.5630 -23.5345 -23.5060 -23.4890 -23.4859 -23.4825
   -22.8974 -22.8540 -22.8446 -22.8412 -22.8359 -22.8227 -22.8129 -22.8004
   -22.7912 -22.7605 -22.7453 -22.7445 -22.7439 -22.7360 -22.7298 -22.7175
   -22.7147 -22.7117 -22.6898 -22.6872 -22.6819 -22.6766 -22.6544 -22.6428
    12.6546  14.1786  15.1964  15.3262  15.3766  15.4925  15.7908  15.8383
    15.8698  15.9336  16.0758  16.0979  16.3027  16.4275  16.4579  16.7444
    16.8112  16.9744  17.2133  17.3322  17.3481  17.3920  17.4153  17.5157
    17.5479  17.5660  17.7728  17.7901  17.9186  18.0554  18.0764  18.1199
    18.4071  18.4228  18.5032  18.5637  18.6003  18.6765  18.6768  18.6819
    18.7245  18.7502  18.9477  19.0228  19.1113  19.1483  19.4379  19.4494
    19.9294  20.0116  20.0339  20.2926  20.3423  20.4232  20.5532  20.5934
    20.6340  20.7344  20.8112  20.8963  20.9186  20.9275  21.0910  21.1080
    21.1126  21.1376  21.1992  21.2192  21.2482  21.4219  21.4458  21.5078
    21.5505

          k = 0.1667-0.3333 0.1667 (  9577 PWs)   bands (ev):

   -66.5466 -66.5466 -52.2347 -52.2153 -52.2051 -52.1944 -52.1895 -52.1857
   -51.4618 -51.4592 -51.4581 -51.4537 -51.4513 -51.4504 -51.4450 -51.4360
   -32.6428 -32.6420 -32.6412 -32.6401 -32.6394 -32.6383 -23.7978 -23.7870
   -23.7617 -23.7304 -23.7101 -23.7087 -23.7085 -23.6979 -23.6851 -23.6558
   -23.6410 -23.5919 -23.5630 -23.5345 -23.5060 -23.4890 -23.4859 -23.4825
   -22.8974 -22.8539 -22.8447 -22.8413 -22.8358 -22.8227 -22.8131 -22.8004
   -22.7912 -22.7605 -22.7452 -22.7444 -22.7439 -22.7361 -22.7299 -22.7174
   -22.7147 -22.7117 -22.6900 -22.6872 -22.6818 -22.6766 -22.6544 -22.6429
    12.6546  14.1786  15.1964  15.3262  15.3766  15.4925  15.7908  15.8383
    15.8698  15.9336  16.0758  16.0979  16.3027  16.4276  16.4579  16.7444
    16.8112  16.9744  17.2133  17.3322  17.3481  17.3920  17.4153  17.5158
    17.5478  17.5660  17.7727  17.7902  17.9187  18.0554  18.0764  18.1199
    18.4072  18.4228  18.5032  18.5637  18.6003  18.6765  18.6768  18.6819
    18.7245  18.7502  18.9477  19.0228  19.1113  19.1483  19.4379  19.4494
    19.9293  20.0116  20.0339  20.2926  20.3422  20.4232  20.5532  20.5934
    20.6340  20.7344  20.8112  20.8963  20.9185  20.9276  21.0910  21.1079
    21.1125  21.1377  21.1992  21.2192  21.2482  21.4219  21.4458  21.5078
    21.5505

          k =-0.1667-0.5000 0.1667 (  9588 PWs)   bands (ev):

   -66.5466 -66.5466 -52.2248 -52.2248 -52.1997 -52.1997 -52.1879 -52.1879
   -51.4581 -51.4581 -51.4551 -51.4549 -51.4541 -51.4541 -51.4406 -51.4404
   -32.6422 -32.6422 -32.6407 -32.6407 -32.6390 -32.6390 -23.7510 -23.7510
   -23.7478 -23.7478 -23.7081 -23.7081 -23.7057 -23.7057 -23.6740 -23.6740
   -23.6459 -23.6459 -23.5633 -23.5633 -23.4959 -23.4959 -23.4847 -23.4847
   -22.8698 -22.8698 -22.8227 -22.8227 -22.8183 -22.8182 -22.7947 -22.7946
   -22.7788 -22.7788 -22.7706 -22.7706 -22.7431 -22.7431 -22.7344 -22.7343
   -22.6999 -22.6999 -22.6950 -22.6950 -22.6751 -22.6750 -22.6597 -22.6597
    13.3345  13.3346  15.3405  15.3405  15.4650  15.4650  16.0996  16.0996
    16.1763  16.1763  16.2621  16.2621  16.3301  16.3301  16.4016  16.4016
    16.4925  16.4925  17.2576  17.2576  17.3286  17.3286  17.7734  17.7735
    17.8068  17.8068  17.8223  17.8223  17.8966  17.8966  18.3066  18.3067
    18.3119  18.3119  18.3973  18.3973  18.5199  18.5199  18.5279  18.5279
    18.5442  18.5442  18.5739  18.5739  18.6140  18.6140  19.6078  19.6078
    20.3354  20.3354  20.3466  20.3466  20.3990  20.3990  20.4147  20.4147
    20.5803  20.5803  20.6112  20.6112  21.0235  21.0235  21.0806  21.0807
    21.1830  21.1830  21.2980  21.2980  21.3170  21.3171  21.4746  21.4747
    21.4866

          k =-0.1667 0.3333 0.3333 (  9595 PWs)   bands (ev):

   -66.5466 -66.5466 -52.2284 -52.2144 -52.2062 -52.1967 -52.1909 -52.1882
   -51.4606 -51.4561 -51.4561 -51.4559 -51.4514 -51.4481 -51.4479 -51.4393
   -32.6429 -32.6420 -32.6416 -32.6398 -32.6392 -32.6383 -23.7749 -23.7647
   -23.7397 -23.7219 -23.7180 -23.7132 -23.7006 -23.6965 -23.6713 -23.6704
   -23.6441 -23.5952 -23.5621 -23.5436 -23.5198 -23.5196 -23.4938 -23.4909
   -22.8870 -22.8514 -22.8456 -22.8321 -22.8293 -22.8270 -22.7984 -22.7916
   -22.7795 -22.7772 -22.7712 -22.7665 -22.7518 -22.7370 -22.7281 -22.7169
   -22.7166 -22.7034 -22.6885 -22.6798 -22.6791 -22.6675 -22.6674 -22.6455
    13.0674  14.4156  14.5293  15.1837  15.5132  15.7692  15.8733  16.0605
    16.1010  16.1867  16.3070  16.3282  16.4538  16.4699  16.6556  16.7315
    16.8881  16.9807  17.0278  17.2538  17.3173  17.4535  17.4633  17.5698
    17.5769  17.5823  17.6190  17.6518  17.8287  18.0360  18.0825  18.1309
    18.1735  18.1934  18.2469  18.3810  18.3839  18.4114  18.4157  18.4809
    18.4959  18.5362  18.5700  18.6522  18.7026  18.9677  18.9948  19.6070
    20.2348  20.2543  20.3102  20.4030  20.4622  20.4842  20.5263  20.5794
    20.7749  20.7813  20.8276  20.8589  20.8767  20.8804  20.9447  20.9786
    21.0653  21.0663  21.1552  21.2734  21.2767  21.3713  21.3863  21.3947
    21.4329

          k = 0.1667 0.3333-0.3333 (  9595 PWs)   bands (ev):

   -66.5466 -66.5466 -52.2284 -52.2144 -52.2062 -52.1967 -52.1909 -52.1882
   -51.4607 -51.4562 -51.4561 -51.4556 -51.4517 -51.4481 -51.4478 -51.4393
   -32.6428 -32.6420 -32.6416 -32.6398 -32.6392 -32.6383 -23.7749 -23.7647
   -23.7397 -23.7219 -23.7180 -23.7132 -23.7006 -23.6966 -23.6712 -23.6704
   -23.6441 -23.5952 -23.5621 -23.5436 -23.5198 -23.5196 -23.4938 -23.4909
   -22.8871 -22.8512 -22.8456 -22.8321 -22.8295 -22.8272 -22.7984 -22.7916
   -22.7795 -22.7772 -22.7711 -22.7665 -22.7517 -22.7372 -22.7281 -22.7169
   -22.7164 -22.7034 -22.6885 -22.6797 -22.6792 -22.6675 -22.6673 -22.6455
    13.0674  14.4156  14.5293  15.1837  15.5132  15.7692  15.8733  16.0604
    16.1011  16.1868  16.3070  16.3282  16.4538  16.4699  16.6556  16.7315
    16.8881  16.9807  17.0278  17.2539  17.3173  17.4535  17.4633  17.5698
    17.5770  17.5823  17.6190  17.6518  17.8286  18.0360  18.0825  18.1309
    18.1735  18.1934  18.2469  18.3810  18.3839  18.4114  18.4157  18.4809
    18.4959  18.5361  18.5700  18.6522  18.7025  18.9676  18.9949  19.6070
    20.2347  20.2543  20.3102  20.4030  20.4622  20.4842  20.5263  20.5794
    20.7749  20.7813  20.8276  20.8589  20.8768  20.8804  20.9448  20.9785
    21.0653  21.0663  21.1552  21.2734  21.2767  21.3713  21.3863  21.3947
    21.4329

          k =-0.1667-0.5000 0.3333 (  9622 PWs)   bands (ev):

   -66.5467 -66.5467 -52.2203 -52.2203 -52.2020 -52.2020 -52.1902 -52.1902
   -51.4586 -51.4585 -51.4536 -51.4533 -51.4521 -51.4519 -51.4438 -51.4436
   -32.6427 -32.6426 -32.6407 -32.6407 -32.6385 -32.6385 -23.7480 -23.7480
   -23.7386 -23.7386 -23.7083 -23.7083 -23.7009 -23.7009 -23.6732 -23.6732
   -23.6140 -23.6140 -23.5692 -23.5692 -23.5230 -23.5230 -23.4958 -23.4958
   -22.8716 -22.8715 -22.8305 -22.8303 -22.8150 -22.8149 -22.8088 -22.8087
   -22.7798 -22.7797 -22.7661 -22.7660 -22.7600 -22.7599 -22.7196 -22.7195
   -22.6960 -22.6959 -22.6923 -22.6922 -22.6774 -22.6773 -22.6535 -22.6534
    13.7010  13.7010  14.8502  14.8502  15.7412  15.7412  16.2883  16.2883
    16.3474  16.3474  16.3702  16.3702  16.5251  16.5251  16.6180  16.6180
    16.6467  16.6467  17.3412  17.3412  17.4135  17.4136  17.4531  17.4531
    17.5559  17.5559  17.6790  17.6790  17.8695  17.8695  17.9983  17.9983
    18.1176  18.1176  18.2481  18.2481  18.2712  18.2713  18.3313  18.3313
    18.4000  18.4001  18.4590  18.4591  18.5094  18.5094  19.3522  19.3522
    20.3831  20.3831  20.4632  20.4633  20.5880  20.5880  20.6224  20.6225
    20.6833  20.6833  20.7069  20.7069  20.9437  20.9437  20.9747  20.9747
    21.1596  21.1597  21.2090  21.2090  21.2236  21.2236  21.3048  21.3049
    21.3994

          k =-0.3333 0.3333 0.3333 (  9594 PWs)   bands (ev):

   -66.5467 -66.5466 -52.2227 -52.2095 -52.2095 -52.1959 -52.1959 -52.1915
   -51.4595 -51.4563 -51.4544 -51.4541 -51.4498 -51.4497 -51.4494 -51.4422
   -32.6421 -32.6419 -32.6419 -32.6393 -32.6392 -32.6390 -23.7457 -23.7345
   -23.7345 -23.7157 -23.7157 -23.7063 -23.6841 -23.6769 -23.6769 -23.6385
   -23.6385 -23.6377 -23.5540 -23.5540 -23.5524 -23.5524 -23.5347 -23.5059
   -22.8693 -22.8452 -22.8450 -22.8273 -22.8272 -22.7969 -22.7967 -22.7896
   -22.7842 -22.7712 -22.7540 -22.7503 -22.7502 -22.7453 -22.7452 -22.7304
   -22.7113 -22.7113 -22.7014 -22.6894 -22.6717 -22.6716 -22.6693 -22.6692
    13.4676  14.6831  14.8590  14.8590  15.4791  15.6501  15.6501  16.3550
    16.3605  16.3605  16.5638  16.5638  16.7029  16.7838  16.7945  16.7945
    16.8928  16.9520  17.0494  17.0494  17.3406  17.3406  17.5431  17.5602
    17.5602  17.7169  17.7169  17.7480  17.7480  17.7512  17.9999  18.0074
    18.0074  18.0307  18.0485  18.0485  18.0983  18.1065  18.1254  18.1254
    18.2559  18.2559  18.3132  18.3132  18.4767  18.5215  18.5216  19.2853
    20.4752  20.4829  20.4830  20.5349  20.7043  20.7399  20.7399  20.8022
    20.8022  20.8649  20.9241  20.9242  20.9484  20.9883  20.9883  21.1169
    21.1169  21.2500  21.2500  21.2518  21.2519  21.3021  21.3037  21.4371
    21.4372

          k =-0.3333-0.5000 0.3333 (  9598 PWs)   bands (ev):

   -66.5466 -66.5466 -52.2155 -52.2155 -52.2027 -52.2027 -52.1943 -52.1943
   -51.4578 -51.4577 -51.4521 -51.4520 -51.4520 -51.4516 -51.4461 -51.4459
   -32.6422 -32.6422 -32.6405 -32.6405 -32.6389 -32.6389 -23.7269 -23.7269
   -23.7199 -23.7199 -23.6934 -23.6934 -23.6910 -23.6910 -23.6556 -23.6556
   -23.6185 -23.6185 -23.5950 -23.5950 -23.5529 -23.5529 -23.5302 -23.5302
   -22.8571 -22.8571 -22.8307 -22.8307 -22.8069 -22.8069 -22.7896 -22.7896
   -22.7643 -22.7643 -22.7586 -22.7586 -22.7555 -22.7555 -22.7339 -22.7338
   -22.7062 -22.7061 -22.7031 -22.7031 -22.6832 -22.6831 -22.6696 -22.6696
    14.0734  14.0734  15.1661  15.1661  15.2876  15.2877  16.1914  16.1914
    16.5983  16.5983  16.6231  16.6231  16.6875  16.6875  16.8244  16.8244
    16.8808  16.8808  17.3663  17.3663  17.4225  17.4225  17.4377  17.4377
    17.5076  17.5076  17.7091  17.7091  17.7440  17.7441  17.7971  17.7971
    17.8927  17.8927  18.0043  18.0043  18.0116  18.0117  18.0742  18.0742
    18.1384  18.1384  18.1426  18.1426  18.1909  18.1909  18.7865  18.7865
    20.6799  20.6799  20.7291  20.7291  20.7996  20.7996  20.8079  20.8079
    20.8470  20.8470  20.9185  20.9185  21.0241  21.0241  21.1502  21.1502
    21.1846  21.1846  21.1875  21.1876  21.2344  21.2344  21.2871  21.2871
    21.3043

     the Fermi energy is    19.8169 ev

!    total energy              =   -4133.52523429 Ry
     total all-electron energy =    -34515.575800 Ry
     estimated scf accuracy    <       0.00000002 Ry
     smearing contrib. (-TS)   =      -0.00044554 Ry
     internal energy E=F+TS    =   -4133.52478875 Ry

     The total energy is F=E-TS. E is the sum of the following terms:
     one-electron contribution =    -982.18762926 Ry
     hartree contribution      =     635.06986399 Ry
     xc contribution           =    -367.75011431 Ry
     ewald contribution        =   -2213.60869820 Ry
     one-center paw contrib.   =   -1205.04821097 Ry

     total magnetization       =     3.66 Bohr mag/cell
     absolute magnetization    =    12.74 Bohr mag/cell

     convergence has been achieved in 140 iterations

     Forces acting on atoms (cartesian axes, Ry/au):

     atom    1 type  2   force =     0.00000000    0.00000000    0.00000000
     atom    2 type  1   force =     0.00014584    0.00014584    0.00014584
     atom    3 type  2   force =     0.00000000    0.00000000    0.00000000
     atom    4 type  2   force =     0.00003832    0.00003832   -0.00003598
     atom    5 type  2   force =     0.00000000    0.00000000    0.00000000
     atom    6 type  2   force =     0.00003832   -0.00003598    0.00003832
     atom    7 type  2   force =     0.00000000    0.00000000    0.00000000
     atom    8 type  2   force =     0.00003598   -0.00003832   -0.00003832
     atom    9 type  2   force =     0.00000000    0.00000000    0.00000000
     atom   10 type  2   force =    -0.00003598    0.00003832    0.00003832
     atom   11 type  2   force =     0.00000000    0.00000000    0.00000000
     atom   12 type  2   force =    -0.00003832    0.00003598   -0.00003832
     atom   13 type  2   force =     0.00000000    0.00000000    0.00000000
     atom   14 type  2   force =    -0.00003832   -0.00003832    0.00003598
     atom   15 type  2   force =     0.00000000    0.00000000    0.00000000
     atom   16 type  1   force =    -0.00014584   -0.00014584   -0.00014584

     Total force =     0.000391     Total SCF correction =     0.000390
     SCF correction compared to forces is large: reduce conv_thr to get better values


     Computing stress (Cartesian axis) and pressure

          total   stress  (Ry/bohr**3)                   (kbar)     P=       38.16
   0.00025940   0.00000004   0.00000004           38.16        0.01        0.01
   0.00000004   0.00025940   0.00000004            0.01       38.16        0.01
   0.00000004   0.00000004   0.00025940            0.01        0.01       38.16


     BFGS Geometry Optimization
     Energy error            =      0.0E+00 Ry
     Gradient error          =      1.5E-04 Ry/Bohr
     Cell gradient error     =      3.8E+01 kbar

     number of scf cycles    =   1
     number of bfgs steps    =   0

     enthalpy           new  =   -4133.5252342927 Ry

     new trust radius        =       0.0453491057 bohr
     new conv_thr            =       0.0000001000 Ry

     new unit-cell volume =   1246.49516 a.u.^3 (   184.71153 Ang^3 )
     density =      7.54823 g/cm^3

CELL_PARAMETERS (angstrom)
   5.695056000   0.000005372   0.000005372
   0.000005372   5.695056000   0.000005372
   0.000005372   0.000005372   5.695056000

ATOMIC_POSITIONS (crystal)
Cr               0.0000000000        0.0000000000        0.0000000000
Fe               0.2500136387        0.2500136387        0.2500136387
Cr               0.0000000000        0.0000000000        0.5000000000
Cr               0.2500035840        0.2500035840        0.7499966352
Cr               0.0000000000        0.5000000000        0.0000000000
Cr               0.2500035840        0.7499966352        0.2500035840
Cr               0.0000000000        0.5000000000        0.5000000000
Cr               0.2500033648        0.7499964160        0.7499964160
Cr               0.5000000000        0.0000000000        0.0000000000
Cr               0.7499966352        0.2500035840        0.2500035840
Cr               0.5000000000        0.0000000000        0.5000000000
Cr               0.7499964160        0.2500033648        0.7499964160
Cr               0.5000000000        0.5000000000        0.0000000000
Cr               0.7499964160        0.7499964160        0.2500033648
Cr               0.5000000000        0.5000000000        0.5000000000
Fe               0.7499863613        0.7499863613        0.7499863613



     Writing config-only to output data dir ./tmp/fecr_fe02cr14_vcr.save/ :
     XML data file
     NEW-OLD atomic charge density approx. for the potential

     Check: negative core charge=   -0.000004
     Generating pointlists ...

     total cpu time spent up to now is     5152.8 secs

     Self-consistent Calculation

     iteration #  1     ecut=    60.00 Ry     beta= 0.30
     Davidson diagonalization with overlap
     ethr =  1.00E-06,  avg # of iterations =  7.1

     total cpu time spent up to now is     5188.0 secs

     total energy              =   -4133.53000374 Ry
     estimated scf accuracy    <       0.00258935 Ry

     total magnetization       =     3.73 Bohr mag/cell
     absolute magnetization    =    12.99 Bohr mag/cell

     iteration #  2     ecut=    60.00 Ry     beta= 0.30
     Davidson diagonalization with overlap
     ethr =  1.14E-06,  avg # of iterations =  6.2

     total cpu time spent up to now is     5218.1 secs

     total energy              =   -4133.52799161 Ry
     estimated scf accuracy    <       0.05691315 Ry

     total magnetization       =     3.59 Bohr mag/cell
     absolute magnetization    =    12.93 Bohr mag/cell

     iteration #  3     ecut=    60.00 Ry     beta= 0.30
     Davidson diagonalization with overlap
     ethr =  1.14E-06,  avg # of iterations =  6.3

     total cpu time spent up to now is     5248.1 secs

     total energy              =   -4133.52919293 Ry
     estimated scf accuracy    <       0.00082762 Ry

     total magnetization       =     3.71 Bohr mag/cell
     absolute magnetization    =    13.03 Bohr mag/cell

     iteration #  4     ecut=    60.00 Ry     beta= 0.30
     Davidson diagonalization with overlap
     ethr =  3.63E-07,  avg # of iterations =  3.4

     total cpu time spent up to now is     5274.1 secs

     total energy              =   -4133.52898935 Ry
     estimated scf accuracy    <       0.00085866 Ry

     total magnetization       =     3.73 Bohr mag/cell
     absolute magnetization    =    13.08 Bohr mag/cell

     iteration #  5     ecut=    60.00 Ry     beta= 0.30
     Davidson diagonalization with overlap
     ethr =  3.63E-07,  avg # of iterations =  1.0

     total cpu time spent up to now is     5298.5 secs

     total energy              =   -4133.52815011 Ry
     estimated scf accuracy    <       0.00012824 Ry

     total magnetization       =     3.71 Bohr mag/cell
     absolute magnetization    =    13.08 Bohr mag/cell

     iteration #  6     ecut=    60.00 Ry     beta= 0.30
     Davidson diagonalization with overlap
     ethr =  5.62E-08,  avg # of iterations =  5.1

     total cpu time spent up to now is     5327.6 secs

     total energy              =   -4133.52780346 Ry
     estimated scf accuracy    <       0.00009782 Ry

     total magnetization       =     3.71 Bohr mag/cell
     absolute magnetization    =    13.14 Bohr mag/cell

     iteration #  7     ecut=    60.00 Ry     beta= 0.30
     Davidson diagonalization with overlap
     ethr =  4.29E-08,  avg # of iterations =  3.0

     total cpu time spent up to now is     5353.5 secs

     total energy              =   -4133.52750096 Ry
     estimated scf accuracy    <       0.00007976 Ry

     total magnetization       =     3.72 Bohr mag/cell
     absolute magnetization    =    13.18 Bohr mag/cell

     iteration #  8     ecut=    60.00 Ry     beta= 0.30
     Davidson diagonalization with overlap
     ethr =  3.50E-08,  avg # of iterations =  5.9

     total cpu time spent up to now is     5384.5 secs

     total energy              =   -4133.52758507 Ry
     estimated scf accuracy    <       0.00025163 Ry

     total magnetization       =     3.74 Bohr mag/cell
     absolute magnetization    =    13.30 Bohr mag/cell

     iteration #  9     ecut=    60.00 Ry     beta= 0.30
     Davidson diagonalization with overlap
     ethr =  3.50E-08,  avg # of iterations =  5.2

     total cpu time spent up to now is     5412.4 secs

     total energy              =   -4133.52799963 Ry
     estimated scf accuracy    <       0.00039976 Ry

     total magnetization       =     3.75 Bohr mag/cell
     absolute magnetization    =    13.39 Bohr mag/cell

     iteration # 10     ecut=    60.00 Ry     beta= 0.30
     Davidson diagonalization with overlap
     ethr =  3.50E-08,  avg # of iterations =  5.7

     total cpu time spent up to now is     5444.0 secs

     total energy              =   -4133.52783960 Ry
     estimated scf accuracy    <       0.00006871 Ry

     total magnetization       =     3.75 Bohr mag/cell
     absolute magnetization    =    13.61 Bohr mag/cell

     iteration # 11     ecut=    60.00 Ry     beta= 0.30
     Davidson diagonalization with overlap
     ethr =  3.01E-08,  avg # of iterations =  3.5

     total cpu time spent up to now is     5470.6 secs

     total energy              =   -4133.52770972 Ry
     estimated scf accuracy    <       0.00025358 Ry

     total magnetization       =     3.75 Bohr mag/cell
     absolute magnetization    =    13.65 Bohr mag/cell

     iteration # 12     ecut=    60.00 Ry     beta= 0.30
     Davidson diagonalization with overlap
     ethr =  3.01E-08,  avg # of iterations =  2.0

     total cpu time spent up to now is     5495.1 secs

     total energy              =   -4133.52770519 Ry
     estimated scf accuracy    <       0.00027608 Ry

     total magnetization       =     3.75 Bohr mag/cell
     absolute magnetization    =    13.65 Bohr mag/cell

     iteration # 13     ecut=    60.00 Ry     beta= 0.30
     Davidson diagonalization with overlap
     ethr =  3.01E-08,  avg # of iterations =  1.4

     total cpu time spent up to now is     5519.8 secs

     total energy              =   -4133.52771711 Ry
     estimated scf accuracy    <       0.00021465 Ry

     total magnetization       =     3.75 Bohr mag/cell
     absolute magnetization    =    13.67 Bohr mag/cell

     iteration # 14     ecut=    60.00 Ry     beta= 0.30
     Davidson diagonalization with overlap
     ethr =  3.01E-08,  avg # of iterations =  5.3

     total cpu time spent up to now is     5548.2 secs

     total energy              =   -4133.52789070 Ry
     estimated scf accuracy    <       0.00006775 Ry

     total magnetization       =     3.74 Bohr mag/cell
     absolute magnetization    =    13.81 Bohr mag/cell

     iteration # 15     ecut=    60.00 Ry     beta= 0.30
     Davidson diagonalization with overlap
     ethr =  2.97E-08,  avg # of iterations =  5.1

     total cpu time spent up to now is     5576.2 secs

     total energy              =   -4133.52785568 Ry
     estimated scf accuracy    <       0.00005030 Ry

     total magnetization       =     3.74 Bohr mag/cell
     absolute magnetization    =    13.92 Bohr mag/cell

     iteration # 16     ecut=    60.00 Ry     beta= 0.30
     Davidson diagonalization with overlap
     ethr =  2.21E-08,  avg # of iterations =  1.3

     total cpu time spent up to now is     5599.2 secs

     total energy              =   -4133.52772498 Ry
     estimated scf accuracy    <       0.00003813 Ry

     total magnetization       =     3.74 Bohr mag/cell
     absolute magnetization    =    13.89 Bohr mag/cell

     iteration # 17     ecut=    60.00 Ry     beta= 0.30
     Davidson diagonalization with overlap
     ethr =  1.67E-08,  avg # of iterations =  5.6

     total cpu time spent up to now is     5628.9 secs

     total energy              =   -4133.52778641 Ry
     estimated scf accuracy    <       0.00010988 Ry

     total magnetization       =     3.74 Bohr mag/cell
     absolute magnetization    =    13.79 Bohr mag/cell

     iteration # 18     ecut=    60.00 Ry     beta= 0.30
     Davidson diagonalization with overlap
     ethr =  1.67E-08,  avg # of iterations =  5.0

     total cpu time spent up to now is     5656.7 secs

     total energy              =   -4133.52782192 Ry
     estimated scf accuracy    <       0.00004203 Ry

     total magnetization       =     3.74 Bohr mag/cell
     absolute magnetization    =    13.87 Bohr mag/cell

     iteration # 19     ecut=    60.00 Ry     beta= 0.30
     Davidson diagonalization with overlap
     ethr =  1.67E-08,  avg # of iterations =  5.0

     total cpu time spent up to now is     5683.9 secs

     total energy              =   -4133.52779026 Ry
     estimated scf accuracy    <       0.00003906 Ry

     total magnetization       =     3.74 Bohr mag/cell
     absolute magnetization    =    13.94 Bohr mag/cell

     iteration # 20     ecut=    60.00 Ry     beta= 0.30
     Davidson diagonalization with overlap
     ethr =  1.67E-08,  avg # of iterations =  3.0

     total cpu time spent up to now is     5710.3 secs

     total energy              =   -4133.52792700 Ry
     estimated scf accuracy    <       0.00002913 Ry

     total magnetization       =     3.75 Bohr mag/cell
     absolute magnetization    =    13.95 Bohr mag/cell

     iteration # 21     ecut=    60.00 Ry     beta= 0.30
     Davidson diagonalization with overlap
     ethr =  1.28E-08,  avg # of iterations =  2.6

     total cpu time spent up to now is     5737.6 secs

     total energy              =   -4133.52800588 Ry
     estimated scf accuracy    <       0.00003232 Ry

     total magnetization       =     3.75 Bohr mag/cell
     absolute magnetization    =    13.96 Bohr mag/cell

     iteration # 22     ecut=    60.00 Ry     beta= 0.30
     Davidson diagonalization with overlap
     ethr =  1.28E-08,  avg # of iterations =  3.0

     total cpu time spent up to now is     5763.1 secs

     total energy              =   -4133.52798642 Ry
     estimated scf accuracy    <       0.00003194 Ry

     total magnetization       =     3.74 Bohr mag/cell
     absolute magnetization    =    13.95 Bohr mag/cell

     iteration # 23     ecut=    60.00 Ry     beta= 0.30
     Davidson diagonalization with overlap
     ethr =  1.28E-08,  avg # of iterations =  5.3

     total cpu time spent up to now is     5791.4 secs

     total energy              =   -4133.52782199 Ry
     estimated scf accuracy    <       0.00002755 Ry

     total magnetization       =     3.74 Bohr mag/cell
     absolute magnetization    =    14.04 Bohr mag/cell

     iteration # 24     ecut=    60.00 Ry     beta= 0.30
     Davidson diagonalization with overlap
     ethr =  1.21E-08,  avg # of iterations =  5.1

     total cpu time spent up to now is     5820.7 secs

     total energy              =   -4133.52784139 Ry
     estimated scf accuracy    <       0.00002763 Ry

     total magnetization       =     3.75 Bohr mag/cell
     absolute magnetization    =    14.11 Bohr mag/cell

     iteration # 25     ecut=    60.00 Ry     beta= 0.30
     Davidson diagonalization with overlap
     ethr =  1.21E-08,  avg # of iterations =  1.9

     total cpu time spent up to now is     5845.3 secs

     total energy              =   -4133.52780867 Ry
     estimated scf accuracy    <       0.00002203 Ry

     total magnetization       =     3.75 Bohr mag/cell
     absolute magnetization    =    14.12 Bohr mag/cell

     iteration # 26     ecut=    60.00 Ry     beta= 0.30
     Davidson diagonalization with overlap
     ethr =  9.66E-09,  avg # of iterations =  6.4

     total cpu time spent up to now is     5877.0 secs

     total energy              =   -4133.52787044 Ry
     estimated scf accuracy    <       0.00001995 Ry

     total magnetization       =     3.74 Bohr mag/cell
     absolute magnetization    =    14.31 Bohr mag/cell

     iteration # 27     ecut=    60.00 Ry     beta= 0.30
     Davidson diagonalization with overlap
     ethr =  8.75E-09,  avg # of iterations =  5.0

     total cpu time spent up to now is     5904.3 secs

     total energy              =   -4133.52787063 Ry
     estimated scf accuracy    <       0.00002751 Ry

     total magnetization       =     3.74 Bohr mag/cell
     absolute magnetization    =    14.26 Bohr mag/cell

     iteration # 28     ecut=    60.00 Ry     beta= 0.30
     Davidson diagonalization with overlap
     ethr =  8.75E-09,  avg # of iterations =  4.9

     total cpu time spent up to now is     5933.1 secs

     total energy              =   -4133.52785806 Ry
     estimated scf accuracy    <       0.00002439 Ry

     total magnetization       =     3.74 Bohr mag/cell
     absolute magnetization    =    14.22 Bohr mag/cell

     iteration # 29     ecut=    60.00 Ry     beta= 0.30
     Davidson diagonalization with overlap
     ethr =  8.75E-09,  avg # of iterations =  5.0

     total cpu time spent up to now is     5960.8 secs

     total energy              =   -4133.52783727 Ry
     estimated scf accuracy    <       0.00004230 Ry

     total magnetization       =     3.75 Bohr mag/cell
     absolute magnetization    =    14.17 Bohr mag/cell

     iteration # 30     ecut=    60.00 Ry     beta= 0.30
     Davidson diagonalization with overlap
     ethr =  8.75E-09,  avg # of iterations =  5.5

     total cpu time spent up to now is     5990.9 secs

     total energy              =   -4133.52723233 Ry
     estimated scf accuracy    <       0.00001669 Ry

     total magnetization       =     3.74 Bohr mag/cell
     absolute magnetization    =    14.33 Bohr mag/cell

     iteration # 31     ecut=    60.00 Ry     beta= 0.30
     Davidson diagonalization with overlap
     ethr =  7.32E-09,  avg # of iterations =  9.4

     total cpu time spent up to now is     6027.6 secs

     total energy              =   -4133.52765681 Ry
     estimated scf accuracy    <       0.00005273 Ry

     total magnetization       =     3.76 Bohr mag/cell
     absolute magnetization    =    13.84 Bohr mag/cell

     iteration # 32     ecut=    60.00 Ry     beta= 0.30
     Davidson diagonalization with overlap
     ethr =  7.32E-09,  avg # of iterations =  8.0

     total cpu time spent up to now is     6060.7 secs

     total energy              =   -4133.52760234 Ry
     estimated scf accuracy    <       0.00004364 Ry

     total magnetization       =     3.74 Bohr mag/cell
     absolute magnetization    =    14.10 Bohr mag/cell

     iteration # 33     ecut=    60.00 Ry     beta= 0.30
     Davidson diagonalization with overlap
     ethr =  7.32E-09,  avg # of iterations =  9.0

     total cpu time spent up to now is     6095.8 secs

     total energy              =   -4133.52755618 Ry
     estimated scf accuracy    <       0.00004491 Ry

     total magnetization       =     3.71 Bohr mag/cell
     absolute magnetization    =    14.45 Bohr mag/cell

     iteration # 34     ecut=    60.00 Ry     beta= 0.30
     Davidson diagonalization with overlap
     ethr =  7.32E-09,  avg # of iterations =  9.2

     total cpu time spent up to now is     6132.7 secs

     total energy              =   -4133.52799486 Ry
     estimated scf accuracy    <       0.00001656 Ry

     total magnetization       =     3.68 Bohr mag/cell
     absolute magnetization    =    14.85 Bohr mag/cell

     iteration # 35     ecut=    60.00 Ry     beta= 0.30
     Davidson diagonalization with overlap
     ethr =  7.26E-09,  avg # of iterations =  5.3

     total cpu time spent up to now is     6161.9 secs

     total energy              =   -4133.52798399 Ry
     estimated scf accuracy    <       0.00000767 Ry

     total magnetization       =     3.68 Bohr mag/cell
     absolute magnetization    =    14.90 Bohr mag/cell

     iteration # 36     ecut=    60.00 Ry     beta= 0.30
     Davidson diagonalization with overlap
     ethr =  3.37E-09,  avg # of iterations =  6.1

     total cpu time spent up to now is     6191.3 secs

     total energy              =   -4133.52794835 Ry
     estimated scf accuracy    <       0.00000196 Ry

     total magnetization       =     3.68 Bohr mag/cell
     absolute magnetization    =    14.79 Bohr mag/cell

     iteration # 37     ecut=    60.00 Ry     beta= 0.30
     Davidson diagonalization with overlap
     ethr =  8.59E-10,  avg # of iterations =  9.2

     total cpu time spent up to now is     6227.5 secs

     total energy              =   -4133.52801097 Ry
     estimated scf accuracy    <       0.00000228 Ry

     total magnetization       =     3.67 Bohr mag/cell
     absolute magnetization    =    14.94 Bohr mag/cell

     iteration # 38     ecut=    60.00 Ry     beta= 0.30
     Davidson diagonalization with overlap
     ethr =  8.59E-10,  avg # of iterations =  1.9

     total cpu time spent up to now is     6252.9 secs

     total energy              =   -4133.52801105 Ry
     estimated scf accuracy    <       0.00000022 Ry

     total magnetization       =     3.67 Bohr mag/cell
     absolute magnetization    =    14.93 Bohr mag/cell

     iteration # 39     ecut=    60.00 Ry     beta= 0.30
     Davidson diagonalization with overlap
     ethr =  9.56E-11,  avg # of iterations =  6.0

     total cpu time spent up to now is     6283.0 secs

     total energy              =   -4133.52801124 Ry
     estimated scf accuracy    <       0.00000015 Ry

     total magnetization       =     3.67 Bohr mag/cell
     absolute magnetization    =    14.94 Bohr mag/cell

     iteration # 40     ecut=    60.00 Ry     beta= 0.30
     Davidson diagonalization with overlap
     ethr =  6.54E-11,  avg # of iterations =  5.5
 
     Magnetic moment per site  (integrated on atomic sphere of radius R)
     atom   1 (R=0.179)  charge= 12.1628  magn=  0.8604
     atom   2 (R=0.179)  charge= 14.4733  magn=  0.9724
     atom   3 (R=0.179)  charge= 12.1625  magn=  0.8603
     atom   4 (R=0.179)  charge= 12.1798  magn= -0.8605
     atom   5 (R=0.179)  charge= 12.1625  magn=  0.8603
     atom   6 (R=0.179)  charge= 12.1798  magn= -0.8605
     atom   7 (R=0.179)  charge= 12.1627  magn=  0.8601
     atom   8 (R=0.179)  charge= 12.1798  magn= -0.8605
     atom   9 (R=0.179)  charge= 12.1625  magn=  0.8603
     atom  10 (R=0.179)  charge= 12.1798  magn= -0.8605
     atom  11 (R=0.179)  charge= 12.1627  magn=  0.8601
     atom  12 (R=0.179)  charge= 12.1798  magn= -0.8605
     atom  13 (R=0.179)  charge= 12.1627  magn=  0.8601
     atom  14 (R=0.179)  charge= 12.1798  magn= -0.8605
     atom  15 (R=0.179)  charge= 12.1621  magn=  0.8606
     atom  16 (R=0.179)  charge= 14.4733  magn=  0.9724

     total cpu time spent up to now is     6312.9 secs

     End of self-consistent calculation

 ------ SPIN UP ------------


          k = 0.0000 0.0000 0.0000 (  9627 PWs)   bands (ev):

   -68.1616 -68.1614 -52.7913 -52.7527 -52.7525 -52.7525 -52.7357 -52.7356
   -52.7356 -52.7195 -51.8017 -51.8017 -51.7849 -51.7842 -51.7842 -51.7760
   -34.2214 -34.2214 -34.2213 -34.2175 -34.2175 -34.2174 -24.3539 -24.3539
   -24.3538 -24.2707 -24.2707 -24.2707 -24.1956 -24.1875 -24.1875 -24.1583
   -24.1583 -24.1583 -24.0824 -24.0824 -24.0824 -24.0130 -24.0129 -24.0129
   -24.0091 -24.0091 -24.0090 -23.9986 -23.9925 -23.9925 -23.2457 -23.2457
   -23.2456 -23.1651 -23.1651 -23.1651 -23.0738 -23.0737 -23.0737 -23.0577
   -23.0577 -23.0577 -23.0448 -23.0448 -23.0448 -23.0035 -23.0035 -23.0035
    11.3597  14.6919  14.7650  14.7650  14.9448  14.9448  14.9448  14.9989
    14.9989  15.1263  15.2249  15.2249  15.2249  15.3977  15.3977  16.6885
    16.6885  16.6885  16.7444  16.7444  16.7444  16.9218  16.9218  16.9218
    17.0362  17.0362  17.0362  17.1960  17.1960  17.3148  17.3148  17.3148
    17.9115  18.3015  18.3015  18.3015  18.5991  18.5991  18.5993  18.6092
    18.6092  18.6093  18.6313  18.6314  18.6314  19.0243  19.0243  19.4645
    19.4646  19.4646  19.6312  19.6312  19.7752  20.2216  20.2216  20.2216
    20.2341  20.2341  20.2341  20.3537  20.3537  20.3538  20.5102  20.5102
    20.5418  20.5418  20.5418  20.5512  20.5512  20.5514  20.6114  20.6114
    20.6517

          k =-0.0000-0.0000 0.1656 (  9595 PWs)   bands (ev):

   -68.1615 -68.1613 -52.7888 -52.7552 -52.7515 -52.7514 -52.7368 -52.7367
   -52.7346 -52.7206 -51.8006 -51.8005 -51.7859 -51.7853 -51.7837 -51.7766
   -34.2212 -34.2212 -34.2211 -34.2176 -34.2176 -34.2174 -24.3431 -24.3389
   -24.3388 -24.2662 -24.2592 -24.2592 -24.1985 -24.1977 -24.1837 -24.1697
   -24.1697 -24.1468 -24.0899 -24.0781 -24.0781 -24.0345 -24.0343 -24.0169
   -24.0169 -24.0117 -24.0078 -24.0065 -23.9969 -23.9937 -23.2296 -23.2278
   -23.2277 -23.1564 -23.1552 -23.1552 -23.0715 -23.0696 -23.0696 -23.0658
   -23.0628 -23.0628 -23.0559 -23.0558 -23.0470 -23.0186 -23.0092 -23.0092
    11.5114  14.4521  14.7652  14.8241  14.8628  14.9949  14.9950  15.0695
    15.0755  15.0871  15.2724  15.2776  15.2776  15.4103  15.7144  16.5898
    16.6779  16.6779  16.6942  16.7051  16.7051  16.7668  16.8806  16.9581
    16.9581  17.0084  17.1077  17.1720  17.1720  17.3285  17.3286  17.5399
    18.0704  18.2912  18.2912  18.3341  18.3342  18.3348  18.3522  18.4913
    18.4913  18.7711  18.8334  18.8428  18.8475  18.9345  18.9345  18.9932
    19.4158  19.4854  19.4855  19.6186  19.6186  19.8285  19.8285  19.8985
    19.9695  19.9792  20.2376  20.2592  20.2645  20.2646  20.4623  20.5524
    20.5548  20.5597  20.5597  20.5611  20.5881  20.6084  20.6357  20.6531
    20.7174

          k =-0.0000-0.0000 0.3312 (  9606 PWs)   bands (ev):

   -68.1615 -68.1614 -52.7818 -52.7624 -52.7484 -52.7483 -52.7399 -52.7398
   -52.7316 -52.7236 -51.7973 -51.7973 -51.7889 -51.7886 -51.7822 -51.7781
   -34.2205 -34.2204 -34.2203 -34.2183 -34.2183 -34.2182 -24.3129 -24.2984
   -24.2984 -24.2529 -24.2293 -24.2239 -24.2239 -24.2129 -24.2016 -24.2016
   -24.1648 -24.1175 -24.1106 -24.0947 -24.0946 -24.0667 -24.0666 -24.0359
   -24.0317 -24.0317 -24.0087 -24.0048 -24.0005 -23.9967 -23.1876 -23.1839
   -23.1838 -23.1337 -23.1306 -23.1306 -23.0899 -23.0864 -23.0864 -23.0774
   -23.0773 -23.0661 -23.0586 -23.0586 -23.0575 -23.0521 -23.0241 -23.0241
    11.9547  13.5259  14.9424  14.9873  15.1282  15.1282  15.1527  15.2971
    15.3010  15.3351  15.3453  15.3453  15.3705  15.4207  15.7466  16.1394
    16.1980  16.4662  16.6351  16.6351  16.6949  16.6949  16.9969  17.0972
    17.1302  17.1303  17.2636  17.2877  17.2877  17.6343  17.6343  17.6707
    17.8347  17.9822  17.9822  18.1158  18.2119  18.2614  18.2615  18.3839
    18.3839  18.4533  18.5019  18.5362  18.5363  18.8455  19.0231  19.0611
    19.0749  19.0750  19.2326  19.3246  19.3421  19.3421  19.7708  19.9893
    19.9893  20.0654  20.0655  20.2528  20.2673  20.2781  20.3916  20.5206
    20.5656  20.5943  20.6892  20.6949  20.8109  20.9290  20.9587  20.9587
    20.9883

          k = 0.0000 0.0000-0.4968 (  9626 PWs)   bands (ev):

   -68.1615 -68.1615 -52.7723 -52.7720 -52.7443 -52.7441 -52.7440 -52.7440
   -52.7277 -52.7275 -51.7931 -51.7931 -51.7930 -51.7930 -51.7801 -51.7801
   -34.2194 -34.2194 -34.2194 -34.2194 -34.2193 -34.2193 -24.2713 -24.2713
   -24.2477 -24.2477 -24.2477 -24.2477 -24.2335 -24.2335 -24.1658 -24.1658
   -24.1657 -24.1655 -24.1381 -24.1379 -24.0769 -24.0767 -24.0500 -24.0500
   -24.0500 -24.0499 -24.0046 -24.0046 -24.0007 -24.0007 -23.1334 -23.1333
   -23.1320 -23.1320 -23.1320 -23.1320 -23.1015 -23.1015 -23.1015 -23.1015
   -23.1006 -23.1006 -23.0590 -23.0590 -23.0424 -23.0424 -23.0424 -23.0424
    12.6506  12.6507  15.1606  15.1607  15.2029  15.2030  15.2824  15.2825
    15.2826  15.2826  15.5119  15.5119  15.6627  15.6629  15.7240  15.7241
    15.9273  15.9273  16.6538  16.6538  16.6539  16.6539  17.3629  17.3631
    17.4306  17.4307  17.4310  17.4310  17.4567  17.4567  17.6726  17.6728
    17.7516  17.7517  17.7517  17.7517  18.1477  18.1477  18.1921  18.1921
    18.1921  18.1922  18.4617  18.4618  18.4618  18.4618  18.7432  18.7434
    18.7468  18.7470  19.5777  19.5778  19.7499  19.7499  19.7500  19.7500
    19.8352  19.8353  20.3143  20.3144  20.3965  20.3966  20.4656  20.4656
    20.4656  20.4656  20.5802  20.5803  20.8581  20.8581  20.9152  20.9154
    20.9696

          k =-0.0000 0.1656 0.1656 (  9601 PWs)   bands (ev):

   -68.1615 -68.1614 -52.7863 -52.7545 -52.7535 -52.7503 -52.7380 -52.7357
   -52.7356 -52.7217 -51.7995 -51.7994 -51.7867 -51.7854 -51.7842 -51.7772
   -34.2215 -34.2210 -34.2204 -34.2182 -34.2178 -34.2173 -24.3354 -24.3240
   -24.3238 -24.2569 -24.2524 -24.2484 -24.2070 -24.1949 -24.1943 -24.1728
   -24.1681 -24.1482 -24.0935 -24.0780 -24.0744 -24.0441 -24.0400 -24.0343
   -24.0215 -24.0162 -24.0135 -24.0096 -24.0052 -23.9965 -23.2213 -23.2137
   -23.2128 -23.1481 -23.1468 -23.1464 -23.0792 -23.0760 -23.0721 -23.0668
   -23.0662 -23.0650 -23.0612 -23.0533 -23.0451 -23.0398 -23.0143 -23.0070
    11.6608  14.4506  14.6133  14.7961  14.9012  14.9334  15.0619  15.1190
    15.1206  15.1633  15.1708  15.3429  15.3910  15.7259  15.7661  16.4703
    16.5885  16.6731  16.6780  16.7356  16.7560  16.7678  16.7968  16.9608
    16.9647  16.9979  17.0929  17.1602  17.2290  17.2463  17.2492  17.7597
    17.9657  18.0717  18.1968  18.2631  18.3120  18.3261  18.4816  18.5112
    18.5675  18.6064  18.6204  18.8169  18.8283  18.9665  19.0225  19.0859
    19.1930  19.2304  19.2963  19.3807  19.5070  19.6221  19.6976  19.7079
    19.8622  20.1002  20.1106  20.1697  20.2195  20.2622  20.4597  20.4997
    20.5337  20.6057  20.6195  20.6403  20.6640  20.7410  20.7730  20.8106
    20.8389

          k =-0.0000 0.1656 0.3312 (  9577 PWs)   bands (ev):

   -68.1615 -68.1614 -52.7796 -52.7610 -52.7505 -52.7472 -52.7414 -52.7388
   -52.7327 -52.7247 -51.7968 -51.7964 -51.7894 -51.7881 -51.7830 -51.7787
   -34.2211 -34.2203 -34.2193 -34.2192 -34.2185 -34.2175 -24.3086 -24.2915
   -24.2847 -24.2433 -24.2317 -24.2218 -24.2174 -24.2156 -24.2025 -24.1935
   -24.1652 -24.1224 -24.1110 -24.0949 -24.0901 -24.0697 -24.0637 -24.0443
   -24.0380 -24.0306 -24.0207 -24.0111 -24.0107 -24.0003 -23.1929 -23.1802
   -23.1752 -23.1307 -23.1253 -23.1216 -23.1101 -23.0987 -23.0913 -23.0792
   -23.0792 -23.0648 -23.0629 -23.0570 -23.0490 -23.0442 -23.0271 -23.0166
    12.0961  13.6263  14.6962  14.8243  15.0770  15.2127  15.2520  15.2529
    15.3884  15.4170  15.4197  15.4431  15.4701  15.7050  15.8119  16.1775
    16.2059  16.4153  16.6616  16.7388  16.7568  16.7624  16.8296  16.9728
    17.0677  17.1511  17.1823  17.2332  17.3681  17.4062  17.4867  17.7560
    17.8249  17.9453  18.0218  18.0694  18.1101  18.1431  18.1692  18.1796
    18.3159  18.3855  18.4131  18.6684  18.7033  18.7575  18.8163  18.8370
    19.1047  19.1406  19.1864  19.2065  19.3383  19.4710  19.5610  19.9211
    19.9330  19.9449  19.9488  20.2763  20.3185  20.3652  20.4002  20.5251
    20.5424  20.6046  20.6314  20.6455  20.7219  20.7495  20.7620  20.8372
    20.9124

          k = 0.0000 0.1656-0.4968 (  9608 PWs)   bands (ev):

   -68.1615 -68.1615 -52.7705 -52.7702 -52.7461 -52.7458 -52.7431 -52.7429
   -52.7288 -52.7286 -51.7930 -51.7930 -51.7922 -51.7922 -51.7809 -51.7809
   -34.2204 -34.2203 -34.2194 -34.2194 -34.2183 -34.2182 -24.2699 -24.2699
   -24.2553 -24.2552 -24.2361 -24.2361 -24.2239 -24.2239 -24.1641 -24.1640
   -24.1615 -24.1613 -24.1326 -24.1325 -24.0809 -24.0807 -24.0565 -24.0565
   -24.0473 -24.0473 -24.0163 -24.0163 -24.0056 -24.0056 -23.1517 -23.1517
   -23.1365 -23.1365 -23.1306 -23.1306 -23.1102 -23.1102 -23.1001 -23.1000
   -23.0908 -23.0907 -23.0498 -23.0498 -23.0431 -23.0431 -23.0340 -23.0340
    12.7767  12.7768  14.8086  14.8086  15.2882  15.2883  15.4026  15.4027
    15.4945  15.4945  15.5930  15.5930  15.7297  15.7299  15.7853  15.7854
    15.9649  15.9649  16.6852  16.6852  16.7156  16.7157  17.1487  17.1489
    17.2497  17.2498  17.3895  17.3897  17.4207  17.4208  17.6541  17.6542
    17.7552  17.7552  17.7879  17.7879  18.0560  18.0560  18.1179  18.1179
    18.1858  18.1859  18.2007  18.2008  18.3439  18.3439  18.8584  18.8586
    18.9702  18.9703  19.4331  19.4333  19.6177  19.6178  19.6450  19.6450
    19.9387  19.9387  20.2029  20.2029  20.3541  20.3542  20.4202  20.4203
    20.4217  20.4217  20.6161  20.6161  20.7723  20.7724  20.9145  20.9257
    20.9257

          k =-0.0000 0.3312 0.3312 (  9582 PWs)   bands (ev):

   -68.1615 -68.1614 -52.7736 -52.7583 -52.7553 -52.7454 -52.7442 -52.7359
   -52.7357 -52.7276 -51.7951 -51.7937 -51.7909 -51.7876 -51.7843 -51.7805
   -34.2214 -34.2202 -34.2199 -34.2188 -34.2182 -34.2171 -24.2910 -24.2788
   -24.2492 -24.2457 -24.2323 -24.2313 -24.2182 -24.1911 -24.1863 -24.1857
   -24.1549 -24.1213 -24.1173 -24.1079 -24.0857 -24.0757 -24.0738 -24.0575
   -24.0476 -24.0438 -24.0421 -24.0292 -24.0165 -24.0059 -23.1857 -23.1750
   -23.1537 -23.1348 -23.1317 -23.1284 -23.1171 -23.1121 -23.1059 -23.0939
   -23.0856 -23.0544 -23.0521 -23.0456 -23.0395 -23.0380 -23.0350 -23.0152
    12.5051  13.8218  13.9974  14.5890  15.3297  15.4079  15.4455  15.5580
    15.5811  15.5889  15.6144  15.6494  15.6641  15.7463  15.9067  16.1401
    16.2642  16.3446  16.5111  16.7405  16.8214  16.8255  16.9189  16.9190
    16.9261  17.0009  17.1382  17.2070  17.2875  17.3084  17.5007  17.5736
    17.6717  17.7857  17.8337  17.9012  17.9230  17.9495  18.0101  18.0334
    18.1085  18.1911  18.2864  18.3321  18.4826  18.5633  18.8687  18.9486
    19.0085  19.1112  19.1148  19.3123  19.3402  19.4068  19.6730  19.7108
    19.7266  19.9648  20.1065  20.2939  20.3019  20.3193  20.4048  20.4110
    20.5018  20.5134  20.5451  20.5521  20.5782  20.6232  20.7321  20.7714
    20.7882

          k = 0.0000 0.3312-0.4968 (  9578 PWs)   bands (ev):

   -68.1614 -68.1614 -52.7655 -52.7653 -52.7511 -52.7508 -52.7401 -52.7399
   -52.7318 -52.7316 -51.7930 -51.7930 -51.7903 -51.7903 -51.7828 -51.7828
   -34.2210 -34.2210 -34.2193 -34.2193 -34.2175 -34.2174 -24.2643 -24.2642
   -24.2605 -24.2605 -24.2251 -24.2251 -24.2089 -24.2088 -24.1503 -24.1502
   -24.1451 -24.1450 -24.1235 -24.1233 -24.0886 -24.0885 -24.0757 -24.0757
   -24.0528 -24.0527 -24.0389 -24.0388 -24.0125 -24.0125 -23.1618 -23.1618
   -23.1563 -23.1563 -23.1352 -23.1352 -23.1281 -23.1281 -23.0970 -23.0970
   -23.0669 -23.0669 -23.0443 -23.0443 -23.0361 -23.0361 -23.0254 -23.0254
    13.1337  13.1338  14.2719  14.2719  15.5153  15.5153  15.6348  15.6348
    15.7130  15.7131  15.7803  15.7803  15.8378  15.8379  16.0015  16.0015
    16.0554  16.0554  16.6939  16.6939  16.8317  16.8318  16.8542  16.8543
    17.0654  17.0654  17.0694  17.0695  17.3588  17.3589  17.4179  17.4180
    17.5962  17.5962  17.7378  17.7378  17.8130  17.8130  18.0422  18.0422
    18.1290  18.1291  18.1620  18.1621  18.1737  18.1737  19.0335  19.0336
    19.2037  19.2037  19.2387  19.2388  19.2975  19.2976  19.5275  19.5275
    20.0239  20.0240  20.1734  20.1734  20.2123  20.2123  20.3896  20.3897
    20.4419  20.4420  20.5921  20.5922  20.6784  20.6784  20.6908  20.6908
    20.7871

          k = 0.0000-0.4968-0.4968 (  9580 PWs)   bands (ev):

   -68.1614 -68.1614 -52.7603 -52.7602 -52.7561 -52.7561 -52.7361 -52.7358
   -52.7358 -52.7357 -51.7930 -51.7930 -51.7887 -51.7887 -51.7844 -51.7844
   -34.2213 -34.2212 -34.2193 -34.2193 -34.2171 -34.2171 -24.2659 -24.2658
   -24.2533 -24.2532 -24.2339 -24.2338 -24.1916 -24.1914 -24.1409 -24.1407
   -24.1279 -24.1278 -24.1085 -24.1084 -24.1010 -24.1009 -24.0863 -24.0862
   -24.0829 -24.0828 -24.0353 -24.0352 -24.0174 -24.0172 -23.1653 -23.1653
   -23.1559 -23.1558 -23.1546 -23.1545 -23.1270 -23.1269 -23.0955 -23.0955
   -23.0547 -23.0547 -23.0450 -23.0450 -23.0340 -23.0340 -23.0216 -23.0216
    13.5830  13.5830  13.7581  13.7581  15.5873  15.5873  15.7952  15.7953
    15.8581  15.8581  15.9193  15.9194  15.9478  15.9478  16.1138  16.1138
    16.1814  16.1814  16.5500  16.5501  16.7651  16.7651  16.7952  16.7952
    16.8473  16.8473  17.0878  17.0878  17.2562  17.2562  17.3773  17.3773
    17.4512  17.4513  17.5602  17.5603  17.6417  17.6417  17.9885  17.9885
    18.0831  18.0832  18.0904  18.0905  18.5262  18.5263  18.8322  18.8323
    19.1047  19.1048  19.1901  19.1902  19.4244  19.4245  19.4907  19.4908
    19.9156  19.9157  20.2992  20.2993  20.3617  20.3618  20.3634  20.3634
    20.3680  20.3681  20.4967  20.4967  20.5527  20.5528  20.6235  20.6235
    20.7247

          k = 0.1656 0.1656 0.1656 (  9591 PWs)   bands (ev):

   -68.1615 -68.1614 -52.7840 -52.7532 -52.7532 -52.7519 -52.7369 -52.7369
   -52.7369 -52.7228 -51.7985 -51.7985 -51.7872 -51.7853 -51.7853 -51.7778
   -34.2212 -34.2212 -34.2198 -34.2188 -34.2176 -34.2176 -24.3266 -24.3108
   -24.3108 -24.2446 -24.2440 -24.2440 -24.2044 -24.2044 -24.2027 -24.1693
   -24.1593 -24.1593 -24.0892 -24.0892 -24.0677 -24.0468 -24.0468 -24.0373
   -24.0270 -24.0270 -24.0270 -24.0119 -24.0074 -24.0074 -23.2076 -23.2076
   -23.2019 -23.1420 -23.1420 -23.1348 -23.0920 -23.0920 -23.0768 -23.0663
   -23.0576 -23.0576 -23.0567 -23.0567 -23.0553 -23.0518 -23.0129 -23.0129
    11.8081  14.4699  14.6894  14.6894  14.8753  14.9523  14.9523  15.1650
    15.1650  15.2010  15.2625  15.2625  15.7995  15.7995  15.8071  16.3778
    16.6024  16.6024  16.7177  16.7177  16.7687  16.7687  16.8423  16.8695
    16.9861  17.0800  17.0800  17.0803  17.1091  17.1091  17.6078  17.6078
    17.8388  17.9698  18.1636  18.1636  18.2520  18.2520  18.4886  18.4886
    18.5742  18.5742  18.5784  18.6970  18.7456  18.7456  18.9768  19.0328
    19.1838  19.2473  19.2473  19.2768  19.2768  19.3999  19.3999  19.7854
    20.0140  20.1562  20.1562  20.2094  20.2094  20.2395  20.4959  20.4959
    20.5716  20.5716  20.6152  20.6152  20.6284  20.6690  20.7624  20.7624
    20.8614

          k = 0.1656 0.1656 0.3312 (  9577 PWs)   bands (ev):

   -68.1615 -68.1614 -52.7775 -52.7596 -52.7498 -52.7489 -52.7404 -52.7401
   -52.7339 -52.7258 -51.7960 -51.7957 -51.7894 -51.7881 -51.7838 -51.7794
   -34.2211 -34.2204 -34.2196 -34.2188 -34.2183 -34.2175 -24.3010 -24.2801
   -24.2772 -24.2321 -24.2302 -24.2240 -24.2169 -24.2068 -24.2040 -24.1905
   -24.1617 -24.1291 -24.1095 -24.0906 -24.0904 -24.0774 -24.0594 -24.0442
   -24.0420 -24.0408 -24.0271 -24.0256 -24.0142 -24.0130 -23.1868 -23.1750
   -23.1734 -23.1279 -23.1240 -23.1206 -23.1109 -23.1108 -23.0967 -23.0792
   -23.0755 -23.0718 -23.0665 -23.0464 -23.0461 -23.0448 -23.0286 -23.0181
    12.2364  13.7304  14.7420  14.8586  14.9175  14.9894  15.2536  15.3280
    15.3809  15.4780  15.4883  15.5490  15.7690  15.8474  15.8889  16.2054
    16.2228  16.4499  16.6737  16.6896  16.7595  16.8265  16.8536  16.9356
    16.9686  17.0851  17.1867  17.2535  17.3126  17.3211  17.4414  17.6584
    17.7590  17.8572  17.9543  17.9898  17.9991  18.0649  18.0740  18.1852
    18.1883  18.2534  18.2632  18.4888  18.6040  18.6573  18.8088  18.9142
    18.9333  19.0568  19.1236  19.3332  19.4088  19.4583  19.5877  19.7751
    19.9987  20.0013  20.0515  20.2341  20.3629  20.4080  20.4179  20.4331
    20.4961  20.5400  20.6011  20.6534  20.6688  20.7051  20.8134  20.8301
    20.8590

          k = 0.1656 0.1656-0.4968 (  9588 PWs)   bands (ev):

   -68.1614 -68.1614 -52.7687 -52.7684 -52.7451 -52.7450 -52.7447 -52.7444
   -52.7300 -52.7297 -51.7926 -51.7926 -51.7919 -51.7919 -51.7816 -51.7816
   -34.2206 -34.2205 -34.2194 -34.2194 -34.2180 -34.2179 -24.2657 -24.2656
   -24.2499 -24.2498 -24.2334 -24.2333 -24.2162 -24.2161 -24.1677 -24.1676
   -24.1513 -24.1510 -24.1302 -24.1299 -24.0852 -24.0850 -24.0605 -24.0604
   -24.0500 -24.0499 -24.0206 -24.0206 -24.0199 -24.0198 -23.1544 -23.1544
   -23.1384 -23.1383 -23.1357 -23.1356 -23.1086 -23.1086 -23.0993 -23.0993
   -23.0852 -23.0852 -23.0549 -23.0549 -23.0401 -23.0400 -23.0303 -23.0303
    12.9037  12.9038  14.8860  14.8860  14.9802  14.9802  15.5680  15.5680
    15.6216  15.6216  15.6873  15.6873  15.8148  15.8150  15.8339  15.8340
    16.0080  16.0080  16.7090  16.7090  16.7674  16.7675  17.0634  17.0636
    17.2052  17.2052  17.2724  17.2725  17.3791  17.3791  17.5786  17.5787
    17.6615  17.6615  17.7774  17.7775  17.9928  17.9929  18.0045  18.0045
    18.0540  18.0541  18.1151  18.1151  18.1719  18.1720  18.9463  18.9465
    19.1202  19.1203  19.3130  19.3131  19.4097  19.4098  19.7365  19.7366
    20.0200  20.0201  20.0634  20.0634  20.3808  20.3809  20.4346  20.4347
    20.4387  20.4388  20.6491  20.6492  20.7228  20.7228  20.8404  20.8406
    20.8918

          k = 0.1656 0.3312 0.3312 (  9595 PWs)   bands (ev):

   -68.1615 -68.1614 -52.7717 -52.7568 -52.7541 -52.7461 -52.7443 -52.7373
   -52.7371 -52.7288 -51.7944 -51.7934 -51.7905 -51.7877 -51.7851 -51.7811
   -34.2211 -34.2203 -34.2201 -34.2186 -34.2181 -34.2175 -24.2806 -24.2647
   -24.2466 -24.2381 -24.2256 -24.2175 -24.2162 -24.1977 -24.1824 -24.1805
   -24.1509 -24.1317 -24.1129 -24.1027 -24.0877 -24.0828 -24.0748 -24.0564
   -24.0550 -24.0496 -24.0464 -24.0420 -24.0341 -24.0206 -23.1746 -23.1672
   -23.1522 -23.1332 -23.1320 -23.1273 -23.1218 -23.1137 -23.0929 -23.0909
   -23.0818 -23.0681 -23.0599 -23.0474 -23.0378 -23.0374 -23.0373 -23.0219
    12.6418  13.9348  14.1149  14.7221  15.0482  15.2770  15.3439  15.5059
    15.6172  15.6885  15.7421  15.7745  15.8161  16.0031  16.0517  16.1877
    16.2669  16.4172  16.4909  16.7128  16.7875  16.8334  16.9194  16.9235
    16.9788  17.0014  17.0546  17.1803  17.2323  17.2982  17.4811  17.4896
    17.5122  17.6908  17.7377  17.7580  17.8180  17.8692  17.8907  17.9063
    18.0273  18.0286  18.0880  18.1508  18.2611  18.3698  18.5435  19.0170
    19.0917  19.1455  19.1645  19.2705  19.4034  19.4649  19.6113  19.8547
    19.9108  20.1420  20.2095  20.2591  20.2826  20.3948  20.4414  20.4441
    20.5188  20.5512  20.5806  20.5887  20.5968  20.6440  20.7123  20.7922
    20.8027

          k = 0.1656 0.3312-0.4968 (  9622 PWs)   bands (ev):

   -68.1615 -68.1615 -52.7639 -52.7636 -52.7498 -52.7496 -52.7418 -52.7415
   -52.7331 -52.7329 -51.7924 -51.7924 -51.7902 -51.7902 -51.7835 -51.7835
   -34.2209 -34.2208 -34.2194 -34.2194 -34.2177 -34.2176 -24.2545 -24.2544
   -24.2482 -24.2481 -24.2189 -24.2188 -24.2040 -24.2040 -24.1561 -24.1561
   -24.1369 -24.1367 -24.1232 -24.1231 -24.0953 -24.0952 -24.0784 -24.0784
   -24.0581 -24.0581 -24.0492 -24.0492 -24.0290 -24.0289 -23.1549 -23.1549
   -23.1509 -23.1509 -23.1353 -23.1353 -23.1180 -23.1180 -23.0968 -23.0967
   -23.0707 -23.0707 -23.0531 -23.0530 -23.0394 -23.0394 -23.0285 -23.0285
    13.2627  13.2628  14.4008  14.4009  15.2620  15.2621  15.6762  15.6763
    15.8117  15.8118  15.9004  15.9004  15.9274  15.9274  16.0689  16.0689
    16.1349  16.1350  16.7047  16.7048  16.8210  16.8210  16.8818  16.8818
    17.0398  17.0399  17.0954  17.0954  17.2750  17.2751  17.3173  17.3173
    17.4757  17.4758  17.6336  17.6337  17.7663  17.7664  17.8737  17.8737
    17.9362  17.9362  17.9597  17.9597  18.0370  18.0370  18.8588  18.8588
    19.1059  19.1060  19.2250  19.2251  19.4212  19.4212  19.7681  19.7681
    20.1344  20.1345  20.2134  20.2134  20.3428  20.3429  20.4297  20.4297
    20.4706  20.4707  20.6098  20.6099  20.6661  20.6661  20.7764  20.7783
    20.7839

          k = 0.1656-0.4968-0.4968 (  9588 PWs)   bands (ev):

   -68.1614 -68.1614 -52.7587 -52.7586 -52.7549 -52.7548 -52.7377 -52.7374
   -52.7371 -52.7371 -51.7924 -51.7924 -51.7887 -51.7887 -51.7850 -51.7850
   -34.2210 -34.2210 -34.2193 -34.2193 -34.2174 -34.2174 -24.2508 -24.2507
   -24.2413 -24.2411 -24.2251 -24.2249 -24.1854 -24.1853 -24.1445 -24.1444
   -24.1231 -24.1230 -24.1087 -24.1086 -24.1051 -24.1049 -24.0943 -24.0942
   -24.0915 -24.0914 -24.0468 -24.0467 -24.0353 -24.0351 -23.1568 -23.1568
   -23.1465 -23.1464 -23.1443 -23.1442 -23.1224 -23.1224 -23.0959 -23.0958
   -23.0602 -23.0601 -23.0512 -23.0512 -23.0408 -23.0408 -23.0295 -23.0295
    13.7122  13.7122  13.8917  13.8917  15.5815  15.5815  15.6975  15.6975
    15.7488  15.7488  15.9761  15.9762  16.1918  16.1918  16.1941  16.1941
    16.2757  16.2757  16.5713  16.5714  16.7520  16.7520  16.7896  16.7897
    16.8731  16.8731  17.1135  17.1136  17.1432  17.1433  17.2909  17.2909
    17.3231  17.3232  17.4652  17.4653  17.5959  17.5960  17.8300  17.8300
    17.8873  17.8874  17.9155  17.9156  18.2752  18.2752  18.4425  18.4425
    19.1752  19.1753  19.2226  19.2226  19.5265  19.5266  19.7575  19.7575
    20.2059  20.2060  20.3515  20.3515  20.4172  20.4173  20.4898  20.4899
    20.5297  20.5297  20.5411  20.5412  20.5644  20.5645  20.6347  20.6347
    20.7273

          k = 0.3312 0.3312 0.3312 (  9594 PWs)   bands (ev):

   -68.1615 -68.1614 -52.7664 -52.7527 -52.7527 -52.7493 -52.7414 -52.7414
   -52.7402 -52.7321 -51.7924 -51.7924 -51.7903 -51.7870 -51.7870 -51.7828
   -34.2204 -34.2203 -34.2203 -34.2182 -34.2182 -34.2179 -24.2545 -24.2319
   -24.2319 -24.2192 -24.2192 -24.2169 -24.1959 -24.1808 -24.1808 -24.1605
   -24.1605 -24.1394 -24.1007 -24.1007 -24.0932 -24.0932 -24.0848 -24.0807
   -24.0640 -24.0640 -24.0639 -24.0639 -24.0597 -24.0526 -23.1508 -23.1464
   -23.1464 -23.1339 -23.1339 -23.1306 -23.1125 -23.1125 -23.0847 -23.0818
   -23.0800 -23.0737 -23.0737 -23.0670 -23.0405 -23.0405 -23.0379 -23.0379
    13.0346  14.1817  14.4335  14.4335  15.0117  15.1682  15.1682  15.7438
    15.7438  15.9741  15.9933  15.9933  16.0667  16.0667  16.2120  16.2770
    16.4340  16.4340  16.4695  16.5205  16.7948  16.7948  16.9084  16.9084
    17.0065  17.0065  17.1074  17.1074  17.1313  17.1341  17.4025  17.4380
    17.4380  17.4418  17.4542  17.4542  17.5640  17.6264  17.6895  17.6895
    17.7898  17.7898  17.8190  17.8190  17.9702  17.9702  18.0879  18.7983
    19.1583  19.1583  19.2429  19.2429  19.4760  19.7386  19.7386  20.0882
    20.1662  20.1662  20.2564  20.3923  20.5117  20.5117  20.5194  20.5194
    20.5265  20.5667  20.5998  20.5998  20.6191  20.6191  20.8071  20.8773
    20.8773

          k = 0.3312 0.3312-0.4968 (  9598 PWs)   bands (ev):

   -68.1614 -68.1614 -52.7593 -52.7591 -52.7471 -52.7470 -52.7456 -52.7452
   -52.7366 -52.7364 -51.7912 -51.7912 -51.7897 -51.7897 -51.7851 -51.7851
   -34.2205 -34.2204 -34.2193 -34.2193 -34.2180 -34.2179 -24.2307 -24.2307
   -24.2189 -24.2187 -24.1995 -24.1994 -24.1963 -24.1962 -24.1531 -24.1530
   -24.1346 -24.1343 -24.1178 -24.1176 -24.1128 -24.1127 -24.0844 -24.0842
   -24.0781 -24.0780 -24.0734 -24.0733 -24.0613 -24.0611 -23.1399 -23.1399
   -23.1381 -23.1381 -23.1281 -23.1281 -23.1008 -23.1008 -23.0981 -23.0981
   -23.0789 -23.0789 -23.0661 -23.0660 -23.0498 -23.0498 -23.0397 -23.0396
    13.6270  13.6270  14.6999  14.7001  14.8407  14.8407  15.6908  15.6909
    15.9225  15.9225  16.0197  16.0198  16.2396  16.2396  16.2420  16.2421
    16.3467  16.3468  16.6585  16.6586  16.8543  16.8544  16.9282  16.9283
    16.9466  16.9466  17.0482  17.0482  17.0747  17.0748  17.1596  17.1596
    17.3579  17.3580  17.4667  17.4667  17.5476  17.5477  17.6116  17.6117
    17.6289  17.6290  17.6596  17.6597  17.7311  17.7312  18.2903  18.2904
    19.2237  19.2238  19.2588  19.2589  19.6550  19.6550  20.0019  20.0021
    20.3420  20.3420  20.3766  20.3767  20.4859  20.4860  20.5290  20.5291
    20.5513  20.5514  20.6424  20.6425  20.6516  20.6517  20.7623  20.7624
    20.7937

          k = 0.3312-0.4968-0.4968 (  9632 PWs)   bands (ev):

   -68.1615 -68.1615 -52.7543 -52.7542 -52.7514 -52.7513 -52.7421 -52.7419
   -52.7406 -52.7406 -51.7908 -51.7908 -51.7887 -51.7887 -51.7865 -51.7865
   -34.2203 -34.2202 -34.2193 -34.2193 -34.2182 -34.2182 -24.2096 -24.2095
   -24.2083 -24.2082 -24.1997 -24.1996 -24.1690 -24.1689 -24.1503 -24.1501
   -24.1280 -24.1279 -24.1246 -24.1245 -24.1147 -24.1146 -24.1098 -24.1097
   -24.1034 -24.1033 -24.0784 -24.0783 -24.0701 -24.0700 -23.1356 -23.1356
   -23.1228 -23.1227 -23.1178 -23.1178 -23.1104 -23.1104 -23.0969 -23.0969
   -23.0751 -23.0751 -23.0666 -23.0666 -23.0595 -23.0595 -23.0515 -23.0514
    14.0741  14.0742  14.2688  14.2689  15.2243  15.2244  15.3407  15.3407
    15.9951  15.9952  16.2214  16.2214  16.3046  16.3047  16.4973  16.4973
    16.5844  16.5844  16.6474  16.6474  16.7179  16.7179  16.7723  16.7724
    16.9230  16.9231  16.9382  16.9383  17.0947  17.0947  17.1360  17.1361
    17.1964  17.1964  17.3610  17.3611  17.4499  17.4499  17.4778  17.4779
    17.5438  17.5439  17.5577  17.5577  17.7631  17.7632  17.8448  17.8448
    19.2752  19.2753  19.2884  19.2885  19.7917  19.7917  20.0296  20.0297
    20.3780  20.3780  20.4519  20.4520  20.5696  20.5696  20.6181  20.6181
    20.6772  20.6772  20.6853  20.6853  20.7003  20.7004  20.7202  20.7202
    20.9102

          k =-0.4968-0.4968-0.4968 (  9568 PWs)   bands (ev):

   -68.1614 -68.1614 -52.7485 -52.7481 -52.7481 -52.7480 -52.7480 -52.7479
   -52.7440 -52.7439 -51.7887 -51.7887 -51.7887 -51.7887 -51.7887 -51.7887
   -34.2192 -34.2192 -34.2192 -34.2192 -34.2191 -34.2191 -24.1633 -24.1633
   -24.1632 -24.1632 -24.1631 -24.1630 -24.1630 -24.1629 -24.1629 -24.1627
   -24.1461 -24.1461 -24.1460 -24.1459 -24.1459 -24.1459 -24.1437 -24.1436
   -24.0912 -24.0912 -24.0912 -24.0912 -24.0909 -24.0909 -23.1180 -23.1180
   -23.0995 -23.0995 -23.0995 -23.0995 -23.0994 -23.0994 -23.0873 -23.0873
   -23.0873 -23.0873 -23.0796 -23.0796 -23.0796 -23.0796 -23.0795 -23.0795
    14.4723  14.4723  14.8071  14.8072  14.8072  14.8072  14.8072  14.8072
    16.2362  16.2362  16.2363  16.2363  16.6343  16.6343  16.6344  16.6344
    16.6344  16.6344  16.7611  16.7611  16.7611  16.7611  16.7611  16.7612
    16.9055  16.9057  16.9057  16.9057  16.9057  16.9058  17.3124  17.3125
    17.3185  17.3185  17.3186  17.3186  17.3397  17.3397  17.3399  17.3399
    17.3399  17.3399  17.3399  17.3399  17.3400  17.3400  17.3400  17.3400
    19.3218  19.3218  19.3219  19.3219  20.0962  20.0962  20.0962  20.0963
    20.0964  20.0964  20.6255  20.6255  20.6255  20.6256  20.6256  20.6257
    20.7449  20.7449  20.7449  20.7450  20.7450  20.7450  20.9476  20.9477
    20.9477

          k = 0.0000 0.1656-0.1656 (  9601 PWs)   bands (ev):

   -68.1615 -68.1614 -52.7863 -52.7546 -52.7534 -52.7503 -52.7380 -52.7357
   -52.7357 -52.7217 -51.7995 -51.7994 -51.7867 -51.7854 -51.7842 -51.7772
   -34.2214 -34.2210 -34.2204 -34.2183 -34.2178 -34.2172 -24.3355 -24.3240
   -24.3237 -24.2569 -24.2524 -24.2484 -24.2070 -24.1950 -24.1943 -24.1728
   -24.1681 -24.1482 -24.0935 -24.0780 -24.0744 -24.0441 -24.0399 -24.0343
   -24.0215 -24.0163 -24.0134 -24.0096 -24.0053 -23.9965 -23.2213 -23.2137
   -23.2128 -23.1481 -23.1468 -23.1464 -23.0792 -23.0760 -23.0721 -23.0668
   -23.0662 -23.0650 -23.0612 -23.0533 -23.0451 -23.0398 -23.0143 -23.0070
    11.6608  14.4507  14.6133  14.7961  14.9012  14.9334  15.0619  15.1190
    15.1206  15.1633  15.1708  15.3429  15.3910  15.7259  15.7661  16.4703
    16.5885  16.6731  16.6780  16.7356  16.7560  16.7678  16.7968  16.9608
    16.9647  16.9979  17.0929  17.1602  17.2290  17.2463  17.2492  17.7598
    17.9656  18.0717  18.1968  18.2631  18.3119  18.3261  18.4816  18.5113
    18.5675  18.6065  18.6205  18.8169  18.8283  18.9665  19.0225  19.0860
    19.1930  19.2304  19.2962  19.3807  19.5070  19.6221  19.6976  19.7078
    19.8623  20.1002  20.1106  20.1697  20.2195  20.2621  20.4597  20.4997
    20.5337  20.6057  20.6195  20.6403  20.6640  20.7410  20.7730  20.8107
    20.8389

          k =-0.0000 0.3312-0.1656 (  9577 PWs)   bands (ev):

   -68.1615 -68.1614 -52.7796 -52.7610 -52.7505 -52.7472 -52.7414 -52.7388
   -52.7327 -52.7247 -51.7968 -51.7964 -51.7894 -51.7881 -51.7830 -51.7787
   -34.2211 -34.2203 -34.2194 -34.2193 -34.2185 -34.2174 -24.3086 -24.2914
   -24.2846 -24.2433 -24.2317 -24.2218 -24.2175 -24.2156 -24.2025 -24.1936
   -24.1652 -24.1224 -24.1111 -24.0949 -24.0900 -24.0697 -24.0637 -24.0443
   -24.0380 -24.0307 -24.0207 -24.0111 -24.0107 -24.0003 -23.1929 -23.1803
   -23.1752 -23.1307 -23.1253 -23.1216 -23.1101 -23.0986 -23.0913 -23.0792
   -23.0792 -23.0648 -23.0629 -23.0570 -23.0490 -23.0442 -23.0271 -23.0167
    12.0961  13.6263  14.6962  14.8243  15.0770  15.2127  15.2520  15.2529
    15.3884  15.4170  15.4197  15.4431  15.4701  15.7050  15.8119  16.1775
    16.2059  16.4153  16.6617  16.7388  16.7568  16.7624  16.8296  16.9728
    17.0677  17.1511  17.1823  17.2332  17.3681  17.4063  17.4867  17.7560
    17.8249  17.9453  18.0218  18.0694  18.1102  18.1431  18.1692  18.1796
    18.3160  18.3855  18.4131  18.6684  18.7033  18.7574  18.8163  18.8370
    19.1047  19.1406  19.1864  19.2065  19.3384  19.4710  19.5610  19.9211
    19.9330  19.9449  19.9488  20.2763  20.3186  20.3652  20.4002  20.5251
    20.5424  20.6046  20.6314  20.6456  20.7218  20.7495  20.7620  20.8372
    20.9124

          k = 0.0000 0.3312-0.3312 (  9582 PWs)   bands (ev):

   -68.1615 -68.1614 -52.7736 -52.7584 -52.7552 -52.7455 -52.7442 -52.7358
   -52.7358 -52.7276 -51.7951 -51.7937 -51.7909 -51.7876 -51.7843 -51.7805
   -34.2213 -34.2203 -34.2199 -34.2188 -34.2183 -34.2171 -24.2911 -24.2787
   -24.2491 -24.2458 -24.2322 -24.2313 -24.2183 -24.1911 -24.1863 -24.1858
   -24.1549 -24.1213 -24.1174 -24.1079 -24.0856 -24.0757 -24.0738 -24.0574
   -24.0476 -24.0439 -24.0420 -24.0293 -24.0164 -24.0060 -23.1857 -23.1751
   -23.1537 -23.1348 -23.1317 -23.1283 -23.1171 -23.1121 -23.1059 -23.0939
   -23.0856 -23.0545 -23.0521 -23.0456 -23.0395 -23.0380 -23.0350 -23.0152
    12.5051  13.8218  13.9973  14.5890  15.3297  15.4079  15.4455  15.5580
    15.5811  15.5889  15.6143  15.6494  15.6641  15.7463  15.9067  16.1401
    16.2642  16.3446  16.5110  16.7405  16.8214  16.8256  16.9190  16.9190
    16.9261  17.0009  17.1382  17.2070  17.2875  17.3084  17.5007  17.5737
    17.6717  17.7857  17.8336  17.9012  17.9230  17.9496  18.0101  18.0333
    18.1085  18.1910  18.2865  18.3321  18.4826  18.5633  18.8686  18.9487
    19.0084  19.1113  19.1148  19.3122  19.3403  19.4068  19.6730  19.7107
    19.7266  19.9648  20.1065  20.2939  20.3019  20.3194  20.4048  20.4110
    20.5018  20.5134  20.5452  20.5521  20.5782  20.6232  20.7321  20.7714
    20.7882

          k =-0.1656 0.1656 0.1656 (  9591 PWs)   bands (ev):

   -68.1615 -68.1614 -52.7840 -52.7533 -52.7532 -52.7517 -52.7370 -52.7369
   -52.7368 -52.7228 -51.7985 -51.7985 -51.7872 -51.7853 -51.7853 -51.7778
   -34.2212 -34.2211 -34.2198 -34.2188 -34.2176 -34.2175 -24.3266 -24.3107
   -24.3106 -24.2446 -24.2440 -24.2440 -24.2044 -24.2044 -24.2028 -24.1693
   -24.1594 -24.1593 -24.0892 -24.0891 -24.0677 -24.0468 -24.0467 -24.0372
   -24.0271 -24.0270 -24.0269 -24.0119 -24.0074 -24.0074 -23.2076 -23.2075
   -23.2020 -23.1420 -23.1420 -23.1347 -23.0920 -23.0919 -23.0768 -23.0663
   -23.0576 -23.0576 -23.0567 -23.0567 -23.0553 -23.0518 -23.0129 -23.0129
    11.8081  14.4699  14.6894  14.6894  14.8753  14.9523  14.9523  15.1650
    15.1650  15.2009  15.2626  15.2626  15.7995  15.7995  15.8071  16.3778
    16.6024  16.6024  16.7177  16.7177  16.7687  16.7687  16.8422  16.8695
    16.9860  17.0800  17.0800  17.0803  17.1091  17.1091  17.6078  17.6078
    17.8388  17.9698  18.1636  18.1636  18.2519  18.2520  18.4886  18.4886
    18.5742  18.5743  18.5783  18.6970  18.7457  18.7457  18.9767  19.0329
    19.1838  19.2472  19.2472  19.2768  19.2768  19.3998  19.3999  19.7855
    20.0140  20.1562  20.1562  20.2094  20.2094  20.2395  20.4959  20.4959
    20.5716  20.5716  20.6152  20.6152  20.6284  20.6690  20.7624  20.7625
    20.8614

          k =-0.1656 0.3312 0.1656 (  9577 PWs)   bands (ev):

   -68.1615 -68.1614 -52.7775 -52.7596 -52.7499 -52.7488 -52.7404 -52.7401
   -52.7339 -52.7258 -51.7960 -51.7957 -51.7894 -51.7881 -51.7838 -51.7794
   -34.2210 -34.2203 -34.2197 -34.2189 -34.2183 -34.2175 -24.3011 -24.2800
   -24.2771 -24.2322 -24.2302 -24.2240 -24.2168 -24.2068 -24.2041 -24.1905
   -24.1617 -24.1291 -24.1095 -24.0905 -24.0905 -24.0774 -24.0593 -24.0442
   -24.0421 -24.0408 -24.0271 -24.0255 -24.0142 -24.0130 -23.1868 -23.1750
   -23.1733 -23.1279 -23.1241 -23.1206 -23.1108 -23.1108 -23.0967 -23.0792
   -23.0755 -23.0718 -23.0665 -23.0464 -23.0461 -23.0448 -23.0286 -23.0181
    12.2364  13.7304  14.7420  14.8585  14.9175  14.9894  15.2536  15.3280
    15.3809  15.4780  15.4884  15.5491  15.7690  15.8474  15.8889  16.2054
    16.2228  16.4499  16.6737  16.6896  16.7595  16.8265  16.8536  16.9355
    16.9686  17.0850  17.1867  17.2535  17.3126  17.3211  17.4414  17.6584
    17.7590  17.8572  17.9543  17.9898  17.9990  18.0649  18.0740  18.1853
    18.1882  18.2535  18.2632  18.4888  18.6040  18.6573  18.8088  18.9142
    18.9333  19.0569  19.1236  19.3332  19.4088  19.4583  19.5877  19.7751
    19.9987  20.0013  20.0515  20.2341  20.3629  20.4080  20.4179  20.4332
    20.4961  20.5400  20.6011  20.6534  20.6688  20.7051  20.8134  20.8301
    20.8590

          k = 0.1656-0.3312 0.1656 (  9577 PWs)   bands (ev):

   -68.1615 -68.1614 -52.7775 -52.7596 -52.7498 -52.7489 -52.7404 -52.7402
   -52.7339 -52.7258 -51.7960 -51.7957 -51.7894 -51.7881 -51.7838 -51.7794
   -34.2210 -34.2204 -34.2197 -34.2189 -34.2183 -34.2174 -24.3011 -24.2800
   -24.2771 -24.2322 -24.2302 -24.2241 -24.2168 -24.2068 -24.2040 -24.1905
   -24.1617 -24.1291 -24.1096 -24.0905 -24.0904 -24.0774 -24.0594 -24.0442
   -24.0421 -24.0408 -24.0271 -24.0255 -24.0143 -24.0130 -23.1868 -23.1751
   -23.1734 -23.1279 -23.1240 -23.1206 -23.1108 -23.1108 -23.0966 -23.0792
   -23.0755 -23.0718 -23.0666 -23.0464 -23.0461 -23.0448 -23.0286 -23.0181
    12.2364  13.7304  14.7420  14.8586  14.9175  14.9894  15.2536  15.3280
    15.3809  15.4780  15.4884  15.5490  15.7690  15.8474  15.8889  16.2054
    16.2228  16.4500  16.6737  16.6895  16.7595  16.8265  16.8536  16.9356
    16.9686  17.0851  17.1867  17.2535  17.3126  17.3211  17.4413  17.6584
    17.7590  17.8572  17.9543  17.9898  17.9991  18.0649  18.0740  18.1852
    18.1882  18.2535  18.2632  18.4888  18.6040  18.6573  18.8088  18.9142
    18.9333  19.0570  19.1236  19.3332  19.4087  19.4583  19.5877  19.7751
    19.9986  20.0013  20.0515  20.2341  20.3629  20.4080  20.4179  20.4331
    20.4961  20.5400  20.6011  20.6534  20.6687  20.7051  20.8134  20.8301
    20.8590

          k =-0.1656-0.4968 0.1656 (  9588 PWs)   bands (ev):

   -68.1614 -68.1614 -52.7687 -52.7684 -52.7453 -52.7450 -52.7445 -52.7444
   -52.7300 -52.7297 -51.7926 -51.7926 -51.7919 -51.7919 -51.7816 -51.7816
   -34.2206 -34.2206 -34.2193 -34.2193 -34.2180 -34.2180 -24.2657 -24.2657
   -24.2498 -24.2498 -24.2334 -24.2333 -24.2162 -24.2162 -24.1677 -24.1675
   -24.1513 -24.1512 -24.1300 -24.1300 -24.0852 -24.0850 -24.0605 -24.0605
   -24.0499 -24.0499 -24.0206 -24.0206 -24.0198 -24.0198 -23.1544 -23.1544
   -23.1384 -23.1384 -23.1356 -23.1356 -23.1086 -23.1086 -23.0994 -23.0994
   -23.0852 -23.0852 -23.0549 -23.0549 -23.0400 -23.0400 -23.0303 -23.0303
    12.9037  12.9038  14.8860  14.8860  14.9802  14.9802  15.5680  15.5680
    15.6216  15.6216  15.6873  15.6873  15.8148  15.8150  15.8339  15.8340
    16.0080  16.0080  16.7090  16.7090  16.7674  16.7675  17.0635  17.0636
    17.2052  17.2053  17.2722  17.2725  17.3790  17.3791  17.5786  17.5787
    17.6615  17.6615  17.7775  17.7775  17.9928  17.9929  18.0045  18.0045
    18.0540  18.0541  18.1151  18.1151  18.1719  18.1719  18.9464  18.9465
    19.1202  19.1203  19.3130  19.3131  19.4097  19.4098  19.7366  19.7366
    20.0200  20.0201  20.0634  20.0634  20.3808  20.3809  20.4346  20.4347
    20.4387  20.4387  20.6491  20.6491  20.7227  20.7228  20.8404  20.8405
    20.8918

          k =-0.1656 0.3312 0.3312 (  9595 PWs)   bands (ev):

   -68.1615 -68.1614 -52.7717 -52.7568 -52.7541 -52.7460 -52.7443 -52.7373
   -52.7371 -52.7288 -51.7944 -51.7934 -51.7905 -51.7877 -51.7851 -51.7811
   -34.2211 -34.2204 -34.2200 -34.2186 -34.2181 -34.2175 -24.2807 -24.2647
   -24.2464 -24.2381 -24.2256 -24.2175 -24.2164 -24.1976 -24.1824 -24.1806
   -24.1509 -24.1317 -24.1129 -24.1026 -24.0876 -24.0829 -24.0749 -24.0563
   -24.0551 -24.0496 -24.0465 -24.0420 -24.0341 -24.0206 -23.1746 -23.1672
   -23.1522 -23.1332 -23.1320 -23.1273 -23.1218 -23.1138 -23.0930 -23.0909
   -23.0819 -23.0680 -23.0599 -23.0474 -23.0378 -23.0374 -23.0373 -23.0219
    12.6418  13.9348  14.1149  14.7221  15.0482  15.2770  15.3439  15.5059
    15.6171  15.6885  15.7421  15.7745  15.8161  16.0031  16.0517  16.1877
    16.2669  16.4172  16.4909  16.7127  16.7875  16.8334  16.9194  16.9235
    16.9788  17.0014  17.0546  17.1803  17.2324  17.2982  17.4811  17.4896
    17.5122  17.6908  17.7377  17.7580  17.8180  17.8692  17.8907  17.9063
    18.0273  18.0287  18.0880  18.1508  18.2611  18.3698  18.5435  19.0171
    19.0917  19.1455  19.1645  19.2705  19.4034  19.4648  19.6113  19.8547
    19.9108  20.1420  20.2095  20.2591  20.2827  20.3948  20.4414  20.4441
    20.5188  20.5512  20.5805  20.5887  20.5969  20.6440  20.7123  20.7922
    20.8027

          k = 0.1656 0.3312-0.3312 (  9595 PWs)   bands (ev):

   -68.1615 -68.1614 -52.7717 -52.7569 -52.7540 -52.7460 -52.7443 -52.7374
   -52.7370 -52.7288 -51.7944 -51.7934 -51.7905 -51.7877 -51.7851 -51.7811
   -34.2210 -34.2204 -34.2200 -34.2186 -34.2182 -34.2174 -24.2807 -24.2645
   -24.2464 -24.2382 -24.2255 -24.2176 -24.2163 -24.1976 -24.1825 -24.1806
   -24.1509 -24.1317 -24.1130 -24.1026 -24.0875 -24.0828 -24.0749 -24.0563
   -24.0551 -24.0496 -24.0464 -24.0421 -24.0340 -24.0207 -23.1746 -23.1673
   -23.1522 -23.1331 -23.1320 -23.1273 -23.1218 -23.1138 -23.0929 -23.0908
   -23.0819 -23.0680 -23.0599 -23.0474 -23.0378 -23.0374 -23.0373 -23.0219
    12.6418  13.9348  14.1149  14.7221  15.0482  15.2770  15.3439  15.5059
    15.6172  15.6885  15.7421  15.7745  15.8161  16.0031  16.0517  16.1876
    16.2669  16.4172  16.4909  16.7128  16.7875  16.8334  16.9194  16.9235
    16.9788  17.0015  17.0546  17.1803  17.2324  17.2981  17.4811  17.4896
    17.5122  17.6908  17.7377  17.7580  17.8180  17.8692  17.8908  17.9063
    18.0273  18.0287  18.0881  18.1508  18.2611  18.3698  18.5434  19.0171
    19.0918  19.1455  19.1645  19.2704  19.4034  19.4649  19.6113  19.8547
    19.9108  20.1420  20.2095  20.2591  20.2827  20.3949  20.4414  20.4441
    20.5189  20.5512  20.5805  20.5887  20.5968  20.6441  20.7123  20.7922
    20.8027

          k =-0.1656-0.4968 0.3312 (  9622 PWs)   bands (ev):

   -68.1615 -68.1615 -52.7639 -52.7636 -52.7498 -52.7496 -52.7417 -52.7415
   -52.7331 -52.7329 -51.7924 -51.7924 -51.7902 -51.7902 -51.7835 -51.7835
   -34.2209 -34.2209 -34.2193 -34.2193 -34.2177 -34.2176 -24.2545 -24.2545
   -24.2481 -24.2481 -24.2188 -24.2188 -24.2041 -24.2040 -24.1561 -24.1559
   -24.1368 -24.1368 -24.1232 -24.1231 -24.0953 -24.0952 -24.0784 -24.0784
   -24.0581 -24.0581 -24.0493 -24.0492 -24.0290 -24.0289 -23.1549 -23.1549
   -23.1509 -23.1509 -23.1353 -23.1353 -23.1180 -23.1180 -23.0968 -23.0968
   -23.0707 -23.0707 -23.0531 -23.0530 -23.0394 -23.0394 -23.0285 -23.0285
    13.2627  13.2628  14.4008  14.4009  15.2620  15.2621  15.6762  15.6763
    15.8117  15.8118  15.9004  15.9004  15.9274  15.9274  16.0689  16.0689
    16.1350  16.1350  16.7047  16.7048  16.8210  16.8210  16.8818  16.8818
    17.0398  17.0398  17.0954  17.0954  17.2750  17.2751  17.3173  17.3174
    17.4758  17.4758  17.6337  17.6337  17.7663  17.7664  17.8737  17.8737
    17.9362  17.9362  17.9597  17.9597  18.0370  18.0370  18.8588  18.8588
    19.1059  19.1060  19.2251  19.2251  19.4212  19.4212  19.7681  19.7681
    20.1344  20.1345  20.2134  20.2134  20.3428  20.3429  20.4297  20.4297
    20.4707  20.4707  20.6098  20.6099  20.6661  20.6661  20.7765  20.7780
    20.7839

          k =-0.3312 0.3312 0.3312 (  9594 PWs)   bands (ev):

   -68.1615 -68.1614 -52.7664 -52.7528 -52.7527 -52.7492 -52.7415 -52.7414
   -52.7401 -52.7321 -51.7924 -51.7924 -51.7903 -51.7870 -51.7870 -51.7828
   -34.2205 -34.2203 -34.2203 -34.2182 -34.2182 -34.2180 -24.2546 -24.2318
   -24.2317 -24.2193 -24.2192 -24.2170 -24.1958 -24.1809 -24.1808 -24.1605
   -24.1605 -24.1394 -24.1008 -24.1007 -24.0931 -24.0931 -24.0846 -24.0808
   -24.0641 -24.0640 -24.0640 -24.0639 -24.0597 -24.0526 -23.1509 -23.1464
   -23.1464 -23.1339 -23.1338 -23.1306 -23.1125 -23.1125 -23.0847 -23.0818
   -23.0800 -23.0737 -23.0736 -23.0670 -23.0405 -23.0405 -23.0379 -23.0378
    13.0346  14.1817  14.4334  14.4335  15.0117  15.1682  15.1682  15.7438
    15.7438  15.9741  15.9934  15.9934  16.0668  16.0668  16.2120  16.2770
    16.4340  16.4340  16.4695  16.5204  16.7948  16.7948  16.9084  16.9084
    17.0065  17.0065  17.1074  17.1074  17.1313  17.1341  17.4025  17.4380
    17.4380  17.4419  17.4541  17.4542  17.5639  17.6263  17.6894  17.6895
    17.7898  17.7898  17.8190  17.8190  17.9702  17.9703  18.0879  18.7983
    19.1584  19.1584  19.2428  19.2429  19.4760  19.7386  19.7386  20.0881
    20.1661  20.1662  20.2563  20.3923  20.5117  20.5117  20.5194  20.5194
    20.5265  20.5667  20.5998  20.5998  20.6191  20.6191  20.8070  20.8773
    20.8773

          k =-0.3312-0.4968 0.3312 (  9598 PWs)   bands (ev):

   -68.1614 -68.1614 -52.7593 -52.7591 -52.7473 -52.7470 -52.7453 -52.7452
   -52.7366 -52.7364 -51.7912 -51.7912 -51.7897 -51.7897 -51.7851 -51.7851
   -34.2205 -34.2205 -34.2192 -34.2192 -34.2180 -34.2180 -24.2308 -24.2307
   -24.2187 -24.2187 -24.1994 -24.1994 -24.1964 -24.1963 -24.1531 -24.1528
   -24.1345 -24.1345 -24.1177 -24.1177 -24.1128 -24.1126 -24.0844 -24.0843
   -24.0781 -24.0781 -24.0733 -24.0733 -24.0612 -24.0612 -23.1399 -23.1399
   -23.1381 -23.1381 -23.1280 -23.1280 -23.1008 -23.1008 -23.0981 -23.0981
   -23.0789 -23.0789 -23.0661 -23.0661 -23.0498 -23.0498 -23.0397 -23.0396
    13.6270  13.6270  14.7000  14.7000  14.8407  14.8407  15.6908  15.6909
    15.9225  15.9225  16.0197  16.0198  16.2396  16.2396  16.2420  16.2421
    16.3468  16.3468  16.6585  16.6585  16.8543  16.8543  16.9282  16.9283
    16.9465  16.9467  17.0482  17.0482  17.0746  17.0748  17.1596  17.1596
    17.3579  17.3579  17.4667  17.4668  17.5476  17.5476  17.6117  17.6117
    17.6289  17.6290  17.6596  17.6597  17.7312  17.7312  18.2903  18.2904
    19.2237  19.2238  19.2589  19.2589  19.6550  19.6550  20.0020  20.0020
    20.3420  20.3420  20.3766  20.3767  20.4859  20.4860  20.5290  20.5291
    20.5513  20.5513  20.6424  20.6425  20.6516  20.6517  20.7623  20.7624
    20.7937

 ------ SPIN DOWN ----------


          k = 0.0000 0.0000 0.0000 (  9627 PWs)   bands (ev):

   -67.0174 -67.0171 -52.7606 -52.7284 -52.7284 -52.7115 -52.7115 -52.7036
   -51.8121 -51.8121 -51.8119 -51.8019 -51.7946 -51.7946 -51.7944 -51.7779
   -33.1089 -33.1089 -33.1089 -33.1046 -33.1046 -33.1046 -24.3227 -24.3227
   -24.3227 -24.2430 -24.2430 -24.2430 -24.1387 -24.1387 -24.1387 -24.1096
   -24.1096 -24.1096 -24.0125 -24.0125 -24.0125 -23.9700 -23.9700 -23.9700
   -23.2766 -23.2685 -23.2685 -23.2372 -23.2372 -23.2372 -23.1532 -23.1532
   -23.1531 -23.0864 -23.0864 -23.0863 -23.0826 -23.0825 -23.0825 -23.0712
   -23.0650 -23.0650 -23.0459 -23.0458 -23.0458 -23.0029 -23.0028 -23.0028
    11.3951  14.8221  14.9645  14.9645  14.9645  15.0176  15.0176  15.0504
    15.2943  15.2943  15.3953  15.3953  15.4516  15.4516  15.4516  16.8495
    16.8495  16.8495  16.9294  16.9295  16.9295  16.9902  16.9902  16.9903
    17.3104  17.3104  17.3104  17.3245  17.5173  17.5173  17.9498  17.9499
    17.9499  18.4405  18.4405  18.4405  18.5416  18.5416  18.5416  18.6054
    18.6054  18.6054  19.4026  19.4026  19.4027  19.4844  19.4845  19.4845
    19.5686  19.5686  19.5686  20.2964  20.2964  20.2964  20.4434  20.4809
    20.4809  20.5319  20.5319  20.5320  20.5501  20.5501  20.5700  20.6040
    20.6040  20.6089  20.6205  20.6205  20.6349  20.6349  20.6557  20.6557
    20.6557

          k =-0.0000-0.0000 0.1656 (  9595 PWs)   bands (ev):

   -67.0172 -67.0172 -52.7583 -52.7303 -52.7273 -52.7126 -52.7111 -52.7044
   -51.8113 -51.8110 -51.8108 -51.8026 -51.7958 -51.7956 -51.7934 -51.7790
   -33.1087 -33.1087 -33.1086 -33.1047 -33.1047 -33.1046 -24.3113 -24.3113
   -24.3032 -24.2363 -24.2347 -24.2347 -24.1508 -24.1508 -24.1385 -24.1199
   -24.1199 -24.1116 -24.0204 -24.0100 -24.0100 -23.9998 -23.9732 -23.9732
   -23.2673 -23.2494 -23.2469 -23.2258 -23.2258 -23.2253 -23.1612 -23.1539
   -23.1538 -23.0867 -23.0866 -23.0850 -23.0812 -23.0794 -23.0770 -23.0770
   -23.0695 -23.0664 -23.0573 -23.0526 -23.0526 -23.0200 -23.0081 -23.0081
    11.5472  14.5093  14.8957  15.0221  15.0221  15.0791  15.0806  15.1199
    15.2141  15.3647  15.3744  15.4554  15.4859  15.4859  15.8796  16.7109
    16.8090  16.8090  16.9292  16.9292  16.9639  17.0065  17.0500  17.0501
    17.0638  17.1079  17.3578  17.4845  17.4845  17.4981  17.7651  17.7651
    18.3734  18.4142  18.4312  18.4313  18.4550  18.4883  18.5143  18.5143
    18.8107  18.8108  18.9198  18.9198  19.4194  19.4952  19.5250  19.5969
    19.6067  19.6207  19.6207  19.7643  19.7643  19.9908  19.9908  20.2016
    20.2016  20.4175  20.4497  20.5114  20.5129  20.5680  20.5738  20.5738
    20.6007  20.6113  20.6574  20.6912  20.7096  20.8203  20.8299  21.1360
    21.3340

          k =-0.0000-0.0000 0.3312 (  9606 PWs)   bands (ev):

   -67.0173 -67.0172 -52.7521 -52.7357 -52.7242 -52.7157 -52.7101 -52.7064
   -51.8094 -51.8078 -51.8076 -51.8044 -51.7990 -51.7988 -51.7904 -51.7821
   -33.1079 -33.1079 -33.1077 -33.1055 -33.1055 -33.1053 -24.2790 -24.2790
   -24.2474 -24.2171 -24.2116 -24.2116 -24.1858 -24.1858 -24.1573 -24.1461
   -24.1461 -24.0985 -24.0749 -24.0423 -24.0031 -24.0031 -23.9822 -23.9822
   -23.2434 -23.1987 -23.1985 -23.1985 -23.1959 -23.1948 -23.1825 -23.1572
   -23.1572 -23.1101 -23.0892 -23.0879 -23.0878 -23.0819 -23.0780 -23.0733
   -23.0695 -23.0685 -23.0685 -23.0669 -23.0620 -23.0620 -23.0225 -23.0225
    11.9917  13.5726  15.0592  15.1788  15.1788  15.2500  15.2664  15.3999
    15.4178  15.5001  15.5001  15.5331  15.5740  15.6144  15.9540  16.3412
    16.3951  16.6243  16.7828  16.7828  16.8764  16.8764  17.2309  17.2771
    17.2890  17.2891  17.3946  17.5542  17.7193  17.7194  17.9017  17.9017
    18.0026  18.0058  18.2036  18.2036  18.4132  18.4132  18.4487  18.4488
    18.6065  18.6184  18.6287  18.8772  18.8772  19.1223  19.1314  19.2022
    19.2022  19.4276  19.4276  19.7967  19.8730  20.0575  20.0575  20.2062
    20.2933  20.3228  20.3228  20.3377  20.5414  20.5691  20.5916  20.6112
    20.7701  20.7943  20.8555  20.8555  20.9865  21.1405  21.1786  21.2085
    21.2113

          k = 0.0000 0.0000-0.4968 (  9626 PWs)   bands (ev):

   -67.0173 -67.0173 -52.7438 -52.7437 -52.7200 -52.7200 -52.7085 -52.7085
   -51.8069 -51.8068 -51.8036 -51.8033 -51.8032 -51.8031 -51.7863 -51.7862
   -33.1067 -33.1067 -33.1067 -33.1067 -33.1065 -33.1065 -24.2334 -24.2333
   -24.2333 -24.2333 -24.1883 -24.1883 -24.1795 -24.1795 -24.1795 -24.1795
   -24.1657 -24.1656 -24.0712 -24.0712 -23.9932 -23.9932 -23.9932 -23.9932
   -23.2124 -23.2123 -23.1713 -23.1713 -23.1713 -23.1711 -23.1527 -23.1525
   -23.1382 -23.1381 -23.1321 -23.1319 -23.0834 -23.0833 -23.0833 -23.0831
   -23.0777 -23.0776 -23.0738 -23.0737 -23.0421 -23.0421 -23.0420 -23.0420
    12.6905  12.6906  15.2159  15.2159  15.3759  15.3759  15.3760  15.3760
    15.4493  15.4493  15.7542  15.7542  15.8582  15.8583  15.9193  15.9196
    16.0564  16.0565  16.8138  16.8138  16.8139  16.8139  17.5794  17.5794
    17.6058  17.6060  17.6792  17.6793  17.6794  17.6795  17.8215  17.8215
    17.9122  17.9123  18.1217  18.1218  18.1219  18.1220  18.4096  18.4096
    18.4097  18.4097  18.4876  18.4876  18.4876  18.4876  18.8505  18.8507
    19.7274  19.7275  19.9259  19.9259  19.9259  19.9260  20.0772  20.0774
    20.1393  20.1395  20.5793  20.5794  20.5841  20.5842  20.6220  20.6220
    20.6220  20.6220  20.9373  20.9373  20.9494  20.9496  21.3401  21.3402
    21.3640

          k =-0.0000 0.1656 0.1656 (  9601 PWs)   bands (ev):

   -67.0173 -67.0172 -52.7561 -52.7305 -52.7276 -52.7131 -52.7115 -52.7053
   -51.8107 -51.8098 -51.8097 -51.8032 -51.7967 -51.7947 -51.7945 -51.7802
   -33.1090 -33.1085 -33.1078 -33.1054 -33.1050 -33.1044 -24.3010 -24.3003
   -24.2863 -24.2330 -24.2272 -24.2233 -24.1616 -24.1571 -24.1468 -24.1303
   -24.1282 -24.1095 -24.0230 -24.0136 -24.0084 -24.0080 -23.9906 -23.9764
   -23.2616 -23.2349 -23.2315 -23.2268 -23.2139 -23.2046 -23.1667 -23.1568
   -23.1541 -23.0948 -23.0850 -23.0836 -23.0832 -23.0821 -23.0764 -23.0725
   -23.0705 -23.0701 -23.0681 -23.0535 -23.0525 -23.0403 -23.0128 -23.0080
    11.6969  14.5234  14.6563  14.9209  15.0740  15.1277  15.1449  15.1908
    15.1981  15.3914  15.4438  15.4490  15.5332  15.9002  15.9352  16.6042
    16.7377  16.8414  16.9222  16.9880  16.9917  17.0013  17.0098  17.0402
    17.0626  17.1888  17.2273  17.3487  17.4089  17.5465  17.5897  18.0951
    18.1005  18.2847  18.3297  18.3306  18.3819  18.4145  18.5941  18.6248
    18.9109  18.9788  19.0099  19.0186  19.0649  19.0945  19.3010  19.3711
    19.4534  19.6043  19.6083  19.6092  19.6664  19.7044  20.0291  20.0652
    20.3589  20.4395  20.4532  20.4848  20.4927  20.5664  20.5909  20.6101
    20.6112  20.6226  20.6254  20.8644  20.8762  20.8909  20.9749  21.0084
    21.0519

          k =-0.0000 0.1656 0.3312 (  9577 PWs)   bands (ev):

   -67.0172 -67.0172 -52.7502 -52.7349 -52.7250 -52.7161 -52.7108 -52.7073
   -51.8091 -51.8070 -51.8065 -51.8047 -51.7994 -51.7978 -51.7915 -51.7832
   -33.1085 -33.1077 -33.1066 -33.1065 -33.1057 -33.1046 -24.2723 -24.2715
   -24.2394 -24.2161 -24.2066 -24.1967 -24.1913 -24.1900 -24.1645 -24.1506
   -24.1498 -24.0978 -24.0683 -24.0427 -24.0101 -24.0022 -23.9975 -23.9844
   -23.2436 -23.2071 -23.1978 -23.1937 -23.1874 -23.1845 -23.1725 -23.1605
   -23.1575 -23.1130 -23.1028 -23.0993 -23.0914 -23.0848 -23.0830 -23.0801
   -23.0702 -23.0696 -23.0632 -23.0580 -23.0576 -23.0573 -23.0253 -23.0182
    12.1335  13.6756  14.7559  14.9310  15.2609  15.2895  15.4037  15.4565
    15.4848  15.4888  15.5804  15.6562  15.6819  15.9024  16.0134  16.3392
    16.4347  16.5700  16.8161  16.9283  16.9298  16.9427  17.1043  17.1847
    17.2219  17.2372  17.3898  17.4579  17.4818  17.7104  17.8303  17.9036
    17.9542  18.1370  18.1505  18.2200  18.2417  18.2836  18.3124  18.3746
    18.4296  18.4905  18.7414  18.7705  18.8244  18.8846  18.9619  19.1564
    19.3496  19.4775  19.5061  19.8273  19.8877  19.9823  20.0013  20.1061
    20.2530  20.3340  20.3534  20.4317  20.5082  20.5947  20.5997  20.6104
    20.7005  20.7154  20.7202  20.8497  20.8987  21.0255  21.0514  21.0947
    21.1095

          k = 0.0000 0.1656-0.4968 (  9608 PWs)   bands (ev):

   -67.0172 -67.0172 -52.7423 -52.7423 -52.7206 -52.7206 -52.7093 -52.7093
   -51.8070 -51.8069 -51.8033 -51.8031 -51.8022 -51.8021 -51.7874 -51.7873
   -33.1077 -33.1077 -33.1067 -33.1067 -33.1054 -33.1054 -24.2323 -24.2323
   -24.2321 -24.2321 -24.1940 -24.1940 -24.1828 -24.1827 -24.1784 -24.1784
   -24.1453 -24.1453 -24.0711 -24.0711 -24.0033 -24.0033 -23.9939 -23.9939
   -23.2163 -23.2162 -23.1765 -23.1765 -23.1712 -23.1711 -23.1428 -23.1427
   -23.1421 -23.1419 -23.1392 -23.1391 -23.1027 -23.1027 -23.0760 -23.0759
   -23.0750 -23.0749 -23.0637 -23.0637 -23.0421 -23.0419 -23.0368 -23.0367
    12.8176  12.8177  14.8895  14.8896  15.4394  15.4394  15.4798  15.4800
    15.6835  15.6835  15.8309  15.8310  15.9025  15.9025  15.9902  15.9904
    16.0990  16.0992  16.8491  16.8492  16.8779  16.8780  17.4201  17.4201
    17.4777  17.4778  17.5074  17.5074  17.6255  17.6257  17.8966  17.8967
    17.9039  17.9039  18.1443  18.1444  18.1661  18.1663  18.1988  18.1989
    18.2611  18.2611  18.3337  18.3338  18.3453  18.3453  19.0428  19.0429
    19.8094  19.8094  19.8582  19.8583  19.9657  19.9659  20.1156  20.1157
    20.1685  20.1687  20.3475  20.3475  20.4837  20.4838  20.5617  20.5619
    20.6331  20.6331  20.8952  20.8952  20.9055  20.9056  21.1083  21.1285
    21.1285

          k =-0.0000 0.3312 0.3312 (  9582 PWs)   bands (ev):

   -67.0173 -67.0171 -52.7452 -52.7345 -52.7256 -52.7183 -52.7116 -52.7092
   -51.8083 -51.8058 -51.8053 -51.8033 -51.8009 -51.7948 -51.7946 -51.7863
   -33.1088 -33.1076 -33.1073 -33.1061 -33.1055 -33.1042 -24.2543 -24.2542
   -24.2181 -24.2078 -24.2073 -24.2047 -24.1934 -24.1799 -24.1619 -24.1604
   -24.1586 -24.0924 -24.0684 -24.0498 -24.0267 -24.0235 -23.9997 -23.9895
   -23.2374 -23.2024 -23.1988 -23.1875 -23.1833 -23.1674 -23.1616 -23.1581
   -23.1446 -23.1323 -23.1238 -23.1223 -23.1152 -23.1072 -23.0749 -23.0736
   -23.0671 -23.0617 -23.0604 -23.0548 -23.0518 -23.0438 -23.0343 -23.0185
    12.5445  13.9119  14.0054  14.6712  15.5398  15.5622  15.6157  15.6351
    15.6774  15.7045  15.7330  15.8648  15.8891  15.9628  16.1194  16.2792
    16.4795  16.6144  16.6953  16.8478  17.0451  17.0583  17.0720  17.1163
    17.1174  17.1883  17.3029  17.3113  17.4043  17.7550  17.7972  17.8291
    17.8499  17.8593  17.9429  18.0390  18.1010  18.1021  18.1126  18.1292
    18.2040  18.2856  18.3770  18.4592  18.4756  18.7628  18.8544  19.0740
    19.6277  19.7333  19.7697  19.8987  19.9521  19.9748  20.0192  20.2529
    20.2541  20.2780  20.3371  20.3744  20.4166  20.4221  20.5027  20.5366
    20.5627  20.6259  20.6425  20.6571  20.8059  20.8176  20.8667  20.9081
    20.9610

          k = 0.0000 0.3312-0.4968 (  9578 PWs)   bands (ev):

   -67.0172 -67.0172 -52.7388 -52.7388 -52.7225 -52.7225 -52.7109 -52.7109
   -51.8071 -51.8070 -51.8031 -51.8029 -51.7991 -51.7990 -51.7906 -51.7904
   -33.1084 -33.1084 -33.1066 -33.1066 -33.1046 -33.1045 -24.2321 -24.2321
   -24.2303 -24.2303 -24.1965 -24.1964 -24.1809 -24.1809 -24.1761 -24.1761
   -24.1127 -24.1127 -24.0712 -24.0712 -24.0298 -24.0298 -23.9951 -23.9951
   -23.2220 -23.2219 -23.1754 -23.1754 -23.1752 -23.1751 -23.1602 -23.1601
   -23.1391 -23.1391 -23.1374 -23.1373 -23.1207 -23.1206 -23.0675 -23.0675
   -23.0649 -23.0648 -23.0568 -23.0567 -23.0454 -23.0453 -23.0283 -23.0282
    13.1791  13.1792  14.3286  14.3286  15.7308  15.7308  15.7370  15.7371
    15.8197  15.8197  16.0071  16.0071  16.0138  16.0138  16.1952  16.1954
    16.2205  16.2206  16.9076  16.9078  17.0166  17.0167  17.1147  17.1148
    17.1287  17.1288  17.2989  17.2990  17.5226  17.5227  17.7463  17.7463
    17.7687  17.7688  17.8979  17.8980  18.0188  18.0189  18.1003  18.1004
    18.1477  18.1478  18.1927  18.1928  18.2968  18.2969  19.1245  19.1245
    19.7560  19.7560  20.0352  20.0354  20.0853  20.0854  20.1532  20.1534
    20.1960  20.1961  20.2332  20.2333  20.2491  20.2492  20.4890  20.4892
    20.6932  20.6933  20.6951  20.6952  20.7476  20.7476  20.7876  20.7876
    20.8840

          k = 0.0000-0.4968-0.4968 (  9580 PWs)   bands (ev):

   -67.0172 -67.0172 -52.7365 -52.7365 -52.7241 -52.7241 -52.7117 -52.7117
   -51.8072 -51.8070 -51.8030 -51.8029 -51.7949 -51.7948 -51.7948 -51.7946
   -33.1087 -33.1087 -33.1067 -33.1067 -33.1042 -33.1042 -24.2335 -24.2334
   -24.2295 -24.2295 -24.1947 -24.1947 -24.1796 -24.1796 -24.1751 -24.1751
   -24.0879 -24.0879 -24.0701 -24.0701 -24.0548 -24.0548 -23.9958 -23.9958
   -23.2244 -23.2243 -23.1745 -23.1744 -23.1723 -23.1722 -23.1624 -23.1623
   -23.1591 -23.1590 -23.1350 -23.1349 -23.1196 -23.1195 -23.0604 -23.0603
   -23.0559 -23.0558 -23.0553 -23.0552 -23.0543 -23.0542 -23.0246 -23.0245
    13.6767  13.6767  13.7578  13.7578  15.8576  15.8576  15.9155  15.9155
    15.9266  15.9266  16.0677  16.0677  16.1374  16.1374  16.2311  16.2311
    16.5564  16.5564  16.7136  16.7137  16.9133  16.9133  16.9749  16.9750
    17.0000  17.0000  17.2738  17.2739  17.5278  17.5278  17.5874  17.5874
    17.6552  17.6553  17.6663  17.6663  17.9182  17.9182  17.9875  17.9876
    18.1090  18.1090  18.1219  18.1219  18.7165  18.7165  18.8043  18.8043
    19.8037  19.8038  19.9176  19.9177  20.2873  20.2873  20.2890  20.2890
    20.2906  20.2907  20.3213  20.3215  20.3542  20.3543  20.3758  20.3758
    20.4051  20.4052  20.4839  20.4840  20.7117  20.7117  20.7131  20.7384
    20.7385

          k = 0.1656 0.1656 0.1656 (  9591 PWs)   bands (ev):

   -67.0172 -67.0172 -52.7541 -52.7292 -52.7292 -52.7128 -52.7128 -52.7062
   -51.8100 -51.8088 -51.8088 -51.8036 -51.7957 -51.7957 -51.7954 -51.7813
   -33.1086 -33.1086 -33.1072 -33.1061 -33.1047 -33.1047 -24.2949 -24.2791
   -24.2791 -24.2238 -24.2238 -24.2149 -24.1646 -24.1646 -24.1638 -24.1309
   -24.1219 -24.1219 -24.0214 -24.0214 -24.0073 -24.0062 -24.0062 -23.9884
   -23.2553 -23.2218 -23.2218 -23.2153 -23.2153 -23.1861 -23.1673 -23.1673
   -23.1522 -23.0915 -23.0915 -23.0861 -23.0861 -23.0853 -23.0852 -23.0803
   -23.0631 -23.0631 -23.0624 -23.0624 -23.0562 -23.0534 -23.0134 -23.0134
    11.8445  14.5525  14.7375  14.7375  14.9892  15.1238  15.1238  15.2232
    15.3015  15.3015  15.5267  15.5267  15.8857  16.0079  16.0079  16.5197
    16.8158  16.8158  16.8474  16.9961  16.9983  16.9983  17.0308  17.0308
    17.1328  17.1328  17.1629  17.2913  17.3997  17.3997  17.8769  17.8892
    17.8892  18.2249  18.2740  18.2740  18.3106  18.3106  18.7264  18.7264
    18.7566  18.7604  18.9271  18.9271  18.9783  19.1471  19.1733  19.1733
    19.1885  19.3421  19.3421  19.7431  19.7431  19.8135  20.2823  20.2823
    20.3004  20.3495  20.4047  20.4047  20.5389  20.5389  20.5514  20.5967
    20.5967  20.6147  20.6147  20.8362  20.8362  20.8981  20.9741  21.0098
    21.1522

          k = 0.1656 0.1656 0.3312 (  9577 PWs)   bands (ev):

   -67.0172 -67.0172 -52.7484 -52.7338 -52.7257 -52.7163 -52.7119 -52.7083
   -51.8086 -51.8061 -51.8061 -51.8050 -51.7985 -51.7983 -51.7926 -51.7843
   -33.1085 -33.1078 -33.1070 -33.1061 -33.1055 -33.1046 -24.2670 -24.2590
   -24.2351 -24.2114 -24.1963 -24.1950 -24.1946 -24.1883 -24.1753 -24.1527
   -24.1439 -24.1029 -24.0649 -24.0438 -24.0167 -24.0043 -24.0025 -23.9993
   -23.2399 -23.1994 -23.1962 -23.1906 -23.1901 -23.1821 -23.1694 -23.1591
   -23.1539 -23.1125 -23.1044 -23.1000 -23.0976 -23.0967 -23.0878 -23.0767
   -23.0754 -23.0744 -23.0628 -23.0580 -23.0550 -23.0487 -23.0279 -23.0203
    12.2743  13.7820  14.8026  14.9247  15.0161  15.1231  15.4340  15.4721
    15.5208  15.5839  15.7426  15.7614  15.9248  16.0461  16.0876  16.3472
    16.4605  16.6126  16.8208  16.9517  16.9639  16.9930  17.0306  17.1428
    17.1613  17.1854  17.3799  17.4017  17.5388  17.6519  17.6825  17.7313
    18.0008  18.0079  18.0854  18.1408  18.1825  18.2422  18.2582  18.2603
    18.3030  18.3266  18.5229  18.5974  18.6650  18.7063  18.9684  18.9765
    19.5061  19.5732  19.5933  19.8973  19.9494  20.0346  20.1469  20.1595
    20.2028  20.3016  20.3877  20.4519  20.4651  20.4985  20.6013  20.6180
    20.6697  20.6973  20.7272  20.7549  20.7587  20.9506  20.9690  21.0778
    21.0904

          k = 0.1656 0.1656-0.4968 (  9588 PWs)   bands (ev):

   -67.0172 -67.0172 -52.7409 -52.7409 -52.7210 -52.7210 -52.7104 -52.7104
   -51.8069 -51.8067 -51.8025 -51.8023 -51.8021 -51.8021 -51.7885 -51.7884
   -33.1079 -33.1079 -33.1066 -33.1066 -33.1052 -33.1052 -24.2301 -24.2300
   -24.2268 -24.2268 -24.1931 -24.1931 -24.1902 -24.1902 -24.1682 -24.1682
   -24.1380 -24.1380 -24.0739 -24.0739 -24.0092 -24.0092 -24.0018 -24.0018
   -23.2171 -23.2170 -23.1768 -23.1767 -23.1707 -23.1706 -23.1459 -23.1458
   -23.1402 -23.1401 -23.1364 -23.1363 -23.0979 -23.0978 -23.0923 -23.0921
   -23.0685 -23.0685 -23.0620 -23.0618 -23.0452 -23.0451 -23.0333 -23.0332
    12.9454  12.9455  14.9608  14.9609  15.0785  15.0786  15.7349  15.7350
    15.8143  15.8144  15.9090  15.9090  15.9374  15.9374  16.0610  16.0612
    16.1491  16.1492  16.8735  16.8736  16.9376  16.9378  17.3671  17.3671
    17.4126  17.4127  17.4307  17.4309  17.5145  17.5146  17.8816  17.8817
    17.8925  17.8925  17.9974  17.9975  18.1074  18.1075  18.1260  18.1262
    18.1281  18.1281  18.1559  18.1559  18.1960  18.1961  19.1074  19.1075
    19.9116  19.9117  19.9162  19.9163  19.9707  19.9707  20.0420  20.0420
    20.1542  20.1543  20.1868  20.1869  20.5487  20.5489  20.6358  20.6358
    20.6971  20.6972  20.8576  20.8576  20.8749  20.8751  20.9985  20.9985
    21.0105

          k = 0.1656 0.3312 0.3312 (  9595 PWs)   bands (ev):

   -67.0172 -67.0172 -52.7435 -52.7329 -52.7263 -52.7181 -52.7132 -52.7105
   -51.8075 -51.8056 -51.8046 -51.8033 -51.8000 -51.7955 -51.7954 -51.7873
   -33.1085 -33.1078 -33.1074 -33.1058 -33.1053 -33.1045 -24.2467 -24.2408
   -24.2171 -24.2049 -24.2036 -24.1959 -24.1880 -24.1826 -24.1644 -24.1635
   -24.1439 -24.1049 -24.0674 -24.0528 -24.0337 -24.0317 -24.0071 -24.0070
   -23.2298 -23.2003 -23.1908 -23.1824 -23.1783 -23.1779 -23.1613 -23.1519
   -23.1399 -23.1265 -23.1240 -23.1162 -23.1122 -23.1056 -23.0864 -23.0744
   -23.0731 -23.0705 -23.0656 -23.0598 -23.0487 -23.0411 -23.0378 -23.0253
    12.6816  14.0256  14.1250  14.8052  15.1147  15.3966  15.4953  15.7059
    15.7466  15.8307  15.9636  15.9817  16.0878  16.0954  16.2771  16.3304
    16.5328  16.6231  16.6548  16.8566  16.9345  17.0636  17.0792  17.1886
    17.1890  17.1924  17.2182  17.2667  17.4424  17.6592  17.6804  17.7278
    17.7765  17.7846  17.8371  17.9621  17.9722  17.9842  18.0006  18.0551
    18.0890  18.1298  18.1591  18.2389  18.2686  18.5302  18.5541  19.1018
    19.8002  19.8223  19.8712  20.0264  20.0577  20.0765  20.1241  20.1648
    20.3302  20.3468  20.3864  20.4359  20.4428  20.4466  20.5028  20.5435
    20.5866  20.6174  20.6613  20.7998  20.8157  20.8776  20.8939  20.9725
    20.9947

          k = 0.1656 0.3312-0.4968 (  9622 PWs)   bands (ev):

   -67.0173 -67.0173 -52.7373 -52.7373 -52.7226 -52.7226 -52.7124 -52.7124
   -51.8066 -51.8064 -51.8024 -51.8023 -51.7994 -51.7993 -51.7914 -51.7913
   -33.1083 -33.1083 -33.1066 -33.1066 -33.1048 -33.1047 -24.2252 -24.2252
   -24.2201 -24.2201 -24.1912 -24.1912 -24.1861 -24.1861 -24.1652 -24.1652
   -24.1153 -24.1153 -24.0795 -24.0795 -24.0367 -24.0367 -24.0096 -24.0095
   -23.2164 -23.2163 -23.1788 -23.1787 -23.1653 -23.1652 -23.1561 -23.1560
   -23.1365 -23.1365 -23.1298 -23.1297 -23.1195 -23.1194 -23.0791 -23.0789
   -23.0658 -23.0657 -23.0622 -23.0621 -23.0491 -23.0491 -23.0325 -23.0324
    13.3088  13.3089  14.4580  14.4581  15.3512  15.3512  15.9309  15.9309
    15.9607  15.9608  16.0023  16.0023  16.1591  16.1592  16.2672  16.2672
    16.2907  16.2908  16.9425  16.9427  17.0324  17.0325  17.0613  17.0614
    17.1669  17.1669  17.2975  17.2976  17.4783  17.4784  17.5926  17.5926
    17.6903  17.6904  17.8481  17.8482  17.8774  17.8775  17.9388  17.9389
    17.9795  17.9796  18.0429  18.0430  18.0966  18.0967  18.8786  18.8787
    19.9614  19.9615  20.0625  20.0626  20.1629  20.1630  20.1902  20.1903
    20.2528  20.2529  20.2757  20.2759  20.5028  20.5030  20.5298  20.5299
    20.7132  20.7132  20.7477  20.7477  20.7673  20.7674  20.8419  20.8419
    20.9055

          k = 0.1656-0.4968-0.4968 (  9588 PWs)   bands (ev):

   -67.0172 -67.0172 -52.7348 -52.7348 -52.7241 -52.7241 -52.7133 -52.7133
   -51.8065 -51.8063 -51.8025 -51.8023 -51.7956 -51.7955 -51.7954 -51.7952
   -33.1085 -33.1084 -33.1066 -33.1066 -33.1045 -33.1045 -24.2253 -24.2252
   -24.2155 -24.2155 -24.1913 -24.1913 -24.1737 -24.1737 -24.1712 -24.1711
   -24.0922 -24.0922 -24.0809 -24.0809 -24.0640 -24.0640 -24.0130 -24.0130
   -23.2157 -23.2156 -23.1728 -23.1727 -23.1665 -23.1664 -23.1550 -23.1549
   -23.1486 -23.1485 -23.1310 -23.1309 -23.1205 -23.1204 -23.0655 -23.0654
   -23.0623 -23.0622 -23.0616 -23.0615 -23.0606 -23.0605 -23.0326 -23.0325
    13.8056  13.8056  13.8925  13.8925  15.6888  15.6888  15.8173  15.8173
    15.9757  15.9757  16.1078  16.1079  16.3932  16.3933  16.3956  16.3957
    16.5799  16.5800  16.7252  16.7252  16.9050  16.9051  16.9325  16.9326
    17.0853  17.0854  17.2798  17.2799  17.4045  17.4045  17.4444  17.4444
    17.6143  17.6144  17.6266  17.6266  17.7970  17.7970  17.8270  17.8270
    17.9446  17.9447  17.9766  17.9766  18.4275  18.4275  18.4494  18.4494
    20.1036  20.1037  20.1416  20.1417  20.3354  20.3354  20.3439  20.3440
    20.4094  20.4095  20.4239  20.4239  20.4361  20.4362  20.5175  20.5176
    20.5295  20.5296  20.5381  20.5381  20.7041  20.7042  20.7263  20.7264
    20.7540

          k = 0.3312 0.3312 0.3312 (  9594 PWs)   bands (ev):

   -67.0172 -67.0172 -52.7390 -52.7288 -52.7288 -52.7174 -52.7174 -52.7133
   -51.8060 -51.8053 -51.8027 -51.8027 -51.7977 -51.7974 -51.7974 -51.7901
   -33.1079 -33.1077 -33.1077 -33.1054 -33.1054 -33.1051 -24.2214 -24.2143
   -24.2143 -24.1995 -24.1995 -24.1901 -24.1751 -24.1670 -24.1670 -24.1407
   -24.1375 -24.1375 -24.0593 -24.0593 -24.0586 -24.0586 -24.0435 -24.0229
   -23.2130 -23.1914 -23.1914 -23.1761 -23.1761 -23.1543 -23.1543 -23.1463
   -23.1347 -23.1321 -23.1117 -23.1117 -23.1103 -23.1018 -23.1018 -23.0889
   -23.0788 -23.0788 -23.0709 -23.0700 -23.0456 -23.0456 -23.0436 -23.0436
    13.0767  14.2949  14.4522  14.4522  15.0966  15.2578  15.2578  15.9917
    16.0053  16.0053  16.2087  16.2087  16.2974  16.3840  16.4173  16.4173
    16.5228  16.6001  16.6897  16.6897  16.9411  16.9411  17.1494  17.1741
    17.1741  17.3431  17.3431  17.3489  17.3489  17.3640  17.5930  17.6142
    17.6142  17.6227  17.6519  17.6519  17.7034  17.7047  17.7197  17.7197
    17.8477  17.8477  17.9077  17.9077  18.0587  18.1078  18.1078  18.8130
    20.0502  20.0502  20.0888  20.0947  20.2693  20.3223  20.3223  20.3667
    20.3667  20.4356  20.4881  20.4881  20.5007  20.5426  20.5426  20.6457
    20.6457  20.7888  20.7888  20.7909  20.7909  20.8337  20.8354  21.0060
    21.0060

          k = 0.3312 0.3312-0.4968 (  9598 PWs)   bands (ev):

   -67.0172 -67.0172 -52.7334 -52.7334 -52.7231 -52.7231 -52.7158 -52.7158
   -51.8054 -51.8052 -51.8006 -51.8003 -51.8002 -51.7998 -51.7939 -51.7938
   -33.1079 -33.1079 -33.1065 -33.1065 -33.1051 -33.1051 -24.2085 -24.2085
   -24.2014 -24.2014 -24.1800 -24.1800 -24.1787 -24.1787 -24.1527 -24.1527
   -24.1160 -24.1160 -24.0983 -24.0982 -24.0578 -24.0578 -24.0418 -24.0418
   -23.2016 -23.2014 -23.1777 -23.1776 -23.1556 -23.1554 -23.1441 -23.1440
   -23.1254 -23.1254 -23.1248 -23.1247 -23.1117 -23.1116 -23.0943 -23.0941
   -23.0740 -23.0739 -23.0734 -23.0732 -23.0573 -23.0573 -23.0456 -23.0455
    13.6770  13.6771  14.7710  14.7710  14.8831  14.8831  15.7857  15.7858
    16.2363  16.2364  16.2545  16.2545  16.3227  16.3227  16.4656  16.4657
    16.5141  16.5142  16.9749  16.9749  17.0364  17.0365  17.0454  17.0455
    17.1062  17.1063  17.3291  17.3292  17.3537  17.3539  17.4243  17.4243
    17.5031  17.5031  17.5955  17.5955  17.6031  17.6032  17.6779  17.6780
    17.7369  17.7370  17.7390  17.7391  17.8018  17.8019  18.3522  18.3523
    20.2555  20.2556  20.2928  20.2929  20.3569  20.3569  20.3730  20.3732
    20.4165  20.4166  20.4871  20.4872  20.5659  20.5661  20.7016  20.7016
    20.7258  20.7258  20.7496  20.7498  20.7907  20.7908  20.8250  20.8251
    20.8398

          k = 0.3312-0.4968-0.4968 (  9632 PWs)   bands (ev):

   -67.0173 -67.0173 -52.7303 -52.7303 -52.7241 -52.7241 -52.7179 -52.7179
   -51.8047 -51.8045 -51.8010 -51.8008 -51.7975 -51.7973 -51.7969 -51.7967
   -33.1076 -33.1076 -33.1066 -33.1066 -33.1053 -33.1053 -24.2034 -24.2034
   -24.1868 -24.1868 -24.1776 -24.1776 -24.1667 -24.1667 -24.1472 -24.1472
   -24.1079 -24.1079 -24.1027 -24.1027 -24.0894 -24.0894 -24.0574 -24.0574
   -23.1932 -23.1931 -23.1694 -23.1692 -23.1587 -23.1587 -23.1335 -23.1335
   -23.1254 -23.1252 -23.1217 -23.1216 -23.1171 -23.1170 -23.0809 -23.0809
   -23.0791 -23.0790 -23.0761 -23.0760 -23.0736 -23.0736 -23.0548 -23.0547
    14.1689  14.1689  14.2743  14.2743  15.2855  15.2855  15.3997  15.3997
    16.3055  16.3055  16.4177  16.4178  16.6428  16.6429  16.7416  16.7417
    16.7489  16.7489  16.7501  16.7501  16.8221  16.8221  16.9715  16.9716
    17.2091  17.2092  17.2434  17.2434  17.2829  17.2829  17.3091  17.3091
    17.4477  17.4478  17.4626  17.4626  17.5054  17.5054  17.5272  17.5272
    17.6209  17.6209  17.6695  17.6695  17.8597  17.8597  17.8835  17.8835
    20.4089  20.4090  20.4294  20.4294  20.4942  20.4942  20.5252  20.5252
    20.5301  20.5301  20.5986  20.5987  20.6772  20.6773  20.6866  20.6867
    20.6975  20.6975  20.7265  20.7265  20.7465  20.7465  20.8001  20.8002
    20.9948

          k =-0.4968-0.4968-0.4968 (  9568 PWs)   bands (ev):

   -67.0172 -67.0172 -52.7241 -52.7241 -52.7241 -52.7241 -52.7241 -52.7241
   -51.8033 -51.8030 -51.7991 -51.7991 -51.7987 -51.7987 -51.7987 -51.7986
   -33.1064 -33.1064 -33.1064 -33.1064 -33.1064 -33.1064 -24.1856 -24.1856
   -24.1856 -24.1856 -24.1603 -24.1603 -24.1278 -24.1278 -24.1278 -24.1277
   -24.1277 -24.1277 -24.1097 -24.1096 -24.1096 -24.1096 -24.1096 -24.1096
   -23.1676 -23.1675 -23.1675 -23.1674 -23.1674 -23.1671 -23.1259 -23.1257
   -23.1056 -23.1056 -23.1056 -23.1055 -23.1054 -23.1054 -23.0895 -23.0895
   -23.0893 -23.0893 -23.0847 -23.0847 -23.0846 -23.0846 -23.0844 -23.0844
    14.6033  14.6033  14.8271  14.8271  14.8271  14.8272  14.8272  14.8272
    16.7181  16.7182  16.7182  16.7182  16.7182  16.7183  16.7638  16.7638
    16.7638  16.7639  16.7639  16.7639  16.9906  16.9906  16.9907  16.9907
    17.2633  17.2633  17.3283  17.3284  17.3284  17.3284  17.3284  17.3285
    17.3591  17.3592  17.3592  17.3592  17.3592  17.3593  17.3906  17.3906
    17.3906  17.3908  17.3908  17.3909  17.4412  17.4412  17.4413  17.4413
    20.6001  20.6001  20.6002  20.6002  20.6091  20.6091  20.6091  20.6091
    20.6092  20.6092  20.6383  20.6384  20.6384  20.6384  20.6385  20.6385
    20.8025  20.8026  20.8026  20.8026  20.8026  20.8028  21.0192  21.0192
    21.0194

          k = 0.0000 0.1656-0.1656 (  9601 PWs)   bands (ev):

   -67.0173 -67.0172 -52.7561 -52.7305 -52.7276 -52.7131 -52.7115 -52.7053
   -51.8109 -51.8098 -51.8096 -51.8031 -51.7967 -51.7947 -51.7945 -51.7802
   -33.1090 -33.1085 -33.1078 -33.1054 -33.1050 -33.1044 -24.3010 -24.3003
   -24.2863 -24.2330 -24.2272 -24.2233 -24.1616 -24.1571 -24.1468 -24.1303
   -24.1282 -24.1095 -24.0230 -24.0136 -24.0084 -24.0080 -23.9906 -23.9764
   -23.2617 -23.2350 -23.2315 -23.2268 -23.2138 -23.2046 -23.1666 -23.1569
   -23.1541 -23.0948 -23.0850 -23.0837 -23.0831 -23.0821 -23.0763 -23.0725
   -23.0704 -23.0702 -23.0681 -23.0534 -23.0526 -23.0403 -23.0128 -23.0080
    11.6969  14.5234  14.6563  14.9209  15.0740  15.1277  15.1449  15.1908
    15.1981  15.3914  15.4438  15.4490  15.5332  15.9002  15.9352  16.6042
    16.7377  16.8414  16.9222  16.9880  16.9917  17.0013  17.0098  17.0402
    17.0626  17.1888  17.2273  17.3487  17.4088  17.5465  17.5897  18.0951
    18.1005  18.2847  18.3297  18.3306  18.3818  18.4145  18.5941  18.6248
    18.9109  18.9787  19.0099  19.0187  19.0649  19.0945  19.3010  19.3711
    19.4533  19.6043  19.6083  19.6093  19.6663  19.7044  20.0292  20.0651
    20.3589  20.4395  20.4532  20.4848  20.4927  20.5664  20.5910  20.6101
    20.6113  20.6225  20.6254  20.8643  20.8762  20.8909  20.9749  21.0084
    21.0519

          k =-0.0000 0.3312-0.1656 (  9577 PWs)   bands (ev):

   -67.0172 -67.0172 -52.7502 -52.7349 -52.7250 -52.7161 -52.7108 -52.7073
   -51.8092 -51.8069 -51.8065 -51.8047 -51.7995 -51.7978 -51.7915 -51.7832
   -33.1085 -33.1077 -33.1066 -33.1065 -33.1057 -33.1046 -24.2723 -24.2715
   -24.2394 -24.2161 -24.2066 -24.1967 -24.1913 -24.1900 -24.1645 -24.1506
   -24.1498 -24.0978 -24.0683 -24.0427 -24.0101 -24.0022 -23.9975 -23.9844
   -23.2436 -23.2071 -23.1979 -23.1938 -23.1873 -23.1844 -23.1725 -23.1605
   -23.1575 -23.1129 -23.1028 -23.0994 -23.0914 -23.0848 -23.0830 -23.0802
   -23.0702 -23.0695 -23.0631 -23.0580 -23.0576 -23.0572 -23.0253 -23.0183
    12.1335  13.6756  14.7559  14.9310  15.2609  15.2895  15.4036  15.4565
    15.4848  15.4888  15.5804  15.6562  15.6819  15.9025  16.0134  16.3392
    16.4347  16.5700  16.8161  16.9283  16.9298  16.9428  17.1043  17.1847
    17.2220  17.2373  17.3897  17.4579  17.4818  17.7104  17.8303  17.9036
    17.9542  18.1369  18.1505  18.2199  18.2418  18.2836  18.3124  18.3746
    18.4297  18.4905  18.7414  18.7705  18.8244  18.8846  18.9619  19.1564
    19.3496  19.4776  19.5061  19.8273  19.8877  19.9823  20.0013  20.1061
    20.2530  20.3340  20.3534  20.4317  20.5082  20.5947  20.5997  20.6104
    20.7005  20.7154  20.7202  20.8498  20.8987  21.0255  21.0514  21.0947
    21.1095

          k = 0.0000 0.3312-0.3312 (  9582 PWs)   bands (ev):

   -67.0173 -67.0171 -52.7452 -52.7345 -52.7256 -52.7183 -52.7116 -52.7092
   -51.8084 -51.8057 -51.8051 -51.8034 -51.8010 -51.7948 -51.7946 -51.7863
   -33.1088 -33.1076 -33.1073 -33.1061 -33.1055 -33.1042 -24.2543 -24.2543
   -24.2181 -24.2078 -24.2072 -24.2047 -24.1933 -24.1799 -24.1619 -24.1604
   -24.1586 -24.0924 -24.0684 -24.0498 -24.0267 -24.0235 -23.9997 -23.9895
   -23.2375 -23.2023 -23.1988 -23.1876 -23.1833 -23.1674 -23.1615 -23.1581
   -23.1447 -23.1322 -23.1238 -23.1223 -23.1153 -23.1072 -23.0750 -23.0737
   -23.0671 -23.0616 -23.0604 -23.0549 -23.0518 -23.0438 -23.0343 -23.0185
    12.5445  13.9119  14.0054  14.6712  15.5398  15.5622  15.6157  15.6351
    15.6774  15.7045  15.7330  15.8648  15.8891  15.9628  16.1194  16.2792
    16.4795  16.6144  16.6953  16.8478  17.0451  17.0583  17.0721  17.1163
    17.1174  17.1883  17.3029  17.3113  17.4043  17.7550  17.7972  17.8291
    17.8499  17.8593  17.9429  18.0390  18.1010  18.1021  18.1125  18.1292
    18.2040  18.2856  18.3770  18.4592  18.4756  18.7627  18.8545  19.0740
    19.6276  19.7334  19.7697  19.8987  19.9522  19.9748  20.0192  20.2527
    20.2542  20.2780  20.3371  20.3744  20.4166  20.4221  20.5028  20.5365
    20.5627  20.6259  20.6425  20.6571  20.8059  20.8176  20.8667  20.9081
    20.9610

          k =-0.1656 0.1656 0.1656 (  9591 PWs)   bands (ev):

   -67.0172 -67.0172 -52.7541 -52.7292 -52.7292 -52.7128 -52.7128 -52.7062
   -51.8103 -51.8088 -51.8086 -51.8036 -51.7957 -51.7957 -51.7954 -51.7813
   -33.1086 -33.1086 -33.1072 -33.1061 -33.1047 -33.1047 -24.2949 -24.2791
   -24.2791 -24.2238 -24.2238 -24.2149 -24.1646 -24.1646 -24.1638 -24.1309
   -24.1219 -24.1219 -24.0214 -24.0214 -24.0074 -24.0062 -24.0062 -23.9884
   -23.2553 -23.2218 -23.2218 -23.2153 -23.2152 -23.1861 -23.1673 -23.1672
   -23.1523 -23.0915 -23.0915 -23.0861 -23.0860 -23.0853 -23.0851 -23.0804
   -23.0631 -23.0630 -23.0625 -23.0624 -23.0561 -23.0533 -23.0134 -23.0134
    11.8445  14.5525  14.7375  14.7375  14.9892  15.1238  15.1238  15.2232
    15.3014  15.3015  15.5267  15.5267  15.8858  16.0079  16.0079  16.5197
    16.8158  16.8159  16.8474  16.9961  16.9983  16.9983  17.0308  17.0308
    17.1328  17.1328  17.1629  17.2913  17.3997  17.3997  17.8769  17.8892
    17.8892  18.2248  18.2740  18.2740  18.3106  18.3106  18.7264  18.7264
    18.7566  18.7604  18.9271  18.9271  18.9782  19.1470  19.1733  19.1733
    19.1886  19.3421  19.3421  19.7431  19.7431  19.8135  20.2822  20.2823
    20.3005  20.3495  20.4047  20.4047  20.5389  20.5389  20.5514  20.5967
    20.5967  20.6147  20.6147  20.8362  20.8362  20.8981  20.9740  21.0098
    21.1522

          k =-0.1656 0.3312 0.1656 (  9577 PWs)   bands (ev):

   -67.0172 -67.0172 -52.7484 -52.7338 -52.7257 -52.7163 -52.7119 -52.7083
   -51.8087 -51.8061 -51.8059 -51.8049 -51.7985 -51.7983 -51.7926 -51.7843
   -33.1085 -33.1078 -33.1070 -33.1061 -33.1055 -33.1046 -24.2670 -24.2590
   -24.2351 -24.2114 -24.1963 -24.1950 -24.1946 -24.1883 -24.1753 -24.1527
   -24.1439 -24.1029 -24.0649 -24.0438 -24.0167 -24.0043 -24.0025 -23.9992
   -23.2399 -23.1994 -23.1962 -23.1906 -23.1900 -23.1820 -23.1693 -23.1591
   -23.1540 -23.1124 -23.1043 -23.0999 -23.0976 -23.0967 -23.0878 -23.0768
   -23.0754 -23.0743 -23.0629 -23.0579 -23.0549 -23.0486 -23.0279 -23.0203
    12.2743  13.7820  14.8026  14.9247  15.0161  15.1231  15.4340  15.4721
    15.5208  15.5839  15.7426  15.7614  15.9249  16.0461  16.0876  16.3472
    16.4605  16.6126  16.8208  16.9517  16.9639  16.9930  17.0306  17.1427
    17.1613  17.1854  17.3799  17.4017  17.5388  17.6519  17.6825  17.7313
    18.0008  18.0079  18.0854  18.1408  18.1825  18.2422  18.2582  18.2603
    18.3030  18.3267  18.5229  18.5974  18.6650  18.7063  18.9683  18.9765
    19.5061  19.5732  19.5933  19.8973  19.9495  20.0346  20.1469  20.1595
    20.2029  20.3015  20.3876  20.4519  20.4651  20.4985  20.6013  20.6180
    20.6697  20.6973  20.7272  20.7549  20.7587  20.9506  20.9691  21.0778
    21.0904

          k = 0.1656-0.3312 0.1656 (  9577 PWs)   bands (ev):

   -67.0172 -67.0172 -52.7484 -52.7338 -52.7257 -52.7163 -52.7119 -52.7083
   -51.8088 -51.8061 -51.8059 -51.8049 -51.7985 -51.7984 -51.7926 -51.7843
   -33.1085 -33.1078 -33.1070 -33.1061 -33.1055 -33.1046 -24.2670 -24.2590
   -24.2351 -24.2114 -24.1963 -24.1950 -24.1946 -24.1883 -24.1753 -24.1527
   -24.1439 -24.1029 -24.0649 -24.0438 -24.0167 -24.0043 -24.0025 -23.9993
   -23.2400 -23.1994 -23.1963 -23.1906 -23.1899 -23.1820 -23.1694 -23.1592
   -23.1540 -23.1124 -23.1044 -23.0998 -23.0976 -23.0968 -23.0878 -23.0767
   -23.0754 -23.0743 -23.0629 -23.0580 -23.0550 -23.0486 -23.0279 -23.0204
    12.2743  13.7820  14.8026  14.9247  15.0161  15.1231  15.4340  15.4721
    15.5208  15.5839  15.7427  15.7614  15.9248  16.0461  16.0876  16.3472
    16.4605  16.6126  16.8208  16.9517  16.9639  16.9930  17.0306  17.1428
    17.1613  17.1854  17.3799  17.4017  17.5388  17.6519  17.6825  17.7313
    18.0008  18.0079  18.0854  18.1408  18.1825  18.2422  18.2582  18.2603
    18.3030  18.3266  18.5229  18.5974  18.6650  18.7063  18.9683  18.9765
    19.5061  19.5732  19.5933  19.8973  19.9494  20.0346  20.1469  20.1595
    20.2029  20.3015  20.3876  20.4519  20.4651  20.4985  20.6013  20.6180
    20.6697  20.6973  20.7272  20.7549  20.7587  20.9506  20.9690  21.0778
    21.0904

          k =-0.1656-0.4968 0.1656 (  9588 PWs)   bands (ev):

   -67.0172 -67.0172 -52.7409 -52.7409 -52.7210 -52.7210 -52.7104 -52.7104
   -51.8068 -51.8068 -51.8025 -51.8022 -51.8021 -51.8020 -51.7885 -51.7884
   -33.1079 -33.1079 -33.1066 -33.1066 -33.1052 -33.1052 -24.2301 -24.2301
   -24.2268 -24.2268 -24.1931 -24.1931 -24.1902 -24.1902 -24.1682 -24.1682
   -24.1380 -24.1380 -24.0739 -24.0739 -24.0092 -24.0092 -24.0018 -24.0018
   -23.2171 -23.2170 -23.1768 -23.1766 -23.1707 -23.1707 -23.1459 -23.1458
   -23.1402 -23.1401 -23.1365 -23.1363 -23.0979 -23.0978 -23.0923 -23.0921
   -23.0685 -23.0685 -23.0619 -23.0618 -23.0452 -23.0451 -23.0333 -23.0332
    12.9454  12.9455  14.9608  14.9609  15.0785  15.0786  15.7349  15.7350
    15.8143  15.8144  15.9090  15.9090  15.9374  15.9374  16.0610  16.0612
    16.1491  16.1492  16.8735  16.8737  16.9376  16.9377  17.3671  17.3671
    17.4126  17.4127  17.4308  17.4309  17.5144  17.5146  17.8816  17.8817
    17.8925  17.8926  17.9974  17.9975  18.1074  18.1074  18.1261  18.1262
    18.1280  18.1282  18.1559  18.1560  18.1960  18.1960  19.1074  19.1075
    19.9116  19.9117  19.9162  19.9162  19.9707  19.9707  20.0420  20.0420
    20.1542  20.1543  20.1868  20.1870  20.5487  20.5489  20.6358  20.6359
    20.6971  20.6971  20.8576  20.8577  20.8750  20.8750  20.9985  20.9986
    21.0105

          k =-0.1656 0.3312 0.3312 (  9595 PWs)   bands (ev):

   -67.0172 -67.0172 -52.7435 -52.7329 -52.7263 -52.7181 -52.7132 -52.7105
   -51.8076 -51.8056 -51.8046 -51.8032 -51.8000 -51.7955 -51.7955 -51.7873
   -33.1085 -33.1078 -33.1074 -33.1058 -33.1053 -33.1045 -24.2467 -24.2408
   -24.2171 -24.2049 -24.2036 -24.1959 -24.1880 -24.1826 -24.1644 -24.1635
   -24.1439 -24.1049 -24.0674 -24.0528 -24.0337 -24.0317 -24.0071 -24.0070
   -23.2298 -23.2003 -23.1908 -23.1824 -23.1782 -23.1778 -23.1613 -23.1521
   -23.1399 -23.1264 -23.1240 -23.1162 -23.1121 -23.1056 -23.0865 -23.0744
   -23.0732 -23.0705 -23.0657 -23.0597 -23.0486 -23.0411 -23.0378 -23.0253
    12.6817  14.0256  14.1250  14.8052  15.1147  15.3966  15.4953  15.7060
    15.7466  15.8306  15.9636  15.9817  16.0878  16.0954  16.2771  16.3304
    16.5328  16.6231  16.6549  16.8566  16.9345  17.0636  17.0792  17.1886
    17.1890  17.1924  17.2182  17.2667  17.4423  17.6592  17.6804  17.7278
    17.7764  17.7846  17.8371  17.9621  17.9721  17.9842  18.0006  18.0550
    18.0891  18.1298  18.1591  18.2389  18.2686  18.5302  18.5541  19.1018
    19.8002  19.8223  19.8712  20.0264  20.0576  20.0764  20.1241  20.1648
    20.3302  20.3467  20.3864  20.4359  20.4428  20.4466  20.5028  20.5435
    20.5866  20.6174  20.6613  20.7998  20.8157  20.8776  20.8939  20.9725
    20.9947

          k = 0.1656 0.3312-0.3312 (  9595 PWs)   bands (ev):

   -67.0172 -67.0172 -52.7435 -52.7329 -52.7263 -52.7181 -52.7132 -52.7105
   -51.8078 -51.8055 -51.8044 -51.8032 -51.8001 -51.7956 -51.7953 -51.7873
   -33.1085 -33.1078 -33.1074 -33.1058 -33.1053 -33.1046 -24.2467 -24.2408
   -24.2171 -24.2049 -24.2035 -24.1959 -24.1880 -24.1826 -24.1644 -24.1635
   -24.1439 -24.1049 -24.0674 -24.0528 -24.0337 -24.0317 -24.0071 -24.0070
   -23.2299 -23.2002 -23.1908 -23.1824 -23.1783 -23.1779 -23.1612 -23.1521
   -23.1400 -23.1264 -23.1238 -23.1162 -23.1122 -23.1056 -23.0866 -23.0744
   -23.0732 -23.0705 -23.0656 -23.0598 -23.0487 -23.0410 -23.0378 -23.0254
    12.6817  14.0256  14.1250  14.8052  15.1147  15.3966  15.4953  15.7059
    15.7466  15.8306  15.9637  15.9817  16.0878  16.0954  16.2771  16.3304
    16.5328  16.6231  16.6548  16.8566  16.9345  17.0637  17.0792  17.1886
    17.1890  17.1924  17.2182  17.2667  17.4423  17.6592  17.6804  17.7278
    17.7764  17.7846  17.8371  17.9621  17.9721  17.9842  18.0007  18.0551
    18.0890  18.1298  18.1591  18.2389  18.2686  18.5302  18.5542  19.1018
    19.8001  19.8223  19.8712  20.0264  20.0576  20.0765  20.1241  20.1648
    20.3302  20.3467  20.3864  20.4359  20.4427  20.4467  20.5028  20.5435
    20.5866  20.6174  20.6613  20.7998  20.8157  20.8776  20.8940  20.9724
    20.9947

          k =-0.1656-0.4968 0.3312 (  9622 PWs)   bands (ev):

   -67.0173 -67.0173 -52.7373 -52.7373 -52.7226 -52.7226 -52.7124 -52.7124
   -51.8066 -51.8065 -51.8024 -51.8023 -51.7994 -51.7993 -51.7915 -51.7913
   -33.1083 -33.1083 -33.1066 -33.1066 -33.1047 -33.1047 -24.2252 -24.2252
   -24.2201 -24.2201 -24.1912 -24.1912 -24.1861 -24.1861 -24.1652 -24.1652
   -24.1153 -24.1153 -24.0795 -24.0795 -24.0367 -24.0367 -24.0096 -24.0096
   -23.2164 -23.2163 -23.1788 -23.1786 -23.1653 -23.1653 -23.1561 -23.1560
   -23.1365 -23.1365 -23.1298 -23.1298 -23.1195 -23.1194 -23.0791 -23.0790
   -23.0658 -23.0657 -23.0622 -23.0621 -23.0491 -23.0490 -23.0325 -23.0324
    13.3088  13.3089  14.4580  14.4581  15.3512  15.3512  15.9309  15.9309
    15.9607  15.9608  16.0022  16.0023  16.1591  16.1591  16.2671  16.2672
    16.2907  16.2908  16.9425  16.9427  17.0324  17.0324  17.0614  17.0614
    17.1669  17.1670  17.2975  17.2976  17.4783  17.4784  17.5925  17.5926
    17.6903  17.6904  17.8481  17.8482  17.8774  17.8775  17.9388  17.9388
    17.9795  17.9796  18.0429  18.0430  18.0967  18.0968  18.8786  18.8787
    19.9614  19.9615  20.0625  20.0626  20.1629  20.1630  20.1902  20.1903
    20.2528  20.2529  20.2757  20.2759  20.5028  20.5030  20.5298  20.5299
    20.7132  20.7132  20.7477  20.7478  20.7673  20.7673  20.8419  20.8419
    20.9055

          k =-0.3312 0.3312 0.3312 (  9594 PWs)   bands (ev):

   -67.0172 -67.0172 -52.7390 -52.7288 -52.7288 -52.7174 -52.7173 -52.7133
   -51.8062 -51.8053 -51.8027 -51.8024 -51.7980 -51.7974 -51.7972 -51.7901
   -33.1079 -33.1077 -33.1077 -33.1054 -33.1054 -33.1051 -24.2214 -24.2143
   -24.2143 -24.1995 -24.1995 -24.1901 -24.1751 -24.1670 -24.1670 -24.1407
   -24.1375 -24.1375 -24.0593 -24.0593 -24.0586 -24.0586 -24.0435 -24.0229
   -23.2130 -23.1914 -23.1913 -23.1762 -23.1761 -23.1543 -23.1542 -23.1465
   -23.1346 -23.1321 -23.1117 -23.1116 -23.1102 -23.1019 -23.1018 -23.0888
   -23.0789 -23.0789 -23.0708 -23.0699 -23.0456 -23.0455 -23.0437 -23.0436
    13.0767  14.2948  14.4522  14.4522  15.0967  15.2577  15.2578  15.9918
    16.0053  16.0053  16.2087  16.2088  16.2974  16.3840  16.4173  16.4173
    16.5228  16.6001  16.6897  16.6897  16.9411  16.9411  17.1495  17.1741
    17.1741  17.3431  17.3431  17.3489  17.3490  17.3640  17.5930  17.6142
    17.6142  17.6227  17.6519  17.6519  17.7033  17.7046  17.7197  17.7198
    17.8478  17.8478  17.9077  17.9077  18.0588  18.1078  18.1078  18.8130
    20.0502  20.0503  20.0888  20.0948  20.2693  20.3223  20.3224  20.3667
    20.3668  20.4356  20.4881  20.4881  20.5008  20.5426  20.5426  20.6456
    20.6456  20.7887  20.7888  20.7908  20.7909  20.8337  20.8354  21.0061
    21.0061

          k =-0.3312-0.4968 0.3312 (  9598 PWs)   bands (ev):

   -67.0172 -67.0172 -52.7334 -52.7334 -52.7231 -52.7231 -52.7158 -52.7158
   -51.8053 -51.8053 -51.8007 -51.8005 -51.7999 -51.7998 -51.7939 -51.7938
   -33.1079 -33.1079 -33.1065 -33.1065 -33.1051 -33.1051 -24.2085 -24.2085
   -24.2014 -24.2014 -24.1800 -24.1800 -24.1787 -24.1787 -24.1527 -24.1527
   -24.1160 -24.1160 -24.0982 -24.0982 -24.0578 -24.0578 -24.0418 -24.0418
   -23.2015 -23.2015 -23.1777 -23.1774 -23.1556 -23.1556 -23.1440 -23.1439
   -23.1254 -23.1253 -23.1249 -23.1247 -23.1117 -23.1116 -23.0943 -23.0942
   -23.0740 -23.0740 -23.0734 -23.0733 -23.0573 -23.0572 -23.0455 -23.0455
    13.6770  13.6771  14.7709  14.7711  14.8831  14.8831  15.7857  15.7858
    16.2363  16.2364  16.2545  16.2545  16.3227  16.3227  16.4656  16.4656
    16.5141  16.5142  16.9749  16.9749  17.0364  17.0365  17.0454  17.0455
    17.1062  17.1063  17.3291  17.3292  17.3538  17.3539  17.4242  17.4244
    17.5031  17.5031  17.5955  17.5956  17.6031  17.6032  17.6780  17.6780
    17.7369  17.7370  17.7390  17.7391  17.8018  17.8020  18.3522  18.3523
    20.2555  20.2556  20.2928  20.2929  20.3568  20.3570  20.3730  20.3732
    20.4165  20.4167  20.4871  20.4872  20.5659  20.5661  20.7016  20.7017
    20.7258  20.7259  20.7496  20.7497  20.7907  20.7907  20.8251  20.8251
    20.8398

     the Fermi energy is    19.3630 ev

!    total energy              =   -4133.52801122 Ry
     total all-electron energy =    -34515.578577 Ry
     estimated scf accuracy    <       0.00000004 Ry
     smearing contrib. (-TS)   =       0.00124386 Ry
     internal energy E=F+TS    =   -4133.52925508 Ry

     The total energy is F=E-TS. E is the sum of the following terms:
     one-electron contribution =   -1003.97476528 Ry
     hartree contribution      =     642.37650270 Ry
     xc contribution           =    -367.55351438 Ry
     ewald contribution        =   -2199.34612119 Ry
     one-center paw contrib.   =   -1205.03135694 Ry

     total magnetization       =     3.67 Bohr mag/cell
     absolute magnetization    =    14.93 Bohr mag/cell

     convergence has been achieved in  40 iterations

     Forces acting on atoms (cartesian axes, Ry/au):

     atom    1 type  2   force =     0.00000000    0.00000000    0.00000000
     atom    2 type  1   force =     0.00011526    0.00011526    0.00011526
     atom    3 type  2   force =     0.00000000    0.00000000    0.00000000
     atom    4 type  2   force =     0.00000527    0.00000527   -0.00000013
     atom    5 type  2   force =     0.00000000    0.00000000    0.00000000
     atom    6 type  2   force =     0.00000527   -0.00000013    0.00000527
     atom    7 type  2   force =     0.00000000    0.00000000    0.00000000
     atom    8 type  2   force =     0.00000013   -0.00000527   -0.00000527
     atom    9 type  2   force =     0.00000000    0.00000000    0.00000000
     atom   10 type  2   force =    -0.00000013    0.00000527    0.00000527
     atom   11 type  2   force =     0.00000000    0.00000000    0.00000000
     atom   12 type  2   force =    -0.00000527    0.00000013   -0.00000527
     atom   13 type  2   force =    -0.00000000   -0.00000000    0.00000000
     atom   14 type  2   force =    -0.00000527   -0.00000527    0.00000013
     atom   15 type  2   force =     0.00000000    0.00000000   -0.00000000
     atom   16 type  1   force =    -0.00011526   -0.00011526   -0.00011526

     Total force =     0.000283     Total SCF correction =     0.000107
     SCF correction compared to forces is large: reduce conv_thr to get better values


     Computing stress (Cartesian axis) and pressure

          total   stress  (Ry/bohr**3)                   (kbar)     P=       -3.07
  -0.00002085   0.00000001   0.00000001           -3.07        0.00        0.00
   0.00000001  -0.00002085   0.00000001            0.00       -3.07        0.00
   0.00000001   0.00000001  -0.00002085            0.00        0.00       -3.07

     Energy error            =      2.8E-03 Ry
     Gradient error          =      1.2E-04 Ry/Bohr
     Cell gradient error     =      3.1E+00 kbar

     number of scf cycles    =   2
     number of bfgs steps    =   1

     enthalpy           old  =   -4133.5252342927 Ry
     enthalpy           new  =   -4133.5280112190 Ry

     CASE: enthalpy          _new < enthalpy          _old

     new trust radius        =       0.0034246314 bohr
     new conv_thr            =       0.0000000012 Ry

     new unit-cell volume =   1244.68241 a.u.^3 (   184.44290 Ang^3 )
     density =      7.55922 g/cm^3

CELL_PARAMETERS (angstrom)
   5.692293919   0.000006556   0.000006556
   0.000006556   5.692293919   0.000006556
   0.000006556   0.000006556   5.692293919

ATOMIC_POSITIONS (crystal)
Cr               0.0000000000        0.0000000000        0.0000000000
Fe               0.2500236718        0.2500236718        0.2500236718
Cr               0.0000000000        0.0000000000        0.5000000000
Cr               0.2500040430        0.2500040430        0.7499966239
Cr               0.0000000000        0.5000000000        0.0000000000
Cr               0.2500040430        0.7499966239        0.2500040430
Cr               0.0000000000        0.5000000000        0.5000000000
Cr               0.2500033761        0.7499959570        0.7499959570
Cr               0.5000000000        0.0000000000        0.0000000000
Cr               0.7499966239        0.2500040430        0.2500040430
Cr               0.5000000000        0.0000000000        0.5000000000
Cr               0.7499959570        0.2500033761        0.7499959570
Cr               0.5000000000        0.5000000000        0.0000000000
Cr               0.7499959570        0.7499959570        0.2500033761
Cr               0.5000000000        0.5000000000        0.5000000000
Fe               0.7499763282        0.7499763282        0.7499763282



     Writing config-only to output data dir ./tmp/fecr_fe02cr14_vcr.save/ :
     XML data file
     NEW-OLD atomic charge density approx. for the potential

     Check: negative core charge=   -0.000004
     Generating pointlists ...

     total cpu time spent up to now is     6366.0 secs

     Self-consistent Calculation

     iteration #  1     ecut=    60.00 Ry     beta= 0.30
     Davidson diagonalization with overlap
     ethr =  1.00E-06,  avg # of iterations =  2.0

     Threshold (ethr) on eigenvalues was too large:
     Diagonalizing with lowered threshold

     Davidson diagonalization with overlap
     ethr =  1.21E-08,  avg # of iterations =  5.0

     total cpu time spent up to now is     6403.2 secs

     total energy              =   -4133.52803178 Ry
     estimated scf accuracy    <       0.00003345 Ry

     total magnetization       =     3.66 Bohr mag/cell
     absolute magnetization    =    14.91 Bohr mag/cell

     iteration #  2     ecut=    60.00 Ry     beta= 0.30
     Davidson diagonalization with overlap
     ethr =  1.47E-08,  avg # of iterations =  5.6

     total cpu time spent up to now is     6433.4 secs

     total energy              =   -4133.52800314 Ry
     estimated scf accuracy    <       0.00094923 Ry

     total magnetization       =     3.68 Bohr mag/cell
     absolute magnetization    =    14.92 Bohr mag/cell

     iteration #  3     ecut=    60.00 Ry     beta= 0.30
     Davidson diagonalization with overlap
     ethr =  1.47E-08,  avg # of iterations =  5.5

     total cpu time spent up to now is     6462.3 secs

     total energy              =   -4133.52803725 Ry
     estimated scf accuracy    <       0.00000496 Ry

     total magnetization       =     3.67 Bohr mag/cell
     absolute magnetization    =    14.91 Bohr mag/cell

     iteration #  4     ecut=    60.00 Ry     beta= 0.30
     Davidson diagonalization with overlap
     ethr =  2.18E-09,  avg # of iterations =  5.0

     total cpu time spent up to now is     6489.7 secs

     total energy              =   -4133.52803410 Ry
     estimated scf accuracy    <       0.00001494 Ry

     total magnetization       =     3.66 Bohr mag/cell
     absolute magnetization    =    14.90 Bohr mag/cell

     iteration #  5     ecut=    60.00 Ry     beta= 0.30
     Davidson diagonalization with overlap
     ethr =  2.18E-09,  avg # of iterations =  2.1

     total cpu time spent up to now is     6514.8 secs

     total energy              =   -4133.52803080 Ry
     estimated scf accuracy    <       0.00000144 Ry

     total magnetization       =     3.67 Bohr mag/cell
     absolute magnetization    =    14.90 Bohr mag/cell

     iteration #  6     ecut=    60.00 Ry     beta= 0.30
     Davidson diagonalization with overlap
     ethr =  6.33E-10,  avg # of iterations =  5.1

     total cpu time spent up to now is     6543.0 secs

     total energy              =   -4133.52802722 Ry
     estimated scf accuracy    <       0.00000129 Ry

     total magnetization       =     3.67 Bohr mag/cell
     absolute magnetization    =    14.90 Bohr mag/cell

     iteration #  7     ecut=    60.00 Ry     beta= 0.30
     Davidson diagonalization with overlap
     ethr =  5.67E-10,  avg # of iterations =  4.3

     total cpu time spent up to now is     6570.7 secs

     total energy              =   -4133.52802618 Ry
     estimated scf accuracy    <       0.00000283 Ry

     total magnetization       =     3.67 Bohr mag/cell
     absolute magnetization    =    14.89 Bohr mag/cell

     iteration #  8     ecut=    60.00 Ry     beta= 0.30
     Davidson diagonalization with overlap
     ethr =  5.67E-10,  avg # of iterations =  4.5

     total cpu time spent up to now is     6598.8 secs

     total energy              =   -4133.52802706 Ry
     estimated scf accuracy    <       0.00000076 Ry

     total magnetization       =     3.66 Bohr mag/cell
     absolute magnetization    =    14.88 Bohr mag/cell

     iteration #  9     ecut=    60.00 Ry     beta= 0.30
     Davidson diagonalization with overlap
     ethr =  3.35E-10,  avg # of iterations =  5.0

     total cpu time spent up to now is     6627.1 secs

     total energy              =   -4133.52802790 Ry
     estimated scf accuracy    <       0.00000097 Ry

     total magnetization       =     3.66 Bohr mag/cell
     absolute magnetization    =    14.88 Bohr mag/cell

     iteration # 10     ecut=    60.00 Ry     beta= 0.30
     Davidson diagonalization with overlap
     ethr =  3.35E-10,  avg # of iterations =  4.1

     total cpu time spent up to now is     6654.8 secs

     total energy              =   -4133.52802780 Ry
     estimated scf accuracy    <       0.00000294 Ry

     total magnetization       =     3.66 Bohr mag/cell
     absolute magnetization    =    14.87 Bohr mag/cell

     iteration # 11     ecut=    60.00 Ry     beta= 0.30
     Davidson diagonalization with overlap
     ethr =  3.35E-10,  avg # of iterations =  3.6

     total cpu time spent up to now is     6682.1 secs

     total energy              =   -4133.52802861 Ry
     estimated scf accuracy    <       0.00000146 Ry

     total magnetization       =     3.66 Bohr mag/cell
     absolute magnetization    =    14.86 Bohr mag/cell

     iteration # 12     ecut=    60.00 Ry     beta= 0.30
     Davidson diagonalization with overlap
     ethr =  3.35E-10,  avg # of iterations =  1.2

     total cpu time spent up to now is     6706.0 secs

     total energy              =   -4133.52802823 Ry
     estimated scf accuracy    <       0.00000090 Ry

     total magnetization       =     3.66 Bohr mag/cell
     absolute magnetization    =    14.86 Bohr mag/cell

     iteration # 13     ecut=    60.00 Ry     beta= 0.30
     Davidson diagonalization with overlap
     ethr =  3.35E-10,  avg # of iterations =  5.3

     total cpu time spent up to now is     6734.4 secs

     total energy              =   -4133.52802812 Ry
     estimated scf accuracy    <       0.00000122 Ry

     total magnetization       =     3.66 Bohr mag/cell
     absolute magnetization    =    14.84 Bohr mag/cell

     iteration # 14     ecut=    60.00 Ry     beta= 0.30
     Davidson diagonalization with overlap
     ethr =  3.35E-10,  avg # of iterations =  3.5

     total cpu time spent up to now is     6761.5 secs

     total energy              =   -4133.52802702 Ry
     estimated scf accuracy    <       0.00000037 Ry

     total magnetization       =     3.66 Bohr mag/cell
     absolute magnetization    =    14.84 Bohr mag/cell

     iteration # 15     ecut=    60.00 Ry     beta= 0.30
     Davidson diagonalization with overlap
     ethr =  1.63E-10,  avg # of iterations =  5.5

     total cpu time spent up to now is     6791.3 secs

     total energy              =   -4133.52802608 Ry
     estimated scf accuracy    <       0.00000069 Ry

     total magnetization       =     3.66 Bohr mag/cell
     absolute magnetization    =    14.86 Bohr mag/cell

     iteration # 16     ecut=    60.00 Ry     beta= 0.30
     Davidson diagonalization with overlap
     ethr =  1.63E-10,  avg # of iterations =  6.9

     total cpu time spent up to now is     6823.0 secs

     total energy              =   -4133.52802859 Ry
     estimated scf accuracy    <       0.00000009 Ry

     total magnetization       =     3.66 Bohr mag/cell
     absolute magnetization    =    14.82 Bohr mag/cell

     iteration # 17     ecut=    60.00 Ry     beta= 0.30
     Davidson diagonalization with overlap
     ethr =  3.82E-11,  avg # of iterations =  5.2

     total cpu time spent up to now is     6852.3 secs

     total energy              =   -4133.52802852 Ry
     estimated scf accuracy    <       0.00000006 Ry

     total magnetization       =     3.66 Bohr mag/cell
     absolute magnetization    =    14.82 Bohr mag/cell

     iteration # 18     ecut=    60.00 Ry     beta= 0.30
     Davidson diagonalization with overlap
     ethr =  2.77E-11,  avg # of iterations =  5.0

     total cpu time spent up to now is     6879.8 secs

     total energy              =   -4133.52802851 Ry
     estimated scf accuracy    <       0.00000010 Ry

     total magnetization       =     3.66 Bohr mag/cell
     absolute magnetization    =    14.82 Bohr mag/cell

     iteration # 19     ecut=    60.00 Ry     beta= 0.30
     Davidson diagonalization with overlap
     ethr =  2.77E-11,  avg # of iterations =  6.4

     total cpu time spent up to now is     6911.2 secs

     total energy              =   -4133.52802871 Ry
     estimated scf accuracy    <       0.00000014 Ry

     total magnetization       =     3.66 Bohr mag/cell
     absolute magnetization    =    14.81 Bohr mag/cell

     iteration # 20     ecut=    60.00 Ry     beta= 0.30
     Davidson diagonalization with overlap
     ethr =  2.77E-11,  avg # of iterations =  7.0

     total cpu time spent up to now is     6942.9 secs

     total energy              =   -4133.52802729 Ry
     estimated scf accuracy    <       0.00000008 Ry

     total magnetization       =     3.67 Bohr mag/cell
     absolute magnetization    =    14.81 Bohr mag/cell

     iteration # 21     ecut=    60.00 Ry     beta= 0.30
     Davidson diagonalization with overlap
     ethr =  2.77E-11,  avg # of iterations =  9.2

     total cpu time spent up to now is     6979.2 secs

     total energy              =   -4133.52802814 Ry
     estimated scf accuracy    <       0.00000001 Ry

     total magnetization       =     3.67 Bohr mag/cell
     absolute magnetization    =    14.79 Bohr mag/cell

     iteration # 22     ecut=    60.00 Ry     beta= 0.30
     Davidson diagonalization with overlap
     ethr =  5.02E-12,  avg # of iterations = 11.9

     total cpu time spent up to now is     7019.0 secs

     total energy              =   -4133.52802881 Ry
     estimated scf accuracy    <       0.00000001 Ry

     total magnetization       =     3.67 Bohr mag/cell
     absolute magnetization    =    14.77 Bohr mag/cell

     iteration # 23     ecut=    60.00 Ry     beta= 0.30
     Davidson diagonalization with overlap
     ethr =  4.73E-12,  avg # of iterations =  9.7
 
     Magnetic moment per site  (integrated on atomic sphere of radius R)
     atom   1 (R=0.179)  charge= 12.1646  magn=  0.8501
     atom   2 (R=0.179)  charge= 14.4751  magn=  0.9793
     atom   3 (R=0.179)  charge= 12.1643  magn=  0.8498
     atom   4 (R=0.179)  charge= 12.1817  magn= -0.8487
     atom   5 (R=0.179)  charge= 12.1643  magn=  0.8498
     atom   6 (R=0.179)  charge= 12.1817  magn= -0.8487
     atom   7 (R=0.179)  charge= 12.1646  magn=  0.8495
     atom   8 (R=0.179)  charge= 12.1817  magn= -0.8487
     atom   9 (R=0.179)  charge= 12.1643  magn=  0.8498
     atom  10 (R=0.179)  charge= 12.1817  magn= -0.8487
     atom  11 (R=0.179)  charge= 12.1646  magn=  0.8495
     atom  12 (R=0.179)  charge= 12.1817  magn= -0.8487
     atom  13 (R=0.179)  charge= 12.1646  magn=  0.8495
     atom  14 (R=0.179)  charge= 12.1817  magn= -0.8487
     atom  15 (R=0.179)  charge= 12.1639  magn=  0.8493
     atom  16 (R=0.179)  charge= 14.4751  magn=  0.9793

     total cpu time spent up to now is     7053.9 secs

     End of self-consistent calculation

 ------ SPIN UP ------------


          k = 0.0000 0.0000 0.0000 (  9627 PWs)   bands (ev):

   -68.1349 -68.1347 -52.7545 -52.7151 -52.7151 -52.7150 -52.6980 -52.6980
   -52.6980 -52.6818 -51.7762 -51.7762 -51.7588 -51.7586 -51.7586 -51.7504
   -34.1949 -34.1949 -34.1949 -34.1909 -34.1909 -34.1909 -24.3204 -24.3204
   -24.3204 -24.2361 -24.2361 -24.2361 -24.1594 -24.1510 -24.1510 -24.1217
   -24.1217 -24.1217 -24.0462 -24.0462 -24.0462 -23.9756 -23.9756 -23.9756
   -23.9717 -23.9717 -23.9716 -23.9613 -23.9549 -23.9549 -23.2209 -23.2209
   -23.2209 -23.1401 -23.1401 -23.1401 -23.0482 -23.0482 -23.0482 -23.0313
   -23.0313 -23.0313 -23.0168 -23.0168 -23.0168 -22.9763 -22.9763 -22.9763
    11.3869  14.7175  14.7905  14.7905  14.9693  14.9693  14.9693  15.0230
    15.0230  15.1542  15.2558  15.2558  15.2558  15.4261  15.4261  16.7154
    16.7154  16.7154  16.7764  16.7764  16.7764  16.9494  16.9494  16.9494
    17.0611  17.0611  17.0611  17.2210  17.2210  17.3462  17.3462  17.3462
    17.9349  18.3321  18.3321  18.3321  18.6349  18.6349  18.6349  18.6354
    18.6354  18.6354  18.6673  18.6674  18.6674  19.0568  19.0568  19.4898
    19.4898  19.4898  19.6698  19.6698  19.8138  20.2569  20.2569  20.2569
    20.2696  20.2697  20.2697  20.3800  20.3800  20.3800  20.5403  20.5403
    20.5787  20.5787  20.5788  20.5904  20.5904  20.5905  20.6508  20.6508
    20.6845

          k =-0.0000-0.0000 0.1657 (  9595 PWs)   bands (ev):

   -68.1348 -68.1347 -52.7519 -52.7178 -52.7139 -52.7139 -52.6992 -52.6992
   -52.6969 -52.6829 -51.7751 -51.7750 -51.7599 -51.7597 -51.7580 -51.7509
   -34.1947 -34.1947 -34.1947 -34.1911 -34.1911 -34.1909 -24.3095 -24.3052
   -24.3052 -24.2316 -24.2245 -24.2245 -24.1623 -24.1615 -24.1474 -24.1333
   -24.1333 -24.1102 -24.0536 -24.0419 -24.0418 -23.9974 -23.9974 -23.9796
   -23.9796 -23.9744 -23.9704 -23.9691 -23.9594 -23.9562 -23.2047 -23.2026
   -23.2026 -23.1312 -23.1300 -23.1300 -23.0457 -23.0439 -23.0439 -23.0395
   -23.0364 -23.0364 -23.0280 -23.0280 -23.0192 -22.9914 -22.9821 -22.9821
    11.5389  14.4820  14.7910  14.8498  14.8885  15.0198  15.0198  15.0942
    15.0997  15.1115  15.3007  15.3082  15.3082  15.4386  15.7427  16.6212
    16.7076  16.7076  16.7211  16.7320  16.7320  16.7938  16.9057  16.9859
    16.9859  17.0361  17.1334  17.2005  17.2005  17.3583  17.3583  17.5664
    18.0995  18.3218  18.3218  18.3618  18.3660  18.3660  18.3829  18.5249
    18.5249  18.8027  18.8689  18.8765  18.8776  18.9650  18.9650  19.0258
    19.4512  19.5211  19.5212  19.6454  19.6454  19.8637  19.8637  19.9318
    20.0040  20.0167  20.2731  20.2930  20.2995  20.2995  20.4931  20.5851
    20.5878  20.5879  20.5913  20.5940  20.6212  20.6477  20.6707  20.6856
    20.7496

          k =-0.0000-0.0000 0.3313 (  9606 PWs)   bands (ev):

   -68.1348 -68.1347 -52.7448 -52.7251 -52.7108 -52.7108 -52.7023 -52.7023
   -52.6940 -52.6859 -51.7718 -51.7717 -51.7630 -51.7630 -51.7565 -51.7524
   -34.1940 -34.1940 -34.1939 -34.1918 -34.1918 -34.1917 -24.2788 -24.2643
   -24.2643 -24.2180 -24.1937 -24.1889 -24.1889 -24.1771 -24.1659 -24.1659
   -24.1286 -24.0807 -24.0744 -24.0585 -24.0585 -24.0302 -24.0302 -23.9987
   -23.9947 -23.9947 -23.9714 -23.9673 -23.9631 -23.9591 -23.1624 -23.1578
   -23.1578 -23.1081 -23.1049 -23.1049 -23.0639 -23.0589 -23.0589 -23.0510
   -23.0510 -23.0398 -23.0327 -23.0327 -23.0306 -23.0246 -22.9974 -22.9974
    11.9827  13.5554  14.9688  15.0135  15.1539  15.1539  15.1788  15.3252
    15.3256  15.3608  15.3746  15.3746  15.3984  15.4456  15.7736  16.1653
    16.2279  16.4914  16.6634  16.6634  16.7221  16.7221  17.0241  17.1238
    17.1586  17.1586  17.2917  17.3182  17.3183  17.6644  17.6644  17.6978
    17.8623  18.0130  18.0130  18.1456  18.2414  18.2922  18.2922  18.4157
    18.4157  18.4852  18.5330  18.5704  18.5705  18.8776  19.0545  19.0942
    19.1082  19.1082  19.2677  19.3565  19.3732  19.3732  19.8055  20.0188
    20.0188  20.0992  20.0992  20.2902  20.2995  20.3142  20.4231  20.5526
    20.6048  20.6335  20.7253  20.7260  20.8436  20.9634  20.9930  20.9931
    21.0193

          k = 0.0000 0.0000-0.4970 (  9626 PWs)   bands (ev):

   -68.1348 -68.1348 -52.7350 -52.7349 -52.7066 -52.7066 -52.7065 -52.7065
   -52.6900 -52.6899 -51.7674 -51.7674 -51.7673 -51.7673 -51.7545 -51.7545
   -34.1929 -34.1929 -34.1929 -34.1929 -34.1928 -34.1928 -24.2365 -24.2363
   -24.2129 -24.2129 -24.2128 -24.2128 -24.1982 -24.1981 -24.1304 -24.1304
   -24.1301 -24.1301 -24.1019 -24.1016 -24.0400 -24.0396 -24.0133 -24.0133
   -24.0132 -24.0132 -23.9673 -23.9672 -23.9633 -23.9632 -23.1078 -23.1078
   -23.1051 -23.1051 -23.1051 -23.1051 -23.0754 -23.0754 -23.0754 -23.0754
   -23.0744 -23.0744 -23.0321 -23.0321 -23.0161 -23.0161 -23.0161 -23.0161
    12.6793  12.6795  15.1878  15.1879  15.2300  15.2300  15.3098  15.3098
    15.3100  15.3100  15.5380  15.5381  15.6878  15.6881  15.7521  15.7522
    15.9524  15.9525  16.6814  16.6815  16.6816  16.6816  17.3903  17.3906
    17.4601  17.4601  17.4605  17.4605  17.4847  17.4848  17.7014  17.7015
    17.7839  17.7840  17.7840  17.7840  18.1767  18.1767  18.2232  18.2232
    18.2234  18.2234  18.4931  18.4931  18.4932  18.4932  18.7751  18.7753
    18.7791  18.7796  19.6126  19.6130  19.7823  19.7823  19.7824  19.7824
    19.8669  19.8670  20.3511  20.3514  20.4282  20.4283  20.4976  20.4976
    20.4977  20.4977  20.6195  20.6195  20.8887  20.8887  20.9511  20.9514
    21.0026

          k =-0.0000 0.1657 0.1657 (  9601 PWs)   bands (ev):

   -68.1348 -68.1347 -52.7494 -52.7171 -52.7160 -52.7128 -52.7004 -52.6981
   -52.6981 -52.6840 -51.7740 -51.7739 -51.7609 -51.7597 -51.7586 -51.7515
   -34.1950 -34.1945 -34.1939 -34.1917 -34.1913 -34.1907 -24.3018 -24.2902
   -24.2899 -24.2221 -24.2176 -24.2136 -24.1710 -24.1588 -24.1583 -24.1365
   -24.1319 -24.1116 -24.0573 -24.0416 -24.0381 -24.0073 -24.0030 -23.9973
   -23.9843 -23.9790 -23.9762 -23.9723 -23.9678 -23.9590 -23.1963 -23.1885
   -23.1873 -23.1228 -23.1214 -23.1210 -23.0529 -23.0491 -23.0463 -23.0405
   -23.0404 -23.0373 -23.0352 -23.0261 -23.0173 -23.0131 -22.9873 -22.9797
    11.6884  14.4802  14.6434  14.8221  14.9272  14.9593  15.0868  15.1439
    15.1455  15.1879  15.1955  15.3733  15.4195  15.7542  15.7945  16.5000
    16.6162  16.7018  16.7051  16.7626  16.7831  16.7975  16.8238  16.9865
    16.9926  17.0257  17.1210  17.1899  17.2559  17.2734  17.2788  17.7890
    17.9953  18.1008  18.2271  18.2937  18.3444  18.3581  18.5128  18.5423
    18.5989  18.6390  18.6489  18.8489  18.8630  18.9997  19.0551  19.1172
    19.2276  19.2630  19.3301  19.4164  19.5413  19.6576  19.7250  19.7421
    19.8917  20.1334  20.1459  20.2032  20.2532  20.2974  20.4909  20.5297
    20.5665  20.6440  20.6583  20.6732  20.6958  20.7729  20.8031  20.8488
    20.8729

          k =-0.0000 0.1657 0.3313 (  9577 PWs)   bands (ev):

   -68.1348 -68.1347 -52.7426 -52.7237 -52.7130 -52.7097 -52.7038 -52.7012
   -52.6951 -52.6870 -51.7711 -51.7708 -51.7636 -51.7625 -51.7574 -51.7531
   -34.1946 -34.1938 -34.1928 -34.1927 -34.1919 -34.1909 -24.2745 -24.2572
   -24.2505 -24.2083 -24.1961 -24.1863 -24.1823 -24.1805 -24.1668 -24.1579
   -24.1289 -24.0857 -24.0749 -24.0587 -24.0536 -24.0331 -24.0273 -24.0073
   -24.0008 -23.9937 -23.9834 -23.9737 -23.9734 -23.9629 -23.1677 -23.1547
   -23.1490 -23.1051 -23.0995 -23.0957 -23.0839 -23.0723 -23.0638 -23.0530
   -23.0529 -23.0379 -23.0365 -23.0310 -23.0226 -23.0168 -23.0004 -22.9895
    12.1243  13.6558  14.7256  14.8511  15.1035  15.2389  15.2777  15.2787
    15.4135  15.4427  15.4480  15.4724  15.4952  15.7324  15.8392  16.2044
    16.2348  16.4410  16.6907  16.7662  16.7841  16.7898  16.8574  17.0001
    17.0961  17.1792  17.2120  17.2615  17.3967  17.4347  17.5164  17.7852
    17.8544  17.9753  18.0522  18.0992  18.1404  18.1739  18.1998  18.2108
    18.3464  18.4190  18.4448  18.7009  18.7361  18.7892  18.8495  18.8700
    19.1377  19.1749  19.2168  19.2430  19.3698  19.5031  19.5957  19.9489
    19.9657  19.9780  19.9798  20.3115  20.3511  20.4017  20.4318  20.5572
    20.5771  20.6355  20.6672  20.6821  20.7586  20.7821  20.7968  20.8707
    20.9455

          k = 0.0000 0.1657-0.4970 (  9608 PWs)   bands (ev):

   -68.1348 -68.1348 -52.7332 -52.7331 -52.7085 -52.7084 -52.7055 -52.7054
   -52.6911 -52.6910 -51.7673 -51.7673 -51.7666 -51.7666 -51.7552 -51.7552
   -34.1938 -34.1938 -34.1929 -34.1929 -34.1918 -34.1917 -24.2352 -24.2351
   -24.2204 -24.2204 -24.2013 -24.2012 -24.1886 -24.1885 -24.1285 -24.1284
   -24.1260 -24.1258 -24.0963 -24.0962 -24.0440 -24.0437 -24.0198 -24.0197
   -24.0106 -24.0105 -23.9791 -23.9789 -23.9683 -23.9682 -23.1260 -23.1260
   -23.1106 -23.1106 -23.1037 -23.1037 -23.0843 -23.0843 -23.0739 -23.0739
   -23.0642 -23.0642 -23.0227 -23.0227 -23.0168 -23.0168 -23.0073 -23.0073
    12.8056  12.8057  14.8367  14.8367  15.3156  15.3156  15.4299  15.4301
    15.5207  15.5207  15.6196  15.6196  15.7555  15.7557  15.8130  15.8131
    15.9901  15.9902  16.7131  16.7132  16.7432  16.7433  17.1773  17.1776
    17.2773  17.2775  17.4185  17.4188  17.4501  17.4501  17.6840  17.6842
    17.7853  17.7853  17.8191  17.8192  18.0869  18.0871  18.1486  18.1488
    18.2159  18.2159  18.2318  18.2319  18.3747  18.3748  18.8912  18.8915
    19.0032  19.0034  19.4678  19.4682  19.6513  19.6514  19.6768  19.6768
    19.9709  19.9710  20.2347  20.2348  20.3855  20.3856  20.4537  20.4537
    20.4549  20.4550  20.6543  20.6543  20.8039  20.8040  20.9509  20.9585
    20.9586

          k =-0.0000 0.3313 0.3313 (  9582 PWs)   bands (ev):

   -68.1348 -68.1347 -52.7365 -52.7210 -52.7178 -52.7079 -52.7066 -52.6982
   -52.6982 -52.6900 -51.7695 -51.7682 -51.7651 -51.7619 -51.7587 -51.7549
   -34.1949 -34.1937 -34.1934 -34.1923 -34.1918 -34.1906 -24.2568 -24.2442
   -24.2147 -24.2106 -24.1971 -24.1964 -24.1832 -24.1557 -24.1507 -24.1503
   -24.1185 -24.0845 -24.0811 -24.0720 -24.0489 -24.0390 -24.0369 -24.0208
   -24.0105 -24.0066 -24.0050 -23.9923 -23.9792 -23.9686 -23.1606 -23.1498
   -23.1271 -23.1094 -23.1056 -23.1028 -23.0914 -23.0860 -23.0786 -23.0674
   -23.0592 -23.0276 -23.0261 -23.0186 -23.0120 -23.0112 -23.0086 -22.9877
    12.5337  13.8510  14.0270  14.6168  15.3563  15.4349  15.4717  15.5864
    15.6069  15.6145  15.6403  15.6783  15.6902  15.7730  15.9337  16.1695
    16.2909  16.3703  16.5385  16.7708  16.8492  16.8519  16.9459  16.9465
    16.9550  17.0290  17.1659  17.2352  17.3146  17.3409  17.5303  17.6028
    17.7015  17.8153  17.8636  17.9322  17.9528  17.9781  18.0426  18.0646
    18.1386  18.2245  18.3176  18.3614  18.5155  18.5938  18.9026  18.9820
    19.0418  19.1455  19.1480  19.3466  19.3744  19.4382  19.7078  19.7427
    19.7587  19.9941  20.1362  20.3284  20.3312  20.3522  20.4359  20.4431
    20.5398  20.5452  20.5806  20.5839  20.6095  20.6561  20.7689  20.8049
    20.8260

          k = 0.0000 0.3313-0.4970 (  9578 PWs)   bands (ev):

   -68.1347 -68.1347 -52.7282 -52.7281 -52.7135 -52.7134 -52.7025 -52.7024
   -52.6941 -52.6940 -51.7673 -51.7673 -51.7646 -51.7646 -51.7572 -51.7572
   -34.1945 -34.1945 -34.1928 -34.1928 -34.1909 -34.1909 -24.2295 -24.2294
   -24.2259 -24.2258 -24.1902 -24.1902 -24.1739 -24.1739 -24.1147 -24.1145
   -24.1088 -24.1088 -24.0870 -24.0869 -24.0518 -24.0515 -24.0388 -24.0388
   -24.0157 -24.0157 -24.0020 -24.0020 -23.9753 -23.9752 -23.1364 -23.1364
   -23.1310 -23.1310 -23.1098 -23.1098 -23.1011 -23.1011 -23.0707 -23.0707
   -23.0401 -23.0401 -23.0181 -23.0181 -23.0088 -23.0088 -22.9981 -22.9981
    13.1627  13.1628  14.3008  14.3008  15.5424  15.5424  15.6616  15.6617
    15.7402  15.7404  15.8071  15.8071  15.8651  15.8652  16.0285  16.0286
    16.0812  16.0812  16.7225  16.7225  16.8585  16.8587  16.8826  16.8828
    17.0945  17.0945  17.0972  17.0972  17.3875  17.3877  17.4461  17.4462
    17.6278  17.6278  17.7703  17.7703  17.8428  17.8429  18.0706  18.0706
    18.1604  18.1604  18.1927  18.1927  18.2041  18.2041  19.0668  19.0670
    19.2406  19.2406  19.2730  19.2732  19.3288  19.3289  19.5590  19.5590
    20.0557  20.0557  20.2033  20.2034  20.2435  20.2435  20.4237  20.4239
    20.4739  20.4740  20.6292  20.6292  20.7108  20.7109  20.7231  20.7232
    20.8197

          k = 0.0000-0.4970-0.4970 (  9580 PWs)   bands (ev):

   -68.1347 -68.1347 -52.7230 -52.7230 -52.7187 -52.7187 -52.6983 -52.6983
   -52.6983 -52.6981 -51.7673 -51.7673 -51.7630 -51.7630 -51.7588 -51.7588
   -34.1948 -34.1948 -34.1928 -34.1928 -34.1906 -34.1906 -24.2310 -24.2310
   -24.2184 -24.2184 -24.1994 -24.1993 -24.1567 -24.1566 -24.1051 -24.1050
   -24.0914 -24.0913 -24.0718 -24.0717 -24.0641 -24.0640 -24.0494 -24.0493
   -24.0458 -24.0458 -23.9984 -23.9984 -23.9801 -23.9801 -23.1402 -23.1401
   -23.1306 -23.1306 -23.1295 -23.1295 -23.0999 -23.0999 -23.0691 -23.0691
   -23.0278 -23.0278 -23.0189 -23.0189 -23.0067 -23.0067 -22.9940 -22.9940
    13.6119  13.6119  13.7875  13.7875  15.6134  15.6134  15.8237  15.8237
    15.8840  15.8840  15.9486  15.9486  15.9741  15.9741  16.1408  16.1408
    16.2085  16.2085  16.5775  16.5775  16.7915  16.7915  16.8243  16.8243
    16.8765  16.8765  17.1150  17.1151  17.2831  17.2831  17.4066  17.4066
    17.4835  17.4835  17.5926  17.5926  17.6710  17.6710  18.0158  18.0158
    18.1137  18.1137  18.1221  18.1221  18.5571  18.5571  18.8660  18.8660
    19.1384  19.1384  19.2243  19.2243  19.4593  19.4593  19.5224  19.5224
    19.9459  19.9459  20.3315  20.3316  20.3912  20.3912  20.3963  20.3963
    20.3996  20.3996  20.5282  20.5282  20.5906  20.5906  20.6564  20.6564
    20.7581

          k = 0.1657 0.1657 0.1657 (  9591 PWs)   bands (ev):

   -68.1348 -68.1347 -52.7470 -52.7158 -52.7158 -52.7143 -52.6994 -52.6994
   -52.6992 -52.6851 -51.7730 -51.7730 -51.7613 -51.7596 -51.7596 -51.7521
   -34.1947 -34.1947 -34.1933 -34.1923 -34.1910 -34.1910 -24.2929 -24.2768
   -24.2768 -24.2097 -24.2091 -24.2091 -24.1685 -24.1685 -24.1670 -24.1330
   -24.1229 -24.1229 -24.0529 -24.0529 -24.0311 -24.0100 -24.0100 -24.0003
   -23.9898 -23.9898 -23.9898 -23.9747 -23.9699 -23.9699 -23.1822 -23.1822
   -23.1766 -23.1165 -23.1165 -23.1090 -23.0654 -23.0654 -23.0511 -23.0396
   -23.0306 -23.0306 -23.0304 -23.0304 -23.0291 -23.0240 -22.9857 -22.9857
    11.8359  14.4993  14.7194  14.7194  14.9016  14.9784  14.9784  15.1899
    15.1899  15.2262  15.2875  15.2875  15.8278  15.8278  15.8356  16.4063
    16.6299  16.6299  16.7468  16.7468  16.7958  16.7958  16.8700  16.8967
    17.0139  17.1082  17.1082  17.1087  17.1364  17.1364  17.6369  17.6369
    17.8685  17.9988  18.1940  18.1940  18.2839  18.2839  18.5199  18.5199
    18.6039  18.6039  18.6099  18.7296  18.7791  18.7791  19.0102  19.0667
    19.2159  19.2797  19.2797  19.3112  19.3112  19.4349  19.4349  19.8132
    20.0493  20.1870  20.1870  20.2435  20.2435  20.2754  20.5272  20.5272
    20.6045  20.6045  20.6532  20.6532  20.6602  20.6991  20.7974  20.7974
    20.8942

          k = 0.1657 0.1657 0.3313 (  9577 PWs)   bands (ev):

   -68.1348 -68.1347 -52.7404 -52.7222 -52.7123 -52.7114 -52.7029 -52.7025
   -52.6963 -52.6881 -51.7704 -51.7701 -51.7635 -51.7625 -51.7582 -51.7537
   -34.1946 -34.1939 -34.1932 -34.1923 -34.1918 -34.1910 -24.2670 -24.2458
   -24.2427 -24.1971 -24.1948 -24.1887 -24.1817 -24.1716 -24.1685 -24.1547
   -24.1254 -24.0925 -24.0733 -24.0542 -24.0541 -24.0410 -24.0226 -24.0072
   -24.0051 -24.0036 -23.9899 -23.9884 -23.9770 -23.9756 -23.1615 -23.1494
   -23.1474 -23.1022 -23.0983 -23.0945 -23.0847 -23.0844 -23.0705 -23.0522
   -23.0492 -23.0458 -23.0397 -23.0196 -23.0189 -23.0184 -23.0018 -22.9909
    12.2647  13.7599  14.7714  14.8881  14.9445  15.0164  15.2803  15.3533
    15.4067  15.5036  15.5138  15.5746  15.7965  15.8748  15.9168  16.2344
    16.2492  16.4765  16.7020  16.7169  16.7868  16.8540  16.8825  16.9639
    16.9960  17.1133  17.2152  17.2824  17.3415  17.3498  17.4700  17.6878
    17.7881  17.8870  17.9843  18.0206  18.0293  18.0952  18.1049  18.2155
    18.2194  18.2857  18.2940  18.5205  18.6368  18.6901  18.8417  18.9473
    18.9657  19.0909  19.1571  19.3670  19.4434  19.4903  19.6198  19.8095
    20.0300  20.0319  20.0812  20.2681  20.3956  20.4438  20.4505  20.4646
    20.5277  20.5722  20.6381  20.6898  20.7052  20.7377  20.8464  20.8639
    20.8939

          k = 0.1657 0.1657-0.4970 (  9588 PWs)   bands (ev):

   -68.1348 -68.1348 -52.7314 -52.7313 -52.7077 -52.7075 -52.7070 -52.7069
   -52.6923 -52.6922 -51.7669 -51.7669 -51.7663 -51.7663 -51.7560 -51.7560
   -34.1941 -34.1940 -34.1928 -34.1928 -34.1915 -34.1915 -24.2310 -24.2309
   -24.2151 -24.2150 -24.1984 -24.1983 -24.1809 -24.1808 -24.1321 -24.1320
   -24.1156 -24.1153 -24.0938 -24.0936 -24.0484 -24.0480 -24.0239 -24.0238
   -24.0130 -24.0130 -23.9833 -23.9832 -23.9827 -23.9826 -23.1288 -23.1288
   -23.1126 -23.1125 -23.1092 -23.1092 -23.0824 -23.0824 -23.0732 -23.0732
   -23.0586 -23.0586 -23.0282 -23.0281 -23.0133 -23.0133 -23.0034 -23.0034
    12.9326  12.9328  14.9142  14.9143  15.0085  15.0085  15.5943  15.5943
    15.6479  15.6480  15.7145  15.7146  15.8407  15.8408  15.8619  15.8619
    16.0334  16.0334  16.7366  16.7368  16.7955  16.7957  17.0920  17.0922
    17.2329  17.2330  17.3013  17.3016  17.4087  17.4087  17.6081  17.6082
    17.6912  17.6912  17.8083  17.8083  18.0235  18.0236  18.0359  18.0360
    18.0842  18.0842  18.1448  18.1448  18.2026  18.2026  18.9794  18.9797
    19.1549  19.1551  19.3472  19.3473  19.4425  19.4427  19.7688  19.7689
    20.0524  20.0525  20.0927  20.0927  20.4161  20.4163  20.4667  20.4668
    20.4718  20.4718  20.6831  20.6832  20.7579  20.7579  20.8762  20.8764
    20.9248

          k = 0.1657 0.3313 0.3313 (  9595 PWs)   bands (ev):

   -68.1348 -68.1347 -52.7345 -52.7195 -52.7166 -52.7085 -52.7068 -52.6997
   -52.6995 -52.6912 -51.7688 -51.7678 -51.7647 -51.7620 -51.7595 -51.7555
   -34.1946 -34.1939 -34.1935 -34.1921 -34.1916 -34.1909 -24.2464 -24.2300
   -24.2119 -24.2029 -24.1904 -24.1824 -24.1812 -24.1622 -24.1468 -24.1449
   -24.1145 -24.0951 -24.0766 -24.0666 -24.0509 -24.0462 -24.0382 -24.0195
   -24.0180 -24.0125 -24.0093 -24.0051 -23.9971 -23.9834 -23.1492 -23.1418
   -23.1259 -23.1073 -23.1059 -23.1017 -23.0962 -23.0877 -23.0659 -23.0643
   -23.0555 -23.0419 -23.0331 -23.0200 -23.0109 -23.0108 -23.0105 -22.9946
    12.6705  13.9640  14.1447  14.7502  15.0776  15.3047  15.3714  15.5314
    15.6429  15.7144  15.7683  15.8008  15.8427  16.0304  16.0798  16.2169
    16.2934  16.4436  16.5183  16.7408  16.8167  16.8609  16.9469  16.9504
    17.0078  17.0288  17.0843  17.2086  17.2614  17.3265  17.5107  17.5190
    17.5411  17.7203  17.7675  17.7870  17.8494  17.8993  17.9205  17.9368
    18.0587  18.0593  18.1186  18.1809  18.2931  18.4006  18.5755  19.0504
    19.1254  19.1809  19.1989  19.3048  19.4349  19.4987  19.6444  19.8870
    19.9433  20.1719  20.2404  20.2932  20.3140  20.4276  20.4729  20.4764
    20.5554  20.5832  20.6130  20.6238  20.6298  20.6790  20.7470  20.8270
    20.8272

          k = 0.1657 0.3313-0.4970 (  9622 PWs)   bands (ev):

   -68.1348 -68.1348 -52.7265 -52.7264 -52.7123 -52.7122 -52.7041 -52.7040
   -52.6955 -52.6953 -51.7667 -51.7667 -51.7646 -51.7646 -51.7578 -51.7578
   -34.1944 -34.1944 -34.1929 -34.1928 -34.1911 -34.1911 -24.2197 -24.2197
   -24.2134 -24.2133 -24.1839 -24.1838 -24.1689 -24.1689 -24.1204 -24.1203
   -24.1007 -24.1006 -24.0867 -24.0867 -24.0586 -24.0583 -24.0416 -24.0415
   -24.0211 -24.0211 -24.0124 -24.0123 -23.9919 -23.9918 -23.1294 -23.1294
   -23.1255 -23.1255 -23.1094 -23.1094 -23.0915 -23.0915 -23.0705 -23.0705
   -23.0439 -23.0439 -23.0267 -23.0266 -23.0123 -23.0123 -23.0013 -23.0013
    13.2918  13.2920  14.4299  14.4300  15.2908  15.2908  15.7023  15.7024
    15.8399  15.8401  15.9272  15.9273  15.9538  15.9538  16.0960  16.0960
    16.1612  16.1612  16.7331  16.7332  16.8486  16.8487  16.9096  16.9096
    17.0686  17.0687  17.1237  17.1237  17.3033  17.3035  17.3466  17.3466
    17.5056  17.5057  17.6650  17.6650  17.7960  17.7961  17.9026  17.9026
    17.9658  17.9658  17.9903  17.9903  18.0674  18.0674  18.8921  18.8921
    19.1395  19.1397  19.2592  19.2593  19.4548  19.4548  19.8009  19.8009
    20.1659  20.1660  20.2449  20.2449  20.3756  20.3757  20.4633  20.4634
    20.5029  20.5030  20.6443  20.6444  20.7004  20.7004  20.8102  20.8106
    20.8181

          k = 0.1657-0.4970-0.4970 (  9588 PWs)   bands (ev):

   -68.1347 -68.1347 -52.7214 -52.7213 -52.7174 -52.7174 -52.6999 -52.6999
   -52.6996 -52.6995 -51.7667 -51.7667 -51.7630 -51.7630 -51.7594 -51.7594
   -34.1945 -34.1945 -34.1928 -34.1928 -34.1909 -34.1909 -24.2158 -24.2158
   -24.2063 -24.2063 -24.1904 -24.1903 -24.1504 -24.1503 -24.1087 -24.1087
   -24.0865 -24.0865 -24.0720 -24.0719 -24.0684 -24.0683 -24.0574 -24.0574
   -24.0547 -24.0546 -24.0100 -24.0099 -23.9982 -23.9982 -23.1315 -23.1314
   -23.1210 -23.1210 -23.1189 -23.1189 -23.0955 -23.0955 -23.0695 -23.0695
   -23.0334 -23.0333 -23.0250 -23.0250 -23.0135 -23.0135 -23.0020 -23.0020
    13.7413  13.7413  13.9213  13.9213  15.6102  15.6102  15.7264  15.7264
    15.7753  15.7753  16.0023  16.0023  16.2191  16.2191  16.2213  16.2213
    16.3030  16.3030  16.5989  16.5989  16.7789  16.7789  16.8185  16.8185
    16.9018  16.9018  17.1411  17.1411  17.1703  17.1703  17.3210  17.3210
    17.3541  17.3541  17.4954  17.4954  17.6251  17.6252  17.8580  17.8580
    17.9179  17.9180  17.9456  17.9456  18.3059  18.3060  18.4743  18.4744
    19.2091  19.2091  19.2569  19.2569  19.5608  19.5608  19.7909  19.7909
    20.2379  20.2379  20.3835  20.3835  20.4502  20.4502  20.5220  20.5220
    20.5664  20.5664  20.5728  20.5728  20.5950  20.5950  20.6676  20.6676
    20.7615

          k = 0.3313 0.3313 0.3313 (  9594 PWs)   bands (ev):

   -68.1348 -68.1347 -52.7292 -52.7153 -52.7153 -52.7117 -52.7039 -52.7039
   -52.7025 -52.6945 -51.7668 -51.7668 -51.7646 -51.7614 -51.7614 -51.7572
   -34.1939 -34.1938 -34.1938 -34.1917 -34.1917 -34.1914 -24.2200 -24.1970
   -24.1970 -24.1841 -24.1841 -24.1819 -24.1604 -24.1453 -24.1453 -24.1245
   -24.1245 -24.1029 -24.0643 -24.0643 -24.0567 -24.0567 -24.0483 -24.0442
   -24.0272 -24.0272 -24.0270 -24.0270 -24.0226 -24.0157 -23.1252 -23.1205
   -23.1205 -23.1079 -23.1079 -23.1051 -23.0866 -23.0866 -23.0579 -23.0558
   -23.0538 -23.0469 -23.0469 -23.0397 -23.0135 -23.0135 -23.0109 -23.0109
    13.0637  14.2111  14.4634  14.4634  15.0404  15.1969  15.1969  15.7697
    15.7697  16.0007  16.0199  16.0199  16.0938  16.0938  16.2433  16.3043
    16.4614  16.4614  16.4959  16.5476  16.8231  16.8231  16.9359  16.9359
    17.0349  17.0349  17.1368  17.1368  17.1600  17.1613  17.4310  17.4670
    17.4670  17.4721  17.4827  17.4827  17.5935  17.6562  17.7191  17.7191
    17.8201  17.8201  17.8487  17.8487  18.0005  18.0005  18.1183  18.8317
    19.1922  19.1922  19.2771  19.2771  19.5094  19.7728  19.7728  20.1205
    20.2000  20.2000  20.2872  20.4233  20.5441  20.5441  20.5524  20.5524
    20.5629  20.5988  20.6344  20.6344  20.6534  20.6534  20.8414  20.9107
    20.9107

          k = 0.3313 0.3313-0.4970 (  9598 PWs)   bands (ev):

   -68.1348 -68.1348 -52.7219 -52.7218 -52.7097 -52.7096 -52.7078 -52.7078
   -52.6990 -52.6989 -51.7655 -51.7655 -51.7641 -51.7641 -51.7594 -51.7594
   -34.1940 -34.1940 -34.1927 -34.1927 -34.1914 -34.1914 -24.1959 -24.1958
   -24.1838 -24.1838 -24.1641 -24.1640 -24.1611 -24.1611 -24.1173 -24.1171
   -24.0985 -24.0984 -24.0812 -24.0811 -24.0765 -24.0762 -24.0478 -24.0477
   -24.0414 -24.0414 -24.0366 -24.0365 -24.0244 -24.0242 -23.1143 -23.1143
   -23.1122 -23.1122 -23.1020 -23.1020 -23.0744 -23.0744 -23.0720 -23.0719
   -23.0522 -23.0522 -23.0395 -23.0395 -23.0228 -23.0228 -23.0126 -23.0126
    13.6564  13.6565  14.7295  14.7296  14.8705  14.8705  15.7206  15.7207
    15.9488  15.9489  16.0463  16.0464  16.2665  16.2665  16.2691  16.2692
    16.3737  16.3737  16.6865  16.6865  16.8819  16.8820  16.9561  16.9563
    16.9750  16.9751  17.0769  17.0769  17.1039  17.1041  17.1877  17.1878
    17.3864  17.3865  17.4957  17.4958  17.5774  17.5774  17.6406  17.6407
    17.6582  17.6582  17.6891  17.6892  17.7607  17.7607  18.3216  18.3217
    19.2579  19.2580  19.2932  19.2933  19.6893  19.6894  20.0362  20.0364
    20.3746  20.3746  20.4114  20.4116  20.5180  20.5181  20.5620  20.5620
    20.5836  20.5837  20.6766  20.6767  20.6846  20.6846  20.7951  20.7951
    20.8280

          k = 0.3313-0.4970-0.4970 (  9632 PWs)   bands (ev):

   -68.1348 -68.1348 -52.7168 -52.7168 -52.7140 -52.7139 -52.7045 -52.7044
   -52.7031 -52.7031 -51.7651 -51.7651 -51.7630 -51.7630 -51.7609 -51.7609
   -34.1938 -34.1937 -34.1928 -34.1928 -34.1917 -34.1917 -24.1743 -24.1743
   -24.1731 -24.1731 -24.1647 -24.1646 -24.1336 -24.1336 -24.1145 -24.1145
   -24.0917 -24.0917 -24.0884 -24.0883 -24.0783 -24.0783 -24.0731 -24.0730
   -24.0668 -24.0668 -24.0417 -24.0417 -24.0332 -24.0332 -23.1099 -23.1099
   -23.0969 -23.0968 -23.0919 -23.0919 -23.0837 -23.0837 -23.0705 -23.0705
   -23.0485 -23.0485 -23.0403 -23.0403 -23.0326 -23.0326 -23.0243 -23.0243
    14.1037  14.1037  14.2989  14.2989  15.2546  15.2546  15.3709  15.3709
    16.0217  16.0217  16.2487  16.2487  16.3315  16.3315  16.5245  16.5245
    16.6123  16.6123  16.6752  16.6752  16.7452  16.7452  16.8007  16.8007
    16.9511  16.9511  16.9651  16.9651  17.1243  17.1243  17.1650  17.1650
    17.2245  17.2245  17.3898  17.3898  17.4780  17.4780  17.5068  17.5068
    17.5731  17.5732  17.5868  17.5868  17.7931  17.7931  17.8749  17.8749
    19.3096  19.3096  19.3230  19.3230  19.8263  19.8263  20.0645  20.0645
    20.4136  20.4136  20.4848  20.4848  20.6029  20.6029  20.6505  20.6505
    20.7095  20.7095  20.7182  20.7182  20.7336  20.7336  20.7541  20.7541
    20.9436

          k =-0.4970-0.4970-0.4970 (  9568 PWs)   bands (ev):

   -68.1347 -68.1347 -52.7107 -52.7107 -52.7107 -52.7106 -52.7106 -52.7105
   -52.7064 -52.7064 -51.7630 -51.7630 -51.7630 -51.7630 -51.7630 -51.7630
   -34.1927 -34.1927 -34.1927 -34.1927 -34.1927 -34.1926 -24.1277 -24.1277
   -24.1276 -24.1276 -24.1275 -24.1274 -24.1274 -24.1273 -24.1273 -24.1273
   -24.1102 -24.1102 -24.1102 -24.1101 -24.1101 -24.1101 -24.1079 -24.1078
   -24.0545 -24.0544 -24.0544 -24.0542 -24.0542 -24.0541 -23.0920 -23.0920
   -23.0731 -23.0731 -23.0731 -23.0731 -23.0731 -23.0731 -23.0608 -23.0608
   -23.0608 -23.0608 -23.0530 -23.0529 -23.0529 -23.0529 -23.0529 -23.0529
    14.5021  14.5021  14.8377  14.8377  14.8377  14.8377  14.8377  14.8377
    16.2635  16.2635  16.2635  16.2635  16.6616  16.6616  16.6616  16.6616
    16.6616  16.6617  16.7893  16.7893  16.7893  16.7894  16.7894  16.7894
    16.9333  16.9333  16.9333  16.9334  16.9334  16.9335  17.3410  17.3410
    17.3471  17.3471  17.3471  17.3471  17.3686  17.3686  17.3686  17.3686
    17.3686  17.3687  17.3687  17.3687  17.3687  17.3687  17.3687  17.3688
    19.3565  19.3565  19.3565  19.3565  20.1313  20.1313  20.1313  20.1315
    20.1315  20.1315  20.6588  20.6588  20.6588  20.6588  20.6588  20.6589
    20.7778  20.7778  20.7778  20.7778  20.7778  20.7778  20.9813  20.9813
    20.9813

          k =-0.0000 0.1657-0.1657 (  9601 PWs)   bands (ev):

   -68.1348 -68.1347 -52.7494 -52.7170 -52.7160 -52.7128 -52.7004 -52.6981
   -52.6981 -52.6840 -51.7740 -51.7739 -51.7609 -51.7597 -51.7586 -51.7515
   -34.1950 -34.1945 -34.1939 -34.1917 -34.1913 -34.1907 -24.3018 -24.2902
   -24.2899 -24.2221 -24.2176 -24.2136 -24.1710 -24.1588 -24.1583 -24.1364
   -24.1319 -24.1116 -24.0573 -24.0416 -24.0381 -24.0073 -24.0030 -23.9973
   -23.9843 -23.9790 -23.9762 -23.9723 -23.9678 -23.9590 -23.1962 -23.1885
   -23.1873 -23.1228 -23.1214 -23.1210 -23.0529 -23.0491 -23.0463 -23.0405
   -23.0404 -23.0373 -23.0353 -23.0261 -23.0173 -23.0131 -22.9873 -22.9797
    11.6884  14.4802  14.6434  14.8221  14.9272  14.9593  15.0868  15.1439
    15.1455  15.1879  15.1955  15.3733  15.4195  15.7542  15.7945  16.5000
    16.6162  16.7018  16.7051  16.7627  16.7831  16.7975  16.8238  16.9865
    16.9926  17.0257  17.1210  17.1899  17.2560  17.2734  17.2788  17.7890
    17.9953  18.1008  18.2272  18.2937  18.3444  18.3581  18.5128  18.5423
    18.5989  18.6390  18.6489  18.8489  18.8630  18.9997  19.0551  19.1172
    19.2276  19.2630  19.3301  19.4164  19.5413  19.6576  19.7250  19.7421
    19.8917  20.1334  20.1459  20.2032  20.2532  20.2974  20.4909  20.5297
    20.5665  20.6440  20.6583  20.6732  20.6958  20.7729  20.8031  20.8489
    20.8729

          k =-0.0000 0.3313-0.1657 (  9577 PWs)   bands (ev):

   -68.1348 -68.1347 -52.7426 -52.7236 -52.7130 -52.7097 -52.7038 -52.7012
   -52.6951 -52.6870 -51.7711 -51.7708 -51.7636 -51.7625 -51.7574 -51.7531
   -34.1946 -34.1938 -34.1928 -34.1928 -34.1919 -34.1909 -24.2745 -24.2572
   -24.2505 -24.2083 -24.1961 -24.1863 -24.1823 -24.1805 -24.1668 -24.1579
   -24.1289 -24.0857 -24.0749 -24.0587 -24.0536 -24.0331 -24.0273 -24.0073
   -24.0008 -23.9937 -23.9834 -23.9737 -23.9734 -23.9629 -23.1677 -23.1547
   -23.1490 -23.1051 -23.0995 -23.0957 -23.0839 -23.0723 -23.0638 -23.0530
   -23.0529 -23.0379 -23.0365 -23.0310 -23.0226 -23.0168 -23.0004 -22.9895
    12.1243  13.6558  14.7256  14.8511  15.1035  15.2389  15.2777  15.2787
    15.4135  15.4427  15.4480  15.4724  15.4952  15.7324  15.8392  16.2044
    16.2348  16.4410  16.6907  16.7662  16.7841  16.7898  16.8574  17.0001
    17.0962  17.1792  17.2120  17.2614  17.3967  17.4347  17.5164  17.7852
    17.8544  17.9753  18.0522  18.0992  18.1404  18.1739  18.1998  18.2108
    18.3464  18.4190  18.4448  18.7009  18.7361  18.7892  18.8495  18.8701
    19.1377  19.1749  19.2168  19.2430  19.3698  19.5031  19.5957  19.9489
    19.9657  19.9780  19.9798  20.3115  20.3511  20.4017  20.4318  20.5572
    20.5771  20.6355  20.6672  20.6821  20.7586  20.7821  20.7968  20.8707
    20.9455

          k =-0.0000 0.3313-0.3313 (  9582 PWs)   bands (ev):

   -68.1348 -68.1347 -52.7365 -52.7210 -52.7178 -52.7079 -52.7066 -52.6982
   -52.6982 -52.6900 -51.7695 -51.7682 -51.7651 -51.7619 -51.7587 -51.7549
   -34.1949 -34.1937 -34.1934 -34.1923 -34.1918 -34.1906 -24.2569 -24.2442
   -24.2147 -24.2106 -24.1970 -24.1964 -24.1832 -24.1557 -24.1507 -24.1504
   -24.1185 -24.0845 -24.0811 -24.0720 -24.0488 -24.0390 -24.0369 -24.0208
   -24.0105 -24.0067 -24.0050 -23.9923 -23.9792 -23.9686 -23.1606 -23.1498
   -23.1271 -23.1094 -23.1056 -23.1028 -23.0914 -23.0860 -23.0786 -23.0674
   -23.0592 -23.0276 -23.0261 -23.0186 -23.0120 -23.0112 -23.0086 -22.9877
    12.5337  13.8510  14.0270  14.6169  15.3563  15.4349  15.4717  15.5864
    15.6069  15.6145  15.6403  15.6783  15.6902  15.7730  15.9337  16.1695
    16.2909  16.3703  16.5385  16.7708  16.8492  16.8519  16.9459  16.9465
    16.9550  17.0289  17.1659  17.2352  17.3146  17.3409  17.5303  17.6028
    17.7015  17.8153  17.8636  17.9322  17.9528  17.9781  18.0426  18.0646
    18.1386  18.2245  18.3176  18.3614  18.5155  18.5938  18.9026  18.9820
    19.0418  19.1455  19.1480  19.3465  19.3744  19.4382  19.7078  19.7427
    19.7587  19.9941  20.1363  20.3284  20.3312  20.3522  20.4359  20.4431
    20.5398  20.5452  20.5806  20.5839  20.6095  20.6561  20.7689  20.8049
    20.8260

          k =-0.1657 0.1657 0.1657 (  9591 PWs)   bands (ev):

   -68.1348 -68.1347 -52.7470 -52.7158 -52.7158 -52.7143 -52.6994 -52.6993
   -52.6992 -52.6851 -51.7730 -51.7730 -51.7613 -51.7596 -51.7596 -51.7521
   -34.1947 -34.1946 -34.1933 -34.1923 -34.1910 -34.1910 -24.2929 -24.2767
   -24.2767 -24.2097 -24.2091 -24.2091 -24.1685 -24.1685 -24.1671 -24.1330
   -24.1229 -24.1229 -24.0530 -24.0529 -24.0311 -24.0100 -24.0100 -24.0003
   -23.9898 -23.9898 -23.9898 -23.9747 -23.9699 -23.9699 -23.1822 -23.1822
   -23.1766 -23.1165 -23.1165 -23.1090 -23.0654 -23.0654 -23.0511 -23.0396
   -23.0306 -23.0306 -23.0304 -23.0304 -23.0292 -23.0240 -22.9857 -22.9857
    11.8359  14.4993  14.7194  14.7194  14.9016  14.9784  14.9784  15.1899
    15.1899  15.2262  15.2876  15.2876  15.8278  15.8278  15.8356  16.4063
    16.6299  16.6299  16.7468  16.7468  16.7958  16.7958  16.8700  16.8967
    17.0139  17.1082  17.1082  17.1088  17.1364  17.1364  17.6369  17.6369
    17.8685  17.9987  18.1940  18.1940  18.2839  18.2839  18.5199  18.5199
    18.6039  18.6039  18.6099  18.7296  18.7791  18.7791  19.0101  19.0667
    19.2159  19.2797  19.2797  19.3112  19.3112  19.4349  19.4349  19.8132
    20.0493  20.1870  20.1870  20.2435  20.2435  20.2754  20.5272  20.5272
    20.6045  20.6045  20.6532  20.6532  20.6602  20.6991  20.7974  20.7974
    20.8942

          k =-0.1657 0.3313 0.1657 (  9577 PWs)   bands (ev):

   -68.1348 -68.1347 -52.7404 -52.7222 -52.7123 -52.7114 -52.7028 -52.7025
   -52.6963 -52.6881 -51.7704 -51.7701 -51.7635 -51.7625 -51.7582 -51.7537
   -34.1946 -34.1939 -34.1932 -34.1924 -34.1918 -34.1910 -24.2670 -24.2458
   -24.2427 -24.1971 -24.1948 -24.1887 -24.1817 -24.1716 -24.1685 -24.1547
   -24.1254 -24.0925 -24.0733 -24.0541 -24.0541 -24.0410 -24.0226 -24.0072
   -24.0051 -24.0037 -23.9899 -23.9884 -23.9770 -23.9756 -23.1615 -23.1494
   -23.1474 -23.1022 -23.0983 -23.0945 -23.0846 -23.0844 -23.0705 -23.0522
   -23.0492 -23.0458 -23.0397 -23.0196 -23.0189 -23.0184 -23.0018 -22.9909
    12.2647  13.7599  14.7714  14.8881  14.9445  15.0164  15.2803  15.3533
    15.4067  15.5036  15.5138  15.5746  15.7965  15.8748  15.9168  16.2344
    16.2492  16.4765  16.7020  16.7169  16.7869  16.8540  16.8825  16.9639
    16.9960  17.1133  17.2152  17.2824  17.3415  17.3498  17.4700  17.6878
    17.7881  17.8870  17.9842  18.0206  18.0293  18.0952  18.1049  18.2156
    18.2194  18.2857  18.2940  18.5205  18.6368  18.6901  18.8417  18.9473
    18.9657  19.0909  19.1571  19.3670  19.4434  19.4903  19.6198  19.8095
    20.0301  20.0319  20.0812  20.2681  20.3956  20.4438  20.4505  20.4646
    20.5277  20.5722  20.6381  20.6897  20.7052  20.7377  20.8464  20.8639
    20.8939

          k = 0.1657-0.3313 0.1657 (  9577 PWs)   bands (ev):

   -68.1348 -68.1347 -52.7404 -52.7222 -52.7123 -52.7114 -52.7029 -52.7025
   -52.6963 -52.6881 -51.7704 -51.7701 -51.7635 -51.7625 -51.7582 -51.7537
   -34.1945 -34.1939 -34.1932 -34.1924 -34.1918 -34.1910 -24.2670 -24.2458
   -24.2427 -24.1971 -24.1948 -24.1888 -24.1817 -24.1716 -24.1685 -24.1547
   -24.1254 -24.0925 -24.0733 -24.0542 -24.0541 -24.0410 -24.0226 -24.0072
   -24.0051 -24.0036 -23.9899 -23.9884 -23.9770 -23.9756 -23.1615 -23.1494
   -23.1474 -23.1022 -23.0983 -23.0945 -23.0846 -23.0844 -23.0704 -23.0522
   -23.0492 -23.0458 -23.0397 -23.0196 -23.0189 -23.0184 -23.0018 -22.9910
    12.2647  13.7599  14.7714  14.8881  14.9445  15.0164  15.2803  15.3533
    15.4067  15.5036  15.5138  15.5746  15.7965  15.8748  15.9168  16.2344
    16.2492  16.4765  16.7020  16.7169  16.7868  16.8540  16.8825  16.9639
    16.9960  17.1133  17.2152  17.2824  17.3415  17.3498  17.4700  17.6878
    17.7881  17.8870  17.9842  18.0206  18.0293  18.0952  18.1049  18.2156
    18.2194  18.2857  18.2940  18.5205  18.6368  18.6901  18.8417  18.9473
    18.9657  19.0909  19.1571  19.3670  19.4434  19.4903  19.6198  19.8095
    20.0301  20.0319  20.0812  20.2681  20.3956  20.4438  20.4505  20.4646
    20.5277  20.5722  20.6381  20.6898  20.7052  20.7377  20.8464  20.8639
    20.8939

          k =-0.1657-0.4970 0.1657 (  9588 PWs)   bands (ev):

   -68.1348 -68.1348 -52.7314 -52.7313 -52.7076 -52.7075 -52.7070 -52.7069
   -52.6923 -52.6922 -51.7669 -51.7669 -51.7663 -51.7663 -51.7560 -51.7560
   -34.1940 -34.1940 -34.1928 -34.1928 -34.1915 -34.1915 -24.2310 -24.2309
   -24.2151 -24.2150 -24.1984 -24.1983 -24.1809 -24.1808 -24.1321 -24.1320
   -24.1156 -24.1153 -24.0938 -24.0936 -24.0484 -24.0480 -24.0239 -24.0238
   -24.0130 -24.0130 -23.9833 -23.9832 -23.9827 -23.9826 -23.1288 -23.1288
   -23.1126 -23.1126 -23.1092 -23.1092 -23.0824 -23.0824 -23.0732 -23.0732
   -23.0586 -23.0586 -23.0282 -23.0281 -23.0133 -23.0133 -23.0034 -23.0034
    12.9326  12.9328  14.9142  14.9143  15.0085  15.0085  15.5943  15.5943
    15.6479  15.6480  15.7145  15.7146  15.8407  15.8408  15.8619  15.8619
    16.0334  16.0334  16.7366  16.7368  16.7955  16.7957  17.0920  17.0922
    17.2329  17.2330  17.3013  17.3015  17.4086  17.4087  17.6081  17.6082
    17.6912  17.6913  17.8083  17.8083  18.0235  18.0236  18.0359  18.0360
    18.0842  18.0842  18.1448  18.1448  18.2026  18.2026  18.9794  18.9797
    19.1549  19.1551  19.3472  19.3473  19.4425  19.4427  19.7688  19.7689
    20.0525  20.0525  20.0927  20.0927  20.4161  20.4163  20.4667  20.4668
    20.4718  20.4718  20.6831  20.6831  20.7579  20.7579  20.8762  20.8764
    20.9248

          k =-0.1657 0.3313 0.3313 (  9595 PWs)   bands (ev):

   -68.1348 -68.1347 -52.7345 -52.7195 -52.7166 -52.7085 -52.7068 -52.6997
   -52.6995 -52.6912 -51.7688 -51.7678 -51.7647 -51.7620 -51.7595 -51.7555
   -34.1946 -34.1939 -34.1935 -34.1921 -34.1916 -34.1909 -24.2464 -24.2299
   -24.2119 -24.2029 -24.1904 -24.1824 -24.1812 -24.1622 -24.1468 -24.1449
   -24.1145 -24.0951 -24.0766 -24.0665 -24.0509 -24.0463 -24.0381 -24.0194
   -24.0180 -24.0125 -24.0094 -24.0051 -23.9971 -23.9834 -23.1492 -23.1418
   -23.1259 -23.1073 -23.1059 -23.1017 -23.0962 -23.0877 -23.0659 -23.0643
   -23.0556 -23.0419 -23.0331 -23.0200 -23.0109 -23.0108 -23.0105 -22.9946
    12.6705  13.9640  14.1447  14.7502  15.0776  15.3047  15.3714  15.5314
    15.6429  15.7144  15.7683  15.8008  15.8427  16.0304  16.0798  16.2169
    16.2934  16.4436  16.5182  16.7408  16.8167  16.8609  16.9469  16.9504
    17.0078  17.0288  17.0843  17.2086  17.2614  17.3265  17.5108  17.5190
    17.5411  17.7203  17.7675  17.7870  17.8494  17.8993  17.9205  17.9368
    18.0587  18.0593  18.1186  18.1809  18.2931  18.4006  18.5755  19.0504
    19.1254  19.1809  19.1989  19.3048  19.4349  19.4986  19.6444  19.8870
    19.9433  20.1719  20.2404  20.2932  20.3140  20.4276  20.4729  20.4764
    20.5554  20.5832  20.6130  20.6238  20.6298  20.6790  20.7470  20.8269
    20.8272

          k = 0.1657 0.3313-0.3313 (  9595 PWs)   bands (ev):

   -68.1348 -68.1347 -52.7345 -52.7195 -52.7166 -52.7085 -52.7068 -52.6997
   -52.6995 -52.6912 -51.7688 -51.7678 -51.7647 -51.7620 -51.7595 -51.7555
   -34.1946 -34.1939 -34.1935 -34.1921 -34.1916 -34.1909 -24.2464 -24.2299
   -24.2119 -24.2030 -24.1904 -24.1825 -24.1812 -24.1622 -24.1468 -24.1449
   -24.1145 -24.0951 -24.0767 -24.0665 -24.0509 -24.0462 -24.0382 -24.0194
   -24.0180 -24.0125 -24.0093 -24.0052 -23.9970 -23.9834 -23.1492 -23.1418
   -23.1259 -23.1073 -23.1059 -23.1017 -23.0962 -23.0877 -23.0659 -23.0642
   -23.0556 -23.0419 -23.0331 -23.0200 -23.0109 -23.0108 -23.0105 -22.9946
    12.6705  13.9640  14.1447  14.7502  15.0776  15.3047  15.3714  15.5314
    15.6429  15.7144  15.7683  15.8008  15.8427  16.0304  16.0798  16.2169
    16.2934  16.4436  16.5183  16.7408  16.8167  16.8609  16.9469  16.9504
    17.0078  17.0288  17.0843  17.2087  17.2614  17.3265  17.5108  17.5190
    17.5411  17.7203  17.7675  17.7870  17.8494  17.8993  17.9205  17.9367
    18.0587  18.0593  18.1186  18.1809  18.2932  18.4006  18.5755  19.0504
    19.1254  19.1809  19.1989  19.3048  19.4349  19.4987  19.6444  19.8870
    19.9433  20.1719  20.2404  20.2932  20.3140  20.4276  20.4730  20.4764
    20.5554  20.5832  20.6130  20.6238  20.6298  20.6790  20.7470  20.8269
    20.8358

          k =-0.1657-0.4970 0.3313 (  9622 PWs)   bands (ev):

   -68.1348 -68.1348 -52.7265 -52.7264 -52.7123 -52.7122 -52.7041 -52.7040
   -52.6955 -52.6953 -51.7667 -51.7667 -51.7646 -51.7646 -51.7578 -51.7578
   -34.1944 -34.1944 -34.1928 -34.1928 -34.1911 -34.1911 -24.2197 -24.2197
   -24.2134 -24.2133 -24.1839 -24.1838 -24.1690 -24.1689 -24.1204 -24.1202
   -24.1007 -24.1006 -24.0867 -24.0867 -24.0586 -24.0583 -24.0416 -24.0416
   -24.0211 -24.0211 -24.0124 -24.0123 -23.9919 -23.9918 -23.1294 -23.1294
   -23.1255 -23.1255 -23.1094 -23.1094 -23.0915 -23.0915 -23.0705 -23.0705
   -23.0439 -23.0439 -23.0267 -23.0266 -23.0123 -23.0123 -23.0013 -23.0013
    13.2918  13.2920  14.4299  14.4300  15.2908  15.2908  15.7023  15.7024
    15.8399  15.8401  15.9272  15.9273  15.9538  15.9538  16.0960  16.0961
    16.1612  16.1612  16.7331  16.7332  16.8487  16.8487  16.9096  16.9096
    17.0686  17.0687  17.1237  17.1237  17.3033  17.3035  17.3466  17.3466
    17.5056  17.5057  17.6650  17.6651  17.7960  17.7961  17.9026  17.9026
    17.9658  17.9658  17.9903  17.9903  18.0674  18.0675  18.8921  18.8921
    19.1395  19.1397  19.2592  19.2593  19.4548  19.4548  19.8009  19.8009
    20.1659  20.1660  20.2449  20.2449  20.3756  20.3757  20.4633  20.4634
    20.5029  20.5030  20.6443  20.6444  20.7004  20.7004  20.8102  20.8104
    20.8181

          k =-0.3313 0.3313 0.3313 (  9594 PWs)   bands (ev):

   -68.1348 -68.1347 -52.7292 -52.7153 -52.7153 -52.7118 -52.7039 -52.7039
   -52.7026 -52.6945 -51.7668 -51.7668 -51.7646 -51.7614 -51.7614 -51.7572
   -34.1940 -34.1938 -34.1938 -34.1917 -34.1917 -34.1915 -24.2201 -24.1970
   -24.1970 -24.1841 -24.1841 -24.1819 -24.1604 -24.1454 -24.1453 -24.1245
   -24.1245 -24.1029 -24.0643 -24.0643 -24.0567 -24.0567 -24.0483 -24.0442
   -24.0272 -24.0272 -24.0271 -24.0270 -24.0226 -24.0157 -23.1252 -23.1205
   -23.1205 -23.1079 -23.1079 -23.1051 -23.0866 -23.0866 -23.0579 -23.0558
   -23.0538 -23.0469 -23.0469 -23.0397 -23.0136 -23.0135 -23.0109 -23.0109
    13.0637  14.2111  14.4634  14.4634  15.0404  15.1969  15.1969  15.7697
    15.7697  16.0007  16.0199  16.0199  16.0938  16.0938  16.2433  16.3043
    16.4613  16.4614  16.4959  16.5475  16.8231  16.8231  16.9359  16.9359
    17.0349  17.0349  17.1368  17.1368  17.1600  17.1613  17.4310  17.4670
    17.4670  17.4721  17.4826  17.4827  17.5935  17.6562  17.7190  17.7190
    17.8201  17.8201  17.8487  17.8487  18.0005  18.0005  18.1183  18.8317
    19.1922  19.1922  19.2771  19.2771  19.5094  19.7728  19.7728  20.1205
    20.2000  20.2000  20.2872  20.4233  20.5441  20.5441  20.5523  20.5523
    20.5629  20.5988  20.6344  20.6344  20.6534  20.6534  20.8414  20.9107
    20.9107

          k =-0.3313-0.4970 0.3313 (  9598 PWs)   bands (ev):

   -68.1348 -68.1348 -52.7219 -52.7218 -52.7097 -52.7096 -52.7079 -52.7078
   -52.6990 -52.6989 -51.7655 -51.7655 -51.7641 -51.7641 -51.7594 -51.7594
   -34.1940 -34.1940 -34.1927 -34.1927 -34.1914 -34.1914 -24.1959 -24.1958
   -24.1838 -24.1838 -24.1641 -24.1640 -24.1612 -24.1611 -24.1173 -24.1171
   -24.0985 -24.0984 -24.0812 -24.0811 -24.0765 -24.0762 -24.0478 -24.0477
   -24.0414 -24.0414 -24.0366 -24.0365 -24.0244 -24.0242 -23.1143 -23.1143
   -23.1122 -23.1122 -23.1020 -23.1019 -23.0744 -23.0744 -23.0720 -23.0720
   -23.0522 -23.0522 -23.0395 -23.0395 -23.0228 -23.0228 -23.0126 -23.0126
    13.6564  13.6565  14.7295  14.7296  14.8704  14.8704  15.7206  15.7207
    15.9488  15.9489  16.0463  16.0464  16.2665  16.2665  16.2691  16.2692
    16.3737  16.3737  16.6865  16.6865  16.8819  16.8820  16.9561  16.9563
    16.9750  16.9751  17.0769  17.0769  17.1039  17.1041  17.1877  17.1878
    17.3864  17.3864  17.4957  17.4958  17.5774  17.5774  17.6406  17.6407
    17.6582  17.6582  17.6891  17.6892  17.7607  17.7607  18.3216  18.3217
    19.2579  19.2580  19.2932  19.2933  19.6893  19.6894  20.0362  20.0364
    20.3746  20.3746  20.4114  20.4116  20.5181  20.5181  20.5620  20.5620
    20.5836  20.5837  20.6766  20.6767  20.6846  20.6847  20.7951  20.7951
    20.8280

 ------ SPIN DOWN ----------


          k = 0.0000 0.0000 0.0000 (  9627 PWs)   bands (ev):

   -66.9832 -66.9828 -52.7228 -52.6899 -52.6899 -52.6728 -52.6728 -52.6649
   -51.7860 -51.7860 -51.7859 -51.7753 -51.7683 -51.7683 -51.7682 -51.7516
   -33.0751 -33.0751 -33.0750 -33.0707 -33.0707 -33.0707 -24.2884 -24.2884
   -24.2884 -24.2078 -24.2078 -24.2078 -24.1011 -24.1011 -24.1011 -24.0719
   -24.0719 -24.0719 -23.9749 -23.9749 -23.9749 -23.9314 -23.9314 -23.9314
   -23.2511 -23.2434 -23.2434 -23.2118 -23.2118 -23.2118 -23.1259 -23.1259
   -23.1259 -23.0601 -23.0601 -23.0601 -23.0566 -23.0565 -23.0565 -23.0447
   -23.0389 -23.0389 -23.0171 -23.0171 -23.0171 -22.9750 -22.9750 -22.9750
    11.4223  14.8463  14.9908  14.9908  14.9908  15.0423  15.0423  15.0802
    15.3178  15.3178  15.4269  15.4269  15.4799  15.4799  15.4799  16.8819
    16.8819  16.8819  16.9578  16.9578  16.9578  17.0178  17.0178  17.0178
    17.3353  17.3353  17.3353  17.3566  17.5479  17.5479  17.9735  17.9735
    17.9735  18.4722  18.4722  18.4722  18.5767  18.5767  18.5767  18.6423
    18.6423  18.6423  19.4284  19.4284  19.4284  19.5103  19.5103  19.5103
    19.6074  19.6074  19.6074  20.3316  20.3316  20.3316  20.4791  20.5147
    20.5147  20.5691  20.5691  20.5692  20.5881  20.5881  20.5972  20.6424
    20.6424  20.6491  20.6541  20.6541  20.6618  20.6618  20.6881  20.6881
    20.6881

          k =-0.0000-0.0000 0.1657 (  9595 PWs)   bands (ev):

   -66.9830 -66.9830 -52.7205 -52.6918 -52.6888 -52.6740 -52.6725 -52.6658
   -51.7852 -51.7848 -51.7847 -51.7760 -51.7695 -51.7694 -51.7672 -51.7527
   -33.0749 -33.0749 -33.0748 -33.0708 -33.0708 -33.0707 -24.2769 -24.2769
   -24.2688 -24.2010 -24.1994 -24.1994 -24.1135 -24.1135 -24.1012 -24.0826
   -24.0825 -24.0740 -23.9828 -23.9724 -23.9724 -23.9619 -23.9348 -23.9348
   -23.2417 -23.2240 -23.2213 -23.2002 -23.2002 -23.1999 -23.1340 -23.1266
   -23.1266 -23.0603 -23.0603 -23.0587 -23.0552 -23.0531 -23.0508 -23.0508
   -23.0433 -23.0403 -23.0287 -23.0241 -23.0240 -22.9923 -22.9803 -22.9803
    11.5746  14.5391  14.9202  15.0486  15.0486  15.1056  15.1058  15.1448
    15.2442  15.3883  15.3981  15.4867  15.5143  15.5143  15.9083  16.7428
    16.8397  16.8397  16.9574  16.9574  16.9918  17.0351  17.0780  17.0780
    17.0916  17.1331  17.3887  17.5113  17.5113  17.5279  17.7911  17.7911
    18.4072  18.4495  18.4630  18.4630  18.4824  18.5202  18.5487  18.5487
    18.8420  18.8420  18.9531  18.9532  19.4563  19.5297  19.5520  19.6336
    19.6338  19.6482  19.6482  19.7972  19.7973  20.0256  20.0257  20.2355
    20.2355  20.4530  20.4830  20.5460  20.5461  20.6063  20.6064  20.6070
    20.6391  20.6492  20.6907  20.7235  20.7381  20.8493  20.8586  21.1739
    21.3433

          k =-0.0000-0.0000 0.3313 (  9606 PWs)   bands (ev):

   -66.9831 -66.9829 -52.7141 -52.6974 -52.6857 -52.6771 -52.6715 -52.6678
   -51.7831 -51.7816 -51.7815 -51.7778 -51.7727 -51.7727 -51.7641 -51.7558
   -33.0740 -33.0740 -33.0739 -33.0717 -33.0716 -33.0715 -24.2441 -24.2441
   -24.2125 -24.1815 -24.1760 -24.1760 -24.1492 -24.1492 -24.1206 -24.1093
   -24.1093 -24.0609 -24.0381 -24.0047 -23.9654 -23.9654 -23.9439 -23.9439
   -23.2175 -23.1727 -23.1722 -23.1722 -23.1692 -23.1692 -23.1556 -23.1302
   -23.1302 -23.0841 -23.0612 -23.0611 -23.0610 -23.0556 -23.0520 -23.0470
   -23.0434 -23.0404 -23.0404 -23.0395 -23.0354 -23.0354 -22.9950 -22.9950
    12.0196  13.6020  15.0847  15.2057  15.2057  15.2759  15.2955  15.4275
    15.4430  15.5283  15.5284  15.5630  15.5981  15.6389  15.9813  16.3718
    16.4209  16.6497  16.8120  16.8121  16.9046  16.9046  17.2603  17.3056
    17.3175  17.3175  17.4261  17.5839  17.7467  17.7467  17.9308  17.9308
    18.0342  18.0385  18.2334  18.2334  18.4452  18.4452  18.4820  18.4820
    18.6393  18.6538  18.6610  18.9080  18.9080  19.1518  19.1661  19.2350
    19.2350  19.4605  19.4605  19.8263  19.9021  20.0872  20.0872  20.2383
    20.3276  20.3554  20.3554  20.3705  20.5765  20.6079  20.6300  20.6481
    20.8037  20.8263  20.8901  20.8901  21.0169  21.1758  21.2099  21.2415
    21.2428

          k = 0.0000 0.0000-0.4970 (  9626 PWs)   bands (ev):

   -66.9830 -66.9830 -52.7056 -52.7056 -52.6814 -52.6814 -52.6698 -52.6698
   -51.7806 -51.7803 -51.7773 -51.7772 -51.7770 -51.7769 -51.7601 -51.7598
   -33.0729 -33.0729 -33.0729 -33.0728 -33.0727 -33.0727 -24.1977 -24.1977
   -24.1976 -24.1976 -24.1523 -24.1522 -24.1433 -24.1433 -24.1432 -24.1432
   -24.1300 -24.1300 -24.0336 -24.0336 -23.9552 -23.9552 -23.9552 -23.9552
   -23.1860 -23.1858 -23.1445 -23.1445 -23.1444 -23.1444 -23.1268 -23.1268
   -23.1106 -23.1105 -23.1053 -23.1053 -23.0560 -23.0560 -23.0559 -23.0559
   -23.0514 -23.0512 -23.0477 -23.0477 -23.0150 -23.0150 -23.0149 -23.0149
    12.7192  12.7193  15.2431  15.2431  15.4034  15.4035  15.4037  15.4037
    15.4770  15.4770  15.7801  15.7802  15.8872  15.8873  15.9440  15.9444
    16.0815  16.0818  16.8423  16.8423  16.8424  16.8424  17.6100  17.6102
    17.6355  17.6359  17.7082  17.7082  17.7086  17.7086  17.8549  17.8549
    17.9432  17.9433  18.1506  18.1506  18.1510  18.1510  18.4420  18.4420
    18.4421  18.4421  18.5185  18.5185  18.5185  18.5185  18.8837  18.8840
    19.7584  19.7585  19.9586  19.9586  19.9586  19.9586  20.1094  20.1095
    20.1705  20.1708  20.6179  20.6179  20.6199  20.6202  20.6535  20.6535
    20.6536  20.6536  20.9715  20.9716  20.9809  20.9810  21.3724  21.3726
    21.3942

          k =-0.0000 0.1657 0.1657 (  9601 PWs)   bands (ev):

   -66.9830 -66.9829 -52.7182 -52.6920 -52.6892 -52.6745 -52.6729 -52.6667
   -51.7846 -51.7836 -51.7836 -51.7766 -51.7705 -51.7684 -51.7683 -51.7538
   -33.0751 -33.0746 -33.0739 -33.0715 -33.0711 -33.0705 -24.2664 -24.2658
   -24.2517 -24.1977 -24.1918 -24.1879 -24.1245 -24.1202 -24.1096 -24.0931
   -24.0910 -24.0718 -23.9854 -23.9759 -23.9707 -23.9704 -23.9523 -23.9380
   -23.2360 -23.2094 -23.2057 -23.2013 -23.1878 -23.1786 -23.1396 -23.1296
   -23.1270 -23.0686 -23.0585 -23.0573 -23.0568 -23.0557 -23.0501 -23.0461
   -23.0441 -23.0419 -23.0419 -23.0249 -23.0244 -23.0130 -22.9852 -22.9801
    11.7245  14.5527  14.6866  14.9464  15.0997  15.1545  15.1717  15.2162
    15.2233  15.4219  15.4677  15.4730  15.5617  15.9288  15.9639  16.6347
    16.7664  16.8734  16.9505  17.0165  17.0202  17.0296  17.0370  17.0679
    17.0904  17.2172  17.2534  17.3778  17.4376  17.5731  17.6168  18.1254
    18.1302  18.3169  18.3620  18.3631  18.4153  18.4463  18.6250  18.6573
    18.9432  19.0108  19.0425  19.0524  19.0979  19.1280  19.3353  19.4062
    19.4857  19.6367  19.6405  19.6418  19.6939  19.7324  20.0606  20.0955
    20.3918  20.4738  20.4877  20.5191  20.5254  20.5998  20.6230  20.6477
    20.6495  20.6550  20.6586  20.8941  20.9112  20.9282  21.0132  21.0388
    21.0831

          k =-0.0000 0.1657 0.3313 (  9577 PWs)   bands (ev):

   -66.9830 -66.9829 -52.7122 -52.6965 -52.6865 -52.6775 -52.6722 -52.6687
   -51.7829 -51.7808 -51.7804 -51.7782 -51.7732 -51.7716 -51.7653 -51.7569
   -33.0747 -33.0738 -33.0728 -33.0727 -33.0718 -33.0707 -24.2373 -24.2367
   -24.2043 -24.1806 -24.1708 -24.1608 -24.1548 -24.1537 -24.1280 -24.1139
   -24.1130 -24.0601 -24.0313 -24.0051 -23.9723 -23.9644 -23.9593 -23.9462
   -23.2178 -23.1814 -23.1718 -23.1675 -23.1607 -23.1578 -23.1462 -23.1335
   -23.1307 -23.0868 -23.0767 -23.0714 -23.0649 -23.0579 -23.0561 -23.0538
   -23.0439 -23.0430 -23.0349 -23.0313 -23.0303 -23.0301 -22.9979 -22.9904
    12.1616  13.7051  14.7853  14.9578  15.2868  15.3168  15.4296  15.4842
    15.5142  15.5143  15.6090  15.6806  15.7066  15.9306  16.0408  16.3694
    16.4607  16.5960  16.8464  16.9568  16.9583  16.9710  17.1331  17.2138
    17.2503  17.2656  17.4188  17.4863  17.5110  17.7399  17.8585  17.9342
    17.9843  18.1677  18.1811  18.2518  18.2730  18.3157  18.3442  18.4065
    18.4614  18.5240  18.7719  18.8033  18.8579  18.9184  18.9939  19.1928
    19.3806  19.5100  19.5390  19.8568  19.9168  20.0098  20.0310  20.1381
    20.2853  20.3675  20.3856  20.4648  20.5429  20.6270  20.6364  20.6481
    20.7383  20.7472  20.7537  20.8860  20.9304  21.0590  21.0860  21.1257
    21.1446

          k = 0.0000 0.1657-0.4970 (  9608 PWs)   bands (ev):

   -66.9830 -66.9830 -52.7041 -52.7041 -52.6820 -52.6820 -52.6707 -52.6707
   -51.7807 -51.7804 -51.7771 -51.7768 -51.7761 -51.7758 -51.7613 -51.7609
   -33.0739 -33.0738 -33.0728 -33.0728 -33.0716 -33.0716 -24.1966 -24.1966
   -24.1966 -24.1966 -24.1581 -24.1581 -24.1468 -24.1467 -24.1421 -24.1421
   -24.1090 -24.1090 -24.0334 -24.0334 -23.9653 -23.9653 -23.9559 -23.9559
   -23.1901 -23.1900 -23.1503 -23.1502 -23.1444 -23.1443 -23.1161 -23.1161
   -23.1157 -23.1157 -23.1120 -23.1119 -23.0763 -23.0762 -23.0486 -23.0485
   -23.0484 -23.0483 -23.0368 -23.0368 -23.0150 -23.0149 -23.0094 -23.0093
    12.8463  12.8465  14.9177  14.9178  15.4669  15.4669  15.5077  15.5080
    15.7104  15.7105  15.8570  15.8571  15.9315  15.9316  16.0152  16.0156
    16.1243  16.1246  16.8780  16.8781  16.9064  16.9065  17.4500  17.4501
    17.5069  17.5071  17.5367  17.5367  17.6552  17.6555  17.9287  17.9289
    17.9342  17.9343  18.1732  18.1734  18.1968  18.1971  18.2301  18.2302
    18.2927  18.2928  18.3658  18.3659  18.3754  18.3754  19.0780  19.0782
    19.8412  19.8412  19.8897  19.8899  19.9980  19.9981  20.1475  20.1477
    20.2000  20.2002  20.3769  20.3769  20.5152  20.5152  20.5971  20.5974
    20.6710  20.6710  20.9292  20.9293  20.9371  20.9371  21.1455  21.1619
    21.1621

          k =-0.0000 0.3313 0.3313 (  9582 PWs)   bands (ev):

   -66.9830 -66.9829 -52.7070 -52.6961 -52.6871 -52.6798 -52.6730 -52.6706
   -51.7821 -51.7794 -51.7790 -51.7772 -51.7746 -51.7685 -51.7684 -51.7600
   -33.0750 -33.0737 -33.0734 -33.0722 -33.0716 -33.0703 -24.2193 -24.2189
   -24.1827 -24.1720 -24.1711 -24.1691 -24.1573 -24.1439 -24.1254 -24.1238
   -24.1223 -24.0546 -24.0310 -24.0122 -23.9887 -23.9855 -23.9618 -23.9515
   -23.2117 -23.1761 -23.1732 -23.1618 -23.1571 -23.1407 -23.1344 -23.1316
   -23.1180 -23.1062 -23.0974 -23.0964 -23.0877 -23.0807 -23.0484 -23.0463
   -23.0408 -23.0350 -23.0322 -23.0272 -23.0248 -23.0162 -23.0071 -22.9904
    12.5729  13.9408  14.0353  14.6992  15.5658  15.5904  15.6415  15.6632
    15.7064  15.7309  15.7621  15.8899  15.9144  15.9897  16.1464  16.3089
    16.5055  16.6412  16.7230  16.8789  17.0745  17.0873  17.0991  17.1450
    17.1450  17.2169  17.3315  17.3381  17.4375  17.7851  17.8249  17.8594
    17.8789  17.8901  17.9745  18.0696  18.1318  18.1329  18.1436  18.1620
    18.2367  18.3174  18.4062  18.4929  18.5058  18.7964  18.8892  19.1098
    19.6592  19.7658  19.8019  19.9295  19.9822  20.0045  20.0493  20.2819
    20.2844  20.3104  20.3660  20.4085  20.4498  20.4552  20.5342  20.5688
    20.5983  20.6581  20.6797  20.6904  20.8423  20.8515  20.9045  20.9468
    20.9923

          k = 0.0000 0.3313-0.4970 (  9578 PWs)   bands (ev):

   -66.9830 -66.9830 -52.7006 -52.7006 -52.6840 -52.6840 -52.6723 -52.6723
   -51.7809 -51.7807 -51.7768 -51.7766 -51.7730 -51.7727 -51.7644 -51.7641
   -33.0746 -33.0746 -33.0728 -33.0728 -33.0707 -33.0707 -24.1968 -24.1968
   -24.1945 -24.1945 -24.1608 -24.1608 -24.1451 -24.1451 -24.1398 -24.1398
   -24.0756 -24.0756 -24.0335 -24.0335 -23.9917 -23.9917 -23.9572 -23.9572
   -23.1961 -23.1960 -23.1495 -23.1495 -23.1489 -23.1488 -23.1343 -23.1343
   -23.1131 -23.1131 -23.1099 -23.1099 -23.0942 -23.0941 -23.0409 -23.0408
   -23.0369 -23.0369 -23.0297 -23.0297 -23.0183 -23.0182 -23.0003 -23.0003
    13.2080  13.2082  14.3575  14.3576  15.7580  15.7580  15.7658  15.7660
    15.8460  15.8461  16.0363  16.0363  16.0401  16.0401  16.2209  16.2212
    16.2467  16.2469  16.9375  16.9378  17.0446  17.0446  17.1434  17.1435
    17.1582  17.1583  17.3267  17.3270  17.5518  17.5519  17.7781  17.7782
    17.8011  17.8012  17.9281  17.9283  18.0467  18.0467  18.1292  18.1292
    18.1799  18.1800  18.2245  18.2245  18.3286  18.3287  19.1617  19.1618
    19.7867  19.7867  20.0674  20.0676  20.1125  20.1126  20.1850  20.1850
    20.2276  20.2278  20.2650  20.2652  20.2806  20.2806  20.5233  20.5236
    20.7248  20.7249  20.7322  20.7322  20.7797  20.7797  20.8213  20.8214
    20.9182

          k = 0.0000-0.4970-0.4970 (  9580 PWs)   bands (ev):

   -66.9830 -66.9830 -52.6982 -52.6982 -52.6857 -52.6857 -52.6731 -52.6731
   -51.7809 -51.7809 -51.7766 -51.7765 -51.7688 -51.7686 -51.7686 -51.7682
   -33.0749 -33.0749 -33.0728 -33.0728 -33.0703 -33.0703 -24.1982 -24.1982
   -24.1937 -24.1936 -24.1591 -24.1591 -24.1441 -24.1441 -24.1387 -24.1387
   -24.0503 -24.0503 -24.0322 -24.0322 -24.0168 -24.0168 -23.9579 -23.9579
   -23.1985 -23.1985 -23.1484 -23.1484 -23.1466 -23.1466 -23.1364 -23.1364
   -23.1334 -23.1334 -23.1074 -23.1074 -23.0930 -23.0930 -23.0323 -23.0323
   -23.0291 -23.0291 -23.0277 -23.0277 -23.0275 -23.0274 -22.9963 -22.9963
    13.7054  13.7054  13.7874  13.7875  15.8839  15.8839  15.9452  15.9452
    15.9529  15.9529  16.0970  16.0970  16.1646  16.1646  16.2568  16.2568
    16.5841  16.5841  16.7413  16.7413  16.9436  16.9436  17.0043  17.0043
    17.0272  17.0272  17.3001  17.3001  17.5613  17.5613  17.6200  17.6200
    17.6843  17.6843  17.6964  17.6964  17.9453  17.9454  18.0155  18.0155
    18.1414  18.1414  18.1533  18.1533  18.7502  18.7502  18.8390  18.8390
    19.8341  19.8341  19.9485  19.9486  20.3190  20.3190  20.3195  20.3195
    20.3219  20.3219  20.3516  20.3517  20.3879  20.3879  20.4081  20.4081
    20.4369  20.4369  20.5162  20.5162  20.7447  20.7448  20.7497  20.7721
    20.7724

          k = 0.1657 0.1657 0.1657 (  9591 PWs)   bands (ev):

   -66.9830 -66.9829 -52.7161 -52.6907 -52.6907 -52.6742 -52.6742 -52.6676
   -51.7840 -51.7826 -51.7826 -51.7771 -51.7694 -51.7694 -51.7693 -51.7549
   -33.0748 -33.0748 -33.0733 -33.0722 -33.0708 -33.0708 -24.2604 -24.2443
   -24.2443 -24.1883 -24.1883 -24.1793 -24.1278 -24.1278 -24.1270 -24.0936
   -24.0845 -24.0845 -23.9838 -23.9838 -23.9695 -23.9683 -23.9683 -23.9501
   -23.2297 -23.1960 -23.1960 -23.1895 -23.1895 -23.1597 -23.1404 -23.1404
   -23.1250 -23.0652 -23.0652 -23.0593 -23.0593 -23.0590 -23.0588 -23.0538
   -23.0364 -23.0364 -23.0349 -23.0349 -23.0291 -23.0248 -22.9856 -22.9856
    11.8722  14.5815  14.7677  14.7677  15.0147  15.1505  15.1505  15.2496
    15.3271  15.3271  15.5510  15.5510  15.9141  16.0367  16.0367  16.5489
    16.8464  16.8464  16.8757  17.0247  17.0254  17.0254  17.0589  17.0589
    17.1614  17.1614  17.1910  17.3195  17.4265  17.4265  17.9074  17.9189
    17.9189  18.2561  18.3065  18.3065  18.3420  18.3420  18.7587  18.7587
    18.7898  18.7932  18.9594  18.9594  19.0121  19.1805  19.2053  19.2053
    19.2209  19.3771  19.3771  19.7713  19.7713  19.8421  20.3140  20.3140
    20.3335  20.3833  20.4375  20.4375  20.5716  20.5716  20.5841  20.6298
    20.6298  20.6523  20.6523  20.8715  20.8715  20.9342  21.0051  21.0419
    21.1845

          k = 0.1657 0.1657 0.3313 (  9577 PWs)   bands (ev):

   -66.9830 -66.9829 -52.7103 -52.6955 -52.6872 -52.6777 -52.6733 -52.6697
   -51.7825 -51.7798 -51.7798 -51.7785 -51.7722 -51.7721 -51.7663 -51.7580
   -33.0746 -33.0739 -33.0731 -33.0722 -33.0716 -33.0707 -24.2321 -24.2239
   -24.1999 -24.1757 -24.1602 -24.1591 -24.1587 -24.1520 -24.1390 -24.1160
   -24.1069 -24.0653 -24.0278 -24.0063 -23.9790 -23.9663 -23.9644 -23.9612
   -23.2142 -23.1736 -23.1700 -23.1646 -23.1636 -23.1555 -23.1428 -23.1325
   -23.1269 -23.0861 -23.0768 -23.0734 -23.0712 -23.0704 -23.0610 -23.0499
   -23.0486 -23.0478 -23.0354 -23.0301 -23.0280 -23.0215 -23.0004 -22.9925
    12.3025  13.8114  14.8318  14.9545  15.0430  15.1506  15.4607  15.4993
    15.5468  15.6099  15.7674  15.7865  15.9530  16.0745  16.1151  16.3768
    16.4867  16.6395  16.8501  16.9800  16.9925  17.0227  17.0593  17.1705
    17.1901  17.2137  17.4091  17.4306  17.5670  17.6820  17.7118  17.7601
    18.0310  18.0388  18.1165  18.1723  18.2136  18.2746  18.2897  18.2912
    18.3343  18.3581  18.5544  18.6290  18.6981  18.7391  19.0033  19.0116
    19.5375  19.6056  19.6258  19.9269  19.9788  20.0635  20.1771  20.1918
    20.2349  20.3337  20.4195  20.4849  20.4991  20.5298  20.6376  20.6547
    20.7028  20.7298  20.7618  20.7915  20.7929  20.9857  21.0045  21.1126
    21.1218

          k = 0.1657 0.1657-0.4970 (  9588 PWs)   bands (ev):

   -66.9830 -66.9830 -52.7027 -52.7026 -52.6825 -52.6825 -52.6717 -52.6717
   -51.7806 -51.7803 -51.7762 -51.7761 -51.7758 -51.7758 -51.7623 -51.7620
   -33.0741 -33.0741 -33.0728 -33.0728 -33.0713 -33.0713 -24.1945 -24.1945
   -24.1912 -24.1912 -24.1572 -24.1572 -24.1543 -24.1543 -24.1317 -24.1317
   -24.1016 -24.1015 -24.0363 -24.0363 -23.9714 -23.9714 -23.9638 -23.9637
   -23.1911 -23.1910 -23.1503 -23.1503 -23.1443 -23.1443 -23.1197 -23.1197
   -23.1129 -23.1129 -23.1098 -23.1098 -23.0713 -23.0712 -23.0656 -23.0655
   -23.0414 -23.0413 -23.0348 -23.0348 -23.0179 -23.0179 -23.0057 -23.0057
    12.9742  12.9744  14.9891  14.9892  15.1072  15.1073  15.7620  15.7622
    15.8413  15.8413  15.9353  15.9354  15.9664  15.9665  16.0863  16.0866
    16.1746  16.1749  16.9022  16.9023  16.9668  16.9669  17.3974  17.3974
    17.4419  17.4420  17.4599  17.4601  17.5428  17.5432  17.9135  17.9137
    17.9233  17.9234  18.0270  18.0272  18.1381  18.1381  18.1560  18.1561
    18.1590  18.1591  18.1870  18.1870  18.2270  18.2270  19.1443  19.1444
    19.9433  19.9434  19.9481  19.9482  20.0025  20.0026  20.0697  20.0697
    20.1859  20.1861  20.2183  20.2185  20.5839  20.5842  20.6699  20.6699
    20.7321  20.7322  20.8914  20.8915  20.9068  20.9068  21.0338  21.0338
    21.0458

          k = 0.1657 0.3313 0.3313 (  9595 PWs)   bands (ev):

   -66.9830 -66.9830 -52.7053 -52.6946 -52.6879 -52.6796 -52.6746 -52.6719
   -51.7814 -51.7792 -51.7783 -51.7770 -51.7738 -51.7692 -51.7692 -51.7610
   -33.0746 -33.0739 -33.0735 -33.0720 -33.0714 -33.0707 -24.2116 -24.2054
   -24.1816 -24.1691 -24.1676 -24.1601 -24.1519 -24.1465 -24.1279 -24.1271
   -24.1070 -24.0674 -24.0302 -24.0153 -23.9959 -23.9939 -23.9693 -23.9690
   -23.2041 -23.1741 -23.1650 -23.1562 -23.1523 -23.1516 -23.1344 -23.1251
   -23.1131 -23.1004 -23.0976 -23.0901 -23.0848 -23.0789 -23.0598 -23.0478
   -23.0468 -23.0434 -23.0377 -23.0321 -23.0214 -23.0135 -23.0105 -22.9974
    12.7103  14.0545  14.1550  14.8333  15.1443  15.4243  15.5234  15.7324
    15.7729  15.8572  15.9892  16.0075  16.1150  16.1234  16.3052  16.3602
    16.5593  16.6496  16.6826  16.8866  16.9626  17.0927  17.1078  17.2170
    17.2184  17.2241  17.2450  17.2953  17.4711  17.6873  17.7103  17.7578
    17.8059  17.8151  17.8676  17.9934  18.0027  18.0162  18.0312  18.0865
    18.1193  18.1603  18.1896  18.2696  18.3006  18.5626  18.5870  19.1390
    19.8323  19.8542  19.9037  20.0562  20.0862  20.1069  20.1541  20.1956
    20.3634  20.3790  20.4192  20.4689  20.4736  20.4786  20.5355  20.5759
    20.6221  20.6507  20.6979  20.8352  20.8497  20.9142  20.9306  21.0038
    21.0272

          k = 0.1657 0.3313-0.4970 (  9622 PWs)   bands (ev):

   -66.9830 -66.9830 -52.6990 -52.6990 -52.6841 -52.6841 -52.6738 -52.6738
   -51.7803 -51.7802 -51.7761 -51.7759 -51.7733 -51.7730 -51.7653 -51.7650
   -33.0745 -33.0745 -33.0728 -33.0728 -33.0709 -33.0709 -24.1898 -24.1898
   -24.1844 -24.1844 -24.1554 -24.1554 -24.1501 -24.1501 -24.1288 -24.1288
   -24.0783 -24.0783 -24.0420 -24.0420 -23.9989 -23.9989 -23.9717 -23.9717
   -23.1905 -23.1905 -23.1527 -23.1526 -23.1390 -23.1390 -23.1302 -23.1302
   -23.1095 -23.1095 -23.1030 -23.1030 -23.0929 -23.0929 -23.0522 -23.0521
   -23.0383 -23.0383 -23.0351 -23.0351 -23.0218 -23.0218 -23.0046 -23.0046
    13.3378  13.3380  14.4871  14.4872  15.3801  15.3802  15.9575  15.9576
    15.9899  15.9900  16.0293  16.0293  16.1863  16.1864  16.2932  16.2934
    16.3171  16.3174  16.9722  16.9724  17.0609  17.0609  17.0905  17.0906
    17.1958  17.1959  17.3259  17.3261  17.5074  17.5076  17.6225  17.6226
    17.7219  17.7220  17.8780  17.8781  17.9066  17.9067  17.9682  17.9682
    18.0107  18.0107  18.0739  18.0740  18.1272  18.1274  18.9137  18.9138
    19.9928  19.9928  20.0925  20.0925  20.1943  20.1944  20.2223  20.2223
    20.2848  20.2850  20.3077  20.3079  20.5365  20.5368  20.5619  20.5620
    20.7477  20.7477  20.7809  20.7810  20.8010  20.8010  20.8761  20.8762
    20.9422

          k = 0.1657-0.4970-0.4970 (  9588 PWs)   bands (ev):

   -66.9830 -66.9830 -52.6965 -52.6965 -52.6857 -52.6857 -52.6747 -52.6747
   -51.7802 -51.7802 -51.7761 -51.7760 -51.7695 -51.7693 -51.7691 -51.7688
   -33.0746 -33.0746 -33.0727 -33.0727 -33.0706 -33.0706 -24.1899 -24.1899
   -24.1796 -24.1796 -24.1555 -24.1555 -24.1373 -24.1373 -24.1355 -24.1355
   -24.0548 -24.0547 -24.0433 -24.0433 -24.0262 -24.0262 -23.9753 -23.9753
   -23.1898 -23.1898 -23.1467 -23.1467 -23.1407 -23.1407 -23.1289 -23.1289
   -23.1227 -23.1227 -23.1035 -23.1035 -23.0938 -23.0938 -23.0376 -23.0375
   -23.0355 -23.0355 -23.0348 -23.0348 -23.0331 -23.0331 -23.0044 -23.0044
    13.8344  13.8344  13.9223  13.9224  15.7181  15.7181  15.8467  15.8467
    16.0022  16.0023  16.1345  16.1345  16.4200  16.4200  16.4235  16.4235
    16.6077  16.6077  16.7530  16.7531  16.9334  16.9334  16.9625  16.9625
    17.1136  17.1136  17.3064  17.3064  17.4367  17.4368  17.4754  17.4754
    17.6434  17.6434  17.6565  17.6565  17.8254  17.8254  17.8555  17.8555
    17.9762  17.9762  18.0069  18.0069  18.4597  18.4597  18.4821  18.4821
    20.1355  20.1355  20.1732  20.1733  20.3683  20.3683  20.3755  20.3755
    20.4429  20.4429  20.4563  20.4563  20.4677  20.4677  20.5493  20.5493
    20.5619  20.5619  20.5693  20.5693  20.7372  20.7372  20.7602  20.7603
    20.7899

          k = 0.3313 0.3313 0.3313 (  9594 PWs)   bands (ev):

   -66.9830 -66.9829 -52.7008 -52.6904 -52.6904 -52.6788 -52.6788 -52.6747
   -51.7800 -51.7789 -51.7763 -51.7763 -51.7716 -51.7711 -51.7711 -51.7638
   -33.0740 -33.0738 -33.0738 -33.0715 -33.0715 -33.0712 -24.1860 -24.1787
   -24.1787 -24.1636 -24.1636 -24.1542 -24.1388 -24.1307 -24.1307 -24.1036
   -24.1006 -24.1006 -24.0219 -24.0219 -24.0212 -24.0212 -24.0059 -23.9849
   -23.1872 -23.1654 -23.1654 -23.1500 -23.1500 -23.1278 -23.1278 -23.1195
   -23.1088 -23.1051 -23.0848 -23.0848 -23.0837 -23.0753 -23.0753 -23.0623
   -23.0519 -23.0519 -23.0436 -23.0420 -23.0181 -23.0181 -23.0160 -23.0160
    13.1057  14.3237  14.4824  14.4824  15.1251  15.2869  15.2869  16.0188
    16.0318  16.0318  16.2352  16.2352  16.3281  16.4131  16.4454  16.4454
    16.5504  16.6264  16.7165  16.7165  16.9709  16.9709  17.1788  17.2029
    17.2029  17.3708  17.3708  17.3787  17.3787  17.3928  17.6233  17.6435
    17.6435  17.6530  17.6814  17.6814  17.7332  17.7338  17.7500  17.7500
    17.8780  17.8780  17.9379  17.9379  18.0899  18.1385  18.1385  18.8480
    20.0823  20.0823  20.1176  20.1274  20.3016  20.3534  20.3534  20.3991
    20.3991  20.4675  20.5205  20.5205  20.5339  20.5756  20.5756  20.6807
    20.6807  20.8231  20.8231  20.8250  20.8250  20.8686  20.8702  21.0382
    21.0382

          k = 0.3313 0.3313-0.4970 (  9598 PWs)   bands (ev):

   -66.9830 -66.9830 -52.6951 -52.6951 -52.6846 -52.6846 -52.6773 -52.6773
   -51.7792 -51.7790 -51.7743 -51.7741 -51.7739 -51.7735 -51.7677 -51.7674
   -33.0740 -33.0740 -33.0726 -33.0726 -33.0712 -33.0712 -24.1728 -24.1728
   -24.1657 -24.1657 -24.1440 -24.1439 -24.1426 -24.1426 -24.1160 -24.1160
   -24.0792 -24.0792 -24.0611 -24.0611 -24.0205 -24.0205 -24.0041 -24.0041
   -23.1757 -23.1756 -23.1516 -23.1516 -23.1294 -23.1293 -23.1177 -23.1177
   -23.0983 -23.0983 -23.0980 -23.0980 -23.0852 -23.0851 -23.0675 -23.0675
   -23.0466 -23.0466 -23.0462 -23.0462 -23.0298 -23.0298 -23.0179 -23.0178
    13.7064  13.7065  14.8003  14.8004  14.9131  14.9131  15.8159  15.8160
    16.2633  16.2634  16.2819  16.2820  16.3498  16.3499  16.4923  16.4924
    16.5413  16.5415  17.0040  17.0041  17.0653  17.0654  17.0746  17.0748
    17.1360  17.1361  17.3574  17.3575  17.3828  17.3830  17.4519  17.4521
    17.5320  17.5321  17.6265  17.6265  17.6329  17.6330  17.7074  17.7075
    17.7667  17.7669  17.7692  17.7692  17.8306  17.8308  18.3845  18.3846
    20.2870  20.2871  20.3252  20.3253  20.3897  20.3898  20.4054  20.4057
    20.4485  20.4486  20.5191  20.5192  20.5998  20.6002  20.7349  20.7350
    20.7602  20.7602  20.7819  20.7819  20.8238  20.8238  20.8593  20.8594
    20.8740

          k = 0.3313-0.4970-0.4970 (  9632 PWs)   bands (ev):

   -66.9830 -66.9830 -52.6919 -52.6919 -52.6857 -52.6857 -52.6794 -52.6794
   -51.7784 -51.7783 -51.7746 -51.7745 -51.7712 -51.7711 -51.7706 -51.7703
   -33.0738 -33.0738 -33.0727 -33.0727 -33.0715 -33.0715 -24.1676 -24.1676
   -24.1507 -24.1507 -24.1415 -24.1415 -24.1303 -24.1303 -24.1111 -24.1111
   -24.0709 -24.0709 -24.0656 -24.0656 -24.0522 -24.0521 -24.0201 -24.0201
   -23.1672 -23.1672 -23.1433 -23.1432 -23.1327 -23.1327 -23.1070 -23.1070
   -23.0983 -23.0983 -23.0952 -23.0952 -23.0900 -23.0900 -23.0535 -23.0535
   -23.0522 -23.0522 -23.0492 -23.0492 -23.0461 -23.0461 -23.0271 -23.0270
    14.1981  14.1981  14.3046  14.3046  15.3156  15.3156  15.4303  15.4303
    16.3328  16.3328  16.4447  16.4447  16.6708  16.6708  16.7695  16.7695
    16.7772  16.7772  16.7784  16.7785  16.8503  16.8503  17.0004  17.0004
    17.2376  17.2376  17.2739  17.2739  17.3124  17.3124  17.3368  17.3368
    17.4761  17.4761  17.4909  17.4909  17.5342  17.5342  17.5565  17.5565
    17.6511  17.6511  17.6987  17.6987  17.8902  17.8902  17.9139  17.9139
    20.4412  20.4412  20.4620  20.4620  20.5265  20.5266  20.5589  20.5589
    20.5625  20.5625  20.6308  20.6308  20.7103  20.7103  20.7204  20.7204
    20.7305  20.7305  20.7596  20.7596  20.7804  20.7804  20.8353  20.8353
    21.0280

          k =-0.4970-0.4970-0.4970 (  9568 PWs)   bands (ev):

   -66.9829 -66.9829 -52.6857 -52.6857 -52.6857 -52.6857 -52.6857 -52.6856
   -51.7770 -51.7769 -51.7728 -51.7728 -51.7728 -51.7724 -51.7724 -51.7721
   -33.0726 -33.0726 -33.0726 -33.0726 -33.0725 -33.0725 -24.1494 -24.1494
   -24.1494 -24.1494 -24.1236 -24.1236 -24.0913 -24.0913 -24.0913 -24.0913
   -24.0912 -24.0912 -24.0728 -24.0728 -24.0728 -24.0728 -24.0728 -24.0728
   -23.1415 -23.1415 -23.1415 -23.1414 -23.1414 -23.1413 -23.0988 -23.0988
   -23.0786 -23.0786 -23.0786 -23.0786 -23.0786 -23.0786 -23.0623 -23.0623
   -23.0623 -23.0623 -23.0574 -23.0573 -23.0573 -23.0573 -23.0573 -23.0573
    14.6324  14.6324  14.8578  14.8578  14.8578  14.8579  14.8579  14.8579
    16.7460  16.7461  16.7461  16.7461  16.7461  16.7461  16.7925  16.7925
    16.7925  16.7925  16.7925  16.7925  17.0186  17.0186  17.0186  17.0186
    17.2929  17.2929  17.3576  17.3577  17.3577  17.3578  17.3578  17.3578
    17.3887  17.3887  17.3887  17.3888  17.3888  17.3888  17.4185  17.4187
    17.4187  17.4190  17.4190  17.4192  17.4694  17.4694  17.4694  17.4694
    20.6319  20.6319  20.6319  20.6319  20.6424  20.6424  20.6424  20.6425
    20.6425  20.6425  20.6721  20.6722  20.6722  20.6722  20.6722  20.6723
    20.8355  20.8355  20.8355  20.8355  20.8355  20.8356  21.0530  21.0530
    21.0530

          k =-0.0000 0.1657-0.1657 (  9601 PWs)   bands (ev):

   -66.9830 -66.9829 -52.7182 -52.6920 -52.6892 -52.6745 -52.6729 -52.6667
   -51.7847 -51.7836 -51.7835 -51.7766 -51.7705 -51.7684 -51.7683 -51.7538
   -33.0751 -33.0746 -33.0739 -33.0715 -33.0711 -33.0705 -24.2664 -24.2658
   -24.2517 -24.1977 -24.1918 -24.1879 -24.1245 -24.1201 -24.1097 -24.0931
   -24.0910 -24.0718 -23.9854 -23.9759 -23.9707 -23.9704 -23.9523 -23.9380
   -23.2360 -23.2094 -23.2057 -23.2013 -23.1878 -23.1786 -23.1396 -23.1297
   -23.1270 -23.0686 -23.0586 -23.0573 -23.0568 -23.0557 -23.0501 -23.0461
   -23.0441 -23.0419 -23.0419 -23.0249 -23.0244 -23.0130 -22.9852 -22.9801
    11.7245  14.5527  14.6866  14.9464  15.0997  15.1545  15.1717  15.2162
    15.2233  15.4219  15.4677  15.4730  15.5617  15.9289  15.9639  16.6347
    16.7664  16.8734  16.9505  17.0165  17.0202  17.0296  17.0369  17.0679
    17.0905  17.2172  17.2534  17.3778  17.4376  17.5731  17.6168  18.1254
    18.1302  18.3169  18.3621  18.3631  18.4153  18.4463  18.6250  18.6573
    18.9432  19.0108  19.0425  19.0524  19.0979  19.1280  19.3354  19.4062
    19.4857  19.6368  19.6405  19.6418  19.6939  19.7324  20.0606  20.0955
    20.3918  20.4738  20.4877  20.5191  20.5254  20.5998  20.6230  20.6477
    20.6495  20.6550  20.6586  20.8940  20.9111  20.9283  21.0132  21.0388
    21.0831

          k =-0.0000 0.3313-0.1657 (  9577 PWs)   bands (ev):

   -66.9830 -66.9829 -52.7122 -52.6965 -52.6865 -52.6775 -52.6722 -52.6687
   -51.7830 -51.7807 -51.7804 -51.7782 -51.7732 -51.7716 -51.7653 -51.7569
   -33.0747 -33.0738 -33.0728 -33.0727 -33.0718 -33.0707 -24.2373 -24.2367
   -24.2044 -24.1806 -24.1708 -24.1608 -24.1548 -24.1537 -24.1280 -24.1139
   -24.1130 -24.0601 -24.0313 -24.0051 -23.9723 -23.9644 -23.9593 -23.9462
   -23.2178 -23.1814 -23.1718 -23.1675 -23.1607 -23.1577 -23.1462 -23.1335
   -23.1307 -23.0868 -23.0767 -23.0714 -23.0649 -23.0579 -23.0561 -23.0538
   -23.0439 -23.0430 -23.0349 -23.0313 -23.0303 -23.0301 -22.9979 -22.9904
    12.1616  13.7051  14.7853  14.9578  15.2868  15.3168  15.4296  15.4842
    15.5142  15.5143  15.6090  15.6806  15.7066  15.9306  16.0408  16.3694
    16.4607  16.5960  16.8464  16.9568  16.9583  16.9710  17.1331  17.2138
    17.2503  17.2656  17.4188  17.4863  17.5110  17.7399  17.8585  17.9342
    17.9843  18.1677  18.1811  18.2518  18.2730  18.3157  18.3442  18.4065
    18.4614  18.5240  18.7719  18.8033  18.8579  18.9184  18.9939  19.1929
    19.3806  19.5101  19.5390  19.8568  19.9168  20.0098  20.0310  20.1381
    20.2853  20.3675  20.3856  20.4648  20.5429  20.6270  20.6364  20.6481
    20.7383  20.7472  20.7537  20.8860  20.9304  21.0590  21.0860  21.1257
    21.1446

          k =-0.0000 0.3313-0.3313 (  9582 PWs)   bands (ev):

   -66.9830 -66.9829 -52.7070 -52.6961 -52.6871 -52.6798 -52.6730 -52.6706
   -51.7822 -51.7795 -51.7787 -51.7772 -51.7747 -51.7685 -51.7684 -51.7600
   -33.0750 -33.0738 -33.0734 -33.0722 -33.0716 -33.0703 -24.2193 -24.2189
   -24.1827 -24.1720 -24.1711 -24.1691 -24.1573 -24.1439 -24.1254 -24.1238
   -24.1223 -24.0546 -24.0310 -24.0122 -23.9887 -23.9855 -23.9618 -23.9515
   -23.2118 -23.1760 -23.1732 -23.1618 -23.1571 -23.1407 -23.1344 -23.1316
   -23.1180 -23.1062 -23.0974 -23.0964 -23.0877 -23.0807 -23.0484 -23.0463
   -23.0408 -23.0350 -23.0322 -23.0272 -23.0248 -23.0162 -23.0071 -22.9904
    12.5729  13.9408  14.0353  14.6992  15.5658  15.5904  15.6415  15.6632
    15.7064  15.7309  15.7621  15.8899  15.9144  15.9897  16.1463  16.3089
    16.5055  16.6412  16.7230  16.8788  17.0745  17.0873  17.0991  17.1450
    17.1450  17.2169  17.3316  17.3381  17.4375  17.7851  17.8249  17.8594
    17.8789  17.8901  17.9745  18.0696  18.1318  18.1329  18.1436  18.1620
    18.2366  18.3174  18.4062  18.4929  18.5058  18.7964  18.8892  19.1097
    19.6592  19.7659  19.8019  19.9295  19.9822  20.0045  20.0493  20.2819
    20.2845  20.3104  20.3660  20.4085  20.4498  20.4551  20.5343  20.5688
    20.5983  20.6581  20.6797  20.6904  20.8423  20.8515  20.9046  20.9467
    20.9923

          k =-0.1657 0.1657 0.1657 (  9591 PWs)   bands (ev):

   -66.9830 -66.9829 -52.7161 -52.6907 -52.6907 -52.6742 -52.6742 -52.6676
   -51.7841 -51.7826 -51.7825 -51.7770 -51.7694 -51.7694 -51.7693 -51.7549
   -33.0748 -33.0748 -33.0733 -33.0722 -33.0708 -33.0708 -24.2604 -24.2443
   -24.2443 -24.1883 -24.1883 -24.1793 -24.1278 -24.1278 -24.1270 -24.0936
   -24.0845 -24.0845 -23.9838 -23.9838 -23.9695 -23.9683 -23.9683 -23.9501
   -23.2297 -23.1960 -23.1960 -23.1895 -23.1895 -23.1597 -23.1404 -23.1404
   -23.1250 -23.0652 -23.0652 -23.0593 -23.0593 -23.0590 -23.0588 -23.0539
   -23.0364 -23.0364 -23.0349 -23.0349 -23.0291 -23.0248 -22.9856 -22.9856
    11.8722  14.5815  14.7677  14.7677  15.0147  15.1505  15.1505  15.2496
    15.3271  15.3271  15.5510  15.5510  15.9141  16.0367  16.0367  16.5489
    16.8464  16.8464  16.8757  17.0247  17.0254  17.0254  17.0589  17.0589
    17.1614  17.1614  17.1910  17.3196  17.4265  17.4265  17.9074  17.9189
    17.9189  18.2560  18.3065  18.3065  18.3420  18.3420  18.7587  18.7587
    18.7898  18.7933  18.9594  18.9594  19.0121  19.1805  19.2053  19.2053
    19.2210  19.3771  19.3771  19.7713  19.7713  19.8421  20.3140  20.3140
    20.3335  20.3833  20.4375  20.4375  20.5716  20.5716  20.5841  20.6298
    20.6298  20.6523  20.6523  20.8715  20.8715  20.9342  21.0051  21.0419
    21.1845

          k =-0.1657 0.3313 0.1657 (  9577 PWs)   bands (ev):

   -66.9830 -66.9829 -52.7103 -52.6955 -52.6872 -52.6777 -52.6733 -52.6697
   -51.7825 -51.7798 -51.7798 -51.7784 -51.7722 -51.7721 -51.7663 -51.7580
   -33.0746 -33.0739 -33.0732 -33.0723 -33.0716 -33.0707 -24.2321 -24.2239
   -24.1999 -24.1757 -24.1602 -24.1591 -24.1587 -24.1520 -24.1390 -24.1160
   -24.1069 -24.0653 -24.0278 -24.0063 -23.9790 -23.9664 -23.9644 -23.9612
   -23.2142 -23.1736 -23.1700 -23.1646 -23.1636 -23.1555 -23.1428 -23.1325
   -23.1270 -23.0861 -23.0768 -23.0734 -23.0712 -23.0704 -23.0610 -23.0499
   -23.0486 -23.0478 -23.0354 -23.0301 -23.0280 -23.0215 -23.0004 -22.9925
    12.3025  13.8114  14.8318  14.9545  15.0430  15.1506  15.4607  15.4993
    15.5468  15.6099  15.7674  15.7865  15.9530  16.0745  16.1151  16.3768
    16.4867  16.6395  16.8501  16.9800  16.9925  17.0227  17.0593  17.1705
    17.1901  17.2137  17.4092  17.4306  17.5670  17.6820  17.7118  17.7601
    18.0309  18.0388  18.1165  18.1723  18.2136  18.2746  18.2897  18.2912
    18.3344  18.3581  18.5544  18.6290  18.6981  18.7391  19.0032  19.0116
    19.5375  19.6056  19.6258  19.9269  19.9788  20.0635  20.1771  20.1918
    20.2349  20.3337  20.4194  20.4849  20.4991  20.5298  20.6376  20.6547
    20.7028  20.7298  20.7618  20.7915  20.7929  20.9857  21.0045  21.1126
    21.1218

          k = 0.1657-0.3313 0.1657 (  9577 PWs)   bands (ev):

   -66.9830 -66.9829 -52.7103 -52.6955 -52.6872 -52.6777 -52.6733 -52.6697
   -51.7825 -51.7798 -51.7798 -51.7784 -51.7722 -51.7722 -51.7663 -51.7580
   -33.0746 -33.0739 -33.0732 -33.0723 -33.0716 -33.0707 -24.2321 -24.2239
   -24.1999 -24.1757 -24.1601 -24.1591 -24.1587 -24.1520 -24.1390 -24.1160
   -24.1069 -24.0653 -24.0278 -24.0062 -23.9790 -23.9663 -23.9644 -23.9612
   -23.2142 -23.1736 -23.1700 -23.1646 -23.1635 -23.1555 -23.1428 -23.1325
   -23.1270 -23.0861 -23.0768 -23.0734 -23.0712 -23.0704 -23.0610 -23.0499
   -23.0486 -23.0478 -23.0354 -23.0301 -23.0280 -23.0215 -23.0004 -22.9925
    12.3025  13.8114  14.8318  14.9545  15.0430  15.1506  15.4607  15.4993
    15.5468  15.6099  15.7674  15.7865  15.9530  16.0745  16.1151  16.3768
    16.4867  16.6395  16.8501  16.9800  16.9925  17.0227  17.0593  17.1705
    17.1901  17.2137  17.4091  17.4306  17.5670  17.6820  17.7118  17.7601
    18.0309  18.0388  18.1165  18.1722  18.2136  18.2746  18.2897  18.2912
    18.3344  18.3581  18.5544  18.6290  18.6981  18.7391  19.0032  19.0116
    19.5375  19.6056  19.6259  19.9269  19.9788  20.0636  20.1771  20.1918
    20.2349  20.3337  20.4194  20.4849  20.4991  20.5298  20.6376  20.6547
    20.7027  20.7298  20.7618  20.7915  20.7929  20.9856  21.0044  21.1126
    21.1218

          k =-0.1657-0.4970 0.1657 (  9588 PWs)   bands (ev):

   -66.9830 -66.9830 -52.7027 -52.7026 -52.6825 -52.6825 -52.6717 -52.6717
   -51.7806 -51.7803 -51.7762 -51.7761 -51.7759 -51.7757 -51.7623 -51.7620
   -33.0741 -33.0741 -33.0728 -33.0728 -33.0713 -33.0713 -24.1945 -24.1945
   -24.1912 -24.1912 -24.1572 -24.1572 -24.1543 -24.1543 -24.1317 -24.1317
   -24.1016 -24.1015 -24.0363 -24.0363 -23.9714 -23.9714 -23.9638 -23.9638
   -23.1911 -23.1910 -23.1503 -23.1502 -23.1443 -23.1443 -23.1197 -23.1197
   -23.1129 -23.1129 -23.1098 -23.1098 -23.0713 -23.0712 -23.0656 -23.0655
   -23.0414 -23.0414 -23.0348 -23.0348 -23.0179 -23.0179 -23.0057 -23.0057
    12.9742  12.9744  14.9891  14.9892  15.1072  15.1073  15.7620  15.7622
    15.8413  15.8413  15.9353  15.9354  15.9664  15.9665  16.0863  16.0866
    16.1746  16.1749  16.9022  16.9023  16.9668  16.9669  17.3974  17.3974
    17.4419  17.4420  17.4599  17.4601  17.5428  17.5432  17.9135  17.9137
    17.9233  17.9234  18.0270  18.0272  18.1381  18.1381  18.1560  18.1561
    18.1590  18.1591  18.1870  18.1870  18.2270  18.2270  19.1443  19.1444
    19.9433  19.9434  19.9481  19.9482  20.0025  20.0026  20.0697  20.0697
    20.1859  20.1861  20.2183  20.2185  20.5839  20.5842  20.6699  20.6699
    20.7321  20.7321  20.8914  20.8915  20.9068  20.9068  21.0338  21.0338
    21.0458

          k =-0.1657 0.3313 0.3313 (  9595 PWs)   bands (ev):

   -66.9830 -66.9830 -52.7053 -52.6946 -52.6879 -52.6796 -52.6746 -52.6719
   -51.7815 -51.7792 -51.7783 -51.7770 -51.7738 -51.7693 -51.7692 -51.7610
   -33.0746 -33.0739 -33.0735 -33.0719 -33.0714 -33.0707 -24.2115 -24.2054
   -24.1816 -24.1691 -24.1675 -24.1601 -24.1519 -24.1465 -24.1279 -24.1271
   -24.1070 -24.0674 -24.0302 -24.0153 -23.9959 -23.9939 -23.9693 -23.9690
   -23.2041 -23.1741 -23.1650 -23.1562 -23.1523 -23.1516 -23.1344 -23.1251
   -23.1131 -23.1004 -23.0976 -23.0901 -23.0848 -23.0789 -23.0598 -23.0478
   -23.0468 -23.0434 -23.0377 -23.0321 -23.0214 -23.0135 -23.0105 -22.9974
    12.7103  14.0545  14.1550  14.8333  15.1443  15.4244  15.5234  15.7324
    15.7729  15.8572  15.9892  16.0075  16.1150  16.1234  16.3052  16.3602
    16.5593  16.6496  16.6826  16.8866  16.9626  17.0927  17.1078  17.2170
    17.2184  17.2241  17.2450  17.2953  17.4711  17.6872  17.7103  17.7578
    17.8059  17.8151  17.8676  17.9933  18.0027  18.0162  18.0312  18.0865
    18.1193  18.1603  18.1896  18.2696  18.3006  18.5627  18.5870  19.1390
    19.8323  19.8542  19.9037  20.0562  20.0862  20.1069  20.1541  20.1956
    20.3634  20.3790  20.4192  20.4689  20.4736  20.4786  20.5355  20.5759
    20.6221  20.6506  20.6979  20.8352  20.8497  20.9142  20.9306  21.0038
    21.0272

          k = 0.1657 0.3313-0.3313 (  9595 PWs)   bands (ev):

   -66.9830 -66.9830 -52.7053 -52.6946 -52.6879 -52.6795 -52.6746 -52.6719
   -51.7815 -51.7792 -51.7781 -51.7770 -51.7738 -51.7693 -51.7691 -51.7610
   -33.0746 -33.0739 -33.0735 -33.0720 -33.0714 -33.0707 -24.2116 -24.2054
   -24.1816 -24.1691 -24.1676 -24.1601 -24.1519 -24.1465 -24.1279 -24.1271
   -24.1070 -24.0674 -24.0302 -24.0153 -23.9959 -23.9939 -23.9693 -23.9690
   -23.2041 -23.1741 -23.1650 -23.1562 -23.1523 -23.1516 -23.1344 -23.1251
   -23.1131 -23.1004 -23.0976 -23.0901 -23.0848 -23.0789 -23.0598 -23.0478
   -23.0468 -23.0434 -23.0377 -23.0321 -23.0214 -23.0135 -23.0105 -22.9974
    12.7103  14.0545  14.1550  14.8333  15.1443  15.4243  15.5234  15.7324
    15.7729  15.8572  15.9892  16.0075  16.1150  16.1234  16.3052  16.3602
    16.5593  16.6496  16.6826  16.8866  16.9626  17.0927  17.1078  17.2170
    17.2184  17.2241  17.2450  17.2953  17.4711  17.6873  17.7103  17.7578
    17.8059  17.8151  17.8676  17.9933  18.0027  18.0162  18.0312  18.0865
    18.1193  18.1603  18.1896  18.2696  18.3006  18.5626  18.5871  19.1390
    19.8323  19.8543  19.9037  20.0562  20.0862  20.1069  20.1541  20.1956
    20.3634  20.3790  20.4192  20.4689  20.4736  20.4786  20.5355  20.5758
    20.6221  20.6507  20.6979  20.8352  20.8497  20.9142  20.9306  21.0038
    21.0272

          k =-0.1657-0.4970 0.3313 (  9622 PWs)   bands (ev):

   -66.9830 -66.9830 -52.6990 -52.6990 -52.6841 -52.6841 -52.6738 -52.6738
   -51.7803 -51.7802 -51.7761 -51.7759 -51.7733 -51.7730 -51.7653 -51.7650
   -33.0745 -33.0745 -33.0728 -33.0728 -33.0709 -33.0709 -24.1898 -24.1898
   -24.1844 -24.1844 -24.1554 -24.1554 -24.1501 -24.1501 -24.1288 -24.1288
   -24.0783 -24.0783 -24.0420 -24.0420 -23.9989 -23.9989 -23.9717 -23.9717
   -23.1905 -23.1905 -23.1527 -23.1526 -23.1390 -23.1390 -23.1302 -23.1302
   -23.1095 -23.1095 -23.1030 -23.1030 -23.0929 -23.0929 -23.0522 -23.0521
   -23.0383 -23.0383 -23.0351 -23.0351 -23.0218 -23.0218 -23.0046 -23.0046
    13.3378  13.3380  14.4871  14.4872  15.3801  15.3802  15.9575  15.9576
    15.9899  15.9900  16.0293  16.0293  16.1863  16.1864  16.2932  16.2934
    16.3171  16.3174  16.9722  16.9724  17.0609  17.0609  17.0905  17.0906
    17.1958  17.1959  17.3259  17.3261  17.5074  17.5076  17.6225  17.6226
    17.7219  17.7220  17.8780  17.8781  17.9066  17.9066  17.9682  17.9682
    18.0107  18.0107  18.0739  18.0740  18.1273  18.1274  18.9137  18.9138
    19.9928  19.9928  20.0925  20.0925  20.1943  20.1944  20.2223  20.2223
    20.2848  20.2850  20.3077  20.3079  20.5365  20.5368  20.5619  20.5620
    20.7476  20.7477  20.7809  20.7810  20.8009  20.8010  20.8761  20.8762
    20.9422

          k =-0.3313 0.3313 0.3313 (  9594 PWs)   bands (ev):

   -66.9830 -66.9829 -52.7008 -52.6904 -52.6904 -52.6788 -52.6788 -52.6747
   -51.7800 -51.7790 -51.7763 -51.7762 -51.7717 -51.7711 -51.7710 -51.7638
   -33.0740 -33.0738 -33.0738 -33.0715 -33.0715 -33.0712 -24.1860 -24.1788
   -24.1788 -24.1636 -24.1636 -24.1542 -24.1388 -24.1307 -24.1307 -24.1036
   -24.1006 -24.1006 -24.0219 -24.0219 -24.0212 -24.0212 -24.0059 -23.9849
   -23.1872 -23.1654 -23.1654 -23.1500 -23.1500 -23.1278 -23.1278 -23.1195
   -23.1088 -23.1051 -23.0848 -23.0848 -23.0837 -23.0753 -23.0753 -23.0623
   -23.0519 -23.0519 -23.0436 -23.0420 -23.0181 -23.0180 -23.0160 -23.0160
    13.1057  14.3237  14.4824  14.4824  15.1251  15.2869  15.2869  16.0188
    16.0318  16.0318  16.2352  16.2352  16.3281  16.4131  16.4454  16.4454
    16.5504  16.6264  16.7165  16.7165  16.9709  16.9709  17.1788  17.2029
    17.2029  17.3708  17.3708  17.3787  17.3787  17.3928  17.6233  17.6435
    17.6435  17.6530  17.6814  17.6814  17.7332  17.7338  17.7500  17.7500
    17.8780  17.8780  17.9379  17.9379  18.0900  18.1385  18.1385  18.8480
    20.0823  20.0823  20.1176  20.1274  20.3016  20.3535  20.3535  20.3991
    20.3991  20.4675  20.5205  20.5205  20.5339  20.5756  20.5756  20.6807
    20.6807  20.8231  20.8231  20.8250  20.8250  20.8686  20.8702  21.0382
    21.0382

          k =-0.3313-0.4970 0.3313 (  9598 PWs)   bands (ev):

   -66.9830 -66.9830 -52.6951 -52.6951 -52.6846 -52.6846 -52.6773 -52.6773
   -51.7792 -51.7790 -51.7744 -51.7742 -51.7738 -51.7735 -51.7677 -51.7674
   -33.0740 -33.0740 -33.0726 -33.0726 -33.0712 -33.0712 -24.1728 -24.1728
   -24.1657 -24.1656 -24.1439 -24.1439 -24.1426 -24.1426 -24.1160 -24.1160
   -24.0792 -24.0792 -24.0611 -24.0611 -24.0205 -24.0205 -24.0041 -24.0041
   -23.1757 -23.1756 -23.1516 -23.1515 -23.1294 -23.1294 -23.1177 -23.1177
   -23.0983 -23.0983 -23.0980 -23.0980 -23.0852 -23.0851 -23.0675 -23.0675
   -23.0466 -23.0466 -23.0462 -23.0462 -23.0298 -23.0298 -23.0179 -23.0178
    13.7064  13.7065  14.8003  14.8004  14.9131  14.9131  15.8159  15.8160
    16.2633  16.2634  16.2819  16.2820  16.3498  16.3499  16.4922  16.4924
    16.5413  16.5415  17.0040  17.0041  17.0653  17.0653  17.0747  17.0748
    17.1360  17.1361  17.3574  17.3575  17.3827  17.3830  17.4519  17.4521
    17.5320  17.5321  17.6265  17.6265  17.6329  17.6330  17.7074  17.7075
    17.7667  17.7669  17.7692  17.7692  17.8306  17.8308  18.3845  18.3846
    20.2870  20.2871  20.3252  20.3253  20.3897  20.3898  20.4054  20.4057
    20.4485  20.4486  20.5191  20.5191  20.5998  20.6002  20.7349  20.7350
    20.7602  20.7602  20.7819  20.7819  20.8238  20.8238  20.8593  20.8594
    20.8740

     the Fermi energy is    19.3967 ev

!    total energy              =   -4133.52802918 Ry
     total all-electron energy =    -34515.578595 Ry
     estimated scf accuracy    <          9.9E-10 Ry
     smearing contrib. (-TS)   =       0.00111899 Ry
     internal energy E=F+TS    =   -4133.52914817 Ry

     The total energy is F=E-TS. E is the sum of the following terms:
     one-electron contribution =   -1002.34258122 Ry
     hartree contribution      =     641.82713214 Ry
     xc contribution           =    -367.56773683 Ry
     ewald contribution        =   -2200.41330953 Ry
     one-center paw contrib.   =   -1205.03265273 Ry

     total magnetization       =     3.67 Bohr mag/cell
     absolute magnetization    =    14.78 Bohr mag/cell

     convergence has been achieved in  23 iterations

     Forces acting on atoms (cartesian axes, Ry/au):

     atom    1 type  2   force =     0.00000000    0.00000000    0.00000000
     atom    2 type  1   force =     0.00009150    0.00009150    0.00009150
     atom    3 type  2   force =     0.00000000    0.00000000   -0.00000000
     atom    4 type  2   force =     0.00000909    0.00000909    0.00000186
     atom    5 type  2   force =     0.00000000    0.00000000    0.00000000
     atom    6 type  2   force =     0.00000909    0.00000186    0.00000909
     atom    7 type  2   force =    -0.00000000    0.00000000    0.00000000
     atom    8 type  2   force =    -0.00000186   -0.00000909   -0.00000909
     atom    9 type  2   force =     0.00000000    0.00000000    0.00000000
     atom   10 type  2   force =     0.00000186    0.00000909    0.00000909
     atom   11 type  2   force =     0.00000000   -0.00000000    0.00000000
     atom   12 type  2   force =    -0.00000909   -0.00000186   -0.00000909
     atom   13 type  2   force =    -0.00000000    0.00000000   -0.00000000
     atom   14 type  2   force =    -0.00000909   -0.00000909   -0.00000186
     atom   15 type  2   force =     0.00000000    0.00000000   -0.00000000
     atom   16 type  1   force =    -0.00009150   -0.00009150   -0.00009150

     Total force =     0.000226     Total SCF correction =     0.000018


     Computing stress (Cartesian axis) and pressure

          total   stress  (Ry/bohr**3)                   (kbar)     P=        0.04
   0.00000026   0.00000000   0.00000000            0.04        0.00        0.00
   0.00000000   0.00000026   0.00000000            0.00        0.04        0.00
   0.00000000   0.00000000   0.00000026            0.00        0.00        0.04

     Energy error            =      1.8E-05 Ry
     Gradient error          =      9.2E-05 Ry/Bohr
     Cell gradient error     =      3.9E-02 kbar

     bfgs converged in   3 scf cycles and   2 bfgs steps
     (criteria: energy <  1.0E-04 Ry, force <  1.0E-04 Ry/Bohr, cell <  5.0E-01 kbar)

     End of BFGS Geometry Optimization

     Final enthalpy           =   -4133.5280291769 Ry

     File ./tmp/fecr_fe02cr14_vcr.bfgs deleted, as requested
Begin final coordinates
     new unit-cell volume =   1244.68241 a.u.^3 (   184.44290 Ang^3 )
     density =      7.55922 g/cm^3

CELL_PARAMETERS (angstrom)
   5.692293919   0.000006556   0.000006556
   0.000006556   5.692293919   0.000006556
   0.000006556   0.000006556   5.692293919

ATOMIC_POSITIONS (crystal)
Cr               0.0000000000        0.0000000000        0.0000000000
Fe               0.2500236718        0.2500236718        0.2500236718
Cr               0.0000000000        0.0000000000        0.5000000000
Cr               0.2500040430        0.2500040430        0.7499966239
Cr               0.0000000000        0.5000000000        0.0000000000
Cr               0.2500040430        0.7499966239        0.2500040430
Cr               0.0000000000        0.5000000000        0.5000000000
Cr               0.2500033761        0.7499959570        0.7499959570
Cr               0.5000000000        0.0000000000        0.0000000000
Cr               0.7499966239        0.2500040430        0.2500040430
Cr               0.5000000000        0.0000000000        0.5000000000
Cr               0.7499959570        0.2500033761        0.7499959570
Cr               0.5000000000        0.5000000000        0.0000000000
Cr               0.7499959570        0.7499959570        0.2500033761
Cr               0.5000000000        0.5000000000        0.5000000000
Fe               0.7499763282        0.7499763282        0.7499763282
End final coordinates



     Writing config-only to output data dir ./tmp/fecr_fe02cr14_vcr.save/ :
     XML data file

     Final scf calculation at the relaxed structure.
     The G-vectors are recalculated for the final unit cell
     Results may differ from those at the preceding step.
 
     G-vector sticks info
     --------------------
     sticks:   dense  smooth     PW     G-vecs:    dense   smooth      PW
     Sum        4421    2217    621               221119    78205   11753
 
     Using Slab Decomposition
 


     bravais-lattice index     =            0
     lattice parameter (alat)  =      10.6928  a.u.
     unit-cell volume          =    1244.6824 (a.u.)^3
     number of atoms/cell      =           16
     number of atomic types    =            2
     number of electrons       =       228.00
     number of Kohn-Sham states=          137
     kinetic-energy cutoff     =      60.0000  Ry
     charge density cutoff     =     480.0000  Ry
     scf convergence threshold =      1.2E-09
     mixing beta               =       0.3000
     number of iterations used =            8  plain     mixing
     press convergence thresh. =      5.0E-01
     Exchange-correlation= SLA  PW   PBX  PBC
                           (   1   4   3   4   0   0   0)

     GPU acceleration is ACTIVE.  1 visible GPUs per MPI rank


     celldm(1)=  10.692754  celldm(2)=   0.000000  celldm(3)=   0.000000
     celldm(4)=   0.000000  celldm(5)=   0.000000  celldm(6)=   0.000000

     crystal axes: (cart. coord. in units of alat)
               a(1) = (   1.005997   0.000001   0.000001 )  
               a(2) = (   0.000001   1.005997   0.000001 )  
               a(3) = (   0.000001   0.000001   1.005997 )  

     reciprocal axes: (cart. coord. in units 2 pi/alat)
               b(1) = (  0.994039 -0.000001 -0.000001 )  
               b(2) = ( -0.000001  0.994039 -0.000001 )  
               b(3) = ( -0.000001 -0.000001  0.994039 )  


     PseudoPot. # 1 for Fe read from file:
     ./pseudo/Fe.pbe-spn-kjpaw_psl.1.0.0.UPF
     MD5 check sum: fc81f059e5c5069939230b1155715ae8
     Pseudo is Projector augmented-wave + core cor, Zval = 16.0
     Generated using &quot;atomic&quot; code by A. Dal Corso  v.6.3
     Shape of augmentation charge: PSQ
     Using radial grid of 1191 points,  6 beta functions with: 
                l(1) =   0
                l(2) =   0
                l(3) =   1
                l(4) =   1
                l(5) =   2
                l(6) =   2
     Q(r) pseudized with 0 coefficients 


     PseudoPot. # 2 for Cr read from file:
     ./pseudo/Cr.pbe-spn-kjpaw_psl.1.0.0.UPF
     MD5 check sum: 198f1a2427a48552563eee314eba32ba
     Pseudo is Projector augmented-wave + core cor, Zval = 14.0
     Generated using &quot;atomic&quot; code by A. Dal Corso  v.6.3
     Shape of augmentation charge: PSQ
     Using radial grid of 1183 points,  6 beta functions with: 
                l(1) =   0
                l(2) =   0
                l(3) =   1
                l(4) =   1
                l(5) =   2
                l(6) =   2
     Q(r) pseudized with 0 coefficients 


     atomic species   valence    mass     pseudopotential
     Fe               16.00    55.84500     Fe( 1.00)
     Cr               14.00    51.99600     Cr( 1.00)

     Starting magnetic structure 
     atomic species   magnetization
     Fe              0.068
     Cr              0.010

     12 Sym. Ops., with inversion, found



   Cartesian axes

     site n.     atom                  positions (alat units)
         1        Cr     tau(   1) = (   0.0000000   0.0000000   0.0000000  )
         2        Fe     tau(   2) = (   0.2515236   0.2515236   0.2515236  )
         3        Cr     tau(   3) = (   0.0000006   0.0000006   0.5029984  )
         4        Cr     tau(   4) = (   0.2515044   0.2515044   0.7544948  )
         5        Cr     tau(   5) = (   0.0000006   0.5029984   0.0000006  )
         6        Cr     tau(   6) = (   0.2515044   0.7544948   0.2515044  )
         7        Cr     tau(   7) = (   0.0000012   0.5029990   0.5029990  )
         8        Cr     tau(   8) = (   0.2515043   0.7544947   0.7544947  )
         9        Cr     tau(   9) = (   0.5029984   0.0000006   0.0000006  )
        10        Cr     tau(  10) = (   0.7544948   0.2515044   0.2515044  )
        11        Cr     tau(  11) = (   0.5029990   0.0000012   0.5029990  )
        12        Cr     tau(  12) = (   0.7544947   0.2515043   0.7544947  )
        13        Cr     tau(  13) = (   0.5029990   0.5029990   0.0000012  )
        14        Cr     tau(  14) = (   0.7544947   0.7544947   0.2515043  )
        15        Cr     tau(  15) = (   0.5029995   0.5029995   0.5029995  )
        16        Fe     tau(  16) = (   0.7544755   0.7544755   0.7544755  )

     number of k points=    32  Marzari-Vanderbilt smearing, width (Ry)=  0.0200
                       cart. coord. in units 2pi/alat
        k(    1) = (   0.0000000   0.0000000   0.0000000), wk =   0.0046296
        k(    2) = (  -0.0000002  -0.0000002   0.1656732), wk =   0.0277778
        k(    3) = (  -0.0000004  -0.0000004   0.3313463), wk =   0.0277778
        k(    4) = (   0.0000006   0.0000006  -0.4970195), wk =   0.0138889
        k(    5) = (  -0.0000004   0.1656730   0.1656730), wk =   0.0277778
        k(    6) = (  -0.0000006   0.1656728   0.3313461), wk =   0.0555556
        k(    7) = (   0.0000004   0.1656737  -0.4970197), wk =   0.0555556
        k(    8) = (  -0.0000008   0.3313459   0.3313459), wk =   0.0277778
        k(    9) = (   0.0000002   0.3313469  -0.4970199), wk =   0.0555556
        k(   10) = (   0.0000011  -0.4970189  -0.4970189), wk =   0.0138889
        k(   11) = (   0.1656728   0.1656728   0.1656728), wk =   0.0092593
        k(   12) = (   0.1656726   0.1656726   0.3313459), wk =   0.0277778
        k(   13) = (   0.1656735   0.1656735  -0.4970199), wk =   0.0277778
        k(   14) = (   0.1656724   0.3313458   0.3313458), wk =   0.0277778
        k(   15) = (   0.1656734   0.3313467  -0.4970201), wk =   0.0555556
        k(   16) = (   0.1656743  -0.4970191  -0.4970191), wk =   0.0277778
        k(   17) = (   0.3313456   0.3313456   0.3313456), wk =   0.0092593
        k(   18) = (   0.3313465   0.3313465  -0.4970202), wk =   0.0277778
        k(   19) = (   0.3313475  -0.4970193  -0.4970193), wk =   0.0277778
        k(   20) = (  -0.4970183  -0.4970183  -0.4970183), wk =   0.0046296
        k(   21) = (  -0.0000000   0.1656734  -0.1656734), wk =   0.0277778
        k(   22) = (  -0.0000002   0.3313465  -0.1656735), wk =   0.0555556
        k(   23) = (  -0.0000000   0.3313467  -0.3313467), wk =   0.0277778
        k(   24) = (  -0.1656735   0.1656732   0.1656732), wk =   0.0277778
        k(   25) = (  -0.1656737   0.3313463   0.1656730), wk =   0.0555556
        k(   26) = (   0.1656734  -0.3313467   0.1656734), wk =   0.0277778
        k(   27) = (  -0.1656728  -0.4970195   0.1656739), wk =   0.0277778
        k(   28) = (  -0.1656739   0.3313461   0.3313461), wk =   0.0277778
        k(   29) = (   0.1656732   0.3313465  -0.3313469), wk =   0.0555556
        k(   30) = (  -0.1656730  -0.4970197   0.3313471), wk =   0.0555556
        k(   31) = (  -0.3313471   0.3313463   0.3313463), wk =   0.0277778
        k(   32) = (  -0.3313461  -0.4970195   0.3313473), wk =   0.0277778

     Dense  grid:   221119 G-vectors     FFT dimensions: (  75,  75,  75)

     Smooth grid:    78205 G-vectors     FFT dimensions: (  54,  54,  54)

     Estimated max dynamical RAM per process >       2.30 GB

     Check: negative core charge=   -0.000003
     Generating pointlists ...

     Initial potential from superposition of free atoms

     starting charge     227.9883, renormalised to     228.0000
     Starting wfcs are  160 randomized atomic wfcs
     Checking if some PAW data can be deallocated... 

     total cpu time spent up to now is     7088.1 secs

     Self-consistent Calculation

     iteration #  1     ecut=    60.00 Ry     beta= 0.30
     Davidson diagonalization with overlap
     c_bands:  5 eigenvalues not converged
     c_bands:  4 eigenvalues not converged
     c_bands:  2 eigenvalues not converged
     c_bands:  1 eigenvalues not converged
     c_bands:  3 eigenvalues not converged
     c_bands:  3 eigenvalues not converged
     c_bands:  1 eigenvalues not converged
     c_bands:  1 eigenvalues not converged
     c_bands:  4 eigenvalues not converged
     c_bands:  3 eigenvalues not converged
     c_bands:  3 eigenvalues not converged
     c_bands:  1 eigenvalues not converged
     c_bands:  2 eigenvalues not converged
     c_bands:  5 eigenvalues not converged
     c_bands:  3 eigenvalues not converged
     c_bands:  1 eigenvalues not converged
     c_bands:  4 eigenvalues not converged
     c_bands:  3 eigenvalues not converged
     c_bands:  2 eigenvalues not converged
     c_bands:  3 eigenvalues not converged
     c_bands:  2 eigenvalues not converged
     c_bands:  4 eigenvalues not converged
     c_bands:  1 eigenvalues not converged
     c_bands:  1 eigenvalues not converged
     c_bands:  1 eigenvalues not converged
     c_bands:  2 eigenvalues not converged
     c_bands:  1 eigenvalues not converged
     c_bands:  1 eigenvalues not converged
     c_bands:  2 eigenvalues not converged
     c_bands:  2 eigenvalues not converged
     c_bands:  2 eigenvalues not converged
     c_bands:  3 eigenvalues not converged
     c_bands:  2 eigenvalues not converged
     c_bands:  3 eigenvalues not converged
     c_bands:  4 eigenvalues not converged
     c_bands:  3 eigenvalues not converged
     c_bands:  2 eigenvalues not converged
     c_bands:  2 eigenvalues not converged
     c_bands:  1 eigenvalues not converged
     c_bands:  4 eigenvalues not converged
     c_bands:  3 eigenvalues not converged
     c_bands:  1 eigenvalues not converged
     c_bands:  2 eigenvalues not converged
     c_bands:  1 eigenvalues not converged
     ethr =  1.00E-06,  avg # of iterations = 31.9

     negative rho (up, down):  4.074E-04 1.172E-02

     total cpu time spent up to now is     7162.4 secs

     total energy              =   -4132.73590318 Ry
     estimated scf accuracy    <       4.38177001 Ry

     total magnetization       =     2.69 Bohr mag/cell
     absolute magnetization    =     6.70 Bohr mag/cell

     iteration #  2     ecut=    60.00 Ry     beta= 0.30
     Davidson diagonalization with overlap
     ethr =  1.92E-03,  avg # of iterations =  3.8

     negative rho (up, down):  6.000E-04 1.104E-02

     total cpu time spent up to now is     7189.5 secs

     total energy              =   -4131.68862157 Ry
     estimated scf accuracy    <      17.69967885 Ry

     total magnetization       =     1.25 Bohr mag/cell
     absolute magnetization    =     3.26 Bohr mag/cell

     iteration #  3     ecut=    60.00 Ry     beta= 0.30
     Davidson diagonalization with overlap
     ethr =  1.92E-03,  avg # of iterations =  3.8

     negative rho (up, down):  6.335E-04 7.216E-03

     total cpu time spent up to now is     7217.4 secs

     total energy              =   -4133.14381672 Ry
     estimated scf accuracy    <       7.87465794 Ry

     total magnetization       =     1.86 Bohr mag/cell
     absolute magnetization    =     3.05 Bohr mag/cell

     iteration #  4     ecut=    60.00 Ry     beta= 0.30
     Davidson diagonalization with overlap
     ethr =  1.92E-03,  avg # of iterations =  1.4

     negative rho (up, down):  5.783E-04 6.373E-03

     total cpu time spent up to now is     7240.9 secs

     total energy              =   -4133.29955847 Ry
     estimated scf accuracy    <       2.52282108 Ry

     total magnetization       =     1.83 Bohr mag/cell
     absolute magnetization    =     2.92 Bohr mag/cell

     iteration #  5     ecut=    60.00 Ry     beta= 0.30
     Davidson diagonalization with overlap
     ethr =  1.11E-03,  avg # of iterations =  1.0

     negative rho (up, down):  1.996E-04 3.890E-03

     total cpu time spent up to now is     7264.9 secs

     total energy              =   -4133.41785860 Ry
     estimated scf accuracy    <       0.39313455 Ry

     total magnetization       =     2.62 Bohr mag/cell
     absolute magnetization    =     3.42 Bohr mag/cell

     iteration #  6     ecut=    60.00 Ry     beta= 0.30
     Davidson diagonalization with overlap
     ethr =  1.72E-04,  avg # of iterations =  4.0

     negative rho (up, down):  0.000E+00 2.067E-03

     total cpu time spent up to now is     7292.0 secs

     total energy              =   -4133.45743527 Ry
     estimated scf accuracy    <       0.08828316 Ry

     total magnetization       =     2.57 Bohr mag/cell
     absolute magnetization    =     3.27 Bohr mag/cell

     iteration #  7     ecut=    60.00 Ry     beta= 0.30
     Davidson diagonalization with overlap
     ethr =  3.87E-05,  avg # of iterations =  4.7

     total cpu time spent up to now is     7319.3 secs

     total energy              =   -4133.48371631 Ry
     estimated scf accuracy    <       0.15544655 Ry

     total magnetization       =     2.65 Bohr mag/cell
     absolute magnetization    =     3.29 Bohr mag/cell

     iteration #  8     ecut=    60.00 Ry     beta= 0.30
     Davidson diagonalization with overlap
     ethr =  3.87E-05,  avg # of iterations =  2.9

     total cpu time spent up to now is     7345.7 secs

     total energy              =   -4133.50874853 Ry
     estimated scf accuracy    <       0.24519249 Ry

     total magnetization       =     2.82 Bohr mag/cell
     absolute magnetization    =     3.39 Bohr mag/cell

     iteration #  9     ecut=    60.00 Ry     beta= 0.30
     Davidson diagonalization with overlap
     ethr =  3.87E-05,  avg # of iterations =  1.1

     total cpu time spent up to now is     7370.3 secs

     total energy              =   -4133.50910021 Ry
     estimated scf accuracy    <       0.17477138 Ry

     total magnetization       =     2.89 Bohr mag/cell
     absolute magnetization    =     3.45 Bohr mag/cell

     iteration # 10     ecut=    60.00 Ry     beta= 0.30
     Davidson diagonalization with overlap
     ethr =  3.87E-05,  avg # of iterations =  1.2

     total cpu time spent up to now is     7395.4 secs

     total energy              =   -4133.51778778 Ry
     estimated scf accuracy    <       0.02668876 Ry

     total magnetization       =     3.01 Bohr mag/cell
     absolute magnetization    =     3.58 Bohr mag/cell

     iteration # 11     ecut=    60.00 Ry     beta= 0.30
     Davidson diagonalization with overlap
     c_bands:  1 eigenvalues not converged
     c_bands:  1 eigenvalues not converged
     c_bands:  1 eigenvalues not converged
     c_bands:  1 eigenvalues not converged
     ethr =  1.17E-05,  avg # of iterations =  9.5

     total cpu time spent up to now is     7428.6 secs

     total energy              =   -4133.51799323 Ry
     estimated scf accuracy    <       0.07427567 Ry

     total magnetization       =     3.19 Bohr mag/cell
     absolute magnetization    =     3.89 Bohr mag/cell

     iteration # 12     ecut=    60.00 Ry     beta= 0.30
     Davidson diagonalization with overlap
     ethr =  1.17E-05,  avg # of iterations =  2.4

     total cpu time spent up to now is     7454.4 secs

     total energy              =   -4133.52206870 Ry
     estimated scf accuracy    <       0.00160674 Ry

     total magnetization       =     3.26 Bohr mag/cell
     absolute magnetization    =     4.01 Bohr mag/cell

     iteration # 13     ecut=    60.00 Ry     beta= 0.30
     Davidson diagonalization with overlap
     c_bands:  1 eigenvalues not converged
     c_bands:  1 eigenvalues not converged
     c_bands:  1 eigenvalues not converged
     c_bands:  1 eigenvalues not converged
     c_bands:  1 eigenvalues not converged
     c_bands:  2 eigenvalues not converged
     c_bands:  1 eigenvalues not converged
     c_bands:  1 eigenvalues not converged
     c_bands:  1 eigenvalues not converged
     c_bands:  1 eigenvalues not converged
     c_bands:  1 eigenvalues not converged
     c_bands:  1 eigenvalues not converged
     c_bands:  1 eigenvalues not converged
     c_bands:  3 eigenvalues not converged
     c_bands:  1 eigenvalues not converged
     ethr =  7.05E-07,  avg # of iterations = 14.3

     total cpu time spent up to now is     7493.9 secs

     total energy              =   -4133.52323213 Ry
     estimated scf accuracy    <       0.00427591 Ry

     total magnetization       =     3.36 Bohr mag/cell
     absolute magnetization    =     4.24 Bohr mag/cell

     iteration # 14     ecut=    60.00 Ry     beta= 0.30
     Davidson diagonalization with overlap
     ethr =  7.05E-07,  avg # of iterations =  3.1

     total cpu time spent up to now is     7519.6 secs

     total energy              =   -4133.52346892 Ry
     estimated scf accuracy    <       0.00118868 Ry

     total magnetization       =     3.43 Bohr mag/cell
     absolute magnetization    =     4.38 Bohr mag/cell

     iteration # 15     ecut=    60.00 Ry     beta= 0.30
     Davidson diagonalization with overlap
     ethr =  5.21E-07,  avg # of iterations =  8.2

     total cpu time spent up to now is     7552.7 secs

     total energy              =   -4133.52498954 Ry
     estimated scf accuracy    <       0.00153486 Ry

     total magnetization       =     3.67 Bohr mag/cell
     absolute magnetization    =     5.01 Bohr mag/cell

     iteration # 16     ecut=    60.00 Ry     beta= 0.30
     Davidson diagonalization with overlap
     ethr =  5.21E-07,  avg # of iterations =  3.5

     total cpu time spent up to now is     7579.2 secs

     total energy              =   -4133.52521933 Ry
     estimated scf accuracy    <       0.00022275 Ry

     total magnetization       =     3.74 Bohr mag/cell
     absolute magnetization    =     5.20 Bohr mag/cell

     iteration # 17     ecut=    60.00 Ry     beta= 0.30
     Davidson diagonalization with overlap
     c_bands:  1 eigenvalues not converged
     ethr =  9.77E-08,  avg # of iterations =  6.6

     total cpu time spent up to now is     7609.7 secs

     total energy              =   -4133.52531198 Ry
     estimated scf accuracy    <       0.00100184 Ry

     total magnetization       =     3.78 Bohr mag/cell
     absolute magnetization    =     5.35 Bohr mag/cell

     iteration # 18     ecut=    60.00 Ry     beta= 0.30
     Davidson diagonalization with overlap
     ethr =  9.77E-08,  avg # of iterations =  4.3

     total cpu time spent up to now is     7637.7 secs

     total energy              =   -4133.52548651 Ry
     estimated scf accuracy    <       0.00013236 Ry

     total magnetization       =     3.82 Bohr mag/cell
     absolute magnetization    =     5.55 Bohr mag/cell

     iteration # 19     ecut=    60.00 Ry     beta= 0.30
     Davidson diagonalization with overlap
     ethr =  5.81E-08,  avg # of iterations =  4.0

     total cpu time spent up to now is     7664.6 secs

     total energy              =   -4133.52551075 Ry
     estimated scf accuracy    <       0.00040638 Ry

     total magnetization       =     3.85 Bohr mag/cell
     absolute magnetization    =     5.62 Bohr mag/cell

     iteration # 20     ecut=    60.00 Ry     beta= 0.30
     Davidson diagonalization with overlap
     ethr =  5.81E-08,  avg # of iterations =  2.3

     total cpu time spent up to now is     7690.7 secs

     total energy              =   -4133.52554414 Ry
     estimated scf accuracy    <       0.00015144 Ry

     total magnetization       =     3.85 Bohr mag/cell
     absolute magnetization    =     5.66 Bohr mag/cell

     iteration # 21     ecut=    60.00 Ry     beta= 0.30
     Davidson diagonalization with overlap
     ethr =  5.81E-08,  avg # of iterations =  2.4

     total cpu time spent up to now is     7715.9 secs

     total energy              =   -4133.52557496 Ry
     estimated scf accuracy    <       0.00011688 Ry

     total magnetization       =     3.86 Bohr mag/cell
     absolute magnetization    =     5.69 Bohr mag/cell

     iteration # 22     ecut=    60.00 Ry     beta= 0.30
     Davidson diagonalization with overlap
     ethr =  5.13E-08,  avg # of iterations =  5.8

     total cpu time spent up to now is     7745.3 secs

     total energy              =   -4133.52563773 Ry
     estimated scf accuracy    <       0.00009479 Ry

     total magnetization       =     3.87 Bohr mag/cell
     absolute magnetization    =     5.82 Bohr mag/cell

     iteration # 23     ecut=    60.00 Ry     beta= 0.30
     Davidson diagonalization with overlap
     ethr =  4.16E-08,  avg # of iterations =  2.8

     total cpu time spent up to now is     7770.7 secs

     total energy              =   -4133.52565560 Ry
     estimated scf accuracy    <       0.00006517 Ry

     total magnetization       =     3.88 Bohr mag/cell
     absolute magnetization    =     5.87 Bohr mag/cell

     iteration # 24     ecut=    60.00 Ry     beta= 0.30
     Davidson diagonalization with overlap
     ethr =  2.86E-08,  avg # of iterations =  6.6

     total cpu time spent up to now is     7802.0 secs

     total energy              =   -4133.52534733 Ry
     estimated scf accuracy    <       0.00007569 Ry

     total magnetization       =     3.87 Bohr mag/cell
     absolute magnetization    =     6.09 Bohr mag/cell

     iteration # 25     ecut=    60.00 Ry     beta= 0.30
     Davidson diagonalization with overlap
     ethr =  2.86E-08,  avg # of iterations =  5.8

     total cpu time spent up to now is     7832.4 secs

     total energy              =   -4133.52550424 Ry
     estimated scf accuracy    <       0.00015226 Ry

     total magnetization       =     3.86 Bohr mag/cell
     absolute magnetization    =     5.75 Bohr mag/cell

     iteration # 26     ecut=    60.00 Ry     beta= 0.30
     Davidson diagonalization with overlap
     ethr =  2.86E-08,  avg # of iterations =  4.0

     total cpu time spent up to now is     7860.0 secs

     total energy              =   -4133.52551930 Ry
     estimated scf accuracy    <       0.00012099 Ry

     total magnetization       =     3.88 Bohr mag/cell
     absolute magnetization    =     5.72 Bohr mag/cell

     iteration # 27     ecut=    60.00 Ry     beta= 0.30
     Davidson diagonalization with overlap
     ethr =  2.86E-08,  avg # of iterations =  2.7

     total cpu time spent up to now is     7886.0 secs

     total energy              =   -4133.52532186 Ry
     estimated scf accuracy    <       0.00021478 Ry

     total magnetization       =     3.86 Bohr mag/cell
     absolute magnetization    =     5.68 Bohr mag/cell

     iteration # 28     ecut=    60.00 Ry     beta= 0.30
     Davidson diagonalization with overlap
     ethr =  2.86E-08,  avg # of iterations =  7.4

     total cpu time spent up to now is     7918.1 secs

     total energy              =   -4133.52496319 Ry
     estimated scf accuracy    <       0.00007430 Ry

     total magnetization       =     3.89 Bohr mag/cell
     absolute magnetization    =     6.20 Bohr mag/cell

     iteration # 29     ecut=    60.00 Ry     beta= 0.30
     Davidson diagonalization with overlap
     ethr =  2.86E-08,  avg # of iterations =  7.2

     total cpu time spent up to now is     7950.3 secs

     total energy              =   -4133.52525086 Ry
     estimated scf accuracy    <       0.00008619 Ry

     total magnetization       =     3.86 Bohr mag/cell
     absolute magnetization    =     5.66 Bohr mag/cell

     iteration # 30     ecut=    60.00 Ry     beta= 0.30
     Davidson diagonalization with overlap
     ethr =  2.86E-08,  avg # of iterations =  5.4

     total cpu time spent up to now is     7980.1 secs

     total energy              =   -4133.52521398 Ry
     estimated scf accuracy    <       0.00008894 Ry

     total magnetization       =     3.82 Bohr mag/cell
     absolute magnetization    =     5.39 Bohr mag/cell

     iteration # 31     ecut=    60.00 Ry     beta= 0.30
     Davidson diagonalization with overlap
     ethr =  2.86E-08,  avg # of iterations =  5.2

     total cpu time spent up to now is     8009.3 secs

     total energy              =   -4133.52391291 Ry
     estimated scf accuracy    <       0.00010499 Ry

     total magnetization       =     3.82 Bohr mag/cell
     absolute magnetization    =     5.25 Bohr mag/cell

     iteration # 32     ecut=    60.00 Ry     beta= 0.30
     Davidson diagonalization with overlap
     ethr =  2.86E-08,  avg # of iterations =  8.5

     total cpu time spent up to now is     8044.3 secs

     total energy              =   -4133.52378876 Ry
     estimated scf accuracy    <       0.00010852 Ry

     total magnetization       =     3.82 Bohr mag/cell
     absolute magnetization    =     5.01 Bohr mag/cell

     iteration # 33     ecut=    60.00 Ry     beta= 0.30
     Davidson diagonalization with overlap
     ethr =  2.86E-08,  avg # of iterations =  9.1

     total cpu time spent up to now is     8080.0 secs

     total energy              =   -4133.52283028 Ry
     estimated scf accuracy    <       0.00003732 Ry

     total magnetization       =     3.76 Bohr mag/cell
     absolute magnetization    =     5.11 Bohr mag/cell

     iteration # 34     ecut=    60.00 Ry     beta= 0.30
     Davidson diagonalization with overlap
     c_bands:  1 eigenvalues not converged
     c_bands:  1 eigenvalues not converged
     ethr =  1.64E-08,  avg # of iterations = 11.3

     total cpu time spent up to now is     8118.4 secs

     total energy              =   -4133.52277076 Ry
     estimated scf accuracy    <       0.00003373 Ry

     total magnetization       =     3.68 Bohr mag/cell
     absolute magnetization    =     5.58 Bohr mag/cell

     iteration # 35     ecut=    60.00 Ry     beta= 0.30
     Davidson diagonalization with overlap
     c_bands:  1 eigenvalues not converged
     ethr =  1.48E-08,  avg # of iterations = 11.4

     total cpu time spent up to now is     8157.0 secs

     total energy              =   -4133.51921962 Ry
     estimated scf accuracy    <       0.00003158 Ry

     total magnetization       =     3.58 Bohr mag/cell
     absolute magnetization    =     6.19 Bohr mag/cell

     iteration # 36     ecut=    60.00 Ry     beta= 0.30
     Davidson diagonalization with overlap
     c_bands:  1 eigenvalues not converged
     c_bands:  1 eigenvalues not converged
     c_bands:  1 eigenvalues not converged
     c_bands:  1 eigenvalues not converged
     c_bands:  1 eigenvalues not converged
     c_bands:  1 eigenvalues not converged
     c_bands:  2 eigenvalues not converged
     ethr =  1.39E-08,  avg # of iterations = 13.5

     total cpu time spent up to now is     8198.5 secs

     total energy              =   -4133.52372559 Ry
     estimated scf accuracy    <       0.00003050 Ry

     total magnetization       =     3.36 Bohr mag/cell
     absolute magnetization    =     7.80 Bohr mag/cell

     iteration # 37     ecut=    60.00 Ry     beta= 0.30
     Davidson diagonalization with overlap
     c_bands:  1 eigenvalues not converged
     ethr =  1.34E-08,  avg # of iterations =  5.5

     total cpu time spent up to now is     8227.5 secs

     total energy              =   -4133.52363870 Ry
     estimated scf accuracy    <       0.00003532 Ry

     total magnetization       =     3.35 Bohr mag/cell
     absolute magnetization    =     7.87 Bohr mag/cell

     iteration # 38     ecut=    60.00 Ry     beta= 0.30
     Davidson diagonalization with overlap
     ethr =  1.34E-08,  avg # of iterations =  6.1

     total cpu time spent up to now is     8260.3 secs

     total energy              =   -4133.51850485 Ry
     estimated scf accuracy    <       0.00006488 Ry

     total magnetization       =     3.33 Bohr mag/cell
     absolute magnetization    =     8.08 Bohr mag/cell

     iteration # 39     ecut=    60.00 Ry     beta= 0.30
     Davidson diagonalization with overlap
     ethr =  1.34E-08,  avg # of iterations = 12.0

     total cpu time spent up to now is     8301.7 secs

     total energy              =   -4133.52402551 Ry
     estimated scf accuracy    <       0.00002625 Ry

     total magnetization       =     3.56 Bohr mag/cell
     absolute magnetization    =     6.24 Bohr mag/cell

     iteration # 40     ecut=    60.00 Ry     beta= 0.30
     Davidson diagonalization with overlap
     ethr =  1.15E-08,  avg # of iterations =  5.1

     total cpu time spent up to now is     8331.1 secs

     total energy              =   -4133.52402931 Ry
     estimated scf accuracy    <       0.00005296 Ry

     total magnetization       =     3.56 Bohr mag/cell
     absolute magnetization    =     6.34 Bohr mag/cell

     iteration # 41     ecut=    60.00 Ry     beta= 0.30
     Davidson diagonalization with overlap
     ethr =  1.15E-08,  avg # of iterations =  5.1

     total cpu time spent up to now is     8359.4 secs

     total energy              =   -4133.52328281 Ry
     estimated scf accuracy    <       0.00003818 Ry

     total magnetization       =     3.55 Bohr mag/cell
     absolute magnetization    =     6.37 Bohr mag/cell

     iteration # 42     ecut=    60.00 Ry     beta= 0.30
     Davidson diagonalization with overlap
     ethr =  1.15E-08,  avg # of iterations =  9.2

     total cpu time spent up to now is     8395.7 secs

     total energy              =   -4133.52387959 Ry
     estimated scf accuracy    <       0.00002430 Ry

     total magnetization       =     3.46 Bohr mag/cell
     absolute magnetization    =     6.92 Bohr mag/cell

     iteration # 43     ecut=    60.00 Ry     beta= 0.30
     Davidson diagonalization with overlap
     ethr =  1.07E-08,  avg # of iterations =  5.6

     total cpu time spent up to now is     8426.4 secs

     total energy              =   -4133.51721856 Ry
     estimated scf accuracy    <       0.00003030 Ry

     total magnetization       =     3.48 Bohr mag/cell
     absolute magnetization    =     6.73 Bohr mag/cell

     iteration # 44     ecut=    60.00 Ry     beta= 0.30
     Davidson diagonalization with overlap
     ethr =  1.07E-08,  avg # of iterations = 12.2

     total cpu time spent up to now is     8467.7 secs

     total energy              =   -4133.52057463 Ry
     estimated scf accuracy    <       0.00003391 Ry

     total magnetization       =     3.20 Bohr mag/cell
     absolute magnetization    =     8.83 Bohr mag/cell

     iteration # 45     ecut=    60.00 Ry     beta= 0.30
     Davidson diagonalization with overlap
     ethr =  1.07E-08,  avg # of iterations = 12.3

     total cpu time spent up to now is     8508.4 secs

     total energy              =   -4133.52282433 Ry
     estimated scf accuracy    <       0.00004847 Ry

     total magnetization       =     2.99 Bohr mag/cell
     absolute magnetization    =    10.31 Bohr mag/cell

     iteration # 46     ecut=    60.00 Ry     beta= 0.30
     Davidson diagonalization with overlap
     c_bands:  1 eigenvalues not converged
     c_bands:  1 eigenvalues not converged
     ethr =  1.07E-08,  avg # of iterations = 10.0

     total cpu time spent up to now is     8545.6 secs

     total energy              =   -4133.52345575 Ry
     estimated scf accuracy    <       0.00002783 Ry

     total magnetization       =     3.09 Bohr mag/cell
     absolute magnetization    =     9.58 Bohr mag/cell

     iteration # 47     ecut=    60.00 Ry     beta= 0.30
     Davidson diagonalization with overlap
     ethr =  1.07E-08,  avg # of iterations =  5.7

     total cpu time spent up to now is     8574.7 secs

     total energy              =   -4133.52346944 Ry
     estimated scf accuracy    <       0.00002235 Ry

     total magnetization       =     3.07 Bohr mag/cell
     absolute magnetization    =     9.75 Bohr mag/cell

     iteration # 48     ecut=    60.00 Ry     beta= 0.30
     Davidson diagonalization with overlap
     ethr =  9.80E-09,  avg # of iterations =  5.1

     total cpu time spent up to now is     8601.7 secs

     total energy              =   -4133.52333666 Ry
     estimated scf accuracy    <       0.00002159 Ry

     total magnetization       =     3.05 Bohr mag/cell
     absolute magnetization    =     9.84 Bohr mag/cell

     iteration # 49     ecut=    60.00 Ry     beta= 0.30
     Davidson diagonalization with overlap
     ethr =  9.47E-09,  avg # of iterations =  7.3

     total cpu time spent up to now is     8634.9 secs

     total energy              =   -4133.52296626 Ry
     estimated scf accuracy    <       0.00002286 Ry

     total magnetization       =     3.10 Bohr mag/cell
     absolute magnetization    =     9.45 Bohr mag/cell

     iteration # 50     ecut=    60.00 Ry     beta= 0.30
     Davidson diagonalization with overlap
     ethr =  9.47E-09,  avg # of iterations =  9.1

     total cpu time spent up to now is     8671.1 secs

     total energy              =   -4133.52338189 Ry
     estimated scf accuracy    <       0.00001812 Ry

     total magnetization       =     3.01 Bohr mag/cell
     absolute magnetization    =    10.06 Bohr mag/cell

     iteration # 51     ecut=    60.00 Ry     beta= 0.30
     Davidson diagonalization with overlap
     ethr =  7.95E-09,  avg # of iterations =  6.7

     total cpu time spent up to now is     8704.2 secs

     total energy              =   -4133.52348129 Ry
     estimated scf accuracy    <       0.00000784 Ry

     total magnetization       =     3.04 Bohr mag/cell
     absolute magnetization    =     9.77 Bohr mag/cell

     iteration # 52     ecut=    60.00 Ry     beta= 0.30
     Davidson diagonalization with overlap
     ethr =  3.44E-09,  avg # of iterations =  5.0

     total cpu time spent up to now is     8732.0 secs

     total energy              =   -4133.52318016 Ry
     estimated scf accuracy    <       0.00000811 Ry

     total magnetization       =     3.03 Bohr mag/cell
     absolute magnetization    =     9.81 Bohr mag/cell

     iteration # 53     ecut=    60.00 Ry     beta= 0.30
     Davidson diagonalization with overlap
     ethr =  3.44E-09,  avg # of iterations = 11.2

     total cpu time spent up to now is     8770.6 secs

     total energy              =   -4133.52251089 Ry
     estimated scf accuracy    <       0.00000746 Ry

     total magnetization       =     3.11 Bohr mag/cell
     absolute magnetization    =     9.28 Bohr mag/cell

     iteration # 54     ecut=    60.00 Ry     beta= 0.30
     Davidson diagonalization with overlap
     ethr =  3.27E-09,  avg # of iterations = 12.0

     total cpu time spent up to now is     8810.9 secs

     total energy              =   -4133.52367405 Ry
     estimated scf accuracy    <       0.00001280 Ry

     total magnetization       =     3.25 Bohr mag/cell
     absolute magnetization    =     8.34 Bohr mag/cell

     iteration # 55     ecut=    60.00 Ry     beta= 0.30
     Davidson diagonalization with overlap
     ethr =  3.27E-09,  avg # of iterations =  5.9

     total cpu time spent up to now is     8840.8 secs

     total energy              =   -4133.52170031 Ry
     estimated scf accuracy    <       0.00000841 Ry

     total magnetization       =     3.26 Bohr mag/cell
     absolute magnetization    =     8.25 Bohr mag/cell

     iteration # 56     ecut=    60.00 Ry     beta= 0.30
     Davidson diagonalization with overlap
     ethr =  3.27E-09,  avg # of iterations = 12.2

     total cpu time spent up to now is     8882.0 secs

     total energy              =   -4133.52330099 Ry
     estimated scf accuracy    <       0.00001937 Ry

     total magnetization       =     3.44 Bohr mag/cell
     absolute magnetization    =     7.02 Bohr mag/cell

     iteration # 57     ecut=    60.00 Ry     beta= 0.30
     Davidson diagonalization with overlap
     ethr =  3.27E-09,  avg # of iterations = 11.5

     total cpu time spent up to now is     8921.5 secs

     total energy              =   -4133.52238128 Ry
     estimated scf accuracy    <       0.00001727 Ry

     total magnetization       =     3.36 Bohr mag/cell
     absolute magnetization    =     7.58 Bohr mag/cell

     iteration # 58     ecut=    60.00 Ry     beta= 0.30
     Davidson diagonalization with overlap
     ethr =  3.27E-09,  avg # of iterations = 12.1

     total cpu time spent up to now is     8962.0 secs

     total energy              =   -4133.51970737 Ry
     estimated scf accuracy    <       0.00000683 Ry

     total magnetization       =     3.22 Bohr mag/cell
     absolute magnetization    =     8.54 Bohr mag/cell

     iteration # 59     ecut=    60.00 Ry     beta= 0.30
     Davidson diagonalization with overlap
     ethr =  2.99E-09,  avg # of iterations = 14.5

     total cpu time spent up to now is     9006.0 secs

     total energy              =   -4133.52335695 Ry
     estimated scf accuracy    <       0.00001215 Ry

     total magnetization       =     2.98 Bohr mag/cell
     absolute magnetization    =    10.23 Bohr mag/cell

     iteration # 60     ecut=    60.00 Ry     beta= 0.30
     Davidson diagonalization with overlap
     ethr =  2.99E-09,  avg # of iterations =  8.0

     total cpu time spent up to now is     9039.0 secs

     total energy              =   -4133.52321085 Ry
     estimated scf accuracy    <       0.00001406 Ry

     total magnetization       =     2.95 Bohr mag/cell
     absolute magnetization    =    10.42 Bohr mag/cell

     iteration # 61     ecut=    60.00 Ry     beta= 0.30
     Davidson diagonalization with overlap
     c_bands:  1 eigenvalues not converged
     ethr =  2.99E-09,  avg # of iterations =  9.9

     total cpu time spent up to now is     9076.1 secs

     total energy              =   -4133.52332959 Ry
     estimated scf accuracy    <       0.00001400 Ry

     total magnetization       =     2.90 Bohr mag/cell
     absolute magnetization    =    10.75 Bohr mag/cell

     iteration # 62     ecut=    60.00 Ry     beta= 0.30
     Davidson diagonalization with overlap
     ethr =  2.99E-09,  avg # of iterations =  5.5

     total cpu time spent up to now is     9105.9 secs

     total energy              =   -4133.52333860 Ry
     estimated scf accuracy    <       0.00001472 Ry

     total magnetization       =     2.89 Bohr mag/cell
     absolute magnetization    =    10.83 Bohr mag/cell

     iteration # 63     ecut=    60.00 Ry     beta= 0.30
     Davidson diagonalization with overlap
     ethr =  2.99E-09,  avg # of iterations =  1.0

     total cpu time spent up to now is     9130.8 secs

     total energy              =   -4133.52327676 Ry
     estimated scf accuracy    <       0.00001496 Ry

     total magnetization       =     2.88 Bohr mag/cell
     absolute magnetization    =    10.84 Bohr mag/cell

     iteration # 64     ecut=    60.00 Ry     beta= 0.30
     Davidson diagonalization with overlap
     ethr =  2.99E-09,  avg # of iterations =  8.3

     total cpu time spent up to now is     9164.9 secs

     total energy              =   -4133.52331028 Ry
     estimated scf accuracy    <       0.00001325 Ry

     total magnetization       =     2.92 Bohr mag/cell
     absolute magnetization    =    10.56 Bohr mag/cell

     iteration # 65     ecut=    60.00 Ry     beta= 0.30
     Davidson diagonalization with overlap
     ethr =  2.99E-09,  avg # of iterations =  7.4

     total cpu time spent up to now is     9197.4 secs

     total energy              =   -4133.50086157 Ry
     estimated scf accuracy    <       0.00001306 Ry

     total magnetization       =     2.90 Bohr mag/cell
     absolute magnetization    =    10.74 Bohr mag/cell

     iteration # 66     ecut=    60.00 Ry     beta= 0.30
     Davidson diagonalization with overlap
     c_bands:  1 eigenvalues not converged
     c_bands:  3 eigenvalues not converged
     c_bands:  2 eigenvalues not converged
     c_bands:  1 eigenvalues not converged
     c_bands:  2 eigenvalues not converged
     c_bands:  2 eigenvalues not converged
     c_bands:  4 eigenvalues not converged
     c_bands:  4 eigenvalues not converged
     c_bands:  5 eigenvalues not converged
     c_bands:  2 eigenvalues not converged
     c_bands:  1 eigenvalues not converged
     c_bands:  1 eigenvalues not converged
     c_bands:  3 eigenvalues not converged
     c_bands:  2 eigenvalues not converged
     c_bands:  2 eigenvalues not converged
     c_bands:  5 eigenvalues not converged
     c_bands:  5 eigenvalues not converged
     c_bands:  4 eigenvalues not converged
     c_bands:  3 eigenvalues not converged
     c_bands:  2 eigenvalues not converged
     c_bands:  2 eigenvalues not converged
     c_bands:  1 eigenvalues not converged
     c_bands:  3 eigenvalues not converged
     c_bands:  5 eigenvalues not converged
     c_bands:  1 eigenvalues not converged
     c_bands:  2 eigenvalues not converged
     c_bands:  2 eigenvalues not converged
     c_bands:  4 eigenvalues not converged
     c_bands:  2 eigenvalues not converged
     c_bands:  1 eigenvalues not converged
     c_bands:  4 eigenvalues not converged
     c_bands:  1 eigenvalues not converged
     c_bands:  1 eigenvalues not converged
     c_bands:  3 eigenvalues not converged
     c_bands:  2 eigenvalues not converged
     c_bands:  4 eigenvalues not converged
     c_bands:  4 eigenvalues not converged
     c_bands:  2 eigenvalues not converged
     ethr =  2.99E-09,  avg # of iterations = 18.7

     total cpu time spent up to now is     9249.7 secs

     total energy              =   -4133.50342915 Ry
     estimated scf accuracy    <       0.00001587 Ry

     total magnetization       =     3.49 Bohr mag/cell
     absolute magnetization    =     6.66 Bohr mag/cell

     iteration # 67     ecut=    60.00 Ry     beta= 0.30
     Davidson diagonalization with overlap
     c_bands:  1 eigenvalues not converged
     c_bands:  3 eigenvalues not converged
     c_bands:  1 eigenvalues not converged
     c_bands:  3 eigenvalues not converged
     c_bands:  3 eigenvalues not converged
     c_bands:  3 eigenvalues not converged
     c_bands:  3 eigenvalues not converged
     c_bands:  1 eigenvalues not converged
     c_bands:  1 eigenvalues not converged
     c_bands:  3 eigenvalues not converged
     c_bands:  3 eigenvalues not converged
     c_bands:  3 eigenvalues not converged
     c_bands:  2 eigenvalues not converged
     c_bands:  3 eigenvalues not converged
     c_bands:  4 eigenvalues not converged
     c_bands:  3 eigenvalues not converged
     c_bands:  1 eigenvalues not converged
     c_bands:  1 eigenvalues not converged
     c_bands:  2 eigenvalues not converged
     c_bands:  2 eigenvalues not converged
     c_bands:  3 eigenvalues not converged
     c_bands:  1 eigenvalues not converged
     c_bands:  3 eigenvalues not converged
     c_bands:  4 eigenvalues not converged
     c_bands:  1 eigenvalues not converged
     c_bands:  3 eigenvalues not converged
     c_bands:  1 eigenvalues not converged
     c_bands:  3 eigenvalues not converged
     c_bands:  2 eigenvalues not converged
     c_bands:  4 eigenvalues not converged
     c_bands:  1 eigenvalues not converged
     c_bands:  2 eigenvalues not converged
     ethr =  2.99E-09,  avg # of iterations = 18.9

     total cpu time spent up to now is     9302.5 secs

     total energy              =   -4133.52336046 Ry
     estimated scf accuracy    <       0.00001787 Ry

     total magnetization       =     2.95 Bohr mag/cell
     absolute magnetization    =    10.43 Bohr mag/cell

     iteration # 68     ecut=    60.00 Ry     beta= 0.30
     Davidson diagonalization with overlap
     c_bands:  1 eigenvalues not converged
     c_bands:  1 eigenvalues not converged
     c_bands:  1 eigenvalues not converged
     ethr =  2.99E-09,  avg # of iterations =  7.9

     total cpu time spent up to now is     9335.4 secs

     total energy              =   -4133.50076688 Ry
     estimated scf accuracy    <       0.00008557 Ry

     total magnetization       =     2.93 Bohr mag/cell
     absolute magnetization    =    10.55 Bohr mag/cell

     iteration # 69     ecut=    60.00 Ry     beta= 0.30
     Davidson diagonalization with overlap
     c_bands:  1 eigenvalues not converged
     c_bands:  1 eigenvalues not converged
     c_bands:  5 eigenvalues not converged
     c_bands:  1 eigenvalues not converged
     c_bands:  4 eigenvalues not converged
     c_bands:  5 eigenvalues not converged
     c_bands:  4 eigenvalues not converged
     c_bands:  3 eigenvalues not converged
     c_bands:  3 eigenvalues not converged
     c_bands:  1 eigenvalues not converged
     c_bands:  2 eigenvalues not converged
     c_bands:  1 eigenvalues not converged
     c_bands:  4 eigenvalues not converged
     c_bands:  4 eigenvalues not converged
     c_bands:  4 eigenvalues not converged
     c_bands:  5 eigenvalues not converged
     c_bands:  5 eigenvalues not converged
     c_bands:  3 eigenvalues not converged
     c_bands:  3 eigenvalues not converged
     c_bands:  2 eigenvalues not converged
     c_bands:  2 eigenvalues not converged
     c_bands:  1 eigenvalues not converged
     c_bands:  3 eigenvalues not converged
     c_bands:  5 eigenvalues not converged
     c_bands:  3 eigenvalues not converged
     c_bands:  1 eigenvalues not converged
     c_bands:  2 eigenvalues not converged
     c_bands:  4 eigenvalues not converged
     c_bands:  4 eigenvalues not converged
     c_bands:  2 eigenvalues not converged
     c_bands:  1 eigenvalues not converged
     c_bands:  5 eigenvalues not converged
     c_bands:  2 eigenvalues not converged
     c_bands:  2 eigenvalues not converged
     c_bands:  4 eigenvalues not converged
     c_bands:  5 eigenvalues not converged
     c_bands:  5 eigenvalues not converged
     c_bands:  2 eigenvalues not converged
     ethr =  2.99E-09,  avg # of iterations = 19.0

     total cpu time spent up to now is     9388.1 secs

     total energy              =   -4133.52200370 Ry
     estimated scf accuracy    <       0.00021218 Ry

     total magnetization       =     2.37 Bohr mag/cell
     absolute magnetization    =    14.50 Bohr mag/cell

     iteration # 70     ecut=    60.00 Ry     beta= 0.30
     Davidson diagonalization with overlap
     c_bands:  1 eigenvalues not converged
     ethr =  2.99E-09,  avg # of iterations = 11.3

     total cpu time spent up to now is     9426.1 secs

     total energy              =   -4133.51543193 Ry
     estimated scf accuracy    <       0.00015583 Ry

     total magnetization       =     2.42 Bohr mag/cell
     absolute magnetization    =    14.07 Bohr mag/cell

     iteration # 71     ecut=    60.00 Ry     beta= 0.30
     Davidson diagonalization with overlap
     c_bands:  2 eigenvalues not converged
     c_bands:  1 eigenvalues not converged
     c_bands:  1 eigenvalues not converged
     c_bands:  2 eigenvalues not converged
     c_bands:  1 eigenvalues not converged
     c_bands:  1 eigenvalues not converged
     c_bands:  2 eigenvalues not converged
     c_bands:  2 eigenvalues not converged
     c_bands:  1 eigenvalues not converged
     c_bands:  1 eigenvalues not converged
     c_bands:  1 eigenvalues not converged
     c_bands:  2 eigenvalues not converged
     c_bands:  1 eigenvalues not converged
     c_bands:  1 eigenvalues not converged
     c_bands:  1 eigenvalues not converged
     c_bands:  1 eigenvalues not converged
     ethr =  2.99E-09,  avg # of iterations = 17.8

     total cpu time spent up to now is     9476.1 secs

     total energy              =   -4133.52222911 Ry
     estimated scf accuracy    <       0.00001581 Ry

     total magnetization       =     2.76 Bohr mag/cell
     absolute magnetization    =    11.67 Bohr mag/cell

     iteration # 72     ecut=    60.00 Ry     beta= 0.30
     Davidson diagonalization with overlap
     c_bands:  1 eigenvalues not converged
     c_bands:  1 eigenvalues not converged
     ethr =  2.99E-09,  avg # of iterations = 12.0

     total cpu time spent up to now is     9516.6 secs

     total energy              =   -4133.52124984 Ry
     estimated scf accuracy    <       0.00003552 Ry

     total magnetization       =     2.65 Bohr mag/cell
     absolute magnetization    =    12.42 Bohr mag/cell

     iteration # 73     ecut=    60.00 Ry     beta= 0.30
     Davidson diagonalization with overlap
     ethr =  2.99E-09,  avg # of iterations = 12.2

     total cpu time spent up to now is     9556.5 secs

     total energy              =   -4133.52317782 Ry
     estimated scf accuracy    <       0.00002134 Ry

     total magnetization       =     2.82 Bohr mag/cell
     absolute magnetization    =    11.17 Bohr mag/cell

     iteration # 74     ecut=    60.00 Ry     beta= 0.30
     Davidson diagonalization with overlap
     ethr =  2.99E-09,  avg # of iterations =  9.6

     total cpu time spent up to now is     9593.6 secs

     total energy              =   -4133.52334421 Ry
     estimated scf accuracy    <       0.00001293 Ry

     total magnetization       =     2.87 Bohr mag/cell
     absolute magnetization    =    10.82 Bohr mag/cell

     iteration # 75     ecut=    60.00 Ry     beta= 0.30
     Davidson diagonalization with overlap
     ethr =  2.99E-09,  avg # of iterations =  1.3

     total cpu time spent up to now is     9618.4 secs

     total energy              =   -4133.52297995 Ry
     estimated scf accuracy    <       0.00001152 Ry

     total magnetization       =     2.88 Bohr mag/cell
     absolute magnetization    =    10.82 Bohr mag/cell

     iteration # 76     ecut=    60.00 Ry     beta= 0.30
     Davidson diagonalization with overlap
     ethr =  2.99E-09,  avg # of iterations = 12.0

     total cpu time spent up to now is     9658.4 secs

     total energy              =   -4133.52343483 Ry
     estimated scf accuracy    <       0.00000747 Ry

     total magnetization       =     2.96 Bohr mag/cell
     absolute magnetization    =    10.23 Bohr mag/cell

     iteration # 77     ecut=    60.00 Ry     beta= 0.30
     Davidson diagonalization with overlap
     ethr =  2.99E-09,  avg # of iterations =  5.3

     total cpu time spent up to now is     9686.1 secs

     total energy              =   -4133.52308724 Ry
     estimated scf accuracy    <       0.00000680 Ry

     total magnetization       =     2.97 Bohr mag/cell
     absolute magnetization    =    10.18 Bohr mag/cell

     iteration # 78     ecut=    60.00 Ry     beta= 0.30
     Davidson diagonalization with overlap
     ethr =  2.98E-09,  avg # of iterations = 10.7

     total cpu time spent up to now is     9724.6 secs

     total energy              =   -4133.52322057 Ry
     estimated scf accuracy    <       0.00000973 Ry

     total magnetization       =     2.90 Bohr mag/cell
     absolute magnetization    =    10.65 Bohr mag/cell

     iteration # 79     ecut=    60.00 Ry     beta= 0.30
     Davidson diagonalization with overlap
     ethr =  2.98E-09,  avg # of iterations =  9.1

     total cpu time spent up to now is     9759.5 secs

     total energy              =   -4133.52263784 Ry
     estimated scf accuracy    <       0.00000993 Ry

     total magnetization       =     2.86 Bohr mag/cell
     absolute magnetization    =    10.93 Bohr mag/cell

     iteration # 80     ecut=    60.00 Ry     beta= 0.30
     Davidson diagonalization with overlap
     ethr =  2.98E-09,  avg # of iterations = 12.1

     total cpu time spent up to now is     9800.2 secs

     total energy              =   -4133.52197932 Ry
     estimated scf accuracy    <       0.00001737 Ry

     total magnetization       =     2.98 Bohr mag/cell
     absolute magnetization    =    10.14 Bohr mag/cell

     iteration # 81     ecut=    60.00 Ry     beta= 0.30
     Davidson diagonalization with overlap
     ethr =  2.98E-09,  avg # of iterations = 11.9

     total cpu time spent up to now is     9841.1 secs

     total energy              =   -4133.51697449 Ry
     estimated scf accuracy    <       0.00001033 Ry

     total magnetization       =     2.83 Bohr mag/cell
     absolute magnetization    =    11.14 Bohr mag/cell

     iteration # 82     ecut=    60.00 Ry     beta= 0.30
     Davidson diagonalization with overlap
     c_bands:  3 eigenvalues not converged
     c_bands:  1 eigenvalues not converged
     c_bands:  1 eigenvalues not converged
     c_bands:  1 eigenvalues not converged
     c_bands:  1 eigenvalues not converged
     c_bands:  1 eigenvalues not converged
     c_bands:  1 eigenvalues not converged
     c_bands:  1 eigenvalues not converged
     c_bands:  2 eigenvalues not converged
     c_bands:  2 eigenvalues not converged
     c_bands:  1 eigenvalues not converged
     c_bands:  1 eigenvalues not converged
     c_bands:  4 eigenvalues not converged
     c_bands:  1 eigenvalues not converged
     c_bands:  1 eigenvalues not converged
     c_bands:  1 eigenvalues not converged
     c_bands:  1 eigenvalues not converged
     c_bands:  4 eigenvalues not converged
     ethr =  2.98E-09,  avg # of iterations = 17.5

     total cpu time spent up to now is     9890.1 secs

     total energy              =   -4133.52240087 Ry
     estimated scf accuracy    <       0.00000570 Ry

     total magnetization       =     3.16 Bohr mag/cell
     absolute magnetization    =     8.88 Bohr mag/cell

     iteration # 83     ecut=    60.00 Ry     beta= 0.30
     Davidson diagonalization with overlap
     ethr =  2.50E-09,  avg # of iterations = 12.2

     total cpu time spent up to now is     9931.6 secs

     total energy              =   -4133.52329833 Ry
     estimated scf accuracy    <       0.00000811 Ry

     total magnetization       =     3.30 Bohr mag/cell
     absolute magnetization    =     7.88 Bohr mag/cell

     iteration # 84     ecut=    60.00 Ry     beta= 0.30
     Davidson diagonalization with overlap
     ethr =  2.50E-09,  avg # of iterations = 11.9

     total cpu time spent up to now is     9970.4 secs

     total energy              =   -4133.52348061 Ry
     estimated scf accuracy    <       0.00000736 Ry

     total magnetization       =     3.23 Bohr mag/cell
     absolute magnetization    =     8.40 Bohr mag/cell

     iteration # 85     ecut=    60.00 Ry     beta= 0.30
     Davidson diagonalization with overlap
     ethr =  2.50E-09,  avg # of iterations =  9.4

     total cpu time spent up to now is    10007.3 secs

     total energy              =   -4133.52341579 Ry
     estimated scf accuracy    <       0.00000808 Ry

     total magnetization       =     3.18 Bohr mag/cell
     absolute magnetization    =     8.73 Bohr mag/cell

     iteration # 86     ecut=    60.00 Ry     beta= 0.30
     Davidson diagonalization with overlap
     ethr =  2.50E-09,  avg # of iterations = 11.2

     total cpu time spent up to now is    10045.3 secs

     total energy              =   -4133.52367637 Ry
     estimated scf accuracy    <       0.00000818 Ry

     total magnetization       =     3.25 Bohr mag/cell
     absolute magnetization    =     8.28 Bohr mag/cell

     iteration # 87     ecut=    60.00 Ry     beta= 0.30
     Davidson diagonalization with overlap
     ethr =  2.50E-09,  avg # of iterations =  5.0

     total cpu time spent up to now is    10073.3 secs

     total energy              =   -4133.52309341 Ry
     estimated scf accuracy    <       0.00001253 Ry

     total magnetization       =     3.24 Bohr mag/cell
     absolute magnetization    =     8.31 Bohr mag/cell

     iteration # 88     ecut=    60.00 Ry     beta= 0.30
     Davidson diagonalization with overlap
     c_bands:  1 eigenvalues not converged
     c_bands:  1 eigenvalues not converged
     ethr =  2.50E-09,  avg # of iterations = 12.1

     total cpu time spent up to now is    10114.0 secs

     total energy              =   -4133.52368001 Ry
     estimated scf accuracy    <       0.00001040 Ry

     total magnetization       =     3.34 Bohr mag/cell
     absolute magnetization    =     7.61 Bohr mag/cell

     iteration # 89     ecut=    60.00 Ry     beta= 0.30
     Davidson diagonalization with overlap
     ethr =  2.50E-09,  avg # of iterations =  9.8

     total cpu time spent up to now is    10150.0 secs

     total energy              =   -4133.50481727 Ry
     estimated scf accuracy    <       0.00001266 Ry

     total magnetization       =     3.39 Bohr mag/cell
     absolute magnetization    =     7.28 Bohr mag/cell

     iteration # 90     ecut=    60.00 Ry     beta= 0.30
     Davidson diagonalization with overlap
     c_bands:  1 eigenvalues not converged
     c_bands:  3 eigenvalues not converged
     c_bands:  1 eigenvalues not converged
     c_bands:  3 eigenvalues not converged
     c_bands:  5 eigenvalues not converged
     c_bands:  3 eigenvalues not converged
     c_bands:  4 eigenvalues not converged
     c_bands:  2 eigenvalues not converged
     c_bands:  1 eigenvalues not converged
     c_bands:  3 eigenvalues not converged
     c_bands:  3 eigenvalues not converged
     c_bands:  5 eigenvalues not converged
     c_bands:  3 eigenvalues not converged
     c_bands:  3 eigenvalues not converged
     c_bands:  3 eigenvalues not converged
     c_bands:  2 eigenvalues not converged
     c_bands:  1 eigenvalues not converged
     c_bands:  5 eigenvalues not converged
     c_bands:  3 eigenvalues not converged
     c_bands:  2 eigenvalues not converged
     c_bands:  2 eigenvalues not converged
     c_bands:  1 eigenvalues not converged
     c_bands:  2 eigenvalues not converged
     c_bands:  4 eigenvalues not converged
     c_bands:  1 eigenvalues not converged
     c_bands:  4 eigenvalues not converged
     c_bands:  1 eigenvalues not converged
     c_bands:  2 eigenvalues not converged
     c_bands:  4 eigenvalues not converged
     c_bands:  1 eigenvalues not converged
     c_bands:  1 eigenvalues not converged
     c_bands:  1 eigenvalues not converged
     ethr =  2.50E-09,  avg # of iterations = 18.9

     total cpu time spent up to now is    10202.3 secs

     total energy              =   -4133.52292164 Ry
     estimated scf accuracy    <       0.00001400 Ry

     total magnetization       =     2.86 Bohr mag/cell
     absolute magnetization    =    10.99 Bohr mag/cell

     iteration # 91     ecut=    60.00 Ry     beta= 0.30
     Davidson diagonalization with overlap
     ethr =  2.50E-09,  avg # of iterations = 12.3

     total cpu time spent up to now is    10242.2 secs

     total energy              =   -4133.51984385 Ry
     estimated scf accuracy    <       0.00000864 Ry

     total magnetization       =     2.95 Bohr mag/cell
     absolute magnetization    =    10.38 Bohr mag/cell

     iteration # 92     ecut=    60.00 Ry     beta= 0.30
     Davidson diagonalization with overlap
     c_bands:  1 eigenvalues not converged
     ethr =  2.50E-09,  avg # of iterations = 14.3

     total cpu time spent up to now is    10286.0 secs

     total energy              =   -4133.48565279 Ry
     estimated scf accuracy    <       0.00003294 Ry

     total magnetization       =     2.72 Bohr mag/cell
     absolute magnetization    =    11.95 Bohr mag/cell

     iteration # 93     ecut=    60.00 Ry     beta= 0.30
     Davidson diagonalization with overlap
     c_bands:  1 eigenvalues not converged
     c_bands:  1 eigenvalues not converged
     c_bands:  1 eigenvalues not converged
     c_bands:  4 eigenvalues not converged
     c_bands:  4 eigenvalues not converged
     c_bands:  1 eigenvalues not converged
     c_bands:  2 eigenvalues not converged
     c_bands:  1 eigenvalues not converged
     c_bands:  2 eigenvalues not converged
     c_bands:  1 eigenvalues not converged
     c_bands:  2 eigenvalues not converged
     c_bands:  3 eigenvalues not converged
     c_bands:  2 eigenvalues not converged
     c_bands:  3 eigenvalues not converged
     c_bands:  3 eigenvalues not converged
     c_bands:  4 eigenvalues not converged
     c_bands:  1 eigenvalues not converged
     c_bands:  2 eigenvalues not converged
     c_bands:  2 eigenvalues not converged
     c_bands:  1 eigenvalues not converged
     c_bands:  3 eigenvalues not converged
     c_bands:  3 eigenvalues not converged
     c_bands:  2 eigenvalues not converged
     c_bands:  3 eigenvalues not converged
     c_bands:  1 eigenvalues not converged
     c_bands:  5 eigenvalues not converged
     c_bands:  2 eigenvalues not converged
     c_bands:  2 eigenvalues not converged
     c_bands:  1 eigenvalues not converged
     c_bands:  1 eigenvalues not converged
     c_bands:  5 eigenvalues not converged
     c_bands:  2 eigenvalues not converged
     c_bands:  3 eigenvalues not converged
     c_bands:  1 eigenvalues not converged
     c_bands:  2 eigenvalues not converged
     c_bands:  2 eigenvalues not converged
     c_bands:  2 eigenvalues not converged
     c_bands:  4 eigenvalues not converged
     c_bands:  1 eigenvalues not converged
     ethr =  2.50E-09,  avg # of iterations = 20.1

     total cpu time spent up to now is    10341.9 secs

     total energy              =   -4133.46248264 Ry
     estimated scf accuracy    <       0.00102281 Ry

     total magnetization       =     2.06 Bohr mag/cell
     absolute magnetization    =    16.81 Bohr mag/cell

     iteration # 94     ecut=    60.00 Ry     beta= 0.30
     Davidson diagonalization with overlap
     c_bands:  1 eigenvalues not converged
     c_bands:  3 eigenvalues not converged
     c_bands:  1 eigenvalues not converged
     c_bands:  5 eigenvalues not converged
     c_bands:  4 eigenvalues not converged
     c_bands:  4 eigenvalues not converged
     c_bands:  2 eigenvalues not converged
     c_bands:  4 eigenvalues not converged
     c_bands:  1 eigenvalues not converged
     c_bands:  1 eigenvalues not converged
     c_bands:  3 eigenvalues not converged
     c_bands:  4 eigenvalues not converged
     c_bands:  3 eigenvalues not converged
     c_bands:  3 eigenvalues not converged
     c_bands:  3 eigenvalues not converged
     c_bands:  5 eigenvalues not converged
     c_bands:  2 eigenvalues not converged
     c_bands:  1 eigenvalues not converged
     c_bands:  5 eigenvalues not converged
     c_bands:  3 eigenvalues not converged
     c_bands:  1 eigenvalues not converged
     c_bands:  3 eigenvalues not converged
     c_bands:  2 eigenvalues not converged
     c_bands:  3 eigenvalues not converged
     c_bands:  3 eigenvalues not converged
     c_bands:  2 eigenvalues not converged
     ethr =  2.50E-09,  avg # of iterations = 22.4

     total cpu time spent up to now is    10403.3 secs

     total energy              =   -4133.52205765 Ry
     estimated scf accuracy    <       0.00000834 Ry

     total magnetization       =     2.99 Bohr mag/cell
     absolute magnetization    =    10.05 Bohr mag/cell

     iteration # 95     ecut=    60.00 Ry     beta= 0.30
     Davidson diagonalization with overlap
     ethr =  2.50E-09,  avg # of iterations = 12.2

     total cpu time spent up to now is    10444.2 secs

     total energy              =   -4133.51601488 Ry
     estimated scf accuracy    <       0.00001417 Ry

     total magnetization       =     2.85 Bohr mag/cell
     absolute magnetization    =    11.03 Bohr mag/cell

     iteration # 96     ecut=    60.00 Ry     beta= 0.30
     Davidson diagonalization with overlap
     c_bands:  3 eigenvalues not converged
     c_bands:  1 eigenvalues not converged
     c_bands:  1 eigenvalues not converged
     c_bands:  1 eigenvalues not converged
     c_bands:  1 eigenvalues not converged
     c_bands:  1 eigenvalues not converged
     c_bands:  1 eigenvalues not converged
     c_bands:  1 eigenvalues not converged
     c_bands:  1 eigenvalues not converged
     c_bands:  2 eigenvalues not converged
     c_bands:  2 eigenvalues not converged
     c_bands:  1 eigenvalues not converged
     c_bands:  1 eigenvalues not converged
     c_bands:  1 eigenvalues not converged
     c_bands:  2 eigenvalues not converged
     c_bands:  2 eigenvalues not converged
     c_bands:  2 eigenvalues not converged
     ethr =  2.50E-09,  avg # of iterations = 17.9

     total cpu time spent up to now is    10494.3 secs

     total energy              =   -4133.52245377 Ry
     estimated scf accuracy    <       0.00008588 Ry

     total magnetization       =     2.53 Bohr mag/cell
     absolute magnetization    =    13.26 Bohr mag/cell

     iteration # 97     ecut=    60.00 Ry     beta= 0.30
     Davidson diagonalization with overlap
     c_bands:  2 eigenvalues not converged
     ethr =  2.50E-09,  avg # of iterations =  9.4

     total cpu time spent up to now is    10529.5 secs

     total energy              =   -4133.49345102 Ry
     estimated scf accuracy    <       0.00010565 Ry

     total magnetization       =     2.49 Bohr mag/cell
     absolute magnetization    =    13.53 Bohr mag/cell

     iteration # 98     ecut=    60.00 Ry     beta= 0.30
     Davidson diagonalization with overlap
     c_bands:  1 eigenvalues not converged
     c_bands:  3 eigenvalues not converged
     c_bands:  1 eigenvalues not converged
     c_bands:  1 eigenvalues not converged
     c_bands:  3 eigenvalues not converged
     c_bands:  3 eigenvalues not converged
     c_bands:  4 eigenvalues not converged
     c_bands:  1 eigenvalues not converged
     c_bands:  3 eigenvalues not converged
     c_bands:  1 eigenvalues not converged
     c_bands:  3 eigenvalues not converged
     c_bands:  1 eigenvalues not converged
     c_bands:  3 eigenvalues not converged
     c_bands:  3 eigenvalues not converged
     c_bands:  4 eigenvalues not converged
     c_bands:  3 eigenvalues not converged
     c_bands:  5 eigenvalues not converged
     c_bands:  1 eigenvalues not converged
     c_bands:  2 eigenvalues not converged
     c_bands:  5 eigenvalues not converged
     c_bands:  3 eigenvalues not converged
     c_bands:  1 eigenvalues not converged
     c_bands:  3 eigenvalues not converged
     c_bands:  5 eigenvalues not converged
     c_bands:  4 eigenvalues not converged
     c_bands:  5 eigenvalues not converged
     c_bands:  1 eigenvalues not converged
     c_bands:  4 eigenvalues not converged
     c_bands:  1 eigenvalues not converged
     c_bands:  1 eigenvalues not converged
     c_bands:  2 eigenvalues not converged
     c_bands:  1 eigenvalues not converged
     c_bands:  2 eigenvalues not converged
     c_bands:  1 eigenvalues not converged
     c_bands:  3 eigenvalues not converged
     c_bands:  4 eigenvalues not converged
     c_bands:  4 eigenvalues not converged
     c_bands:  5 eigenvalues not converged
     c_bands:  5 eigenvalues not converged
     c_bands:  1 eigenvalues not converged
     ethr =  2.50E-09,  avg # of iterations = 18.9

     total cpu time spent up to now is    10583.3 secs

     total energy              =   -4133.52083762 Ry
     estimated scf accuracy    <       0.00001408 Ry

     total magnetization       =     3.18 Bohr mag/cell
     absolute magnetization    =     8.71 Bohr mag/cell

     iteration # 99     ecut=    60.00 Ry     beta= 0.30
     Davidson diagonalization with overlap
     ethr =  2.50E-09,  avg # of iterations = 13.7

     total cpu time spent up to now is    10627.2 secs

     total energy              =   -4133.52344867 Ry
     estimated scf accuracy    <       0.00001287 Ry

     total magnetization       =     2.98 Bohr mag/cell
     absolute magnetization    =    10.12 Bohr mag/cell

     iteration #100     ecut=    60.00 Ry     beta= 0.30
     Davidson diagonalization with overlap
     ethr =  2.50E-09,  avg # of iterations =  5.1

     total cpu time spent up to now is    10656.4 secs

     total energy              =   -4133.52332979 Ry
     estimated scf accuracy    <       0.00001266 Ry

     total magnetization       =     2.99 Bohr mag/cell
     absolute magnetization    =    10.06 Bohr mag/cell

     iteration #101     ecut=    60.00 Ry     beta= 0.30
     Davidson diagonalization with overlap
     ethr =  2.50E-09,  avg # of iterations =  8.6

     total cpu time spent up to now is    10691.8 secs

     total energy              =   -4133.52331464 Ry
     estimated scf accuracy    <       0.00001270 Ry

     total magnetization       =     2.95 Bohr mag/cell
     absolute magnetization    =    10.32 Bohr mag/cell

     iteration #102     ecut=    60.00 Ry     beta= 0.30
     Davidson diagonalization with overlap
     ethr =  2.50E-09,  avg # of iterations =  8.7

     total cpu time spent up to now is    10726.8 secs

     total energy              =   -4133.52333541 Ry
     estimated scf accuracy    <       0.00001328 Ry

     total magnetization       =     2.92 Bohr mag/cell
     absolute magnetization    =    10.55 Bohr mag/cell

     iteration #103     ecut=    60.00 Ry     beta= 0.30
     Davidson diagonalization with overlap
     ethr =  2.50E-09,  avg # of iterations =  8.8

     total cpu time spent up to now is    10761.6 secs

     total energy              =   -4133.52342592 Ry
     estimated scf accuracy    <       0.00000910 Ry

     total magnetization       =     2.96 Bohr mag/cell
     absolute magnetization    =    10.29 Bohr mag/cell

     iteration #104     ecut=    60.00 Ry     beta= 0.30
     Davidson diagonalization with overlap
     ethr =  2.50E-09,  avg # of iterations =  4.9

     total cpu time spent up to now is    10789.3 secs

     total energy              =   -4133.52338734 Ry
     estimated scf accuracy    <       0.00000689 Ry

     total magnetization       =     2.96 Bohr mag/cell
     absolute magnetization    =    10.26 Bohr mag/cell

     iteration #105     ecut=    60.00 Ry     beta= 0.30
     Davidson diagonalization with overlap
     ethr =  2.50E-09,  avg # of iterations =  6.4

     total cpu time spent up to now is    10819.9 secs

     total energy              =   -4133.52324443 Ry
     estimated scf accuracy    <       0.00001059 Ry

     total magnetization       =     2.94 Bohr mag/cell
     absolute magnetization    =    10.39 Bohr mag/cell

     iteration #106     ecut=    60.00 Ry     beta= 0.30
     Davidson diagonalization with overlap
     ethr =  2.50E-09,  avg # of iterations = 10.4

     total cpu time spent up to now is    10857.9 secs

     total energy              =   -4133.52284457 Ry
     estimated scf accuracy    <       0.00000603 Ry

     total magnetization       =     3.01 Bohr mag/cell
     absolute magnetization    =     9.98 Bohr mag/cell

     iteration #107     ecut=    60.00 Ry     beta= 0.30
     Davidson diagonalization with overlap
     ethr =  2.50E-09,  avg # of iterations = 12.3

     total cpu time spent up to now is    10899.0 secs

     total energy              =   -4133.51817119 Ry
     estimated scf accuracy    <       0.00000502 Ry

     total magnetization       =     3.12 Bohr mag/cell
     absolute magnetization    =     9.24 Bohr mag/cell

     iteration #108     ecut=    60.00 Ry     beta= 0.30
     Davidson diagonalization with overlap
     c_bands:  5 eigenvalues not converged
     c_bands:  2 eigenvalues not converged
     c_bands:  3 eigenvalues not converged
     c_bands:  2 eigenvalues not converged
     c_bands:  2 eigenvalues not converged
     c_bands:  1 eigenvalues not converged
     c_bands:  1 eigenvalues not converged
     c_bands:  2 eigenvalues not converged
     c_bands:  1 eigenvalues not converged
     c_bands:  2 eigenvalues not converged
     c_bands:  2 eigenvalues not converged
     c_bands:  1 eigenvalues not converged
     c_bands:  4 eigenvalues not converged
     c_bands:  1 eigenvalues not converged
     c_bands:  1 eigenvalues not converged
     c_bands:  2 eigenvalues not converged
     ethr =  2.20E-09,  avg # of iterations = 17.9

     total cpu time spent up to now is    10948.8 secs

     total energy              =   -4133.52211282 Ry
     estimated scf accuracy    <       0.00002084 Ry

     total magnetization       =     3.42 Bohr mag/cell
     absolute magnetization    =     7.21 Bohr mag/cell

     iteration #109     ecut=    60.00 Ry     beta= 0.30
     Davidson diagonalization with overlap
     c_bands:  1 eigenvalues not converged
     c_bands:  1 eigenvalues not converged
     c_bands:  1 eigenvalues not converged
     c_bands:  1 eigenvalues not converged
     c_bands:  1 eigenvalues not converged
     c_bands:  1 eigenvalues not converged
     ethr =  2.20E-09,  avg # of iterations = 13.7

     total cpu time spent up to now is    10991.6 secs

     total energy              =   -4133.50287505 Ry
     estimated scf accuracy    <       0.00004827 Ry

     total magnetization       =     3.57 Bohr mag/cell
     absolute magnetization    =     6.22 Bohr mag/cell

     iteration #110     ecut=    60.00 Ry     beta= 0.30
     Davidson diagonalization with overlap
     c_bands:  1 eigenvalues not converged
     c_bands:  1 eigenvalues not converged
     c_bands:  3 eigenvalues not converged
     c_bands:  3 eigenvalues not converged
     c_bands:  3 eigenvalues not converged
     c_bands:  3 eigenvalues not converged
     c_bands:  2 eigenvalues not converged
     c_bands:  1 eigenvalues not converged
     c_bands:  1 eigenvalues not converged
     c_bands:  1 eigenvalues not converged
     c_bands:  3 eigenvalues not converged
     c_bands:  3 eigenvalues not converged
     c_bands:  4 eigenvalues not converged
     c_bands:  2 eigenvalues not converged
     c_bands:  3 eigenvalues not converged
     c_bands:  3 eigenvalues not converged
     c_bands:  1 eigenvalues not converged
     c_bands:  2 eigenvalues not converged
     c_bands:  1 eigenvalues not converged
     c_bands:  5 eigenvalues not converged
     c_bands:  1 eigenvalues not converged
     c_bands:  2 eigenvalues not converged
     c_bands:  1 eigenvalues not converged
     c_bands:  4 eigenvalues not converged
     c_bands:  1 eigenvalues not converged
     c_bands:  2 eigenvalues not converged
     c_bands:  1 eigenvalues not converged
     c_bands:  1 eigenvalues not converged
     c_bands:  2 eigenvalues not converged
     c_bands:  3 eigenvalues not converged
     c_bands:  1 eigenvalues not converged
     c_bands:  2 eigenvalues not converged
     c_bands:  2 eigenvalues not converged
     ethr =  2.20E-09,  avg # of iterations = 18.9

     total cpu time spent up to now is    11044.2 secs

     total energy              =   -4133.52338130 Ry
     estimated scf accuracy    <       0.00001255 Ry

     total magnetization       =     3.03 Bohr mag/cell
     absolute magnetization    =     9.89 Bohr mag/cell

     iteration #111     ecut=    60.00 Ry     beta= 0.30
     Davidson diagonalization with overlap
     ethr =  2.20E-09,  avg # of iterations =  9.5

     total cpu time spent up to now is    11080.1 secs

     total energy              =   -4133.52345075 Ry
     estimated scf accuracy    <       0.00001446 Ry

     total magnetization       =     3.00 Bohr mag/cell
     absolute magnetization    =    10.11 Bohr mag/cell

     iteration #112     ecut=    60.00 Ry     beta= 0.30
     Davidson diagonalization with overlap
     ethr =  2.20E-09,  avg # of iterations =  4.8

     total cpu time spent up to now is    11107.3 secs

     total energy              =   -4133.52330521 Ry
     estimated scf accuracy    <       0.00001313 Ry

     total magnetization       =     3.00 Bohr mag/cell
     absolute magnetization    =    10.08 Bohr mag/cell

     iteration #113     ecut=    60.00 Ry     beta= 0.30
     Davidson diagonalization with overlap
     ethr =  2.20E-09,  avg # of iterations = 10.6

     total cpu time spent up to now is    11144.9 secs

     total energy              =   -4133.51483345 Ry
     estimated scf accuracy    <       0.00000921 Ry

     total magnetization       =     3.05 Bohr mag/cell
     absolute magnetization    =     9.70 Bohr mag/cell

     iteration #114     ecut=    60.00 Ry     beta= 0.30
     Davidson diagonalization with overlap
     c_bands:  1 eigenvalues not converged
     c_bands:  2 eigenvalues not converged
     c_bands:  1 eigenvalues not converged
     c_bands:  1 eigenvalues not converged
     c_bands:  1 eigenvalues not converged
     c_bands:  2 eigenvalues not converged
     c_bands:  1 eigenvalues not converged
     c_bands:  1 eigenvalues not converged
     c_bands:  2 eigenvalues not converged
     c_bands:  2 eigenvalues not converged
     c_bands:  1 eigenvalues not converged
     c_bands:  1 eigenvalues not converged
     c_bands:  3 eigenvalues not converged
     c_bands:  2 eigenvalues not converged
     c_bands:  2 eigenvalues not converged
     c_bands:  1 eigenvalues not converged
     c_bands:  4 eigenvalues not converged
     c_bands:  3 eigenvalues not converged
     c_bands:  2 eigenvalues not converged
     c_bands:  2 eigenvalues not converged
     c_bands:  4 eigenvalues not converged
     ethr =  2.20E-09,  avg # of iterations = 18.6

     total cpu time spent up to now is    11196.8 secs

     total energy              =   -4133.52303183 Ry
     estimated scf accuracy    <       0.00000881 Ry

     total magnetization       =     3.42 Bohr mag/cell
     absolute magnetization    =     7.12 Bohr mag/cell

     iteration #115     ecut=    60.00 Ry     beta= 0.30
     Davidson diagonalization with overlap
     c_bands:  1 eigenvalues not converged
     ethr =  2.20E-09,  avg # of iterations = 12.3

     total cpu time spent up to now is    11239.8 secs

     total energy              =   -4133.52402875 Ry
     estimated scf accuracy    <       0.00001984 Ry

     total magnetization       =     3.53 Bohr mag/cell
     absolute magnetization    =     6.39 Bohr mag/cell

     iteration #116     ecut=    60.00 Ry     beta= 0.30
     Davidson diagonalization with overlap
     ethr =  2.20E-09,  avg # of iterations =  5.1

     total cpu time spent up to now is    11269.5 secs

     total energy              =   -4133.52180600 Ry
     estimated scf accuracy    <       0.00001729 Ry

     total magnetization       =     3.52 Bohr mag/cell
     absolute magnetization    =     6.42 Bohr mag/cell

     iteration #117     ecut=    60.00 Ry     beta= 0.30
     Davidson diagonalization with overlap
     c_bands:  1 eigenvalues not converged
     c_bands:  1 eigenvalues not converged
     ethr =  2.20E-09,  avg # of iterations = 13.8

     total cpu time spent up to now is    11312.9 secs

     total energy              =   -4133.51174177 Ry
     estimated scf accuracy    <       0.00006653 Ry

     total magnetization       =     3.69 Bohr mag/cell
     absolute magnetization    =     5.53 Bohr mag/cell

     iteration #118     ecut=    60.00 Ry     beta= 0.30
     Davidson diagonalization with overlap
     c_bands:  2 eigenvalues not converged
     c_bands:  1 eigenvalues not converged
     c_bands:  5 eigenvalues not converged
     c_bands:  2 eigenvalues not converged
     c_bands:  1 eigenvalues not converged
     c_bands:  1 eigenvalues not converged
     c_bands:  4 eigenvalues not converged
     c_bands:  1 eigenvalues not converged
     c_bands:  1 eigenvalues not converged
     c_bands:  2 eigenvalues not converged
     c_bands:  1 eigenvalues not converged
     c_bands:  1 eigenvalues not converged
     c_bands:  4 eigenvalues not converged
     c_bands:  1 eigenvalues not converged
     c_bands:  2 eigenvalues not converged
     c_bands:  4 eigenvalues not converged
     c_bands:  3 eigenvalues not converged
     c_bands:  4 eigenvalues not converged
     c_bands:  2 eigenvalues not converged
     c_bands:  2 eigenvalues not converged
     c_bands:  4 eigenvalues not converged
     ethr =  2.20E-09,  avg # of iterations = 18.5

     total cpu time spent up to now is    11364.5 secs

     total energy              =   -4133.50730851 Ry
     estimated scf accuracy    <       0.00001191 Ry

     total magnetization       =     3.32 Bohr mag/cell
     absolute magnetization    =     7.86 Bohr mag/cell

     iteration #119     ecut=    60.00 Ry     beta= 0.30
     Davidson diagonalization with overlap
     c_bands:  1 eigenvalues not converged
     c_bands:  1 eigenvalues not converged
     c_bands:  1 eigenvalues not converged
     c_bands:  2 eigenvalues not converged
     c_bands:  1 eigenvalues not converged
     c_bands:  3 eigenvalues not converged
     c_bands:  1 eigenvalues not converged
     c_bands:  3 eigenvalues not converged
     c_bands:  2 eigenvalues not converged
     c_bands:  1 eigenvalues not converged
     c_bands:  1 eigenvalues not converged
     c_bands:  1 eigenvalues not converged
     c_bands:  1 eigenvalues not converged
     c_bands:  1 eigenvalues not converged
     c_bands:  2 eigenvalues not converged
     c_bands:  2 eigenvalues not converged
     c_bands:  2 eigenvalues not converged
     c_bands:  5 eigenvalues not converged
     c_bands:  2 eigenvalues not converged
     c_bands:  1 eigenvalues not converged
     c_bands:  2 eigenvalues not converged
     c_bands:  2 eigenvalues not converged
     c_bands:  3 eigenvalues not converged
     c_bands:  3 eigenvalues not converged
     c_bands:  1 eigenvalues not converged
     c_bands:  2 eigenvalues not converged
     c_bands:  4 eigenvalues not converged
     c_bands:  2 eigenvalues not converged
     c_bands:  1 eigenvalues not converged
     c_bands:  4 eigenvalues not converged
     c_bands:  1 eigenvalues not converged
     c_bands:  3 eigenvalues not converged
     c_bands:  3 eigenvalues not converged
     c_bands:  4 eigenvalues not converged
     c_bands:  3 eigenvalues not converged
     ethr =  2.20E-09,  avg # of iterations = 18.9

     total cpu time spent up to now is    11417.5 secs

     total energy              =   -4133.52274603 Ry
     estimated scf accuracy    <       0.00012594 Ry

     total magnetization       =     3.76 Bohr mag/cell
     absolute magnetization    =     5.27 Bohr mag/cell

     iteration #120     ecut=    60.00 Ry     beta= 0.30
     Davidson diagonalization with overlap
     ethr =  2.20E-09,  avg # of iterations = 12.5

     total cpu time spent up to now is    11459.1 secs

     total energy              =   -4133.46211699 Ry
     estimated scf accuracy    <       0.00005031 Ry

     total magnetization       =     3.64 Bohr mag/cell
     absolute magnetization    =     5.78 Bohr mag/cell

     iteration #121     ecut=    60.00 Ry     beta= 0.30
     Davidson diagonalization with overlap
     c_bands:  1 eigenvalues not converged
     c_bands:  4 eigenvalues not converged
     c_bands:  2 eigenvalues not converged
     c_bands:  2 eigenvalues not converged
     c_bands:  4 eigenvalues not converged
     c_bands:  4 eigenvalues not converged
     c_bands:  5 eigenvalues not converged
     c_bands:  2 eigenvalues not converged
     c_bands:  1 eigenvalues not converged
     c_bands:  2 eigenvalues not converged
     c_bands:  4 eigenvalues not converged
     c_bands:  5 eigenvalues not converged
     c_bands:  2 eigenvalues not converged
     c_bands:  2 eigenvalues not converged
     c_bands:  1 eigenvalues not converged
     c_bands:  5 eigenvalues not converged
     c_bands:  2 eigenvalues not converged
     c_bands:  5 eigenvalues not converged
     c_bands:  4 eigenvalues not converged
     c_bands:  2 eigenvalues not converged
     c_bands:  1 eigenvalues not converged
     c_bands:  2 eigenvalues not converged
     c_bands:  4 eigenvalues not converged
     c_bands:  5 eigenvalues not converged
     c_bands:  3 eigenvalues not converged
     c_bands:  1 eigenvalues not converged
     c_bands:  5 eigenvalues not converged
     c_bands:  2 eigenvalues not converged
     c_bands:  4 eigenvalues not converged
     ethr =  2.20E-09,  avg # of iterations = 24.6

     total cpu time spent up to now is    11522.5 secs

     total energy              =   -4133.52297290 Ry
     estimated scf accuracy    <       0.00004653 Ry

     total magnetization       =     2.71 Bohr mag/cell
     absolute magnetization    =    12.08 Bohr mag/cell

     iteration #122     ecut=    60.00 Ry     beta= 0.30
     Davidson diagonalization with overlap
     c_bands:  1 eigenvalues not converged
     c_bands:  1 eigenvalues not converged
     c_bands:  1 eigenvalues not converged
     c_bands:  1 eigenvalues not converged
     c_bands:  1 eigenvalues not converged
     c_bands:  1 eigenvalues not converged
     ethr =  2.20E-09,  avg # of iterations = 10.7

     total cpu time spent up to now is    11558.9 secs

     total energy              =   -4133.52188628 Ry
     estimated scf accuracy    <       0.00005150 Ry

     total magnetization       =     2.68 Bohr mag/cell
     absolute magnetization    =    12.28 Bohr mag/cell

     iteration #123     ecut=    60.00 Ry     beta= 0.30
     Davidson diagonalization with overlap
     ethr =  2.20E-09,  avg # of iterations = 12.2

     total cpu time spent up to now is    11599.4 secs

     total energy              =   -4133.50310148 Ry
     estimated scf accuracy    <       0.00002830 Ry

     total magnetization       =     2.83 Bohr mag/cell
     absolute magnetization    =    11.26 Bohr mag/cell

     iteration #124     ecut=    60.00 Ry     beta= 0.30
     Davidson diagonalization with overlap
     c_bands:  1 eigenvalues not converged
     c_bands:  1 eigenvalues not converged
     c_bands:  3 eigenvalues not converged
     c_bands:  1 eigenvalues not converged
     c_bands:  1 eigenvalues not converged
     c_bands:  3 eigenvalues not converged
     c_bands:  3 eigenvalues not converged
     c_bands:  4 eigenvalues not converged
     c_bands:  5 eigenvalues not converged
     c_bands:  3 eigenvalues not converged
     c_bands:  1 eigenvalues not converged
     c_bands:  1 eigenvalues not converged
     c_bands:  2 eigenvalues not converged
     c_bands:  3 eigenvalues not converged
     c_bands:  4 eigenvalues not converged
     c_bands:  4 eigenvalues not converged
     c_bands:  4 eigenvalues not converged
     c_bands:  4 eigenvalues not converged
     c_bands:  3 eigenvalues not converged
     c_bands:  2 eigenvalues not converged
     c_bands:  2 eigenvalues not converged
     c_bands:  1 eigenvalues not converged
     c_bands:  4 eigenvalues not converged
     c_bands:  3 eigenvalues not converged
     c_bands:  1 eigenvalues not converged
     c_bands:  2 eigenvalues not converged
     c_bands:  4 eigenvalues not converged
     c_bands:  5 eigenvalues not converged
     c_bands:  4 eigenvalues not converged
     c_bands:  5 eigenvalues not converged
     c_bands:  2 eigenvalues not converged
     c_bands:  3 eigenvalues not converged
     c_bands:  1 eigenvalues not converged
     c_bands:  4 eigenvalues not converged
     c_bands:  4 eigenvalues not converged
     c_bands:  4 eigenvalues not converged
     c_bands:  3 eigenvalues not converged
     c_bands:  3 eigenvalues not converged
     c_bands:  5 eigenvalues not converged
     ethr =  2.20E-09,  avg # of iterations = 18.9

     total cpu time spent up to now is    11652.2 secs

     total energy              =   -4133.52132622 Ry
     estimated scf accuracy    <       0.00001898 Ry

     total magnetization       =     3.40 Bohr mag/cell
     absolute magnetization    =     7.31 Bohr mag/cell

     iteration #125     ecut=    60.00 Ry     beta= 0.30
     Davidson diagonalization with overlap
     ethr =  2.20E-09,  avg # of iterations = 13.3

     total cpu time spent up to now is    11695.5 secs

     total energy              =   -4133.52022512 Ry
     estimated scf accuracy    <       0.00000930 Ry

     total magnetization       =     3.22 Bohr mag/cell
     absolute magnetization    =     8.59 Bohr mag/cell

     iteration #126     ecut=    60.00 Ry     beta= 0.30
     Davidson diagonalization with overlap
     c_bands:  2 eigenvalues not converged
     c_bands:  1 eigenvalues not converged
     c_bands:  1 eigenvalues not converged
     c_bands:  1 eigenvalues not converged
     c_bands:  1 eigenvalues not converged
     ethr =  2.20E-09,  avg # of iterations = 15.5

     total cpu time spent up to now is    11740.9 secs

     total energy              =   -4133.52360829 Ry
     estimated scf accuracy    <       0.00001734 Ry

     total magnetization       =     3.45 Bohr mag/cell
     absolute magnetization    =     6.99 Bohr mag/cell

     iteration #127     ecut=    60.00 Ry     beta= 0.30
     Davidson diagonalization with overlap
     c_bands:  1 eigenvalues not converged
     ethr =  2.20E-09,  avg # of iterations = 10.9

     total cpu time spent up to now is    11778.9 secs

     total energy              =   -4133.52308223 Ry
     estimated scf accuracy    <       0.00001445 Ry

     total magnetization       =     3.39 Bohr mag/cell
     absolute magnetization    =     7.36 Bohr mag/cell

     iteration #128     ecut=    60.00 Ry     beta= 0.30
     Davidson diagonalization with overlap
     ethr =  2.20E-09,  avg # of iterations = 12.1

     total cpu time spent up to now is    11819.7 secs

     total energy              =   -4133.52353599 Ry
     estimated scf accuracy    <       0.00001019 Ry

     total magnetization       =     3.30 Bohr mag/cell
     absolute magnetization    =     8.03 Bohr mag/cell

     iteration #129     ecut=    60.00 Ry     beta= 0.30
     Davidson diagonalization with overlap
     ethr =  2.20E-09,  avg # of iterations =  9.9

     total cpu time spent up to now is    11856.8 secs

     total energy              =   -4133.52367586 Ry
     estimated scf accuracy    <       0.00000884 Ry

     total magnetization       =     3.25 Bohr mag/cell
     absolute magnetization    =     8.35 Bohr mag/cell

     iteration #130     ecut=    60.00 Ry     beta= 0.30
     Davidson diagonalization with overlap
     ethr =  2.20E-09,  avg # of iterations =  5.8

     total cpu time spent up to now is    11887.6 secs

     total energy              =   -4133.52153896 Ry
     estimated scf accuracy    <       0.00000818 Ry

     total magnetization       =     3.27 Bohr mag/cell
     absolute magnetization    =     8.25 Bohr mag/cell

     iteration #131     ecut=    60.00 Ry     beta= 0.30
     Davidson diagonalization with overlap
     ethr =  2.20E-09,  avg # of iterations = 13.3

     total cpu time spent up to now is    11931.1 secs

     total energy              =   -4133.52307030 Ry
     estimated scf accuracy    <       0.00000489 Ry

     total magnetization       =     3.09 Bohr mag/cell
     absolute magnetization    =     9.47 Bohr mag/cell

     iteration #132     ecut=    60.00 Ry     beta= 0.30
     Davidson diagonalization with overlap
     ethr =  2.14E-09,  avg # of iterations = 12.2

     total cpu time spent up to now is    11970.8 secs

     total energy              =   -4133.51983131 Ry
     estimated scf accuracy    <       0.00000496 Ry

     total magnetization       =     3.01 Bohr mag/cell
     absolute magnetization    =    10.02 Bohr mag/cell

     iteration #133     ecut=    60.00 Ry     beta= 0.30
     Davidson diagonalization with overlap
     c_bands:  1 eigenvalues not converged
     c_bands:  1 eigenvalues not converged
     ethr =  2.14E-09,  avg # of iterations = 15.4

     total cpu time spent up to now is    12016.1 secs

     total energy              =   -4133.50376547 Ry
     estimated scf accuracy    <       0.00001653 Ry

     total magnetization       =     2.77 Bohr mag/cell
     absolute magnetization    =    11.61 Bohr mag/cell

     iteration #134     ecut=    60.00 Ry     beta= 0.30
     Davidson diagonalization with overlap
     c_bands:  1 eigenvalues not converged
     c_bands:  1 eigenvalues not converged
     c_bands:  3 eigenvalues not converged
     c_bands:  1 eigenvalues not converged
     c_bands:  1 eigenvalues not converged
     c_bands:  3 eigenvalues not converged
     c_bands:  4 eigenvalues not converged
     c_bands:  3 eigenvalues not converged
     c_bands:  4 eigenvalues not converged
     c_bands:  1 eigenvalues not converged
     c_bands:  1 eigenvalues not converged
     c_bands:  3 eigenvalues not converged
     c_bands:  3 eigenvalues not converged
     c_bands:  4 eigenvalues not converged
     c_bands:  4 eigenvalues not converged
     c_bands:  3 eigenvalues not converged
     c_bands:  4 eigenvalues not converged
     c_bands:  1 eigenvalues not converged
     c_bands:  2 eigenvalues not converged
     c_bands:  1 eigenvalues not converged
     c_bands:  3 eigenvalues not converged
     c_bands:  4 eigenvalues not converged
     c_bands:  2 eigenvalues not converged
     c_bands:  3 eigenvalues not converged
     c_bands:  2 eigenvalues not converged
     c_bands:  4 eigenvalues not converged
     c_bands:  2 eigenvalues not converged
     c_bands:  1 eigenvalues not converged
     c_bands:  1 eigenvalues not converged
     c_bands:  2 eigenvalues not converged
     c_bands:  3 eigenvalues not converged
     c_bands:  3 eigenvalues not converged
     c_bands:  3 eigenvalues not converged
     c_bands:  3 eigenvalues not converged
     c_bands:  4 eigenvalues not converged
     c_bands:  3 eigenvalues not converged
     ethr =  2.14E-09,  avg # of iterations = 18.8

     total cpu time spent up to now is    12068.2 secs

     total energy              =   -4133.51688479 Ry
     estimated scf accuracy    <       0.00000788 Ry

     total magnetization       =     3.34 Bohr mag/cell
     absolute magnetization    =     7.71 Bohr mag/cell

     iteration #135     ecut=    60.00 Ry     beta= 0.30
     Davidson diagonalization with overlap
     c_bands:  1 eigenvalues not converged
     c_bands:  2 eigenvalues not converged
     c_bands:  1 eigenvalues not converged
     c_bands:  2 eigenvalues not converged
     c_bands:  1 eigenvalues not converged
     c_bands:  1 eigenvalues not converged
     c_bands:  1 eigenvalues not converged
     c_bands:  1 eigenvalues not converged
     c_bands:  1 eigenvalues not converged
     c_bands:  3 eigenvalues not converged
     c_bands:  1 eigenvalues not converged
     c_bands:  1 eigenvalues not converged
     ethr =  2.14E-09,  avg # of iterations = 17.9

     total cpu time spent up to now is    12118.4 secs

     total energy              =   -4133.48456186 Ry
     estimated scf accuracy    <       0.00000515 Ry

     total magnetization       =     3.02 Bohr mag/cell
     absolute magnetization    =     9.93 Bohr mag/cell

     iteration #136     ecut=    60.00 Ry     beta= 0.30
     Davidson diagonalization with overlap
     c_bands:  3 eigenvalues not converged
     c_bands:  3 eigenvalues not converged
     c_bands:  1 eigenvalues not converged
     c_bands:  3 eigenvalues not converged
     c_bands:  1 eigenvalues not converged
     c_bands:  1 eigenvalues not converged
     c_bands:  5 eigenvalues not converged
     c_bands:  4 eigenvalues not converged
     c_bands:  3 eigenvalues not converged
     c_bands:  5 eigenvalues not converged
     c_bands:  1 eigenvalues not converged
     c_bands:  1 eigenvalues not converged
     c_bands:  2 eigenvalues not converged
     c_bands:  2 eigenvalues not converged
     c_bands:  1 eigenvalues not converged
     c_bands:  5 eigenvalues not converged
     c_bands:  2 eigenvalues not converged
     c_bands:  2 eigenvalues not converged
     c_bands:  2 eigenvalues not converged
     c_bands:  1 eigenvalues not converged
     c_bands:  5 eigenvalues not converged
     c_bands:  2 eigenvalues not converged
     c_bands:  2 eigenvalues not converged
     c_bands:  4 eigenvalues not converged
     c_bands:  4 eigenvalues not converged
     c_bands:  4 eigenvalues not converged
     c_bands:  1 eigenvalues not converged
     c_bands:  1 eigenvalues not converged
     c_bands:  4 eigenvalues not converged
     c_bands:  2 eigenvalues not converged
     c_bands:  3 eigenvalues not converged
     c_bands:  4 eigenvalues not converged
     c_bands:  3 eigenvalues not converged
     c_bands:  4 eigenvalues not converged
     c_bands:  4 eigenvalues not converged
     c_bands:  1 eigenvalues not converged
     ethr =  2.14E-09,  avg # of iterations = 21.4

     total cpu time spent up to now is    12177.4 secs

     total energy              =   -4133.52425160 Ry
     estimated scf accuracy    <       0.00014301 Ry

     total magnetization       =     3.76 Bohr mag/cell
     absolute magnetization    =     5.36 Bohr mag/cell

     iteration #137     ecut=    60.00 Ry     beta= 0.30
     Davidson diagonalization with overlap
     c_bands:  1 eigenvalues not converged
     c_bands:  1 eigenvalues not converged
     c_bands:  1 eigenvalues not converged
     ethr =  2.14E-09,  avg # of iterations = 12.8

     total cpu time spent up to now is    12218.7 secs

     total energy              =   -4133.52468956 Ry
     estimated scf accuracy    <       0.00019504 Ry

     total magnetization       =     3.82 Bohr mag/cell
     absolute magnetization    =     5.17 Bohr mag/cell

     iteration #138     ecut=    60.00 Ry     beta= 0.30
     Davidson diagonalization with overlap
     ethr =  2.14E-09,  avg # of iterations =  6.1

     total cpu time spent up to now is    12248.0 secs

     total energy              =   -4133.52438898 Ry
     estimated scf accuracy    <       0.00020164 Ry

     total magnetization       =     3.82 Bohr mag/cell
     absolute magnetization    =     5.16 Bohr mag/cell

     iteration #139     ecut=    60.00 Ry     beta= 0.30
     Davidson diagonalization with overlap
     ethr =  2.14E-09,  avg # of iterations = 10.0

     total cpu time spent up to now is    12285.3 secs

     total energy              =   -4133.52413255 Ry
     estimated scf accuracy    <       0.00015514 Ry

     total magnetization       =     3.78 Bohr mag/cell
     absolute magnetization    =     5.27 Bohr mag/cell

     iteration #140     ecut=    60.00 Ry     beta= 0.30
     Davidson diagonalization with overlap
     ethr =  2.14E-09,  avg # of iterations = 12.0

     total cpu time spent up to now is    12325.8 secs

     total energy              =   -4133.52408047 Ry
     estimated scf accuracy    <       0.00023324 Ry

     total magnetization       =     3.86 Bohr mag/cell
     absolute magnetization    =     5.10 Bohr mag/cell

     iteration #141     ecut=    60.00 Ry     beta= 0.30
     Davidson diagonalization with overlap
     ethr =  2.14E-09,  avg # of iterations = 12.0

     total cpu time spent up to now is    12366.0 secs

     total energy              =   -4133.52085328 Ry
     estimated scf accuracy    <       0.00046266 Ry

     total magnetization       =     3.95 Bohr mag/cell
     absolute magnetization    =     5.29 Bohr mag/cell

     iteration #142     ecut=    60.00 Ry     beta= 0.30
     Davidson diagonalization with overlap
     c_bands:  1 eigenvalues not converged
     c_bands:  1 eigenvalues not converged
     c_bands:  1 eigenvalues not converged
     c_bands:  1 eigenvalues not converged
     c_bands:  1 eigenvalues not converged
     ethr =  2.14E-09,  avg # of iterations = 16.2

     total cpu time spent up to now is    12412.5 secs

     total energy              =   -4133.48451655 Ry
     estimated scf accuracy    <       0.00012612 Ry

     total magnetization       =     3.77 Bohr mag/cell
     absolute magnetization    =     5.28 Bohr mag/cell

     iteration #143     ecut=    60.00 Ry     beta= 0.30
     Davidson diagonalization with overlap
     c_bands:  3 eigenvalues not converged
     c_bands:  4 eigenvalues not converged
     c_bands:  1 eigenvalues not converged
     c_bands:  3 eigenvalues not converged
     c_bands:  3 eigenvalues not converged
     c_bands:  1 eigenvalues not converged
     c_bands:  1 eigenvalues not converged
     c_bands:  5 eigenvalues not converged
     c_bands:  1 eigenvalues not converged
     c_bands:  1 eigenvalues not converged
     c_bands:  1 eigenvalues not converged
     c_bands:  3 eigenvalues not converged
     c_bands:  1 eigenvalues not converged
     c_bands:  5 eigenvalues not converged
     c_bands:  4 eigenvalues not converged
     c_bands:  1 eigenvalues not converged
     c_bands:  3 eigenvalues not converged
     c_bands:  1 eigenvalues not converged
     c_bands:  1 eigenvalues not converged
     c_bands:  5 eigenvalues not converged
     c_bands:  1 eigenvalues not converged
     c_bands:  1 eigenvalues not converged
     c_bands:  2 eigenvalues not converged
     c_bands:  3 eigenvalues not converged
     c_bands:  1 eigenvalues not converged
     c_bands:  4 eigenvalues not converged
     c_bands:  3 eigenvalues not converged
     c_bands:  4 eigenvalues not converged
     c_bands:  2 eigenvalues not converged
     c_bands:  1 eigenvalues not converged
     c_bands:  4 eigenvalues not converged
     c_bands:  1 eigenvalues not converged
     c_bands:  3 eigenvalues not converged
     c_bands:  5 eigenvalues not converged
     c_bands:  4 eigenvalues not converged
     c_bands:  4 eigenvalues not converged
     c_bands:  2 eigenvalues not converged
     c_bands:  5 eigenvalues not converged
     ethr =  2.14E-09,  avg # of iterations = 21.1

     total cpu time spent up to now is    12470.9 secs

     total energy              =   -4133.52207705 Ry
     estimated scf accuracy    <       0.00000856 Ry

     total magnetization       =     3.07 Bohr mag/cell
     absolute magnetization    =     9.65 Bohr mag/cell

     iteration #144     ecut=    60.00 Ry     beta= 0.30
     Davidson diagonalization with overlap
     c_bands:  2 eigenvalues not converged
     c_bands:  2 eigenvalues not converged
     ethr =  2.14E-09,  avg # of iterations = 12.8

     total cpu time spent up to now is    12513.7 secs

     total energy              =   -4133.50748740 Ry
     estimated scf accuracy    <       0.00002605 Ry

     total magnetization       =     2.93 Bohr mag/cell
     absolute magnetization    =    10.65 Bohr mag/cell

     iteration #145     ecut=    60.00 Ry     beta= 0.30
     Davidson diagonalization with overlap
     c_bands:  1 eigenvalues not converged
     c_bands:  1 eigenvalues not converged
     c_bands:  1 eigenvalues not converged
     c_bands:  4 eigenvalues not converged
     c_bands:  1 eigenvalues not converged
     c_bands:  1 eigenvalues not converged
     c_bands:  4 eigenvalues not converged
     c_bands:  5 eigenvalues not converged
     c_bands:  3 eigenvalues not converged
     c_bands:  4 eigenvalues not converged
     c_bands:  3 eigenvalues not converged
     c_bands:  2 eigenvalues not converged
     c_bands:  1 eigenvalues not converged
     c_bands:  1 eigenvalues not converged
     c_bands:  1 eigenvalues not converged
     c_bands:  4 eigenvalues not converged
     c_bands:  4 eigenvalues not converged
     c_bands:  4 eigenvalues not converged
     c_bands:  3 eigenvalues not converged
     c_bands:  4 eigenvalues not converged
     c_bands:  3 eigenvalues not converged
     c_bands:  3 eigenvalues not converged
     c_bands:  2 eigenvalues not converged
     c_bands:  1 eigenvalues not converged
     c_bands:  1 eigenvalues not converged
     c_bands:  2 eigenvalues not converged
     c_bands:  1 eigenvalues not converged
     c_bands:  4 eigenvalues not converged
     c_bands:  3 eigenvalues not converged
     c_bands:  2 eigenvalues not converged
     c_bands:  1 eigenvalues not converged
     c_bands:  2 eigenvalues not converged
     c_bands:  4 eigenvalues not converged
     c_bands:  5 eigenvalues not converged
     c_bands:  1 eigenvalues not converged
     c_bands:  3 eigenvalues not converged
     c_bands:  1 eigenvalues not converged
     c_bands:  2 eigenvalues not converged
     c_bands:  3 eigenvalues not converged
     c_bands:  5 eigenvalues not converged
     c_bands:  4 eigenvalues not converged
     c_bands:  2 eigenvalues not converged
     ethr =  2.14E-09,  avg # of iterations = 19.6

     total cpu time spent up to now is    12567.0 secs

     total energy              =   -4133.34557550 Ry
     estimated scf accuracy    <       0.00013844 Ry

     total magnetization       =     2.44 Bohr mag/cell
     absolute magnetization    =    13.96 Bohr mag/cell

     iteration #146     ecut=    60.00 Ry     beta= 0.30
     Davidson diagonalization with overlap
     c_bands:  3 eigenvalues not converged
     c_bands:  4 eigenvalues not converged
     c_bands:  4 eigenvalues not converged
     c_bands:  1 eigenvalues not converged
     c_bands:  4 eigenvalues not converged
     c_bands:  2 eigenvalues not converged
     c_bands:  5 eigenvalues not converged
     c_bands:  1 eigenvalues not converged
     c_bands:  1 eigenvalues not converged
     c_bands:  1 eigenvalues not converged
     c_bands:  1 eigenvalues not converged
     c_bands:  1 eigenvalues not converged
     ethr =  2.14E-09,  avg # of iterations = 30.7

     total cpu time spent up to now is    12642.3 secs

     total energy              =   -4133.52155470 Ry
     estimated scf accuracy    <       0.00061893 Ry

     total magnetization       =     3.98 Bohr mag/cell
     absolute magnetization    =     5.49 Bohr mag/cell

     iteration #147     ecut=    60.00 Ry     beta= 0.30
     Davidson diagonalization with overlap
     c_bands:  1 eigenvalues not converged
     c_bands:  1 eigenvalues not converged
     c_bands:  1 eigenvalues not converged
     ethr =  2.14E-09,  avg # of iterations = 15.3

     total cpu time spent up to now is    12688.5 secs

     total energy              =   -4133.50661908 Ry
     estimated scf accuracy    <       0.00022317 Ry

     total magnetization       =     3.83 Bohr mag/cell
     absolute magnetization    =     5.15 Bohr mag/cell

     iteration #148     ecut=    60.00 Ry     beta= 0.30
     Davidson diagonalization with overlap
     c_bands:  1 eigenvalues not converged
     c_bands:  1 eigenvalues not converged
     c_bands:  2 eigenvalues not converged
     c_bands:  2 eigenvalues not converged
     c_bands:  3 eigenvalues not converged
     c_bands:  3 eigenvalues not converged
     c_bands:  1 eigenvalues not converged
     c_bands:  1 eigenvalues not converged
     c_bands:  2 eigenvalues not converged
     c_bands:  1 eigenvalues not converged
     c_bands:  3 eigenvalues not converged
     c_bands:  4 eigenvalues not converged
     c_bands:  3 eigenvalues not converged
     c_bands:  3 eigenvalues not converged
     c_bands:  1 eigenvalues not converged
     c_bands:  1 eigenvalues not converged
     c_bands:  1 eigenvalues not converged
     c_bands:  2 eigenvalues not converged
     c_bands:  1 eigenvalues not converged
     c_bands:  2 eigenvalues not converged
     c_bands:  5 eigenvalues not converged
     c_bands:  1 eigenvalues not converged
     c_bands:  1 eigenvalues not converged
     c_bands:  2 eigenvalues not converged
     c_bands:  1 eigenvalues not converged
     c_bands:  3 eigenvalues not converged
     c_bands:  1 eigenvalues not converged
     c_bands:  1 eigenvalues not converged
     c_bands:  2 eigenvalues not converged
     c_bands:  3 eigenvalues not converged
     c_bands:  1 eigenvalues not converged
     ethr =  2.14E-09,  avg # of iterations = 18.7

     total cpu time spent up to now is    12741.1 secs

     total energy              =   -4133.41730049 Ry
     estimated scf accuracy    <       0.00214080 Ry

     total magnetization       =     4.17 Bohr mag/cell
     absolute magnetization    =     7.47 Bohr mag/cell

     iteration #149     ecut=    60.00 Ry     beta= 0.30
     Davidson diagonalization with overlap
     c_bands:  4 eigenvalues not converged
     c_bands:  5 eigenvalues not converged
     c_bands:  1 eigenvalues not converged
     c_bands:  1 eigenvalues not converged
     c_bands:  1 eigenvalues not converged
     c_bands:  1 eigenvalues not converged
     c_bands:  3 eigenvalues not converged
     c_bands:  1 eigenvalues not converged
     c_bands:  2 eigenvalues not converged
     c_bands:  1 eigenvalues not converged
     c_bands:  1 eigenvalues not converged
     c_bands:  2 eigenvalues not converged
     c_bands:  2 eigenvalues not converged
     c_bands:  3 eigenvalues not converged
     c_bands:  4 eigenvalues not converged
     c_bands:  1 eigenvalues not converged
     c_bands:  4 eigenvalues not converged
     c_bands:  2 eigenvalues not converged
     c_bands:  4 eigenvalues not converged
     c_bands:  1 eigenvalues not converged
     c_bands:  3 eigenvalues not converged
     c_bands:  1 eigenvalues not converged
     c_bands:  2 eigenvalues not converged
     c_bands:  1 eigenvalues not converged
     c_bands:  2 eigenvalues not converged
     c_bands:  1 eigenvalues not converged
     ethr =  2.14E-09,  avg # of iterations = 28.4

     total cpu time spent up to now is    12810.4 secs

     total energy              =   -4133.51672425 Ry
     estimated scf accuracy    <       0.00000807 Ry

     total magnetization       =     3.18 Bohr mag/cell
     absolute magnetization    =     8.85 Bohr mag/cell

     iteration #150     ecut=    60.00 Ry     beta= 0.30
     Davidson diagonalization with overlap
     c_bands:  3 eigenvalues not converged
     c_bands:  2 eigenvalues not converged
     c_bands:  2 eigenvalues not converged
     c_bands:  2 eigenvalues not converged
     c_bands:  2 eigenvalues not converged
     c_bands:  3 eigenvalues not converged
     c_bands:  3 eigenvalues not converged
     c_bands:  1 eigenvalues not converged
     c_bands:  1 eigenvalues not converged
     c_bands:  2 eigenvalues not converged
     c_bands:  2 eigenvalues not converged
     c_bands:  2 eigenvalues not converged
     c_bands:  3 eigenvalues not converged
     c_bands:  2 eigenvalues not converged
     c_bands:  1 eigenvalues not converged
     c_bands:  3 eigenvalues not converged
     c_bands:  2 eigenvalues not converged
     c_bands:  5 eigenvalues not converged
     c_bands:  1 eigenvalues not converged
     c_bands:  2 eigenvalues not converged
     c_bands:  1 eigenvalues not converged
     c_bands:  2 eigenvalues not converged
     c_bands:  1 eigenvalues not converged
     c_bands:  2 eigenvalues not converged
     c_bands:  3 eigenvalues not converged
     c_bands:  1 eigenvalues not converged
     c_bands:  1 eigenvalues not converged
     c_bands:  1 eigenvalues not converged
     c_bands:  1 eigenvalues not converged
     c_bands:  1 eigenvalues not converged
     c_bands:  1 eigenvalues not converged
     c_bands:  2 eigenvalues not converged
     c_bands:  2 eigenvalues not converged
     c_bands:  3 eigenvalues not converged
     c_bands:  1 eigenvalues not converged
     c_bands:  2 eigenvalues not converged
     ethr =  2.14E-09,  avg # of iterations = 18.4

     total cpu time spent up to now is    12861.6 secs

     total energy              =   -4133.52254266 Ry
     estimated scf accuracy    <       0.00001325 Ry

     total magnetization       =     2.85 Bohr mag/cell
     absolute magnetization    =    11.09 Bohr mag/cell

     iteration #151     ecut=    60.00 Ry     beta= 0.30
     Davidson diagonalization with overlap
     c_bands:  1 eigenvalues not converged
     ethr =  2.14E-09,  avg # of iterations = 12.4

     total cpu time spent up to now is    12902.6 secs

     total energy              =   -4133.50673720 Ry
     estimated scf accuracy    <       0.00000830 Ry

     total magnetization       =     2.97 Bohr mag/cell
     absolute magnetization    =    10.27 Bohr mag/cell

     iteration #152     ecut=    60.00 Ry     beta= 0.30
     Davidson diagonalization with overlap
     c_bands:  1 eigenvalues not converged
     c_bands:  2 eigenvalues not converged
     c_bands:  3 eigenvalues not converged
     c_bands:  2 eigenvalues not converged
     c_bands:  1 eigenvalues not converged
     c_bands:  3 eigenvalues not converged
     c_bands:  3 eigenvalues not converged
     c_bands:  2 eigenvalues not converged
     c_bands:  4 eigenvalues not converged
     c_bands:  3 eigenvalues not converged
     c_bands:  1 eigenvalues not converged
     c_bands:  2 eigenvalues not converged
     c_bands:  3 eigenvalues not converged
     c_bands:  3 eigenvalues not converged
     c_bands:  4 eigenvalues not converged
     c_bands:  2 eigenvalues not converged
     c_bands:  2 eigenvalues not converged
     c_bands:  4 eigenvalues not converged
     c_bands:  1 eigenvalues not converged
     c_bands:  1 eigenvalues not converged
     c_bands:  5 eigenvalues not converged
     c_bands:  5 eigenvalues not converged
     c_bands:  1 eigenvalues not converged
     c_bands:  4 eigenvalues not converged
     c_bands:  2 eigenvalues not converged
     c_bands:  2 eigenvalues not converged
     c_bands:  2 eigenvalues not converged
     c_bands:  2 eigenvalues not converged
     c_bands:  1 eigenvalues not converged
     c_bands:  5 eigenvalues not converged
     c_bands:  1 eigenvalues not converged
     c_bands:  3 eigenvalues not converged
     c_bands:  3 eigenvalues not converged
     c_bands:  2 eigenvalues not converged
     c_bands:  4 eigenvalues not converged
     c_bands:  2 eigenvalues not converged
     ethr =  2.14E-09,  avg # of iterations = 18.8

     total cpu time spent up to now is    12954.6 secs

     total energy              =   -4133.52084917 Ry
     estimated scf accuracy    <       0.00002406 Ry

     total magnetization       =     3.49 Bohr mag/cell
     absolute magnetization    =     6.76 Bohr mag/cell

     iteration #153     ecut=    60.00 Ry     beta= 0.30
     Davidson diagonalization with overlap
     ethr =  2.14E-09,  avg # of iterations = 14.4

     total cpu time spent up to now is    12998.6 secs

     total energy              =   -4133.52284338 Ry
     estimated scf accuracy    <       0.00001173 Ry

     total magnetization       =     3.29 Bohr mag/cell
     absolute magnetization    =     8.12 Bohr mag/cell

     iteration #154     ecut=    60.00 Ry     beta= 0.30
     Davidson diagonalization with overlap
     c_bands:  1 eigenvalues not converged
     ethr =  2.14E-09,  avg # of iterations = 12.3

     total cpu time spent up to now is    13039.5 secs

     total energy              =   -4133.52347699 Ry
     estimated scf accuracy    <       0.00001426 Ry

     total magnetization       =     3.41 Bohr mag/cell
     absolute magnetization    =     7.29 Bohr mag/cell

     iteration #155     ecut=    60.00 Ry     beta= 0.30
     Davidson diagonalization with overlap
     c_bands:  1 eigenvalues not converged
     ethr =  2.14E-09,  avg # of iterations = 12.0

     total cpu time spent up to now is    13080.0 secs

     total energy              =   -4133.51129954 Ry
     estimated scf accuracy    <       0.00001692 Ry

     total magnetization       =     3.48 Bohr mag/cell
     absolute magnetization    =     6.75 Bohr mag/cell

     iteration #156     ecut=    60.00 Ry     beta= 0.30
     Davidson diagonalization with overlap
     c_bands:  1 eigenvalues not converged
     c_bands:  1 eigenvalues not converged
     c_bands:  3 eigenvalues not converged
     c_bands:  2 eigenvalues not converged
     c_bands:  1 eigenvalues not converged
     c_bands:  1 eigenvalues not converged
     c_bands:  1 eigenvalues not converged
     c_bands:  5 eigenvalues not converged
     c_bands:  3 eigenvalues not converged
     c_bands:  1 eigenvalues not converged
     c_bands:  1 eigenvalues not converged
     c_bands:  4 eigenvalues not converged
     c_bands:  1 eigenvalues not converged
     c_bands:  2 eigenvalues not converged
     c_bands:  5 eigenvalues not converged
     c_bands:  3 eigenvalues not converged
     c_bands:  1 eigenvalues not converged
     c_bands:  1 eigenvalues not converged
     c_bands:  1 eigenvalues not converged
     c_bands:  3 eigenvalues not converged
     c_bands:  2 eigenvalues not converged
     c_bands:  5 eigenvalues not converged
     c_bands:  2 eigenvalues not converged
     c_bands:  1 eigenvalues not converged
     c_bands:  1 eigenvalues not converged
     c_bands:  3 eigenvalues not converged
     c_bands:  1 eigenvalues not converged
     c_bands:  5 eigenvalues not converged
     c_bands:  5 eigenvalues not converged
     c_bands:  2 eigenvalues not converged
     c_bands:  1 eigenvalues not converged
     c_bands:  1 eigenvalues not converged
     c_bands:  1 eigenvalues not converged
     ethr =  2.14E-09,  avg # of iterations = 18.7

     total cpu time spent up to now is    13132.4 secs

     total energy              =   -4133.47603146 Ry
     estimated scf accuracy    <       0.00037451 Ry

     total magnetization       =     3.87 Bohr mag/cell
     absolute magnetization    =     5.12 Bohr mag/cell

     iteration #157     ecut=    60.00 Ry     beta= 0.30
     Davidson diagonalization with overlap
     c_bands:  3 eigenvalues not converged
     c_bands:  1 eigenvalues not converged
     c_bands:  1 eigenvalues not converged
     c_bands:  2 eigenvalues not converged
     c_bands:  4 eigenvalues not converged
     c_bands:  5 eigenvalues not converged
     c_bands:  4 eigenvalues not converged
     c_bands:  4 eigenvalues not converged
     c_bands:  1 eigenvalues not converged
     c_bands:  1 eigenvalues not converged
     c_bands:  2 eigenvalues not converged
     c_bands:  5 eigenvalues not converged
     c_bands:  3 eigenvalues not converged
     c_bands:  4 eigenvalues not converged
     c_bands:  5 eigenvalues not converged
     c_bands:  3 eigenvalues not converged
     c_bands:  5 eigenvalues not converged
     c_bands:  4 eigenvalues not converged
     c_bands:  2 eigenvalues not converged
     c_bands:  5 eigenvalues not converged
     c_bands:  1 eigenvalues not converged
     c_bands:  1 eigenvalues not converged
     c_bands:  3 eigenvalues not converged
     c_bands:  3 eigenvalues not converged
     c_bands:  4 eigenvalues not converged
     c_bands:  1 eigenvalues not converged
     c_bands:  5 eigenvalues not converged
     c_bands:  3 eigenvalues not converged
     c_bands:  5 eigenvalues not converged
     c_bands:  1 eigenvalues not converged
     c_bands:  4 eigenvalues not converged
     c_bands:  1 eigenvalues not converged
     c_bands:  2 eigenvalues not converged
     c_bands:  1 eigenvalues not converged
     c_bands:  4 eigenvalues not converged
     ethr =  2.14E-09,  avg # of iterations = 21.4

     total cpu time spent up to now is    13191.9 secs

     total energy              =   -4133.49243363 Ry
     estimated scf accuracy    <       0.00000835 Ry

     total magnetization       =     3.10 Bohr mag/cell
     absolute magnetization    =     9.44 Bohr mag/cell

     iteration #158     ecut=    60.00 Ry     beta= 0.30
     Davidson diagonalization with overlap
     c_bands:  3 eigenvalues not converged
     c_bands:  1 eigenvalues not converged
     c_bands:  1 eigenvalues not converged
     c_bands:  5 eigenvalues not converged
     c_bands:  1 eigenvalues not converged
     c_bands:  2 eigenvalues not converged
     c_bands:  1 eigenvalues not converged
     c_bands:  2 eigenvalues not converged
     c_bands:  1 eigenvalues not converged
     c_bands:  4 eigenvalues not converged
     c_bands:  4 eigenvalues not converged
     c_bands:  4 eigenvalues not converged
     c_bands:  1 eigenvalues not converged
     c_bands:  2 eigenvalues not converged
     c_bands:  1 eigenvalues not converged
     c_bands:  4 eigenvalues not converged
     c_bands:  1 eigenvalues not converged
     c_bands:  3 eigenvalues not converged
     c_bands:  5 eigenvalues not converged
     c_bands:  1 eigenvalues not converged
     c_bands:  4 eigenvalues not converged
     c_bands:  4 eigenvalues not converged
     c_bands:  1 eigenvalues not converged
     c_bands:  1 eigenvalues not converged
     c_bands:  3 eigenvalues not converged
     c_bands:  3 eigenvalues not converged
     c_bands:  2 eigenvalues not converged
     c_bands:  3 eigenvalues not converged
     c_bands:  4 eigenvalues not converged
     c_bands:  2 eigenvalues not converged
     c_bands:  1 eigenvalues not converged
     ethr =  2.14E-09,  avg # of iterations = 19.3

     total cpu time spent up to now is    13247.5 secs

     total energy              =   -4133.50765471 Ry
     estimated scf accuracy    <       0.00014051 Ry

     total magnetization       =     3.75 Bohr mag/cell
     absolute magnetization    =     5.40 Bohr mag/cell

     iteration #159     ecut=    60.00 Ry     beta= 0.30
     Davidson diagonalization with overlap
     c_bands:  1 eigenvalues not converged
     c_bands:  3 eigenvalues not converged
     c_bands:  1 eigenvalues not converged
     c_bands:  2 eigenvalues not converged
     c_bands:  3 eigenvalues not converged
     c_bands:  2 eigenvalues not converged
     c_bands:  3 eigenvalues not converged
     c_bands:  1 eigenvalues not converged
     c_bands:  2 eigenvalues not converged
     c_bands:  1 eigenvalues not converged
     c_bands:  3 eigenvalues not converged
     c_bands:  2 eigenvalues not converged
     c_bands:  2 eigenvalues not converged
     c_bands:  3 eigenvalues not converged
     c_bands:  3 eigenvalues not converged
     c_bands:  1 eigenvalues not converged
     c_bands:  3 eigenvalues not converged
     c_bands:  4 eigenvalues not converged
     c_bands:  1 eigenvalues not converged
     c_bands:  2 eigenvalues not converged
     c_bands:  4 eigenvalues not converged
     c_bands:  3 eigenvalues not converged
     c_bands:  2 eigenvalues not converged
     c_bands:  3 eigenvalues not converged
     c_bands:  4 eigenvalues not converged
     ethr =  2.14E-09,  avg # of iterations = 18.7

     total cpu time spent up to now is    13299.4 secs

     total energy              =   -4133.51155403 Ry
     estimated scf accuracy    <       0.00002900 Ry

     total magnetization       =     3.32 Bohr mag/cell
     absolute magnetization    =     8.01 Bohr mag/cell

     iteration #160     ecut=    60.00 Ry     beta= 0.30
     Davidson diagonalization with overlap
     c_bands:  1 eigenvalues not converged
     c_bands:  1 eigenvalues not converged
     c_bands:  3 eigenvalues not converged
     c_bands:  1 eigenvalues not converged
     c_bands:  3 eigenvalues not converged
     c_bands:  4 eigenvalues not converged
     c_bands:  2 eigenvalues not converged
     c_bands:  4 eigenvalues not converged
     c_bands:  3 eigenvalues not converged
     c_bands:  1 eigenvalues not converged
     c_bands:  3 eigenvalues not converged
     c_bands:  3 eigenvalues not converged
     c_bands:  4 eigenvalues not converged
     c_bands:  1 eigenvalues not converged
     c_bands:  1 eigenvalues not converged
     c_bands:  3 eigenvalues not converged
     c_bands:  1 eigenvalues not converged
     c_bands:  2 eigenvalues not converged
     c_bands:  2 eigenvalues not converged
     c_bands:  1 eigenvalues not converged
     c_bands:  1 eigenvalues not converged
     c_bands:  3 eigenvalues not converged
     c_bands:  3 eigenvalues not converged
     c_bands:  2 eigenvalues not converged
     c_bands:  4 eigenvalues not converged
     c_bands:  3 eigenvalues not converged
     c_bands:  2 eigenvalues not converged
     c_bands:  3 eigenvalues not converged
     c_bands:  3 eigenvalues not converged
     c_bands:  4 eigenvalues not converged
     c_bands:  2 eigenvalues not converged
     c_bands:  2 eigenvalues not converged
     c_bands:  3 eigenvalues not converged
     c_bands:  3 eigenvalues not converged
     ethr =  2.14E-09,  avg # of iterations = 19.0

     total cpu time spent up to now is    13351.9 secs

     total energy              =   -4133.51856999 Ry
     estimated scf accuracy    <       0.00005437 Ry

     total magnetization       =     2.90 Bohr mag/cell
     absolute magnetization    =    10.99 Bohr mag/cell

     iteration #161     ecut=    60.00 Ry     beta= 0.30
     Davidson diagonalization with overlap
     c_bands:  3 eigenvalues not converged
     c_bands:  1 eigenvalues not converged
     c_bands:  2 eigenvalues not converged
     c_bands:  4 eigenvalues not converged
     c_bands:  3 eigenvalues not converged
     c_bands:  1 eigenvalues not converged
     c_bands:  2 eigenvalues not converged
     c_bands:  2 eigenvalues not converged
     c_bands:  2 eigenvalues not converged
     c_bands:  2 eigenvalues not converged
     c_bands:  2 eigenvalues not converged
     c_bands:  1 eigenvalues not converged
     c_bands:  3 eigenvalues not converged
     c_bands:  1 eigenvalues not converged
     c_bands:  1 eigenvalues not converged
     c_bands:  3 eigenvalues not converged
     c_bands:  1 eigenvalues not converged
     c_bands:  1 eigenvalues not converged
     c_bands:  1 eigenvalues not converged
     c_bands:  1 eigenvalues not converged
     c_bands:  4 eigenvalues not converged
     c_bands:  2 eigenvalues not converged
     c_bands:  2 eigenvalues not converged
     c_bands:  1 eigenvalues not converged
     c_bands:  2 eigenvalues not converged
     c_bands:  1 eigenvalues not converged
     c_bands:  1 eigenvalues not converged
     c_bands:  1 eigenvalues not converged
     c_bands:  4 eigenvalues not converged
     c_bands:  1 eigenvalues not converged
     ethr =  2.14E-09,  avg # of iterations = 17.8

     total cpu time spent up to now is    13401.7 secs

     total energy              =   -4133.51914147 Ry
     estimated scf accuracy    <       0.00012221 Ry

     total magnetization       =     2.64 Bohr mag/cell
     absolute magnetization    =    12.79 Bohr mag/cell

     iteration #162     ecut=    60.00 Ry     beta= 0.30
     Davidson diagonalization with overlap
     c_bands:  3 eigenvalues not converged
     c_bands:  1 eigenvalues not converged
     c_bands:  1 eigenvalues not converged
     c_bands:  1 eigenvalues not converged
     c_bands:  1 eigenvalues not converged
     c_bands:  1 eigenvalues not converged
     c_bands:  1 eigenvalues not converged
     c_bands:  1 eigenvalues not converged
     c_bands:  1 eigenvalues not converged
     c_bands:  2 eigenvalues not converged
     c_bands:  1 eigenvalues not converged
     c_bands:  1 eigenvalues not converged
     c_bands:  1 eigenvalues not converged
     c_bands:  1 eigenvalues not converged
     c_bands:  1 eigenvalues not converged
     c_bands:  1 eigenvalues not converged
     c_bands:  1 eigenvalues not converged
     c_bands:  1 eigenvalues not converged
     ethr =  2.14E-09,  avg # of iterations = 17.0

     total cpu time spent up to now is    13449.4 secs

     total energy              =   -4133.45071104 Ry
     estimated scf accuracy    <       0.00004556 Ry

     total magnetization       =     2.89 Bohr mag/cell
     absolute magnetization    =    11.01 Bohr mag/cell

     iteration #163     ecut=    60.00 Ry     beta= 0.30
     Davidson diagonalization with overlap
     c_bands:  3 eigenvalues not converged
     c_bands:  1 eigenvalues not converged
     c_bands:  2 eigenvalues not converged
     c_bands:  1 eigenvalues not converged
     c_bands:  1 eigenvalues not converged
     c_bands:  1 eigenvalues not converged
     c_bands:  4 eigenvalues not converged
     c_bands:  1 eigenvalues not converged
     c_bands:  1 eigenvalues not converged
     c_bands:  1 eigenvalues not converged
     c_bands:  1 eigenvalues not converged
     c_bands:  3 eigenvalues not converged
     c_bands:  4 eigenvalues not converged
     c_bands:  2 eigenvalues not converged
     c_bands:  2 eigenvalues not converged
     c_bands:  1 eigenvalues not converged
     c_bands:  1 eigenvalues not converged
     c_bands:  4 eigenvalues not converged
     c_bands:  5 eigenvalues not converged
     c_bands:  2 eigenvalues not converged
     c_bands:  4 eigenvalues not converged
     c_bands:  1 eigenvalues not converged
     c_bands:  1 eigenvalues not converged
     c_bands:  4 eigenvalues not converged
     ethr =  2.14E-09,  avg # of iterations = 27.5

     total cpu time spent up to now is    13518.0 secs

     total energy              =   -4133.51647581 Ry
     estimated scf accuracy    <       0.00020909 Ry

     total magnetization       =     3.84 Bohr mag/cell
     absolute magnetization    =     5.09 Bohr mag/cell

     iteration #164     ecut=    60.00 Ry     beta= 0.30
     Davidson diagonalization with overlap
     c_bands:  1 eigenvalues not converged
     c_bands:  1 eigenvalues not converged
     c_bands:  3 eigenvalues not converged
     c_bands:  2 eigenvalues not converged
     c_bands:  1 eigenvalues not converged
     c_bands:  2 eigenvalues not converged
     c_bands:  1 eigenvalues not converged
     c_bands:  3 eigenvalues not converged
     c_bands:  1 eigenvalues not converged
     c_bands:  2 eigenvalues not converged
     c_bands:  3 eigenvalues not converged
     c_bands:  3 eigenvalues not converged
     c_bands:  1 eigenvalues not converged
     c_bands:  1 eigenvalues not converged
     c_bands:  3 eigenvalues not converged
     c_bands:  1 eigenvalues not converged
     c_bands:  1 eigenvalues not converged
     c_bands:  3 eigenvalues not converged
     c_bands:  2 eigenvalues not converged
     c_bands:  5 eigenvalues not converged
     c_bands:  2 eigenvalues not converged
     c_bands:  1 eigenvalues not converged
     c_bands:  1 eigenvalues not converged
     c_bands:  2 eigenvalues not converged
     c_bands:  3 eigenvalues not converged
     c_bands:  5 eigenvalues not converged
     c_bands:  2 eigenvalues not converged
     c_bands:  2 eigenvalues not converged
     c_bands:  3 eigenvalues not converged
     c_bands:  1 eigenvalues not converged
     c_bands:  4 eigenvalues not converged
     c_bands:  3 eigenvalues not converged
     c_bands:  2 eigenvalues not converged
     c_bands:  4 eigenvalues not converged
     c_bands:  4 eigenvalues not converged
     c_bands:  5 eigenvalues not converged
     c_bands:  1 eigenvalues not converged
     c_bands:  1 eigenvalues not converged
     c_bands:  1 eigenvalues not converged
     ethr =  2.14E-09,  avg # of iterations = 19.0

     total cpu time spent up to now is    13570.6 secs

     total energy              =   -4133.52095175 Ry
     estimated scf accuracy    <       0.00094033 Ry

     total magnetization       =     4.07 Bohr mag/cell
     absolute magnetization    =     6.64 Bohr mag/cell

     iteration #165     ecut=    60.00 Ry     beta= 0.30
     Davidson diagonalization with overlap
     c_bands:  1 eigenvalues not converged
     c_bands:  2 eigenvalues not converged
     c_bands:  1 eigenvalues not converged
     c_bands:  1 eigenvalues not converged
     c_bands:  1 eigenvalues not converged
     c_bands:  1 eigenvalues not converged
     c_bands:  1 eigenvalues not converged
     c_bands:  1 eigenvalues not converged
     c_bands:  1 eigenvalues not converged
     c_bands:  1 eigenvalues not converged
     ethr =  2.14E-09,  avg # of iterations = 17.0

     total cpu time spent up to now is    13619.4 secs

     total energy              =   -4133.52380791 Ry
     estimated scf accuracy    <       0.00023784 Ry

     total magnetization       =     3.90 Bohr mag/cell
     absolute magnetization    =     5.23 Bohr mag/cell

     iteration #166     ecut=    60.00 Ry     beta= 0.30
     Davidson diagonalization with overlap
     ethr =  2.14E-09,  avg # of iterations = 12.7

     total cpu time spent up to now is    13661.4 secs

     total energy              =   -4133.52558256 Ry
     estimated scf accuracy    <       0.00052681 Ry

     total magnetization       =     4.01 Bohr mag/cell
     absolute magnetization    =     6.12 Bohr mag/cell

     iteration #167     ecut=    60.00 Ry     beta= 0.30
     Davidson diagonalization with overlap
     c_bands:  1 eigenvalues not converged
     c_bands:  1 eigenvalues not converged
     c_bands:  1 eigenvalues not converged
     ethr =  2.14E-09,  avg # of iterations = 11.9

     total cpu time spent up to now is    13700.9 secs

     total energy              =   -4133.51618401 Ry
     estimated scf accuracy    <       0.00086191 Ry

     total magnetization       =     4.06 Bohr mag/cell
     absolute magnetization    =     6.55 Bohr mag/cell

     iteration #168     ecut=    60.00 Ry     beta= 0.30
     Davidson diagonalization with overlap
     c_bands:  1 eigenvalues not converged
     c_bands:  2 eigenvalues not converged
     c_bands:  4 eigenvalues not converged
     c_bands:  1 eigenvalues not converged
     c_bands:  1 eigenvalues not converged
     c_bands:  4 eigenvalues not converged
     c_bands:  1 eigenvalues not converged
     c_bands:  1 eigenvalues not converged
     c_bands:  1 eigenvalues not converged
     c_bands:  1 eigenvalues not converged
     c_bands:  2 eigenvalues not converged
     c_bands:  1 eigenvalues not converged
     c_bands:  1 eigenvalues not converged
     c_bands:  1 eigenvalues not converged
     c_bands:  1 eigenvalues not converged
     c_bands:  1 eigenvalues not converged
     ethr =  2.14E-09,  avg # of iterations = 18.2

     total cpu time spent up to now is    13753.0 secs

     total energy              =   -4133.51445155 Ry
     estimated scf accuracy    <       0.00011256 Ry

     total magnetization       =     3.82 Bohr mag/cell
     absolute magnetization    =     5.06 Bohr mag/cell

     iteration #169     ecut=    60.00 Ry     beta= 0.30
     Davidson diagonalization with overlap
     c_bands:  2 eigenvalues not converged
     c_bands:  1 eigenvalues not converged
     c_bands:  2 eigenvalues not converged
     c_bands:  2 eigenvalues not converged
     c_bands:  1 eigenvalues not converged
     c_bands:  2 eigenvalues not converged
     c_bands:  1 eigenvalues not converged
     c_bands:  2 eigenvalues not converged
     c_bands:  1 eigenvalues not converged
     c_bands:  2 eigenvalues not converged
     c_bands:  1 eigenvalues not converged
     c_bands:  2 eigenvalues not converged
     c_bands:  1 eigenvalues not converged
     c_bands:  1 eigenvalues not converged
     c_bands:  2 eigenvalues not converged
     c_bands:  5 eigenvalues not converged
     c_bands:  1 eigenvalues not converged
     c_bands:  2 eigenvalues not converged
     c_bands:  1 eigenvalues not converged
     c_bands:  2 eigenvalues not converged
     c_bands:  2 eigenvalues not converged
     c_bands:  5 eigenvalues not converged
     c_bands:  1 eigenvalues not converged
     c_bands:  1 eigenvalues not converged
     ethr =  2.14E-09,  avg # of iterations = 18.5

     total cpu time spent up to now is    13804.3 secs

     total energy              =   -4133.52408985 Ry
     estimated scf accuracy    <       0.00130840 Ry

     total magnetization       =     4.10 Bohr mag/cell
     absolute magnetization    =     6.92 Bohr mag/cell

     iteration #170     ecut=    60.00 Ry     beta= 0.30
     Davidson diagonalization with overlap
     c_bands:  1 eigenvalues not converged
     ethr =  2.14E-09,  avg # of iterations = 12.7

     total cpu time spent up to now is    13845.7 secs

     total energy              =   -4133.34702108 Ry
     estimated scf accuracy    <       0.00080720 Ry

     total magnetization       =     4.03 Bohr mag/cell
     absolute magnetization    =     6.00 Bohr mag/cell

     iteration #171     ecut=    60.00 Ry     beta= 0.30
     Davidson diagonalization with overlap
     c_bands:  1 eigenvalues not converged
     c_bands:  1 eigenvalues not converged
     c_bands:  1 eigenvalues not converged
     c_bands:  1 eigenvalues not converged
     c_bands:  1 eigenvalues not converged
     c_bands:  5 eigenvalues not converged
     c_bands:  1 eigenvalues not converged
     c_bands:  1 eigenvalues not converged
     c_bands:  5 eigenvalues not converged
     c_bands:  1 eigenvalues not converged
     c_bands:  1 eigenvalues not converged
     c_bands:  1 eigenvalues not converged
     c_bands:  1 eigenvalues not converged
     c_bands:  4 eigenvalues not converged
     c_bands:  1 eigenvalues not converged
     c_bands:  2 eigenvalues not converged
     c_bands:  4 eigenvalues not converged
     c_bands:  1 eigenvalues not converged
     c_bands:  2 eigenvalues not converged
     c_bands:  5 eigenvalues not converged
     c_bands:  5 eigenvalues not converged
     c_bands:  1 eigenvalues not converged
     c_bands:  2 eigenvalues not converged
     c_bands:  3 eigenvalues not converged
     c_bands:  5 eigenvalues not converged
     ethr =  2.14E-09,  avg # of iterations = 31.0

     total cpu time spent up to now is    13919.3 secs

     total energy              =   -4133.52251963 Ry
     estimated scf accuracy    <       0.00126830 Ry

     total magnetization       =     2.73 Bohr mag/cell
     absolute magnetization    =    13.13 Bohr mag/cell

     iteration #172     ecut=    60.00 Ry     beta= 0.30
     Davidson diagonalization with overlap
     c_bands:  2 eigenvalues not converged
     c_bands:  1 eigenvalues not converged
     c_bands:  4 eigenvalues not converged
     c_bands:  2 eigenvalues not converged
     c_bands:  1 eigenvalues not converged
     ethr =  2.14E-09,  avg # of iterations = 13.6

     total cpu time spent up to now is    13961.7 secs

     total energy              =   -4133.52072522 Ry
     estimated scf accuracy    <       0.00010784 Ry

     total magnetization       =     2.66 Bohr mag/cell
     absolute magnetization    =    12.64 Bohr mag/cell

     iteration #173     ecut=    60.00 Ry     beta= 0.30
     Davidson diagonalization with overlap
     c_bands:  1 eigenvalues not converged
     c_bands:  1 eigenvalues not converged
     c_bands:  3 eigenvalues not converged
     c_bands:  1 eigenvalues not converged
     ethr =  2.14E-09,  avg # of iterations = 12.9

     total cpu time spent up to now is    14004.3 secs

     total energy              =   -4132.89757726 Ry
     estimated scf accuracy    <       0.00021303 Ry

     total magnetization       =     2.52 Bohr mag/cell
     absolute magnetization    =    13.77 Bohr mag/cell

     iteration #174     ecut=    60.00 Ry     beta= 0.30
     Davidson diagonalization with overlap
     c_bands:  2 eigenvalues not converged
     c_bands:  2 eigenvalues not converged
     c_bands:  1 eigenvalues not converged
     c_bands:  1 eigenvalues not converged
     c_bands:  3 eigenvalues not converged
     c_bands:  2 eigenvalues not converged
     c_bands:  3 eigenvalues not converged
     c_bands:  2 eigenvalues not converged
     c_bands:  4 eigenvalues not converged
     c_bands:  1 eigenvalues not converged
     c_bands:  3 eigenvalues not converged
     c_bands:  3 eigenvalues not converged
     c_bands:  3 eigenvalues not converged
     c_bands:  1 eigenvalues not converged
     c_bands:  2 eigenvalues not converged
     c_bands:  1 eigenvalues not converged
     c_bands:  5 eigenvalues not converged
     c_bands:  2 eigenvalues not converged
     c_bands:  3 eigenvalues not converged
     c_bands:  3 eigenvalues not converged
     c_bands:  1 eigenvalues not converged
     c_bands:  1 eigenvalues not converged
     c_bands:  2 eigenvalues not converged
     c_bands:  4 eigenvalues not converged
     c_bands:  4 eigenvalues not converged
     c_bands:  1 eigenvalues not converged
     c_bands:  1 eigenvalues not converged
     c_bands:  2 eigenvalues not converged
     c_bands:  1 eigenvalues not converged
     c_bands:  2 eigenvalues not converged
     ethr =  2.14E-09,  avg # of iterations = 35.6

     total cpu time spent up to now is    14091.6 secs

     total energy              =   -4133.52952957 Ry
     estimated scf accuracy    <       0.02921842 Ry

     total magnetization       =     4.51 Bohr mag/cell
     absolute magnetization    =    14.68 Bohr mag/cell

     iteration #175     ecut=    60.00 Ry     beta= 0.30
     Davidson diagonalization with overlap
     c_bands:  2 eigenvalues not converged
     c_bands:  1 eigenvalues not converged
     c_bands:  1 eigenvalues not converged
     ethr =  2.14E-09,  avg # of iterations =  8.2

     total cpu time spent up to now is    14125.0 secs

     total energy              =   -4133.52856122 Ry
     estimated scf accuracy    <       0.02865911 Ry

     total magnetization       =     4.51 Bohr mag/cell
     absolute magnetization    =    14.56 Bohr mag/cell

     iteration #176     ecut=    60.00 Ry     beta= 0.30
     Davidson diagonalization with overlap
     ethr =  2.14E-09,  avg # of iterations = 12.2

     total cpu time spent up to now is    14166.5 secs

     total energy              =   -4133.49981157 Ry
     estimated scf accuracy    <       0.02325988 Ry

     total magnetization       =     4.50 Bohr mag/cell
     absolute magnetization    =    13.80 Bohr mag/cell

     iteration #177     ecut=    60.00 Ry     beta= 0.30
     Davidson diagonalization with overlap
     c_bands:  2 eigenvalues not converged
     c_bands:  1 eigenvalues not converged
     c_bands:  5 eigenvalues not converged
     c_bands:  3 eigenvalues not converged
     c_bands:  4 eigenvalues not converged
     c_bands:  1 eigenvalues not converged
     c_bands:  2 eigenvalues not converged
     c_bands:  4 eigenvalues not converged
     c_bands:  1 eigenvalues not converged
     c_bands:  2 eigenvalues not converged
     c_bands:  1 eigenvalues not converged
     c_bands:  4 eigenvalues not converged
     c_bands:  4 eigenvalues not converged
     c_bands:  1 eigenvalues not converged
     c_bands:  2 eigenvalues not converged
     c_bands:  2 eigenvalues not converged
     c_bands:  2 eigenvalues not converged
     c_bands:  4 eigenvalues not converged
     c_bands:  1 eigenvalues not converged
     c_bands:  1 eigenvalues not converged
     c_bands:  1 eigenvalues not converged
     c_bands:  2 eigenvalues not converged
     c_bands:  1 eigenvalues not converged
     c_bands:  1 eigenvalues not converged
     c_bands:  1 eigenvalues not converged
     c_bands:  2 eigenvalues not converged
     c_bands:  2 eigenvalues not converged
     c_bands:  1 eigenvalues not converged
     ethr =  2.14E-09,  avg # of iterations = 19.5

     total cpu time spent up to now is    14220.9 secs

     total energy              =   -4133.47986297 Ry
     estimated scf accuracy    <       0.06482086 Ry

     total magnetization       =     4.56 Bohr mag/cell
     absolute magnetization    =    17.75 Bohr mag/cell

     iteration #178     ecut=    60.00 Ry     beta= 0.30
     Davidson diagonalization with overlap
     c_bands:  4 eigenvalues not converged
     c_bands:  2 eigenvalues not converged
     c_bands:  1 eigenvalues not converged
     c_bands:  3 eigenvalues not converged
     c_bands:  4 eigenvalues not converged
     c_bands:  1 eigenvalues not converged
     c_bands:  4 eigenvalues not converged
     c_bands:  2 eigenvalues not converged
     c_bands:  1 eigenvalues not converged
     c_bands:  4 eigenvalues not converged
     c_bands:  3 eigenvalues not converged
     c_bands:  1 eigenvalues not converged
     c_bands:  4 eigenvalues not converged
     c_bands:  1 eigenvalues not converged
     c_bands:  3 eigenvalues not converged
     c_bands:  3 eigenvalues not converged
     c_bands:  2 eigenvalues not converged
     c_bands:  3 eigenvalues not converged
     c_bands:  4 eigenvalues not converged
     c_bands:  1 eigenvalues not converged
     c_bands:  5 eigenvalues not converged
     ethr =  2.14E-09,  avg # of iterations = 21.1

     total cpu time spent up to now is    14280.5 secs

     total energy              =   -4133.23760101 Ry
     estimated scf accuracy    <       0.01751585 Ry

     total magnetization       =     4.49 Bohr mag/cell
     absolute magnetization    =    12.39 Bohr mag/cell

     iteration #179     ecut=    60.00 Ry     beta= 0.30
     Davidson diagonalization with overlap
     c_bands:  1 eigenvalues not converged
     c_bands:  1 eigenvalues not converged
     c_bands:  2 eigenvalues not converged
     c_bands:  2 eigenvalues not converged
     c_bands:  1 eigenvalues not converged
     c_bands:  2 eigenvalues not converged
     c_bands:  1 eigenvalues not converged
     c_bands:  2 eigenvalues not converged
     c_bands:  4 eigenvalues not converged
     c_bands:  2 eigenvalues not converged
     c_bands:  1 eigenvalues not converged
     c_bands:  1 eigenvalues not converged
     c_bands:  2 eigenvalues not converged
     c_bands:  2 eigenvalues not converged
     c_bands:  2 eigenvalues not converged
     c_bands:  1 eigenvalues not converged
     c_bands:  3 eigenvalues not converged
     c_bands:  1 eigenvalues not converged
     c_bands:  1 eigenvalues not converged
     c_bands:  1 eigenvalues not converged
     c_bands:  1 eigenvalues not converged
     c_bands:  4 eigenvalues not converged
     c_bands:  1 eigenvalues not converged
     c_bands:  1 eigenvalues not converged
     c_bands:  1 eigenvalues not converged
     c_bands:  2 eigenvalues not converged
     c_bands:  1 eigenvalues not converged
     c_bands:  3 eigenvalues not converged
     c_bands:  1 eigenvalues not converged
     c_bands:  4 eigenvalues not converged
     c_bands:  1 eigenvalues not converged
     ethr =  2.14E-09,  avg # of iterations = 33.6

     total cpu time spent up to now is    14361.2 secs

     total energy              =   -4133.42313831 Ry
     estimated scf accuracy    <       0.00038927 Ry

     total magnetization       =     3.19 Bohr mag/cell
     absolute magnetization    =     9.34 Bohr mag/cell

     iteration #180     ecut=    60.00 Ry     beta= 0.30
     Davidson diagonalization with overlap
     c_bands:  1 eigenvalues not converged
     c_bands:  2 eigenvalues not converged
     c_bands:  3 eigenvalues not converged
     c_bands:  1 eigenvalues not converged
     c_bands:  4 eigenvalues not converged
     c_bands:  2 eigenvalues not converged
     c_bands:  2 eigenvalues not converged
     c_bands:  1 eigenvalues not converged
     c_bands:  2 eigenvalues not converged
     c_bands:  1 eigenvalues not converged
     c_bands:  1 eigenvalues not converged
     c_bands:  4 eigenvalues not converged
     c_bands:  4 eigenvalues not converged
     c_bands:  3 eigenvalues not converged
     c_bands:  1 eigenvalues not converged
     c_bands:  2 eigenvalues not converged
     c_bands:  1 eigenvalues not converged
     c_bands:  4 eigenvalues not converged
     c_bands:  3 eigenvalues not converged
     c_bands:  4 eigenvalues not converged
     c_bands:  5 eigenvalues not converged
     c_bands:  1 eigenvalues not converged
     c_bands:  2 eigenvalues not converged
     c_bands:  1 eigenvalues not converged
     c_bands:  4 eigenvalues not converged
     c_bands:  2 eigenvalues not converged
     c_bands:  5 eigenvalues not converged
     c_bands:  5 eigenvalues not converged
     c_bands:  2 eigenvalues not converged
     c_bands:  1 eigenvalues not converged
     c_bands:  3 eigenvalues not converged
     c_bands:  4 eigenvalues not converged
     c_bands:  2 eigenvalues not converged
     c_bands:  3 eigenvalues not converged
     ethr =  2.14E-09,  avg # of iterations = 28.4

     total cpu time spent up to now is    14430.0 secs

     total energy              =   -4133.51817409 Ry
     estimated scf accuracy    <       0.00150231 Ry

     total magnetization       =     2.11 Bohr mag/cell
     absolute magnetization    =    17.54 Bohr mag/cell

     iteration #181     ecut=    60.00 Ry     beta= 0.30
     Davidson diagonalization with overlap
     c_bands:  2 eigenvalues not converged
     c_bands:  2 eigenvalues not converged
     c_bands:  1 eigenvalues not converged
     ethr =  2.14E-09,  avg # of iterations =  8.5

     total cpu time spent up to now is    14463.7 secs

     total energy              =   -4133.51579984 Ry
     estimated scf accuracy    <       0.00142524 Ry

     total magnetization       =     2.12 Bohr mag/cell
     absolute magnetization    =    17.42 Bohr mag/cell

     iteration #182     ecut=    60.00 Ry     beta= 0.30
     Davidson diagonalization with overlap
     c_bands:  2 eigenvalues not converged
     c_bands:  1 eigenvalues not converged
     c_bands:  1 eigenvalues not converged
     c_bands:  1 eigenvalues not converged
     c_bands:  1 eigenvalues not converged
     c_bands:  1 eigenvalues not converged
     c_bands:  1 eigenvalues not converged
     c_bands:  1 eigenvalues not converged
     c_bands:  1 eigenvalues not converged
     c_bands:  2 eigenvalues not converged
     c_bands:  3 eigenvalues not converged
     c_bands:  1 eigenvalues not converged
     c_bands:  1 eigenvalues not converged
     c_bands:  1 eigenvalues not converged
     c_bands:  2 eigenvalues not converged
     c_bands:  1 eigenvalues not converged
     c_bands:  1 eigenvalues not converged
     c_bands:  1 eigenvalues not converged
     c_bands:  1 eigenvalues not converged
     c_bands:  2 eigenvalues not converged
     ethr =  2.14E-09,  avg # of iterations = 18.1

     total cpu time spent up to now is    14513.6 secs

     total energy              =   -4133.49378485 Ry
     estimated scf accuracy    <       0.00070537 Ry

     total magnetization       =     2.33 Bohr mag/cell
     absolute magnetization    =    15.50 Bohr mag/cell

     iteration #183     ecut=    60.00 Ry     beta= 0.30
     Davidson diagonalization with overlap
     c_bands:  1 eigenvalues not converged
     c_bands:  1 eigenvalues not converged
     c_bands:  3 eigenvalues not converged
     c_bands:  5 eigenvalues not converged
     c_bands:  5 eigenvalues not converged
     c_bands:  1 eigenvalues not converged
     c_bands:  2 eigenvalues not converged
     c_bands:  1 eigenvalues not converged
     c_bands:  1 eigenvalues not converged
     c_bands:  1 eigenvalues not converged
     c_bands:  2 eigenvalues not converged
     c_bands:  1 eigenvalues not converged
     c_bands:  3 eigenvalues not converged
     c_bands:  2 eigenvalues not converged
     c_bands:  1 eigenvalues not converged
     c_bands:  1 eigenvalues not converged
     c_bands:  1 eigenvalues not converged
     c_bands:  1 eigenvalues not converged
     c_bands:  2 eigenvalues not converged
     c_bands:  1 eigenvalues not converged
     c_bands:  2 eigenvalues not converged
     c_bands:  1 eigenvalues not converged
     c_bands:  1 eigenvalues not converged
     c_bands:  4 eigenvalues not converged
     c_bands:  2 eigenvalues not converged
     c_bands:  3 eigenvalues not converged
     c_bands:  2 eigenvalues not converged
     c_bands:  2 eigenvalues not converged
     c_bands:  1 eigenvalues not converged
     c_bands:  3 eigenvalues not converged
     c_bands:  2 eigenvalues not converged
     c_bands:  3 eigenvalues not converged
     c_bands:  3 eigenvalues not converged
     ethr =  2.14E-09,  avg # of iterations = 19.0

     total cpu time spent up to now is    14566.5 secs

     total energy              =   -4133.51193491 Ry
     estimated scf accuracy    <       0.00292660 Ry

     total magnetization       =     1.90 Bohr mag/cell
     absolute magnetization    =    19.10 Bohr mag/cell

     iteration #184     ecut=    60.00 Ry     beta= 0.30
     Davidson diagonalization with overlap
     c_bands:  1 eigenvalues not converged
     c_bands:  1 eigenvalues not converged
     c_bands:  1 eigenvalues not converged
     c_bands:  1 eigenvalues not converged
     c_bands:  1 eigenvalues not converged
     c_bands:  1 eigenvalues not converged
     ethr =  2.14E-09,  avg # of iterations = 12.9

     total cpu time spent up to now is    14607.7 secs

     total energy              =   -4133.51032833 Ry
     estimated scf accuracy    <       0.00352240 Ry

     total magnetization       =     1.86 Bohr mag/cell
     absolute magnetization    =    19.53 Bohr mag/cell

     iteration #185     ecut=    60.00 Ry     beta= 0.30
     Davidson diagonalization with overlap
     c_bands:  1 eigenvalues not converged
     c_bands:  2 eigenvalues not converged
     c_bands:  3 eigenvalues not converged
     c_bands:  1 eigenvalues not converged
     c_bands:  1 eigenvalues not converged
     c_bands:  1 eigenvalues not converged
     c_bands:  1 eigenvalues not converged
     c_bands:  1 eigenvalues not converged
     c_bands:  1 eigenvalues not converged
     c_bands:  1 eigenvalues not converged
     c_bands:  1 eigenvalues not converged
     c_bands:  1 eigenvalues not converged
     c_bands:  2 eigenvalues not converged
     c_bands:  3 eigenvalues not converged
     c_bands:  1 eigenvalues not converged
     c_bands:  2 eigenvalues not converged
     c_bands:  3 eigenvalues not converged
     c_bands:  3 eigenvalues not converged
     c_bands:  2 eigenvalues not converged
     c_bands:  1 eigenvalues not converged
     c_bands:  1 eigenvalues not converged
     c_bands:  2 eigenvalues not converged
     c_bands:  3 eigenvalues not converged
     c_bands:  3 eigenvalues not converged
     c_bands:  2 eigenvalues not converged
     ethr =  2.14E-09,  avg # of iterations = 18.7

     total cpu time spent up to now is    14660.0 secs

     total energy              =   -4133.51533452 Ry
     estimated scf accuracy    <       0.00111851 Ry

     total magnetization       =     2.10 Bohr mag/cell
     absolute magnetization    =    17.17 Bohr mag/cell

     iteration #186     ecut=    60.00 Ry     beta= 0.30
     Davidson diagonalization with overlap
     ethr =  2.14E-09,  avg # of iterations = 12.3

     total cpu time spent up to now is    14701.0 secs

     total energy              =   -4133.40654935 Ry
     estimated scf accuracy    <       0.00177221 Ry

     total magnetization       =     2.00 Bohr mag/cell
     absolute magnetization    =    18.10 Bohr mag/cell

     iteration #187     ecut=    60.00 Ry     beta= 0.30
     Davidson diagonalization with overlap
     c_bands:  3 eigenvalues not converged
     c_bands:  2 eigenvalues not converged
     c_bands:  1 eigenvalues not converged
     c_bands:  1 eigenvalues not converged
     c_bands:  3 eigenvalues not converged
     c_bands:  5 eigenvalues not converged
     c_bands:  2 eigenvalues not converged
     c_bands:  1 eigenvalues not converged
     c_bands:  2 eigenvalues not converged
     c_bands:  1 eigenvalues not converged
     c_bands:  2 eigenvalues not converged
     c_bands:  2 eigenvalues not converged
     c_bands:  2 eigenvalues not converged
     c_bands:  2 eigenvalues not converged
     c_bands:  1 eigenvalues not converged
     c_bands:  1 eigenvalues not converged
     c_bands:  1 eigenvalues not converged
     c_bands:  3 eigenvalues not converged
     c_bands:  1 eigenvalues not converged
     c_bands:  1 eigenvalues not converged
     ethr =  2.14E-09,  avg # of iterations = 29.1

     total cpu time spent up to now is    14771.7 secs

     total energy              =   -4133.52358506 Ry
     estimated scf accuracy    <       0.00007754 Ry

     total magnetization       =     3.17 Bohr mag/cell
     absolute magnetization    =     8.66 Bohr mag/cell

     iteration #188     ecut=    60.00 Ry     beta= 0.30
     Davidson diagonalization with overlap
     c_bands:  2 eigenvalues not converged
     c_bands:  1 eigenvalues not converged
     c_bands:  1 eigenvalues not converged
     ethr =  2.14E-09,  avg # of iterations = 10.6

     total cpu time spent up to now is    14809.4 secs

     total energy              =   -4133.52303400 Ry
     estimated scf accuracy    <       0.00001067 Ry

     total magnetization       =     3.23 Bohr mag/cell
     absolute magnetization    =     8.47 Bohr mag/cell

     iteration #189     ecut=    60.00 Ry     beta= 0.30
     Davidson diagonalization with overlap
     c_bands:  2 eigenvalues not converged
     ethr =  2.14E-09,  avg # of iterations = 12.5

     total cpu time spent up to now is    14850.6 secs

     total energy              =   -4133.52368896 Ry
     estimated scf accuracy    <       0.00000982 Ry

     total magnetization       =     3.33 Bohr mag/cell
     absolute magnetization    =     7.74 Bohr mag/cell

     iteration #190     ecut=    60.00 Ry     beta= 0.30
     Davidson diagonalization with overlap
     ethr =  2.14E-09,  avg # of iterations =  9.8

     total cpu time spent up to now is    14887.9 secs

     total energy              =   -4133.52325969 Ry
     estimated scf accuracy    <       0.00001343 Ry

     total magnetization       =     3.36 Bohr mag/cell
     absolute magnetization    =     7.44 Bohr mag/cell

     iteration #191     ecut=    60.00 Ry     beta= 0.30
     Davidson diagonalization with overlap
     c_bands:  1 eigenvalues not converged
     ethr =  2.14E-09,  avg # of iterations = 12.3

     total cpu time spent up to now is    14928.2 secs

     total energy              =   -4133.51985282 Ry
     estimated scf accuracy    <       0.00001715 Ry

     total magnetization       =     3.46 Bohr mag/cell
     absolute magnetization    =     6.79 Bohr mag/cell

     iteration #192     ecut=    60.00 Ry     beta= 0.30
     Davidson diagonalization with overlap
     c_bands:  1 eigenvalues not converged
     c_bands:  2 eigenvalues not converged
     c_bands:  2 eigenvalues not converged
     c_bands:  1 eigenvalues not converged
     c_bands:  1 eigenvalues not converged
     c_bands:  1 eigenvalues not converged
     c_bands:  1 eigenvalues not converged
     c_bands:  1 eigenvalues not converged
     c_bands:  2 eigenvalues not converged
     c_bands:  1 eigenvalues not converged
     c_bands:  2 eigenvalues not converged
     c_bands:  1 eigenvalues not converged
     c_bands:  1 eigenvalues not converged
     c_bands:  1 eigenvalues not converged
     c_bands:  2 eigenvalues not converged
     c_bands:  2 eigenvalues not converged
     c_bands:  1 eigenvalues not converged
     c_bands:  1 eigenvalues not converged
     c_bands:  3 eigenvalues not converged
     ethr =  2.14E-09,  avg # of iterations = 17.8

     total cpu time spent up to now is    14977.5 secs

     total energy              =   -4133.52415436 Ry
     estimated scf accuracy    <       0.00004004 Ry

     total magnetization       =     3.68 Bohr mag/cell
     absolute magnetization    =     5.53 Bohr mag/cell

     iteration #193     ecut=    60.00 Ry     beta= 0.30
     Davidson diagonalization with overlap
     c_bands:  1 eigenvalues not converged
     ethr =  2.14E-09,  avg # of iterations = 12.2

     total cpu time spent up to now is    15017.6 secs

     total energy              =   -4133.52378938 Ry
     estimated scf accuracy    <       0.00005419 Ry

     total magnetization       =     3.73 Bohr mag/cell
     absolute magnetization    =     5.29 Bohr mag/cell

     iteration #194     ecut=    60.00 Ry     beta= 0.30
     Davidson diagonalization with overlap
     c_bands:  1 eigenvalues not converged
     c_bands:  1 eigenvalues not converged
     c_bands:  1 eigenvalues not converged
     c_bands:  1 eigenvalues not converged
     ethr =  2.14E-09,  avg # of iterations = 13.0

     total cpu time spent up to now is    15059.7 secs

     total energy              =   -4133.52452332 Ry
     estimated scf accuracy    <       0.00010031 Ry

     total magnetization       =     3.82 Bohr mag/cell
     absolute magnetization    =     5.06 Bohr mag/cell

     iteration #195     ecut=    60.00 Ry     beta= 0.30
     Davidson diagonalization with overlap
     c_bands:  1 eigenvalues not converged
     ethr =  2.14E-09,  avg # of iterations = 10.1

     total cpu time spent up to now is    15096.9 secs

     total energy              =   -4133.39997370 Ry
     estimated scf accuracy    <       0.00007850 Ry

     total magnetization       =     3.78 Bohr mag/cell
     absolute magnetization    =     5.12 Bohr mag/cell

     iteration #196     ecut=    60.00 Ry     beta= 0.30
     Davidson diagonalization with overlap
     c_bands:  1 eigenvalues not converged
     c_bands:  1 eigenvalues not converged
     c_bands:  5 eigenvalues not converged
     c_bands:  1 eigenvalues not converged
     c_bands:  2 eigenvalues not converged
     c_bands:  1 eigenvalues not converged
     c_bands:  1 eigenvalues not converged
     c_bands:  3 eigenvalues not converged
     c_bands:  1 eigenvalues not converged
     c_bands:  1 eigenvalues not converged
     c_bands:  2 eigenvalues not converged
     c_bands:  1 eigenvalues not converged
     c_bands:  5 eigenvalues not converged
     c_bands:  1 eigenvalues not converged
     c_bands:  2 eigenvalues not converged
     c_bands:  5 eigenvalues not converged
     c_bands:  1 eigenvalues not converged
     c_bands:  4 eigenvalues not converged
     c_bands:  1 eigenvalues not converged
     c_bands:  1 eigenvalues not converged
     ethr =  2.14E-09,  avg # of iterations = 29.2

     total cpu time spent up to now is    15167.4 secs

     total energy              =   -4133.49729004 Ry
     estimated scf accuracy    <       0.00013061 Ry

     total magnetization       =     2.54 Bohr mag/cell
     absolute magnetization    =    13.39 Bohr mag/cell

     iteration #197     ecut=    60.00 Ry     beta= 0.30
     Davidson diagonalization with overlap
     c_bands:  1 eigenvalues not converged
     c_bands:  1 eigenvalues not converged
     c_bands:  1 eigenvalues not converged
     c_bands:  4 eigenvalues not converged
     c_bands:  1 eigenvalues not converged
     c_bands:  1 eigenvalues not converged
     c_bands:  2 eigenvalues not converged
     c_bands:  2 eigenvalues not converged
     c_bands:  1 eigenvalues not converged
     c_bands:  3 eigenvalues not converged
     c_bands:  1 eigenvalues not converged
     c_bands:  1 eigenvalues not converged
     c_bands:  1 eigenvalues not converged
     c_bands:  2 eigenvalues not converged
     c_bands:  2 eigenvalues not converged
     c_bands:  2 eigenvalues not converged
     c_bands:  1 eigenvalues not converged
     c_bands:  1 eigenvalues not converged
     c_bands:  2 eigenvalues not converged
     c_bands:  3 eigenvalues not converged
     c_bands:  1 eigenvalues not converged
     c_bands:  1 eigenvalues not converged
     c_bands:  5 eigenvalues not converged
     c_bands:  4 eigenvalues not converged
     c_bands:  1 eigenvalues not converged
     c_bands:  4 eigenvalues not converged
     c_bands:  3 eigenvalues not converged
     c_bands:  3 eigenvalues not converged
     c_bands:  3 eigenvalues not converged
     c_bands:  5 eigenvalues not converged
     c_bands:  1 eigenvalues not converged
     c_bands:  1 eigenvalues not converged
     c_bands:  5 eigenvalues not converged
     c_bands:  1 eigenvalues not converged
     c_bands:  2 eigenvalues not converged
     c_bands:  3 eigenvalues not converged
     c_bands:  3 eigenvalues not converged
     c_bands:  4 eigenvalues not converged
     c_bands:  4 eigenvalues not converged
     c_bands:  5 eigenvalues not converged
     ethr =  2.14E-09,  avg # of iterations = 19.1

     total cpu time spent up to now is    15221.3 secs

     total energy              =   -4133.39130043 Ry
     estimated scf accuracy    <       0.00002170 Ry

     total magnetization       =     3.16 Bohr mag/cell
     absolute magnetization    =     8.87 Bohr mag/cell

     iteration #198     ecut=    60.00 Ry     beta= 0.30
     Davidson diagonalization with overlap
     c_bands:  2 eigenvalues not converged
     c_bands:  5 eigenvalues not converged
     c_bands:  1 eigenvalues not converged
     c_bands:  2 eigenvalues not converged
     c_bands:  4 eigenvalues not converged
     c_bands:  1 eigenvalues not converged
     c_bands:  1 eigenvalues not converged
     c_bands:  1 eigenvalues not converged
     c_bands:  5 eigenvalues not converged
     c_bands:  4 eigenvalues not converged
     c_bands:  3 eigenvalues not converged
     c_bands:  3 eigenvalues not converged
     c_bands:  2 eigenvalues not converged
     c_bands:  1 eigenvalues not converged
     c_bands:  4 eigenvalues not converged
     c_bands:  5 eigenvalues not converged
     c_bands:  2 eigenvalues not converged
     c_bands:  1 eigenvalues not converged
     c_bands:  2 eigenvalues not converged
     c_bands:  5 eigenvalues not converged
     ethr =  2.14E-09,  avg # of iterations = 31.1

     total cpu time spent up to now is    15295.3 secs

     total energy              =   -4133.44953971 Ry
     estimated scf accuracy    <       0.00174191 Ry

     total magnetization       =     4.16 Bohr mag/cell
     absolute magnetization    =     8.44 Bohr mag/cell

     iteration #199     ecut=    60.00 Ry     beta= 0.30
     Davidson diagonalization with overlap
     c_bands:  4 eigenvalues not converged
     c_bands:  1 eigenvalues not converged
     c_bands:  1 eigenvalues not converged
     c_bands:  1 eigenvalues not converged
     c_bands:  2 eigenvalues not converged
     c_bands:  3 eigenvalues not converged
     c_bands:  4 eigenvalues not converged
     c_bands:  2 eigenvalues not converged
     c_bands:  1 eigenvalues not converged
     c_bands:  1 eigenvalues not converged
     c_bands:  5 eigenvalues not converged
     c_bands:  1 eigenvalues not converged
     c_bands:  2 eigenvalues not converged
     c_bands:  4 eigenvalues not converged
     c_bands:  1 eigenvalues not converged
     c_bands:  5 eigenvalues not converged
     c_bands:  2 eigenvalues not converged
     c_bands:  5 eigenvalues not converged
     c_bands:  4 eigenvalues not converged
     c_bands:  1 eigenvalues not converged
     c_bands:  5 eigenvalues not converged
     c_bands:  5 eigenvalues not converged
     c_bands:  2 eigenvalues not converged
     c_bands:  4 eigenvalues not converged
     c_bands:  5 eigenvalues not converged
     c_bands:  1 eigenvalues not converged
     c_bands:  1 eigenvalues not converged
     c_bands:  4 eigenvalues not converged
     ethr =  2.14E-09,  avg # of iterations = 24.5

     total cpu time spent up to now is    15358.7 secs

     total energy              =   -4133.50623051 Ry
     estimated scf accuracy    <       0.00003621 Ry

     total magnetization       =     3.50 Bohr mag/cell
     absolute magnetization    =     6.42 Bohr mag/cell

     iteration #200     ecut=    60.00 Ry     beta= 0.30
     Davidson diagonalization with overlap
     c_bands:  1 eigenvalues not converged
     c_bands:  2 eigenvalues not converged
     c_bands:  1 eigenvalues not converged
     c_bands:  2 eigenvalues not converged
     c_bands:  2 eigenvalues not converged
     c_bands:  2 eigenvalues not converged
     c_bands:  1 eigenvalues not converged
     c_bands:  1 eigenvalues not converged
     c_bands:  1 eigenvalues not converged
     c_bands:  1 eigenvalues not converged
     c_bands:  4 eigenvalues not converged
     c_bands:  2 eigenvalues not converged
     c_bands:  2 eigenvalues not converged
     c_bands:  1 eigenvalues not converged
     c_bands:  1 eigenvalues not converged
     c_bands:  1 eigenvalues not converged
     c_bands:  2 eigenvalues not converged
     c_bands:  1 eigenvalues not converged
     c_bands:  3 eigenvalues not converged
     c_bands:  2 eigenvalues not converged
     c_bands:  1 eigenvalues not converged
     c_bands:  2 eigenvalues not converged
     c_bands:  2 eigenvalues not converged
     c_bands:  1 eigenvalues not converged
     c_bands:  1 eigenvalues not converged
     c_bands:  3 eigenvalues not converged
     c_bands:  3 eigenvalues not converged
     c_bands:  1 eigenvalues not converged
     c_bands:  2 eigenvalues not converged
     c_bands:  2 eigenvalues not converged
     c_bands:  1 eigenvalues not converged
     ethr =  2.14E-09,  avg # of iterations = 19.0

     total cpu time spent up to now is    15410.2 secs

     total energy              =   -4133.47063360 Ry
     estimated scf accuracy    <       0.00015951 Ry

     total magnetization       =     3.89 Bohr mag/cell
     absolute magnetization    =     5.28 Bohr mag/cell

     iteration #201     ecut=    60.00 Ry     beta= 0.30
     Davidson diagonalization with overlap
     c_bands:  1 eigenvalues not converged
     c_bands:  1 eigenvalues not converged
     c_bands:  3 eigenvalues not converged
     c_bands:  1 eigenvalues not converged
     c_bands:  1 eigenvalues not converged
     c_bands:  2 eigenvalues not converged
     c_bands:  1 eigenvalues not converged
     c_bands:  1 eigenvalues not converged
     c_bands:  1 eigenvalues not converged
     c_bands:  3 eigenvalues not converged
     c_bands:  1 eigenvalues not converged
     c_bands:  1 eigenvalues not converged
     c_bands:  1 eigenvalues not converged
     c_bands:  4 eigenvalues not converged
     c_bands:  2 eigenvalues not converged
     c_bands:  1 eigenvalues not converged
     c_bands:  5 eigenvalues not converged
     c_bands:  4 eigenvalues not converged
     c_bands:  3 eigenvalues not converged
     c_bands:  2 eigenvalues not converged
     c_bands:  1 eigenvalues not converged
     c_bands:  1 eigenvalues not converged
     c_bands:  2 eigenvalues not converged
     c_bands:  3 eigenvalues not converged
     c_bands:  1 eigenvalues not converged
     c_bands:  1 eigenvalues not converged
     c_bands:  4 eigenvalues not converged
     c_bands:  2 eigenvalues not converged
     c_bands:  3 eigenvalues not converged
     c_bands:  2 eigenvalues not converged
     c_bands:  1 eigenvalues not converged
     c_bands:  3 eigenvalues not converged
     c_bands:  3 eigenvalues not converged
     c_bands:  1 eigenvalues not converged
     c_bands:  1 eigenvalues not converged
     c_bands:  4 eigenvalues not converged
     ethr =  2.14E-09,  avg # of iterations = 23.4

     total cpu time spent up to now is    15471.7 secs

     total energy              =   -4133.52849828 Ry
     estimated scf accuracy    <       0.00621235 Ry

     total magnetization       =     4.30 Bohr mag/cell
     absolute magnetization    =    11.06 Bohr mag/cell

     iteration #202     ecut=    60.00 Ry     beta= 0.30
     Davidson diagonalization with overlap
     c_bands:  2 eigenvalues not converged
     c_bands:  1 eigenvalues not converged
     c_bands:  1 eigenvalues not converged
     c_bands:  1 eigenvalues not converged
     c_bands:  1 eigenvalues not converged
     c_bands:  1 eigenvalues not converged
     ethr =  2.14E-09,  avg # of iterations =  9.6

     total cpu time spent up to now is    15507.3 secs

     total energy              =   -4133.52853039 Ry
     estimated scf accuracy    <       0.00687336 Ry

     total magnetization       =     4.32 Bohr mag/cell
     absolute magnetization    =    10.97 Bohr mag/cell

     iteration #203     ecut=    60.00 Ry     beta= 0.30
     Davidson diagonalization with overlap
     c_bands:  1 eigenvalues not converged
     c_bands:  1 eigenvalues not converged
     c_bands:  1 eigenvalues not converged
     c_bands:  1 eigenvalues not converged
     c_bands:  1 eigenvalues not converged
     ethr =  2.14E-09,  avg # of iterations = 12.0

     total cpu time spent up to now is    15546.4 secs

     total energy              =   -4133.48345517 Ry
     estimated scf accuracy    <       0.00772166 Ry

     total magnetization       =     4.33 Bohr mag/cell
     absolute magnetization    =    11.34 Bohr mag/cell

     iteration #204     ecut=    60.00 Ry     beta= 0.30
     Davidson diagonalization with overlap
     c_bands:  2 eigenvalues not converged
     c_bands:  2 eigenvalues not converged
     c_bands:  1 eigenvalues not converged
     c_bands:  3 eigenvalues not converged
     c_bands:  3 eigenvalues not converged
     c_bands:  4 eigenvalues not converged
     c_bands:  2 eigenvalues not converged
     c_bands:  2 eigenvalues not converged
     c_bands:  2 eigenvalues not converged
     c_bands:  3 eigenvalues not converged
     c_bands:  3 eigenvalues not converged
     c_bands:  2 eigenvalues not converged
     c_bands:  3 eigenvalues not converged
     c_bands:  2 eigenvalues not converged
     c_bands:  5 eigenvalues not converged
     c_bands:  1 eigenvalues not converged
     c_bands:  1 eigenvalues not converged
     c_bands:  1 eigenvalues not converged
     c_bands:  2 eigenvalues not converged
     c_bands:  4 eigenvalues not converged
     c_bands:  1 eigenvalues not converged
     c_bands:  1 eigenvalues not converged
     c_bands:  3 eigenvalues not converged
     c_bands:  2 eigenvalues not converged
     c_bands:  2 eigenvalues not converged
     c_bands:  1 eigenvalues not converged
     c_bands:  3 eigenvalues not converged
     c_bands:  1 eigenvalues not converged
     c_bands:  1 eigenvalues not converged
     c_bands:  4 eigenvalues not converged
     c_bands:  1 eigenvalues not converged
     c_bands:  3 eigenvalues not converged
     c_bands:  2 eigenvalues not converged
     c_bands:  2 eigenvalues not converged
     c_bands:  2 eigenvalues not converged
     c_bands:  3 eigenvalues not converged
     ethr =  2.14E-09,  avg # of iterations = 20.7

     total cpu time spent up to now is    15603.1 secs

     total energy              =   -4133.51548662 Ry
     estimated scf accuracy    <       0.00032786 Ry

     total magnetization       =     3.98 Bohr mag/cell
     absolute magnetization    =     6.20 Bohr mag/cell

     iteration #205     ecut=    60.00 Ry     beta= 0.30
     Davidson diagonalization with overlap
     c_bands:  1 eigenvalues not converged
     c_bands:  2 eigenvalues not converged
     c_bands:  3 eigenvalues not converged
     c_bands:  2 eigenvalues not converged
     c_bands:  3 eigenvalues not converged
     c_bands:  1 eigenvalues not converged
     c_bands:  4 eigenvalues not converged
     c_bands:  2 eigenvalues not converged
     c_bands:  3 eigenvalues not converged
     c_bands:  3 eigenvalues not converged
     c_bands:  1 eigenvalues not converged
     c_bands:  1 eigenvalues not converged
     c_bands:  4 eigenvalues not converged
     c_bands:  1 eigenvalues not converged
     c_bands:  1 eigenvalues not converged
     c_bands:  1 eigenvalues not converged
     c_bands:  1 eigenvalues not converged
     c_bands:  1 eigenvalues not converged
     c_bands:  4 eigenvalues not converged
     c_bands:  1 eigenvalues not converged
     c_bands:  1 eigenvalues not converged
     c_bands:  1 eigenvalues not converged
     c_bands:  1 eigenvalues not converged
     c_bands:  1 eigenvalues not converged
     c_bands:  1 eigenvalues not converged
     c_bands:  3 eigenvalues not converged
     c_bands:  1 eigenvalues not converged
     c_bands:  1 eigenvalues not converged
     ethr =  2.14E-09,  avg # of iterations = 18.6

     total cpu time spent up to now is    15655.1 secs

     total energy              =   -4133.38452180 Ry
     estimated scf accuracy    <       0.00219329 Ry

     total magnetization       =     4.19 Bohr mag/cell
     absolute magnetization    =     8.86 Bohr mag/cell

     iteration #206     ecut=    60.00 Ry     beta= 0.30
     Davidson diagonalization with overlap
     c_bands:  3 eigenvalues not converged
     c_bands:  1 eigenvalues not converged
     c_bands:  2 eigenvalues not converged
     c_bands:  3 eigenvalues not converged
     c_bands:  2 eigenvalues not converged
     c_bands:  2 eigenvalues not converged
     c_bands:  1 eigenvalues not converged
     c_bands:  1 eigenvalues not converged
     c_bands:  2 eigenvalues not converged
     c_bands:  2 eigenvalues not converged
     c_bands:  1 eigenvalues not converged
     c_bands:  1 eigenvalues not converged
     c_bands:  3 eigenvalues not converged
     c_bands:  5 eigenvalues not converged
     c_bands:  1 eigenvalues not converged
     c_bands:  1 eigenvalues not converged
     c_bands:  1 eigenvalues not converged
     c_bands:  5 eigenvalues not converged
     c_bands:  1 eigenvalues not converged
     c_bands:  1 eigenvalues not converged
     c_bands:  5 eigenvalues not converged
     c_bands:  1 eigenvalues not converged
     c_bands:  1 eigenvalues not converged
     c_bands:  2 eigenvalues not converged
     c_bands:  2 eigenvalues not converged
     ethr =  2.14E-09,  avg # of iterations = 30.5

     total cpu time spent up to now is    15727.2 secs

     total energy              =   -4133.52252372 Ry
     estimated scf accuracy    <       0.00013311 Ry

     total magnetization       =     3.17 Bohr mag/cell
     absolute magnetization    =     8.50 Bohr mag/cell

     iteration #207     ecut=    60.00 Ry     beta= 0.30
     Davidson diagonalization with overlap
     c_bands:  1 eigenvalues not converged
     c_bands:  1 eigenvalues not converged
     ethr =  2.14E-09,  avg # of iterations = 12.8

     total cpu time spent up to now is    15768.2 secs

     total energy              =   -4133.52232329 Ry
     estimated scf accuracy    <       0.00011192 Ry

     total magnetization       =     3.05 Bohr mag/cell
     absolute magnetization    =     9.37 Bohr mag/cell

     iteration #208     ecut=    60.00 Ry     beta= 0.30
     Davidson diagonalization with overlap
     c_bands:  1 eigenvalues not converged
     c_bands:  1 eigenvalues not converged
     c_bands:  1 eigenvalues not converged
     ethr =  2.14E-09,  avg # of iterations = 12.3

     total cpu time spent up to now is    15809.2 secs

     total energy              =   -4133.52309853 Ry
     estimated scf accuracy    <       0.00003200 Ry

     total magnetization       =     2.93 Bohr mag/cell
     absolute magnetization    =    10.30 Bohr mag/cell

     iteration #209     ecut=    60.00 Ry     beta= 0.30
     Davidson diagonalization with overlap
     c_bands:  1 eigenvalues not converged
     c_bands:  1 eigenvalues not converged
     ethr =  2.14E-09,  avg # of iterations = 12.4

     total cpu time spent up to now is    15848.8 secs

     total energy              =   -4133.50369886 Ry
     estimated scf accuracy    <       0.00002831 Ry

     total magnetization       =     2.87 Bohr mag/cell
     absolute magnetization    =    10.74 Bohr mag/cell

     iteration #210     ecut=    60.00 Ry     beta= 0.30
     Davidson diagonalization with overlap
     c_bands:  1 eigenvalues not converged
     c_bands:  1 eigenvalues not converged
     c_bands:  1 eigenvalues not converged
     c_bands:  4 eigenvalues not converged
     c_bands:  4 eigenvalues not converged
     c_bands:  3 eigenvalues not converged
     c_bands:  4 eigenvalues not converged
     c_bands:  2 eigenvalues not converged
     c_bands:  3 eigenvalues not converged
     c_bands:  1 eigenvalues not converged
     c_bands:  1 eigenvalues not converged
     c_bands:  4 eigenvalues not converged
     c_bands:  4 eigenvalues not converged
     c_bands:  3 eigenvalues not converged
     c_bands:  4 eigenvalues not converged
     c_bands:  5 eigenvalues not converged
     c_bands:  2 eigenvalues not converged
     c_bands:  3 eigenvalues not converged
     c_bands:  4 eigenvalues not converged
     c_bands:  1 eigenvalues not converged
     c_bands:  2 eigenvalues not converged
     c_bands:  5 eigenvalues not converged
     c_bands:  5 eigenvalues not converged
     c_bands:  2 eigenvalues not converged
     c_bands:  3 eigenvalues not converged
     c_bands:  1 eigenvalues not converged
     c_bands:  2 eigenvalues not converged
     c_bands:  5 eigenvalues not converged
     c_bands:  4 eigenvalues not converged
     c_bands:  1 eigenvalues not converged
     c_bands:  2 eigenvalues not converged
     c_bands:  1 eigenvalues not converged
     c_bands:  5 eigenvalues not converged
     c_bands:  4 eigenvalues not converged
     c_bands:  2 eigenvalues not converged
     c_bands:  2 eigenvalues not converged
     c_bands:  2 eigenvalues not converged
     c_bands:  5 eigenvalues not converged
     c_bands:  5 eigenvalues not converged
     c_bands:  5 eigenvalues not converged
     c_bands:  1 eigenvalues not converged
     ethr =  2.14E-09,  avg # of iterations = 19.0

     total cpu time spent up to now is    15901.8 secs

     total energy              =   -4133.51775483 Ry
     estimated scf accuracy    <       0.00029552 Ry

     total magnetization       =     2.42 Bohr mag/cell
     absolute magnetization    =    14.46 Bohr mag/cell

     iteration #211     ecut=    60.00 Ry     beta= 0.30
     Davidson diagonalization with overlap
     c_bands:  1 eigenvalues not converged
     c_bands:  1 eigenvalues not converged
     c_bands:  1 eigenvalues not converged
     c_bands:  1 eigenvalues not converged
     c_bands:  1 eigenvalues not converged
     c_bands:  2 eigenvalues not converged
     c_bands:  1 eigenvalues not converged
     c_bands:  1 eigenvalues not converged
     c_bands:  1 eigenvalues not converged
     c_bands:  2 eigenvalues not converged
     c_bands:  2 eigenvalues not converged
     c_bands:  3 eigenvalues not converged
     c_bands:  1 eigenvalues not converged
     c_bands:  1 eigenvalues not converged
     c_bands:  1 eigenvalues not converged
     c_bands:  1 eigenvalues not converged
     c_bands:  1 eigenvalues not converged
     c_bands:  4 eigenvalues not converged
     c_bands:  1 eigenvalues not converged
     c_bands:  1 eigenvalues not converged
     c_bands:  1 eigenvalues not converged
     c_bands:  1 eigenvalues not converged
     c_bands:  1 eigenvalues not converged
     c_bands:  1 eigenvalues not converged
     ethr =  2.14E-09,  avg # of iterations = 17.0

     total cpu time spent up to now is    15948.6 secs

     total energy              =   -4133.51586095 Ry
     estimated scf accuracy    <       0.00052184 Ry

     total magnetization       =     2.21 Bohr mag/cell
     absolute magnetization    =    15.86 Bohr mag/cell

     iteration #212     ecut=    60.00 Ry     beta= 0.30
     Davidson diagonalization with overlap
     c_bands:  1 eigenvalues not converged
     c_bands:  1 eigenvalues not converged
     c_bands:  1 eigenvalues not converged
     c_bands:  1 eigenvalues not converged
     c_bands:  1 eigenvalues not converged
     c_bands:  3 eigenvalues not converged
     c_bands:  3 eigenvalues not converged
     ethr =  2.14E-09,  avg # of iterations = 15.2

     total cpu time spent up to now is    15994.2 secs

     total energy              =   -4133.38997297 Ry
     estimated scf accuracy    <       0.00117159 Ry

     total magnetization       =     2.06 Bohr mag/cell
     absolute magnetization    =    17.21 Bohr mag/cell

     iteration #213     ecut=    60.00 Ry     beta= 0.30
     Davidson diagonalization with overlap
     c_bands:  3 eigenvalues not converged
     c_bands:  3 eigenvalues not converged
     c_bands:  1 eigenvalues not converged
     c_bands:  2 eigenvalues not converged
     c_bands:  3 eigenvalues not converged
     c_bands:  4 eigenvalues not converged
     c_bands:  2 eigenvalues not converged
     c_bands:  2 eigenvalues not converged
     c_bands:  3 eigenvalues not converged
     c_bands:  3 eigenvalues not converged
     c_bands:  1 eigenvalues not converged
     c_bands:  1 eigenvalues not converged
     c_bands:  1 eigenvalues not converged
     c_bands:  1 eigenvalues not converged
     c_bands:  1 eigenvalues not converged
     c_bands:  2 eigenvalues not converged
     c_bands:  3 eigenvalues not converged
     ethr =  2.14E-09,  avg # of iterations = 29.1

     total cpu time spent up to now is    16065.6 secs

     total energy              =   -4133.45868544 Ry
     estimated scf accuracy    <       0.00015044 Ry

     total magnetization       =     3.36 Bohr mag/cell
     absolute magnetization    =     7.10 Bohr mag/cell

     iteration #214     ecut=    60.00 Ry     beta= 0.30
     Davidson diagonalization with overlap
     c_bands:  1 eigenvalues not converged
     c_bands:  5 eigenvalues not converged
     c_bands:  5 eigenvalues not converged
     c_bands:  1 eigenvalues not converged
     c_bands:  4 eigenvalues not converged
     c_bands:  1 eigenvalues not converged
     c_bands:  5 eigenvalues not converged
     c_bands:  5 eigenvalues not converged
     c_bands:  3 eigenvalues not converged
     c_bands:  1 eigenvalues not converged
     c_bands:  2 eigenvalues not converged
     c_bands:  5 eigenvalues not converged
     c_bands:  4 eigenvalues not converged
     c_bands:  1 eigenvalues not converged
     c_bands:  3 eigenvalues not converged
     c_bands:  3 eigenvalues not converged
     c_bands:  1 eigenvalues not converged
     c_bands:  1 eigenvalues not converged
     c_bands:  1 eigenvalues not converged
     c_bands:  3 eigenvalues not converged
     c_bands:  2 eigenvalues not converged
     c_bands:  1 eigenvalues not converged
     c_bands:  2 eigenvalues not converged
     c_bands:  5 eigenvalues not converged
     c_bands:  5 eigenvalues not converged
     c_bands:  1 eigenvalues not converged
     c_bands:  2 eigenvalues not converged
     c_bands:  1 eigenvalues not converged
     c_bands:  5 eigenvalues not converged
     c_bands:  2 eigenvalues not converged
     c_bands:  5 eigenvalues not converged
     c_bands:  2 eigenvalues not converged
     ethr =  2.14E-09,  avg # of iterations = 25.0

     total cpu time spent up to now is    16130.1 secs

     total energy              =   -4133.50251306 Ry
     estimated scf accuracy    <       0.00062440 Ry

     total magnetization       =     4.06 Bohr mag/cell
     absolute magnetization    =     7.33 Bohr mag/cell

     iteration #215     ecut=    60.00 Ry     beta= 0.30
     Davidson diagonalization with overlap
     c_bands:  3 eigenvalues not converged
     c_bands:  3 eigenvalues not converged
     c_bands:  3 eigenvalues not converged
     c_bands:  2 eigenvalues not converged
     c_bands:  4 eigenvalues not converged
     c_bands:  3 eigenvalues not converged
     c_bands:  1 eigenvalues not converged
     c_bands:  2 eigenvalues not converged
     c_bands:  1 eigenvalues not converged
     c_bands:  2 eigenvalues not converged
     c_bands:  3 eigenvalues not converged
     c_bands:  2 eigenvalues not converged
     c_bands:  3 eigenvalues not converged
     c_bands:  3 eigenvalues not converged
     c_bands:  3 eigenvalues not converged
     c_bands:  3 eigenvalues not converged
     c_bands:  2 eigenvalues not converged
     c_bands:  1 eigenvalues not converged
     c_bands:  1 eigenvalues not converged
     c_bands:  1 eigenvalues not converged
     c_bands:  1 eigenvalues not converged
     c_bands:  2 eigenvalues not converged
     c_bands:  2 eigenvalues not converged
     c_bands:  2 eigenvalues not converged
     c_bands:  1 eigenvalues not converged
     c_bands:  2 eigenvalues not converged
     c_bands:  2 eigenvalues not converged
     c_bands:  1 eigenvalues not converged
     c_bands:  5 eigenvalues not converged
     c_bands:  1 eigenvalues not converged
     c_bands:  2 eigenvalues not converged
     c_bands:  1 eigenvalues not converged
     c_bands:  3 eigenvalues not converged
     c_bands:  4 eigenvalues not converged
     c_bands:  1 eigenvalues not converged
     c_bands:  2 eigenvalues not converged
     c_bands:  2 eigenvalues not converged
     c_bands:  1 eigenvalues not converged
     c_bands:  2 eigenvalues not converged
     c_bands:  2 eigenvalues not converged
     c_bands:  4 eigenvalues not converged
     c_bands:  3 eigenvalues not converged
     c_bands:  3 eigenvalues not converged
     c_bands:  3 eigenvalues not converged
     c_bands:  1 eigenvalues not converged
     ethr =  2.14E-09,  avg # of iterations = 20.4

     total cpu time spent up to now is    16185.6 secs

     total energy              =   -4133.36053415 Ry
     estimated scf accuracy    <       0.00608814 Ry

     total magnetization       =     4.28 Bohr mag/cell
     absolute magnetization    =    11.37 Bohr mag/cell

     iteration #216     ecut=    60.00 Ry     beta= 0.30
     Davidson diagonalization with overlap
     c_bands:  1 eigenvalues not converged
     c_bands:  1 eigenvalues not converged
     c_bands:  5 eigenvalues not converged
     c_bands:  1 eigenvalues not converged
     c_bands:  1 eigenvalues not converged
     c_bands:  1 eigenvalues not converged
     c_bands:  3 eigenvalues not converged
     c_bands:  1 eigenvalues not converged
     c_bands:  1 eigenvalues not converged
     c_bands:  5 eigenvalues not converged
     c_bands:  5 eigenvalues not converged
     c_bands:  1 eigenvalues not converged
     c_bands:  2 eigenvalues not converged
     c_bands:  1 eigenvalues not converged
     c_bands:  4 eigenvalues not converged
     c_bands:  4 eigenvalues not converged
     c_bands:  1 eigenvalues not converged
     c_bands:  2 eigenvalues not converged
     c_bands:  2 eigenvalues not converged
     c_bands:  2 eigenvalues not converged
     c_bands:  1 eigenvalues not converged
     c_bands:  1 eigenvalues not converged
     ethr =  2.14E-09,  avg # of iterations = 30.2

     total cpu time spent up to now is    16258.5 secs

     total energy              =   -4133.52265353 Ry
     estimated scf accuracy    <       0.00015263 Ry

     total magnetization       =     3.41 Bohr mag/cell
     absolute magnetization    =     6.70 Bohr mag/cell

     iteration #217     ecut=    60.00 Ry     beta= 0.30
     Davidson diagonalization with overlap
     c_bands:  1 eigenvalues not converged
     c_bands:  1 eigenvalues not converged
     c_bands:  1 eigenvalues not converged
     ethr =  2.14E-09,  avg # of iterations = 12.8

     total cpu time spent up to now is    16300.7 secs

     total energy              =   -4133.52115909 Ry
     estimated scf accuracy    <       0.00014781 Ry

     total magnetization       =     3.54 Bohr mag/cell
     absolute magnetization    =     5.89 Bohr mag/cell

     iteration #218     ecut=    60.00 Ry     beta= 0.30
     Davidson diagonalization with overlap
     c_bands:  1 eigenvalues not converged
     c_bands:  1 eigenvalues not converged
     c_bands:  1 eigenvalues not converged
     ethr =  2.14E-09,  avg # of iterations = 14.1

     total cpu time spent up to now is    16344.9 secs

     total energy              =   -4133.49882674 Ry
     estimated scf accuracy    <       0.00016421 Ry

     total magnetization       =     3.36 Bohr mag/cell
     absolute magnetization    =     7.01 Bohr mag/cell

     iteration #219     ecut=    60.00 Ry     beta= 0.30
     Davidson diagonalization with overlap
     c_bands:  2 eigenvalues not converged
     c_bands:  2 eigenvalues not converged
     c_bands:  3 eigenvalues not converged
     c_bands:  1 eigenvalues not converged
     c_bands:  1 eigenvalues not converged
     c_bands:  2 eigenvalues not converged
     c_bands:  1 eigenvalues not converged
     c_bands:  2 eigenvalues not converged
     c_bands:  4 eigenvalues not converged
     c_bands:  1 eigenvalues not converged
     c_bands:  2 eigenvalues not converged
     c_bands:  1 eigenvalues not converged
     c_bands:  2 eigenvalues not converged
     c_bands:  3 eigenvalues not converged
     c_bands:  1 eigenvalues not converged
     c_bands:  1 eigenvalues not converged
     c_bands:  4 eigenvalues not converged
     c_bands:  1 eigenvalues not converged
     c_bands:  1 eigenvalues not converged
     c_bands:  1 eigenvalues not converged
     c_bands:  2 eigenvalues not converged
     c_bands:  2 eigenvalues not converged
     c_bands:  1 eigenvalues not converged
     c_bands:  3 eigenvalues not converged
     c_bands:  4 eigenvalues not converged
     c_bands:  3 eigenvalues not converged
     c_bands:  1 eigenvalues not converged
     c_bands:  2 eigenvalues not converged
     c_bands:  1 eigenvalues not converged
     c_bands:  1 eigenvalues not converged
     c_bands:  2 eigenvalues not converged
     c_bands:  3 eigenvalues not converged
     c_bands:  2 eigenvalues not converged
     c_bands:  3 eigenvalues not converged
     c_bands:  3 eigenvalues not converged
     c_bands:  3 eigenvalues not converged
     c_bands:  1 eigenvalues not converged
     ethr =  2.14E-09,  avg # of iterations = 19.2

     total cpu time spent up to now is    16398.1 secs

     total energy              =   -4133.52446683 Ry
     estimated scf accuracy    <       0.00007298 Ry

     total magnetization       =     3.84 Bohr mag/cell
     absolute magnetization    =     5.18 Bohr mag/cell

     iteration #220     ecut=    60.00 Ry     beta= 0.30
     Davidson diagonalization with overlap
     c_bands:  1 eigenvalues not converged
     c_bands:  1 eigenvalues not converged
     c_bands:  2 eigenvalues not converged
     c_bands:  1 eigenvalues not converged
     c_bands:  2 eigenvalues not converged
     ethr =  2.14E-09,  avg # of iterations = 13.1

     total cpu time spent up to now is    16440.7 secs

     total energy              =   -4133.52235997 Ry
     estimated scf accuracy    <       0.00010145 Ry

     total magnetization       =     3.91 Bohr mag/cell
     absolute magnetization    =     5.84 Bohr mag/cell

     iteration #221     ecut=    60.00 Ry     beta= 0.30
     Davidson diagonalization with overlap
     c_bands:  1 eigenvalues not converged
     c_bands:  1 eigenvalues not converged
     c_bands:  1 eigenvalues not converged
     ethr =  2.14E-09,  avg # of iterations = 14.4

     total cpu time spent up to now is    16485.7 secs

     total energy              =   -4133.46167373 Ry
     estimated scf accuracy    <       0.00013860 Ry

     total magnetization       =     3.77 Bohr mag/cell
     absolute magnetization    =     4.96 Bohr mag/cell

     iteration #222     ecut=    60.00 Ry     beta= 0.30
     Davidson diagonalization with overlap
     c_bands:  3 eigenvalues not converged
     c_bands:  1 eigenvalues not converged
     c_bands:  1 eigenvalues not converged
     c_bands:  3 eigenvalues not converged
     c_bands:  2 eigenvalues not converged
     c_bands:  4 eigenvalues not converged
     c_bands:  1 eigenvalues not converged
     c_bands:  5 eigenvalues not converged
     c_bands:  4 eigenvalues not converged
     c_bands:  5 eigenvalues not converged
     c_bands:  1 eigenvalues not converged
     c_bands:  2 eigenvalues not converged
     c_bands:  3 eigenvalues not converged
     c_bands:  4 eigenvalues not converged
     c_bands:  1 eigenvalues not converged
     c_bands:  3 eigenvalues not converged
     c_bands:  4 eigenvalues not converged
     c_bands:  5 eigenvalues not converged
     c_bands:  2 eigenvalues not converged
     c_bands:  3 eigenvalues not converged
     c_bands:  4 eigenvalues not converged
     c_bands:  1 eigenvalues not converged
     c_bands:  5 eigenvalues not converged
     c_bands:  5 eigenvalues not converged
     c_bands:  3 eigenvalues not converged
     c_bands:  3 eigenvalues not converged
     c_bands:  2 eigenvalues not converged
     c_bands:  3 eigenvalues not converged
     c_bands:  1 eigenvalues not converged
     c_bands:  1 eigenvalues not converged
     c_bands:  4 eigenvalues not converged
     c_bands:  5 eigenvalues not converged
     c_bands:  5 eigenvalues not converged
     c_bands:  2 eigenvalues not converged
     c_bands:  5 eigenvalues not converged
     ethr =  2.14E-09,  avg # of iterations = 22.9

     total cpu time spent up to now is    16546.5 secs

     total energy              =   -4133.52079659 Ry
     estimated scf accuracy    <       0.00000642 Ry

     total magnetization       =     3.03 Bohr mag/cell
     absolute magnetization    =     9.86 Bohr mag/cell

     iteration #223     ecut=    60.00 Ry     beta= 0.30
     Davidson diagonalization with overlap
     c_bands:  2 eigenvalues not converged
     c_bands:  1 eigenvalues not converged
     c_bands:  1 eigenvalues not converged
     c_bands:  3 eigenvalues not converged
     c_bands:  2 eigenvalues not converged
     c_bands:  1 eigenvalues not converged
     c_bands:  3 eigenvalues not converged
     ethr =  2.14E-09,  avg # of iterations = 15.0

     total cpu time spent up to now is    16591.5 secs

     total energy              =   -4133.52189779 Ry
     estimated scf accuracy    <       0.00002437 Ry

     total magnetization       =     2.84 Bohr mag/cell
     absolute magnetization    =    11.24 Bohr mag/cell

     iteration #224     ecut=    60.00 Ry     beta= 0.30
     Davidson diagonalization with overlap
     c_bands:  1 eigenvalues not converged
     c_bands:  1 eigenvalues not converged
     c_bands:  2 eigenvalues not converged
     c_bands:  1 eigenvalues not converged
     ethr =  2.14E-09,  avg # of iterations = 13.0

     total cpu time spent up to now is    16634.0 secs

     total energy              =   -4133.52301644 Ry
     estimated scf accuracy    <       0.00009475 Ry

     total magnetization       =     2.73 Bohr mag/cell
     absolute magnetization    =    12.19 Bohr mag/cell

     iteration #225     ecut=    60.00 Ry     beta= 0.30
     Davidson diagonalization with overlap
     c_bands:  1 eigenvalues not converged
     c_bands:  2 eigenvalues not converged
     ethr =  2.14E-09,  avg # of iterations =  7.5

     total cpu time spent up to now is    16665.5 secs

     total energy              =   -4133.52128472 Ry
     estimated scf accuracy    <       0.00014255 Ry

     total magnetization       =     2.72 Bohr mag/cell
     absolute magnetization    =    12.29 Bohr mag/cell

     iteration #226     ecut=    60.00 Ry     beta= 0.30
     Davidson diagonalization with overlap
     ethr =  2.14E-09,  avg # of iterations = 13.0

     total cpu time spent up to now is    16708.3 secs

     total energy              =   -4133.52103653 Ry
     estimated scf accuracy    <       0.00005426 Ry

     total magnetization       =     2.89 Bohr mag/cell
     absolute magnetization    =    11.04 Bohr mag/cell

     iteration #227     ecut=    60.00 Ry     beta= 0.30
     Davidson diagonalization with overlap
     ethr =  2.14E-09,  avg # of iterations = 13.5

     total cpu time spent up to now is    16751.2 secs

     total energy              =   -4133.51896037 Ry
     estimated scf accuracy    <       0.00001413 Ry

     total magnetization       =     3.07 Bohr mag/cell
     absolute magnetization    =     9.65 Bohr mag/cell

     iteration #228     ecut=    60.00 Ry     beta= 0.30
     Davidson diagonalization with overlap
     c_bands:  2 eigenvalues not converged
     c_bands:  1 eigenvalues not converged
     c_bands:  2 eigenvalues not converged
     c_bands:  2 eigenvalues not converged
     c_bands:  2 eigenvalues not converged
     c_bands:  1 eigenvalues not converged
     c_bands:  2 eigenvalues not converged
     c_bands:  2 eigenvalues not converged
     c_bands:  2 eigenvalues not converged
     c_bands:  1 eigenvalues not converged
     c_bands:  1 eigenvalues not converged
     c_bands:  3 eigenvalues not converged
     c_bands:  1 eigenvalues not converged
     c_bands:  2 eigenvalues not converged
     c_bands:  1 eigenvalues not converged
     c_bands:  3 eigenvalues not converged
     c_bands:  2 eigenvalues not converged
     c_bands:  1 eigenvalues not converged
     c_bands:  1 eigenvalues not converged
     c_bands:  4 eigenvalues not converged
     ethr =  2.14E-09,  avg # of iterations = 17.7

     total cpu time spent up to now is    16800.5 secs

     total energy              =   -4133.52234708 Ry
     estimated scf accuracy    <       0.00001072 Ry

     total magnetization       =     3.33 Bohr mag/cell
     absolute magnetization    =     7.74 Bohr mag/cell

     iteration #229     ecut=    60.00 Ry     beta= 0.30
     Davidson diagonalization with overlap
     c_bands:  1 eigenvalues not converged
     c_bands:  1 eigenvalues not converged
     ethr =  2.14E-09,  avg # of iterations = 12.7

     total cpu time spent up to now is    16842.0 secs

     total energy              =   -4133.51918758 Ry
     estimated scf accuracy    <       0.00000732 Ry

     total magnetization       =     3.20 Bohr mag/cell
     absolute magnetization    =     8.72 Bohr mag/cell

     iteration #230     ecut=    60.00 Ry     beta= 0.30
     Davidson diagonalization with overlap
     c_bands:  2 eigenvalues not converged
     c_bands:  2 eigenvalues not converged
     c_bands:  1 eigenvalues not converged
     c_bands:  1 eigenvalues not converged
     c_bands:  2 eigenvalues not converged
     c_bands:  2 eigenvalues not converged
     c_bands:  1 eigenvalues not converged
     c_bands:  1 eigenvalues not converged
     c_bands:  1 eigenvalues not converged
     c_bands:  2 eigenvalues not converged
     c_bands:  4 eigenvalues not converged
     c_bands:  1 eigenvalues not converged
     ethr =  2.14E-09,  avg # of iterations = 16.3

     total cpu time spent up to now is    16889.8 secs

     total energy              =   -4133.51822334 Ry
     estimated scf accuracy    <       0.00004587 Ry

     total magnetization       =     2.96 Bohr mag/cell
     absolute magnetization    =    10.52 Bohr mag/cell

     iteration #231     ecut=    60.00 Ry     beta= 0.30
     Davidson diagonalization with overlap
     c_bands:  2 eigenvalues not converged
     c_bands:  2 eigenvalues not converged
     c_bands:  1 eigenvalues not converged
     c_bands:  1 eigenvalues not converged
     c_bands:  2 eigenvalues not converged
     c_bands:  2 eigenvalues not converged
     c_bands:  1 eigenvalues not converged
     c_bands:  1 eigenvalues not converged
     c_bands:  1 eigenvalues not converged
     c_bands:  1 eigenvalues not converged
     c_bands:  2 eigenvalues not converged
     c_bands:  1 eigenvalues not converged
     c_bands:  1 eigenvalues not converged
     c_bands:  2 eigenvalues not converged
     c_bands:  1 eigenvalues not converged
     c_bands:  1 eigenvalues not converged
     c_bands:  1 eigenvalues not converged
     c_bands:  1 eigenvalues not converged
     c_bands:  1 eigenvalues not converged
     ethr =  2.14E-09,  avg # of iterations = 17.7

     total cpu time spent up to now is    16939.0 secs

     total energy              =   -4133.52351665 Ry
     estimated scf accuracy    <       0.00000757 Ry

     total magnetization       =     3.23 Bohr mag/cell
     absolute magnetization    =     8.46 Bohr mag/cell

     iteration #232     ecut=    60.00 Ry     beta= 0.30
     Davidson diagonalization with overlap
     ethr =  2.14E-09,  avg # of iterations =  8.9

     total cpu time spent up to now is    16973.8 secs

     total energy              =   -4133.52352158 Ry
     estimated scf accuracy    <       0.00000759 Ry

     total magnetization       =     3.19 Bohr mag/cell
     absolute magnetization    =     8.75 Bohr mag/cell

     iteration #233     ecut=    60.00 Ry     beta= 0.30
     Davidson diagonalization with overlap
     ethr =  2.14E-09,  avg # of iterations =  8.9

     total cpu time spent up to now is    17009.1 secs

     total energy              =   -4133.52359416 Ry
     estimated scf accuracy    <       0.00000916 Ry

     total magnetization       =     3.16 Bohr mag/cell
     absolute magnetization    =     8.98 Bohr mag/cell

     iteration #234     ecut=    60.00 Ry     beta= 0.30
     Davidson diagonalization with overlap
     ethr =  2.14E-09,  avg # of iterations =  5.7

     total cpu time spent up to now is    17039.0 secs

     total energy              =   -4133.52301465 Ry
     estimated scf accuracy    <       0.00000787 Ry

     total magnetization       =     3.18 Bohr mag/cell
     absolute magnetization    =     8.89 Bohr mag/cell

     iteration #235     ecut=    60.00 Ry     beta= 0.30
     Davidson diagonalization with overlap
     ethr =  2.14E-09,  avg # of iterations = 11.8

     total cpu time spent up to now is    17078.6 secs

     total energy              =   -4133.52010575 Ry
     estimated scf accuracy    <       0.00000938 Ry

     total magnetization       =     3.09 Bohr mag/cell
     absolute magnetization    =     9.51 Bohr mag/cell

     iteration #236     ecut=    60.00 Ry     beta= 0.30
     Davidson diagonalization with overlap
     c_bands:  1 eigenvalues not converged
     c_bands:  2 eigenvalues not converged
     c_bands:  1 eigenvalues not converged
     c_bands:  1 eigenvalues not converged
     ethr =  2.14E-09,  avg # of iterations = 14.5

     total cpu time spent up to now is    17123.3 secs

     total energy              =   -4133.52234041 Ry
     estimated scf accuracy    <       0.00002695 Ry

     total magnetization       =     2.87 Bohr mag/cell
     absolute magnetization    =    11.08 Bohr mag/cell

     iteration #237     ecut=    60.00 Ry     beta= 0.30
     Davidson diagonalization with overlap
     ethr =  2.14E-09,  avg # of iterations = 12.0

     total cpu time spent up to now is    17164.5 secs

     total energy              =   -4133.51020016 Ry
     estimated scf accuracy    <       0.00002269 Ry

     total magnetization       =     3.01 Bohr mag/cell
     absolute magnetization    =    10.17 Bohr mag/cell

     iteration #238     ecut=    60.00 Ry     beta= 0.30
     Davidson diagonalization with overlap
     c_bands:  1 eigenvalues not converged
     c_bands:  3 eigenvalues not converged
     c_bands:  1 eigenvalues not converged
     c_bands:  3 eigenvalues not converged
     c_bands:  4 eigenvalues not converged
     c_bands:  3 eigenvalues not converged
     c_bands:  4 eigenvalues not converged
     c_bands:  3 eigenvalues not converged
     c_bands:  1 eigenvalues not converged
     c_bands:  1 eigenvalues not converged
     c_bands:  3 eigenvalues not converged
     c_bands:  3 eigenvalues not converged
     c_bands:  2 eigenvalues not converged
     c_bands:  4 eigenvalues not converged
     c_bands:  3 eigenvalues not converged
     c_bands:  4 eigenvalues not converged
     c_bands:  2 eigenvalues not converged
     c_bands:  5 eigenvalues not converged
     c_bands:  5 eigenvalues not converged
     c_bands:  3 eigenvalues not converged
     c_bands:  4 eigenvalues not converged
     c_bands:  2 eigenvalues not converged
     c_bands:  5 eigenvalues not converged
     c_bands:  3 eigenvalues not converged
     c_bands:  3 eigenvalues not converged
     c_bands:  4 eigenvalues not converged
     c_bands:  2 eigenvalues not converged
     ethr =  2.14E-09,  avg # of iterations = 18.6

     total cpu time spent up to now is    17216.5 secs

     total energy              =   -4133.51372310 Ry
     estimated scf accuracy    <       0.00002223 Ry

     total magnetization       =     3.45 Bohr mag/cell
     absolute magnetization    =     6.99 Bohr mag/cell

     iteration #239     ecut=    60.00 Ry     beta= 0.30
     Davidson diagonalization with overlap
     c_bands:  2 eigenvalues not converged
     c_bands:  1 eigenvalues not converged
     c_bands:  3 eigenvalues not converged
     c_bands:  2 eigenvalues not converged
     c_bands:  2 eigenvalues not converged
     c_bands:  3 eigenvalues not converged
     c_bands:  1 eigenvalues not converged
     c_bands:  2 eigenvalues not converged
     c_bands:  1 eigenvalues not converged
     c_bands:  1 eigenvalues not converged
     c_bands:  3 eigenvalues not converged
     c_bands:  2 eigenvalues not converged
     c_bands:  3 eigenvalues not converged
     c_bands:  2 eigenvalues not converged
     c_bands:  2 eigenvalues not converged
     c_bands:  1 eigenvalues not converged
     ethr =  2.14E-09,  avg # of iterations = 18.3

     total cpu time spent up to now is    17267.1 secs

     total energy              =   -4133.51396002 Ry
     estimated scf accuracy    <       0.00001662 Ry

     total magnetization       =     3.08 Bohr mag/cell
     absolute magnetization    =     9.65 Bohr mag/cell

     iteration #240     ecut=    60.00 Ry     beta= 0.30
     Davidson diagonalization with overlap
     c_bands:  1 eigenvalues not converged
     c_bands:  1 eigenvalues not converged
     c_bands:  2 eigenvalues not converged
     c_bands:  1 eigenvalues not converged
     c_bands:  1 eigenvalues not converged
     c_bands:  1 eigenvalues not converged
     c_bands:  5 eigenvalues not converged
     c_bands:  3 eigenvalues not converged
     c_bands:  1 eigenvalues not converged
     c_bands:  3 eigenvalues not converged
     c_bands:  1 eigenvalues not converged
     c_bands:  1 eigenvalues not converged
     c_bands:  3 eigenvalues not converged
     c_bands:  4 eigenvalues not converged
     c_bands:  2 eigenvalues not converged
     c_bands:  2 eigenvalues not converged
     c_bands:  3 eigenvalues not converged
     c_bands:  3 eigenvalues not converged
     c_bands:  1 eigenvalues not converged
     c_bands:  2 eigenvalues not converged
     c_bands:  1 eigenvalues not converged
     c_bands:  2 eigenvalues not converged
     c_bands:  2 eigenvalues not converged
     c_bands:  1 eigenvalues not converged
     c_bands:  2 eigenvalues not converged
     c_bands:  1 eigenvalues not converged
     c_bands:  2 eigenvalues not converged
     c_bands:  1 eigenvalues not converged
     c_bands:  5 eigenvalues not converged
     c_bands:  1 eigenvalues not converged
     c_bands:  3 eigenvalues not converged
     c_bands:  3 eigenvalues not converged
     c_bands:  2 eigenvalues not converged
     c_bands:  1 eigenvalues not converged
     ethr =  2.14E-09,  avg # of iterations = 19.2

     total cpu time spent up to now is    17319.6 secs

     total energy              =   -4133.50756407 Ry
     estimated scf accuracy    <       0.00006145 Ry

     total magnetization       =     2.70 Bohr mag/cell
     absolute magnetization    =    12.27 Bohr mag/cell

     iteration #241     ecut=    60.00 Ry     beta= 0.30
     Davidson diagonalization with overlap
     c_bands:  1 eigenvalues not converged
     c_bands:  1 eigenvalues not converged
     c_bands:  2 eigenvalues not converged
     c_bands:  1 eigenvalues not converged
     c_bands:  3 eigenvalues not converged
     c_bands:  3 eigenvalues not converged
     c_bands:  4 eigenvalues not converged
     c_bands:  2 eigenvalues not converged
     c_bands:  1 eigenvalues not converged
     c_bands:  2 eigenvalues not converged
     c_bands:  3 eigenvalues not converged
     c_bands:  3 eigenvalues not converged
     c_bands:  3 eigenvalues not converged
     c_bands:  4 eigenvalues not converged
     c_bands:  4 eigenvalues not converged
     c_bands:  2 eigenvalues not converged
     c_bands:  1 eigenvalues not converged
     c_bands:  4 eigenvalues not converged
     c_bands:  3 eigenvalues not converged
     c_bands:  2 eigenvalues not converged
     c_bands:  1 eigenvalues not converged
     c_bands:  2 eigenvalues not converged
     c_bands:  4 eigenvalues not converged
     c_bands:  2 eigenvalues not converged
     c_bands:  3 eigenvalues not converged
     c_bands:  2 eigenvalues not converged
     c_bands:  3 eigenvalues not converged
     c_bands:  1 eigenvalues not converged
     c_bands:  2 eigenvalues not converged
     c_bands:  2 eigenvalues not converged
     c_bands:  4 eigenvalues not converged
     c_bands:  2 eigenvalues not converged
     c_bands:  1 eigenvalues not converged
     c_bands:  3 eigenvalues not converged
     ethr =  2.14E-09,  avg # of iterations = 18.8

     total cpu time spent up to now is    17372.5 secs

     total energy              =   -4133.52274242 Ry
     estimated scf accuracy    <       0.00000967 Ry

     total magnetization       =     3.20 Bohr mag/cell
     absolute magnetization    =     8.75 Bohr mag/cell

     iteration #242     ecut=    60.00 Ry     beta= 0.30
     Davidson diagonalization with overlap
     c_bands:  2 eigenvalues not converged
     ethr =  2.14E-09,  avg # of iterations = 12.3

     total cpu time spent up to now is    17414.0 secs

     total energy              =   -4133.52354681 Ry
     estimated scf accuracy    <       0.00001214 Ry

     total magnetization       =     3.32 Bohr mag/cell
     absolute magnetization    =     7.89 Bohr mag/cell

     iteration #243     ecut=    60.00 Ry     beta= 0.30
     Davidson diagonalization with overlap
     c_bands:  1 eigenvalues not converged
     c_bands:  1 eigenvalues not converged
     ethr =  2.14E-09,  avg # of iterations = 12.2

     total cpu time spent up to now is    17453.7 secs

     total energy              =   -4133.52376955 Ry
     estimated scf accuracy    <       0.00001547 Ry

     total magnetization       =     3.38 Bohr mag/cell
     absolute magnetization    =     7.47 Bohr mag/cell

     iteration #244     ecut=    60.00 Ry     beta= 0.30
     Davidson diagonalization with overlap
     ethr =  2.14E-09,  avg # of iterations =  6.6

     total cpu time spent up to now is    17485.1 secs

     total energy              =   -4133.52369955 Ry
     estimated scf accuracy    <       0.00001398 Ry

     total magnetization       =     3.37 Bohr mag/cell
     absolute magnetization    =     7.58 Bohr mag/cell

     iteration #245     ecut=    60.00 Ry     beta= 0.30
     Davidson diagonalization with overlap
     ethr =  2.14E-09,  avg # of iterations =  8.5

     total cpu time spent up to now is    17519.8 secs

     total energy              =   -4133.52312494 Ry
     estimated scf accuracy    <       0.00001266 Ry

     total magnetization       =     3.34 Bohr mag/cell
     absolute magnetization    =     7.78 Bohr mag/cell

     iteration #246     ecut=    60.00 Ry     beta= 0.30
     Davidson diagonalization with overlap
     ethr =  2.14E-09,  avg # of iterations = 12.0

     total cpu time spent up to now is    17559.7 secs

     total energy              =   -4133.52112096 Ry
     estimated scf accuracy    <       0.00002082 Ry

     total magnetization       =     3.44 Bohr mag/cell
     absolute magnetization    =     7.07 Bohr mag/cell

     iteration #247     ecut=    60.00 Ry     beta= 0.30
     Davidson diagonalization with overlap
     c_bands:  2 eigenvalues not converged
     c_bands:  1 eigenvalues not converged
     c_bands:  1 eigenvalues not converged
     c_bands:  2 eigenvalues not converged
     c_bands:  1 eigenvalues not converged
     c_bands:  1 eigenvalues not converged
     c_bands:  1 eigenvalues not converged
     ethr =  2.14E-09,  avg # of iterations = 15.0

     total cpu time spent up to now is    17605.0 secs

     total energy              =   -4133.52421497 Ry
     estimated scf accuracy    <       0.00004993 Ry

     total magnetization       =     3.63 Bohr mag/cell
     absolute magnetization    =     5.91 Bohr mag/cell

     iteration #248     ecut=    60.00 Ry     beta= 0.30
     Davidson diagonalization with overlap
     ethr =  2.14E-09,  avg # of iterations =  6.9

     total cpu time spent up to now is    17637.0 secs

     total energy              =   -4133.52334870 Ry
     estimated scf accuracy    <       0.00005798 Ry

     total magnetization       =     3.64 Bohr mag/cell
     absolute magnetization    =     5.84 Bohr mag/cell

     iteration #249     ecut=    60.00 Ry     beta= 0.30
     Davidson diagonalization with overlap
     c_bands:  1 eigenvalues not converged
     ethr =  2.14E-09,  avg # of iterations = 12.2

     total cpu time spent up to now is    17676.4 secs

     total energy              =   -4133.46340973 Ry
     estimated scf accuracy    <       0.00004194 Ry

     total magnetization       =     3.56 Bohr mag/cell
     absolute magnetization    =     6.33 Bohr mag/cell

     iteration #250     ecut=    60.00 Ry     beta= 0.30
     Davidson diagonalization with overlap
     c_bands:  4 eigenvalues not converged
     c_bands:  2 eigenvalues not converged
     c_bands:  5 eigenvalues not converged
     c_bands:  1 eigenvalues not converged
     c_bands:  5 eigenvalues not converged
     c_bands:  2 eigenvalues not converged
     c_bands:  5 eigenvalues not converged
     c_bands:  1 eigenvalues not converged
     c_bands:  4 eigenvalues not converged
     c_bands:  3 eigenvalues not converged
     c_bands:  5 eigenvalues not converged
     c_bands:  5 eigenvalues not converged
     c_bands:  2 eigenvalues not converged
     c_bands:  2 eigenvalues not converged
     c_bands:  5 eigenvalues not converged
     c_bands:  2 eigenvalues not converged
     c_bands:  1 eigenvalues not converged
     c_bands:  2 eigenvalues not converged
     c_bands:  1 eigenvalues not converged
     c_bands:  2 eigenvalues not converged
     c_bands:  4 eigenvalues not converged
     c_bands:  1 eigenvalues not converged
     c_bands:  4 eigenvalues not converged
     c_bands:  5 eigenvalues not converged
     c_bands:  1 eigenvalues not converged
     c_bands:  2 eigenvalues not converged
     c_bands:  5 eigenvalues not converged
     c_bands:  5 eigenvalues not converged
     c_bands:  3 eigenvalues not converged
     ethr =  2.14E-09,  avg # of iterations = 24.1

     total cpu time spent up to now is    17739.4 secs

     total energy              =   -4133.51645861 Ry
     estimated scf accuracy    <       0.00010478 Ry

     total magnetization       =     2.64 Bohr mag/cell
     absolute magnetization    =    12.79 Bohr mag/cell

     iteration #251     ecut=    60.00 Ry     beta= 0.30
     Davidson diagonalization with overlap
     c_bands:  1 eigenvalues not converged
     c_bands:  1 eigenvalues not converged
     c_bands:  3 eigenvalues not converged
     c_bands:  1 eigenvalues not converged
     c_bands:  1 eigenvalues not converged
     c_bands:  2 eigenvalues not converged
     c_bands:  1 eigenvalues not converged
     c_bands:  3 eigenvalues not converged
     c_bands:  1 eigenvalues not converged
     c_bands:  3 eigenvalues not converged
     c_bands:  2 eigenvalues not converged
     c_bands:  1 eigenvalues not converged
     c_bands:  1 eigenvalues not converged
     c_bands:  1 eigenvalues not converged
     c_bands:  2 eigenvalues not converged
     c_bands:  1 eigenvalues not converged
     c_bands:  1 eigenvalues not converged
     c_bands:  2 eigenvalues not converged
     c_bands:  3 eigenvalues not converged
     c_bands:  1 eigenvalues not converged
     c_bands:  3 eigenvalues not converged
     c_bands:  1 eigenvalues not converged
     c_bands:  2 eigenvalues not converged
     c_bands:  2 eigenvalues not converged
     c_bands:  1 eigenvalues not converged
     c_bands:  4 eigenvalues not converged
     c_bands:  5 eigenvalues not converged
     c_bands:  2 eigenvalues not converged
     c_bands:  1 eigenvalues not converged
     c_bands:  1 eigenvalues not converged
     c_bands:  1 eigenvalues not converged
     c_bands:  4 eigenvalues not converged
     c_bands:  4 eigenvalues not converged
     c_bands:  5 eigenvalues not converged
     c_bands:  2 eigenvalues not converged
     ethr =  2.14E-09,  avg # of iterations = 18.5

     total cpu time spent up to now is    17790.5 secs

     total energy              =   -4133.45967688 Ry
     estimated scf accuracy    <       0.00030679 Ry

     total magnetization       =     2.37 Bohr mag/cell
     absolute magnetization    =    14.76 Bohr mag/cell

     iteration #252     ecut=    60.00 Ry     beta= 0.30
     Davidson diagonalization with overlap
     c_bands:  1 eigenvalues not converged
     c_bands:  4 eigenvalues not converged
     c_bands:  2 eigenvalues not converged
     c_bands:  3 eigenvalues not converged
     c_bands:  4 eigenvalues not converged
     c_bands:  5 eigenvalues not converged
     c_bands:  2 eigenvalues not converged
     c_bands:  4 eigenvalues not converged
     c_bands:  2 eigenvalues not converged
     c_bands:  4 eigenvalues not converged
     c_bands:  4 eigenvalues not converged
     c_bands:  4 eigenvalues not converged
     c_bands:  5 eigenvalues not converged
     c_bands:  5 eigenvalues not converged
     c_bands:  1 eigenvalues not converged
     c_bands:  1 eigenvalues not converged
     c_bands:  2 eigenvalues not converged
     c_bands:  2 eigenvalues not converged
     c_bands:  5 eigenvalues not converged
     c_bands:  3 eigenvalues not converged
     c_bands:  4 eigenvalues not converged
     c_bands:  1 eigenvalues not converged
     c_bands:  3 eigenvalues not converged
     c_bands:  3 eigenvalues not converged
     c_bands:  5 eigenvalues not converged
     c_bands:  3 eigenvalues not converged
     c_bands:  4 eigenvalues not converged
     c_bands:  2 eigenvalues not converged
     c_bands:  3 eigenvalues not converged
     ethr =  2.14E-09,  avg # of iterations = 22.5

     total cpu time spent up to now is    17851.8 secs

     total energy              =   -4133.52170154 Ry
     estimated scf accuracy    <       0.00001540 Ry

     total magnetization       =     3.35 Bohr mag/cell
     absolute magnetization    =     7.75 Bohr mag/cell

     iteration #253     ecut=    60.00 Ry     beta= 0.30
     Davidson diagonalization with overlap
     ethr =  2.14E-09,  avg # of iterations = 13.0

     total cpu time spent up to now is    17894.3 secs

     total energy              =   -4133.52352530 Ry
     estimated scf accuracy    <       0.00001299 Ry

     total magnetization       =     3.18 Bohr mag/cell
     absolute magnetization    =     8.94 Bohr mag/cell

     iteration #254     ecut=    60.00 Ry     beta= 0.30
     Davidson diagonalization with overlap
     c_bands:  1 eigenvalues not converged
     ethr =  2.14E-09,  avg # of iterations =  8.9

     total cpu time spent up to now is    17929.1 secs

     total energy              =   -4133.52357704 Ry
     estimated scf accuracy    <       0.00001281 Ry

     total magnetization       =     3.15 Bohr mag/cell
     absolute magnetization    =     9.13 Bohr mag/cell

     iteration #255     ecut=    60.00 Ry     beta= 0.30
     Davidson diagonalization with overlap
     ethr =  2.14E-09,  avg # of iterations =  2.4

     total cpu time spent up to now is    17954.5 secs

     total energy              =   -4133.52122303 Ry
     estimated scf accuracy    <       0.00001195 Ry

     total magnetization       =     3.15 Bohr mag/cell
     absolute magnetization    =     9.11 Bohr mag/cell

     iteration #256     ecut=    60.00 Ry     beta= 0.30
     Davidson diagonalization with overlap
     ethr =  2.14E-09,  avg # of iterations = 13.6

     total cpu time spent up to now is    17997.5 secs

     total energy              =   -4133.52323997 Ry
     estimated scf accuracy    <       0.00002001 Ry

     total magnetization       =     2.97 Bohr mag/cell
     absolute magnetization    =    10.40 Bohr mag/cell

     iteration #257     ecut=    60.00 Ry     beta= 0.30
     Davidson diagonalization with overlap
     ethr =  2.14E-09,  avg # of iterations =  9.6

     total cpu time spent up to now is    18033.8 secs

     total energy              =   -4133.51036066 Ry
     estimated scf accuracy    <       0.00002872 Ry

     total magnetization       =     2.93 Bohr mag/cell
     absolute magnetization    =    10.71 Bohr mag/cell

     iteration #258     ecut=    60.00 Ry     beta= 0.30
     Davidson diagonalization with overlap
     c_bands:  1 eigenvalues not converged
     c_bands:  5 eigenvalues not converged
     c_bands:  2 eigenvalues not converged
     c_bands:  4 eigenvalues not converged
     c_bands:  3 eigenvalues not converged
     c_bands:  2 eigenvalues not converged
     c_bands:  2 eigenvalues not converged
     c_bands:  3 eigenvalues not converged
     c_bands:  4 eigenvalues not converged
     c_bands:  2 eigenvalues not converged
     c_bands:  3 eigenvalues not converged
     c_bands:  3 eigenvalues not converged
     c_bands:  1 eigenvalues not converged
     c_bands:  1 eigenvalues not converged
     c_bands:  3 eigenvalues not converged
     c_bands:  3 eigenvalues not converged
     c_bands:  1 eigenvalues not converged
     c_bands:  2 eigenvalues not converged
     c_bands:  4 eigenvalues not converged
     c_bands:  1 eigenvalues not converged
     c_bands:  2 eigenvalues not converged
     c_bands:  1 eigenvalues not converged
     c_bands:  4 eigenvalues not converged
     c_bands:  2 eigenvalues not converged
     c_bands:  2 eigenvalues not converged
     c_bands:  4 eigenvalues not converged
     c_bands:  1 eigenvalues not converged
     c_bands:  1 eigenvalues not converged
     c_bands:  2 eigenvalues not converged
     ethr =  2.14E-09,  avg # of iterations = 18.6

     total cpu time spent up to now is    18085.5 secs

     total energy              =   -4133.52378375 Ry
     estimated scf accuracy    <       0.00001300 Ry

     total magnetization       =     3.37 Bohr mag/cell
     absolute magnetization    =     7.52 Bohr mag/cell

     iteration #259     ecut=    60.00 Ry     beta= 0.30
     Davidson diagonalization with overlap
     c_bands:  1 eigenvalues not converged
     c_bands:  1 eigenvalues not converged
     c_bands:  1 eigenvalues not converged
     ethr =  2.14E-09,  avg # of iterations =  9.1

     total cpu time spent up to now is    18120.2 secs

     total energy              =   -4133.52305474 Ry
     estimated scf accuracy    <       0.00001433 Ry

     total magnetization       =     3.40 Bohr mag/cell
     absolute magnetization    =     7.34 Bohr mag/cell

     iteration #260     ecut=    60.00 Ry     beta= 0.30
     Davidson diagonalization with overlap
     c_bands:  1 eigenvalues not converged
     ethr =  2.14E-09,  avg # of iterations = 12.3

     total cpu time spent up to now is    18160.9 secs

     total energy              =   -4133.51837709 Ry
     estimated scf accuracy    <       0.00001112 Ry

     total magnetization       =     3.30 Bohr mag/cell
     absolute magnetization    =     8.02 Bohr mag/cell

     iteration #261     ecut=    60.00 Ry     beta= 0.30
     Davidson diagonalization with overlap
     c_bands:  2 eigenvalues not converged
     c_bands:  1 eigenvalues not converged
     c_bands:  1 eigenvalues not converged
     c_bands:  3 eigenvalues not converged
     c_bands:  1 eigenvalues not converged
     c_bands:  1 eigenvalues not converged
     c_bands:  1 eigenvalues not converged
     c_bands:  1 eigenvalues not converged
     c_bands:  1 eigenvalues not converged
     c_bands:  2 eigenvalues not converged
     c_bands:  1 eigenvalues not converged
     c_bands:  4 eigenvalues not converged
     c_bands:  1 eigenvalues not converged
     c_bands:  1 eigenvalues not converged
     c_bands:  3 eigenvalues not converged
     ethr =  2.14E-09,  avg # of iterations = 17.8

     total cpu time spent up to now is    18210.3 secs

     total energy              =   -4133.52330518 Ry
     estimated scf accuracy    <       0.00001912 Ry

     total magnetization       =     3.03 Bohr mag/cell
     absolute magnetization    =     9.99 Bohr mag/cell

     iteration #262     ecut=    60.00 Ry     beta= 0.30
     Davidson diagonalization with overlap
     ethr =  2.14E-09,  avg # of iterations = 11.2

     total cpu time spent up to now is    18249.0 secs

     total energy              =   -4133.52140982 Ry
     estimated scf accuracy    <       0.00001450 Ry

     total magnetization       =     3.09 Bohr mag/cell
     absolute magnetization    =     9.58 Bohr mag/cell

     iteration #263     ecut=    60.00 Ry     beta= 0.30
     Davidson diagonalization with overlap
     ethr =  2.14E-09,  avg # of iterations = 12.8

     total cpu time spent up to now is    18291.5 secs

     total energy              =   -4133.52288991 Ry
     estimated scf accuracy    <       0.00002544 Ry

     total magnetization       =     2.91 Bohr mag/cell
     absolute magnetization    =    10.80 Bohr mag/cell

     iteration #264     ecut=    60.00 Ry     beta= 0.30
     Davidson diagonalization with overlap
     ethr =  2.14E-09,  avg # of iterations = 12.4

     total cpu time spent up to now is    18330.7 secs

     total energy              =   -4133.51674446 Ry
     estimated scf accuracy    <       0.00003360 Ry

     total magnetization       =     2.84 Bohr mag/cell
     absolute magnetization    =    11.33 Bohr mag/cell

     iteration #265     ecut=    60.00 Ry     beta= 0.30
     Davidson diagonalization with overlap
     c_bands:  2 eigenvalues not converged
     c_bands:  1 eigenvalues not converged
     c_bands:  2 eigenvalues not converged
     c_bands:  1 eigenvalues not converged
     c_bands:  2 eigenvalues not converged
     c_bands:  2 eigenvalues not converged
     c_bands:  2 eigenvalues not converged
     c_bands:  1 eigenvalues not converged
     c_bands:  2 eigenvalues not converged
     c_bands:  1 eigenvalues not converged
     c_bands:  2 eigenvalues not converged
     c_bands:  2 eigenvalues not converged
     c_bands:  1 eigenvalues not converged
     c_bands:  1 eigenvalues not converged
     c_bands:  2 eigenvalues not converged
     c_bands:  2 eigenvalues not converged
     c_bands:  2 eigenvalues not converged
     ethr =  2.14E-09,  avg # of iterations = 17.9

     total cpu time spent up to now is    18380.4 secs

     total energy              =   -4133.52327166 Ry
     estimated scf accuracy    <       0.00001101 Ry

     total magnetization       =     3.16 Bohr mag/cell
     absolute magnetization    =     9.03 Bohr mag/cell

     iteration #266     ecut=    60.00 Ry     beta= 0.30
     Davidson diagonalization with overlap
     ethr =  2.14E-09,  avg # of iterations = 12.4

     total cpu time spent up to now is    18420.4 secs

     total energy              =   -4133.52346821 Ry
     estimated scf accuracy    <       0.00001806 Ry

     total magnetization       =     3.25 Bohr mag/cell
     absolute magnetization    =     8.50 Bohr mag/cell

     iteration #267     ecut=    60.00 Ry     beta= 0.30
     Davidson diagonalization with overlap
     ethr =  2.14E-09,  avg # of iterations = 11.4

     total cpu time spent up to now is    18459.4 secs

     total energy              =   -4133.52275397 Ry
     estimated scf accuracy    <       0.00001869 Ry

     total magnetization       =     3.31 Bohr mag/cell
     absolute magnetization    =     8.07 Bohr mag/cell

     iteration #268     ecut=    60.00 Ry     beta= 0.30
     Davidson diagonalization with overlap
     ethr =  2.14E-09,  avg # of iterations = 12.2

     total cpu time spent up to now is    18499.8 secs

     total energy              =   -4133.52335276 Ry
     estimated scf accuracy    <       0.00001244 Ry

     total magnetization       =     3.19 Bohr mag/cell
     absolute magnetization    =     8.87 Bohr mag/cell

     iteration #269     ecut=    60.00 Ry     beta= 0.30
     Davidson diagonalization with overlap
     ethr =  2.14E-09,  avg # of iterations = 11.1

     total cpu time spent up to now is    18538.2 secs

     total energy              =   -4133.52273921 Ry
     estimated scf accuracy    <       0.00001117 Ry

     total magnetization       =     3.13 Bohr mag/cell
     absolute magnetization    =     9.26 Bohr mag/cell

     iteration #270     ecut=    60.00 Ry     beta= 0.30
     Davidson diagonalization with overlap
     ethr =  2.14E-09,  avg # of iterations = 12.0

     total cpu time spent up to now is    18578.6 secs

     total energy              =   -4133.52236033 Ry
     estimated scf accuracy    <       0.00001071 Ry

     total magnetization       =     3.25 Bohr mag/cell
     absolute magnetization    =     8.42 Bohr mag/cell

     iteration #271     ecut=    60.00 Ry     beta= 0.30
     Davidson diagonalization with overlap
     ethr =  2.14E-09,  avg # of iterations = 12.1

     total cpu time spent up to now is    18620.0 secs

     total energy              =   -4133.52164126 Ry
     estimated scf accuracy    <       0.00001333 Ry

     total magnetization       =     3.12 Bohr mag/cell
     absolute magnetization    =     9.37 Bohr mag/cell

     iteration #272     ecut=    60.00 Ry     beta= 0.30
     Davidson diagonalization with overlap
     ethr =  2.14E-09,  avg # of iterations = 12.8

     total cpu time spent up to now is    18662.3 secs

     total energy              =   -4133.49322795 Ry
     estimated scf accuracy    <       0.00003160 Ry

     total magnetization       =     2.95 Bohr mag/cell
     absolute magnetization    =    10.53 Bohr mag/cell

     iteration #273     ecut=    60.00 Ry     beta= 0.30
     Davidson diagonalization with overlap
     c_bands:  2 eigenvalues not converged
     c_bands:  1 eigenvalues not converged
     c_bands:  3 eigenvalues not converged
     c_bands:  2 eigenvalues not converged
     c_bands:  1 eigenvalues not converged
     c_bands:  1 eigenvalues not converged
     c_bands:  4 eigenvalues not converged
     c_bands:  2 eigenvalues not converged
     c_bands:  3 eigenvalues not converged
     c_bands:  1 eigenvalues not converged
     c_bands:  3 eigenvalues not converged
     c_bands:  2 eigenvalues not converged
     c_bands:  2 eigenvalues not converged
     c_bands:  3 eigenvalues not converged
     c_bands:  3 eigenvalues not converged
     c_bands:  1 eigenvalues not converged
     c_bands:  4 eigenvalues not converged
     c_bands:  2 eigenvalues not converged
     c_bands:  2 eigenvalues not converged
     c_bands:  3 eigenvalues not converged
     c_bands:  1 eigenvalues not converged
     c_bands:  5 eigenvalues not converged
     c_bands:  2 eigenvalues not converged
     c_bands:  4 eigenvalues not converged
     c_bands:  2 eigenvalues not converged
     c_bands:  1 eigenvalues not converged
     c_bands:  3 eigenvalues not converged
     c_bands:  1 eigenvalues not converged
     c_bands:  4 eigenvalues not converged
     c_bands:  2 eigenvalues not converged
     c_bands:  2 eigenvalues not converged
     c_bands:  4 eigenvalues not converged
     c_bands:  5 eigenvalues not converged
     c_bands:  5 eigenvalues not converged
     c_bands:  3 eigenvalues not converged
     c_bands:  2 eigenvalues not converged
     c_bands:  1 eigenvalues not converged
     c_bands:  1 eigenvalues not converged
     c_bands:  2 eigenvalues not converged
     c_bands:  2 eigenvalues not converged
     c_bands:  4 eigenvalues not converged
     c_bands:  3 eigenvalues not converged
     c_bands:  5 eigenvalues not converged
     ethr =  2.14E-09,  avg # of iterations = 19.4

     total cpu time spent up to now is    18716.4 secs

     total energy              =   -4133.45461094 Ry
     estimated scf accuracy    <       0.00034940 Ry

     total magnetization       =     2.31 Bohr mag/cell
     absolute magnetization    =    15.06 Bohr mag/cell

     iteration #274     ecut=    60.00 Ry     beta= 0.30
     Davidson diagonalization with overlap
     c_bands:  2 eigenvalues not converged
     c_bands:  1 eigenvalues not converged
     c_bands:  3 eigenvalues not converged
     c_bands:  1 eigenvalues not converged
     c_bands:  2 eigenvalues not converged
     c_bands:  1 eigenvalues not converged
     c_bands:  2 eigenvalues not converged
     c_bands:  4 eigenvalues not converged
     c_bands:  3 eigenvalues not converged
     c_bands:  5 eigenvalues not converged
     c_bands:  4 eigenvalues not converged
     c_bands:  4 eigenvalues not converged
     c_bands:  1 eigenvalues not converged
     c_bands:  1 eigenvalues not converged
     c_bands:  2 eigenvalues not converged
     c_bands:  2 eigenvalues not converged
     c_bands:  4 eigenvalues not converged
     c_bands:  4 eigenvalues not converged
     c_bands:  5 eigenvalues not converged
     c_bands:  3 eigenvalues not converged
     c_bands:  2 eigenvalues not converged
     c_bands:  2 eigenvalues not converged
     c_bands:  4 eigenvalues not converged
     c_bands:  3 eigenvalues not converged
     c_bands:  2 eigenvalues not converged
     c_bands:  1 eigenvalues not converged
     c_bands:  2 eigenvalues not converged
     c_bands:  5 eigenvalues not converged
     ethr =  2.14E-09,  avg # of iterations = 25.0

     total cpu time spent up to now is    18780.6 secs

     total energy              =   -4133.52269920 Ry
     estimated scf accuracy    <       0.00001027 Ry

     total magnetization       =     3.33 Bohr mag/cell
     absolute magnetization    =     7.80 Bohr mag/cell

     iteration #275     ecut=    60.00 Ry     beta= 0.30
     Davidson diagonalization with overlap
     c_bands:  1 eigenvalues not converged
     c_bands:  1 eigenvalues not converged
     c_bands:  1 eigenvalues not converged
     ethr =  2.14E-09,  avg # of iterations = 12.8

     total cpu time spent up to now is    18822.6 secs

     total energy              =   -4133.49571578 Ry
     estimated scf accuracy    <       0.00001685 Ry

     total magnetization       =     3.46 Bohr mag/cell
     absolute magnetization    =     6.91 Bohr mag/cell

     iteration #276     ecut=    60.00 Ry     beta= 0.30
     Davidson diagonalization with overlap
     c_bands:  1 eigenvalues not converged
     c_bands:  2 eigenvalues not converged
     c_bands:  3 eigenvalues not converged
     c_bands:  1 eigenvalues not converged
     c_bands:  1 eigenvalues not converged
     c_bands:  1 eigenvalues not converged
     c_bands:  1 eigenvalues not converged
     c_bands:  1 eigenvalues not converged
     c_bands:  5 eigenvalues not converged
     c_bands:  1 eigenvalues not converged
     c_bands:  5 eigenvalues not converged
     c_bands:  2 eigenvalues not converged
     c_bands:  1 eigenvalues not converged
     c_bands:  3 eigenvalues not converged
     c_bands:  4 eigenvalues not converged
     c_bands:  1 eigenvalues not converged
     c_bands:  1 eigenvalues not converged
     c_bands:  1 eigenvalues not converged
     c_bands:  5 eigenvalues not converged
     c_bands:  4 eigenvalues not converged
     c_bands:  2 eigenvalues not converged
     c_bands:  4 eigenvalues not converged
     c_bands:  2 eigenvalues not converged
     c_bands:  3 eigenvalues not converged
     c_bands:  3 eigenvalues not converged
     c_bands:  3 eigenvalues not converged
     c_bands:  3 eigenvalues not converged
     c_bands:  2 eigenvalues not converged
     c_bands:  2 eigenvalues not converged
     c_bands:  5 eigenvalues not converged
     c_bands:  2 eigenvalues not converged
     c_bands:  2 eigenvalues not converged
     c_bands:  4 eigenvalues not converged
     c_bands:  4 eigenvalues not converged
     c_bands:  3 eigenvalues not converged
     c_bands:  4 eigenvalues not converged
     c_bands:  4 eigenvalues not converged
     c_bands:  3 eigenvalues not converged
     c_bands:  5 eigenvalues not converged
     c_bands:  2 eigenvalues not converged
     ethr =  2.14E-09,  avg # of iterations = 19.8

     total cpu time spent up to now is    18878.0 secs

     total energy              =   -4133.51868123 Ry
     estimated scf accuracy    <       0.00055450 Ry

     total magnetization       =     3.98 Bohr mag/cell
     absolute magnetization    =     5.57 Bohr mag/cell

     iteration #277     ecut=    60.00 Ry     beta= 0.30
     Davidson diagonalization with overlap
     c_bands:  1 eigenvalues not converged
     c_bands:  3 eigenvalues not converged
     c_bands:  2 eigenvalues not converged
     c_bands:  1 eigenvalues not converged
     c_bands:  1 eigenvalues not converged
     c_bands:  1 eigenvalues not converged
     c_bands:  1 eigenvalues not converged
     c_bands:  2 eigenvalues not converged
     c_bands:  1 eigenvalues not converged
     c_bands:  1 eigenvalues not converged
     c_bands:  1 eigenvalues not converged
     c_bands:  1 eigenvalues not converged
     c_bands:  1 eigenvalues not converged
     c_bands:  1 eigenvalues not converged
     c_bands:  1 eigenvalues not converged
     c_bands:  1 eigenvalues not converged
     c_bands:  1 eigenvalues not converged
     ethr =  2.14E-09,  avg # of iterations = 17.9

     total cpu time spent up to now is    18929.2 secs

     total energy              =   -4133.51676254 Ry
     estimated scf accuracy    <       0.00013578 Ry

     total magnetization       =     3.77 Bohr mag/cell
     absolute magnetization    =     5.27 Bohr mag/cell

     iteration #278     ecut=    60.00 Ry     beta= 0.30
     Davidson diagonalization with overlap
     c_bands:  2 eigenvalues not converged
     c_bands:  1 eigenvalues not converged
     c_bands:  1 eigenvalues not converged
     c_bands:  5 eigenvalues not converged
     c_bands:  1 eigenvalues not converged
     c_bands:  2 eigenvalues not converged
     c_bands:  1 eigenvalues not converged
     c_bands:  1 eigenvalues not converged
     c_bands:  2 eigenvalues not converged
     c_bands:  1 eigenvalues not converged
     c_bands:  1 eigenvalues not converged
     c_bands:  2 eigenvalues not converged
     c_bands:  3 eigenvalues not converged
     c_bands:  3 eigenvalues not converged
     c_bands:  2 eigenvalues not converged
     c_bands:  1 eigenvalues not converged
     c_bands:  1 eigenvalues not converged
     c_bands:  3 eigenvalues not converged
     c_bands:  3 eigenvalues not converged
     c_bands:  3 eigenvalues not converged
     c_bands:  1 eigenvalues not converged
     c_bands:  1 eigenvalues not converged
     c_bands:  3 eigenvalues not converged
     ethr =  2.14E-09,  avg # of iterations = 18.3

     total cpu time spent up to now is    18981.7 secs

     total energy              =   -4133.52102183 Ry
     estimated scf accuracy    <       0.00002320 Ry

     total magnetization       =     3.50 Bohr mag/cell
     absolute magnetization    =     6.66 Bohr mag/cell

     iteration #279     ecut=    60.00 Ry     beta= 0.30
     Davidson diagonalization with overlap
     c_bands:  1 eigenvalues not converged
     c_bands:  1 eigenvalues not converged
     c_bands:  3 eigenvalues not converged
     c_bands:  1 eigenvalues not converged
     ethr =  2.14E-09,  avg # of iterations = 14.8

     total cpu time spent up to now is    19028.4 secs

     total energy              =   -4133.52305091 Ry
     estimated scf accuracy    <       0.00001035 Ry

     total magnetization       =     3.31 Bohr mag/cell
     absolute magnetization    =     7.97 Bohr mag/cell

     iteration #280     ecut=    60.00 Ry     beta= 0.30
     Davidson diagonalization with overlap
     c_bands:  1 eigenvalues not converged
     ethr =  2.14E-09,  avg # of iterations = 12.4

     total cpu time spent up to now is    19068.8 secs

     total energy              =   -4133.52247769 Ry
     estimated scf accuracy    <       0.00000889 Ry

     total magnetization       =     3.22 Bohr mag/cell
     absolute magnetization    =     8.63 Bohr mag/cell

     iteration #281     ecut=    60.00 Ry     beta= 0.30
     Davidson diagonalization with overlap
     c_bands:  1 eigenvalues not converged
     ethr =  2.14E-09,  avg # of iterations = 12.3

     total cpu time spent up to now is    19109.8 secs

     total energy              =   -4133.52351828 Ry
     estimated scf accuracy    <       0.00000846 Ry

     total magnetization       =     3.09 Bohr mag/cell
     absolute magnetization    =     9.52 Bohr mag/cell

     iteration #282     ecut=    60.00 Ry     beta= 0.30
     Davidson diagonalization with overlap
     c_bands:  1 eigenvalues not converged
     ethr =  2.14E-09,  avg # of iterations =  7.1

     total cpu time spent up to now is    19141.5 secs

     total energy              =   -4133.51684828 Ry
     estimated scf accuracy    <       0.00000853 Ry

     total magnetization       =     3.11 Bohr mag/cell
     absolute magnetization    =     9.39 Bohr mag/cell

     iteration #283     ecut=    60.00 Ry     beta= 0.30
     Davidson diagonalization with overlap
     c_bands:  2 eigenvalues not converged
     c_bands:  2 eigenvalues not converged
     c_bands:  1 eigenvalues not converged
     c_bands:  1 eigenvalues not converged
     c_bands:  1 eigenvalues not converged
     c_bands:  2 eigenvalues not converged
     c_bands:  2 eigenvalues not converged
     c_bands:  1 eigenvalues not converged
     c_bands:  1 eigenvalues not converged
     c_bands:  1 eigenvalues not converged
     c_bands:  1 eigenvalues not converged
     c_bands:  2 eigenvalues not converged
     c_bands:  1 eigenvalues not converged
     c_bands:  2 eigenvalues not converged
     c_bands:  1 eigenvalues not converged
     c_bands:  1 eigenvalues not converged
     c_bands:  3 eigenvalues not converged
     c_bands:  1 eigenvalues not converged
     c_bands:  1 eigenvalues not converged
     c_bands:  1 eigenvalues not converged
     c_bands:  1 eigenvalues not converged
     c_bands:  1 eigenvalues not converged
     c_bands:  3 eigenvalues not converged
     ethr =  2.14E-09,  avg # of iterations = 18.0

     total cpu time spent up to now is    19191.0 secs

     total energy              =   -4133.52041476 Ry
     estimated scf accuracy    <       0.00003309 Ry

     total magnetization       =     2.79 Bohr mag/cell
     absolute magnetization    =    11.59 Bohr mag/cell

     iteration #284     ecut=    60.00 Ry     beta= 0.30
     Davidson diagonalization with overlap
     c_bands:  1 eigenvalues not converged
     c_bands:  1 eigenvalues not converged
     c_bands:  3 eigenvalues not converged
     c_bands:  1 eigenvalues not converged
     c_bands:  2 eigenvalues not converged
     ethr =  2.14E-09,  avg # of iterations = 14.7

     total cpu time spent up to now is    19235.1 secs

     total energy              =   -4133.47347059 Ry
     estimated scf accuracy    <       0.00007932 Ry

     total magnetization       =     2.60 Bohr mag/cell
     absolute magnetization    =    12.93 Bohr mag/cell

     iteration #285     ecut=    60.00 Ry     beta= 0.30
     Davidson diagonalization with overlap
     c_bands:  3 eigenvalues not converged
     c_bands:  4 eigenvalues not converged
     c_bands:  1 eigenvalues not converged
     c_bands:  1 eigenvalues not converged
     c_bands:  1 eigenvalues not converged
     c_bands:  3 eigenvalues not converged
     c_bands:  5 eigenvalues not converged
     c_bands:  4 eigenvalues not converged
     c_bands:  1 eigenvalues not converged
     c_bands:  2 eigenvalues not converged
     c_bands:  1 eigenvalues not converged
     c_bands:  1 eigenvalues not converged
     c_bands:  2 eigenvalues not converged
     c_bands:  5 eigenvalues not converged
     c_bands:  4 eigenvalues not converged
     c_bands:  2 eigenvalues not converged
     c_bands:  1 eigenvalues not converged
     c_bands:  2 eigenvalues not converged
     c_bands:  5 eigenvalues not converged
     c_bands:  1 eigenvalues not converged
     c_bands:  2 eigenvalues not converged
     c_bands:  4 eigenvalues not converged
     c_bands:  1 eigenvalues not converged
     c_bands:  2 eigenvalues not converged
     c_bands:  2 eigenvalues not converged
     c_bands:  5 eigenvalues not converged
     c_bands:  2 eigenvalues not converged
     c_bands:  2 eigenvalues not converged
     c_bands:  1 eigenvalues not converged
     c_bands:  1 eigenvalues not converged
     c_bands:  2 eigenvalues not converged
     c_bands:  1 eigenvalues not converged
     ethr =  2.14E-09,  avg # of iterations = 22.0

     total cpu time spent up to now is    19294.6 secs

     total energy              =   -4133.52153225 Ry
     estimated scf accuracy    <       0.00002011 Ry

     total magnetization       =     3.48 Bohr mag/cell
     absolute magnetization    =     6.80 Bohr mag/cell

     iteration #286     ecut=    60.00 Ry     beta= 0.30
     Davidson diagonalization with overlap
     c_bands:  2 eigenvalues not converged
     c_bands:  1 eigenvalues not converged
     c_bands:  1 eigenvalues not converged
     c_bands:  2 eigenvalues not converged
     c_bands:  1 eigenvalues not converged
     c_bands:  1 eigenvalues not converged
     c_bands:  3 eigenvalues not converged
     c_bands:  2 eigenvalues not converged
     c_bands:  1 eigenvalues not converged
     c_bands:  1 eigenvalues not converged
     c_bands:  1 eigenvalues not converged
     c_bands:  1 eigenvalues not converged
     c_bands:  1 eigenvalues not converged
     c_bands:  3 eigenvalues not converged
     c_bands:  1 eigenvalues not converged
     c_bands:  1 eigenvalues not converged
     c_bands:  1 eigenvalues not converged
     ethr =  2.14E-09,  avg # of iterations = 15.7

     total cpu time spent up to now is    19340.7 secs

     total energy              =   -4133.52414651 Ry
     estimated scf accuracy    <       0.00005949 Ry

     total magnetization       =     3.65 Bohr mag/cell
     absolute magnetization    =     5.78 Bohr mag/cell

     iteration #287     ecut=    60.00 Ry     beta= 0.30
     Davidson diagonalization with overlap
     c_bands:  1 eigenvalues not converged
     ethr =  2.14E-09,  avg # of iterations =  8.9

     total cpu time spent up to now is    19375.8 secs

     total energy              =   -4133.52416927 Ry
     estimated scf accuracy    <       0.00005119 Ry

     total magnetization       =     3.63 Bohr mag/cell
     absolute magnetization    =     5.90 Bohr mag/cell

     iteration #288     ecut=    60.00 Ry     beta= 0.30
     Davidson diagonalization with overlap
     ethr =  2.14E-09,  avg # of iterations =  6.1

     total cpu time spent up to now is    19406.5 secs

     total energy              =   -4133.52418422 Ry
     estimated scf accuracy    <       0.00004743 Ry

     total magnetization       =     3.62 Bohr mag/cell
     absolute magnetization    =     5.96 Bohr mag/cell

     iteration #289     ecut=    60.00 Ry     beta= 0.30
     Davidson diagonalization with overlap
     ethr =  2.14E-09,  avg # of iterations =  1.0

     total cpu time spent up to now is    19431.3 secs

     total energy              =   -4133.52418130 Ry
     estimated scf accuracy    <       0.00004690 Ry

     total magnetization       =     3.62 Bohr mag/cell
     absolute magnetization    =     5.96 Bohr mag/cell

     iteration #290     ecut=    60.00 Ry     beta= 0.30
     Davidson diagonalization with overlap
     ethr =  2.14E-09,  avg # of iterations =  7.9

     total cpu time spent up to now is    19464.8 secs

     total energy              =   -4133.52422638 Ry
     estimated scf accuracy    <       0.00005367 Ry

     total magnetization       =     3.64 Bohr mag/cell
     absolute magnetization    =     5.84 Bohr mag/cell

     iteration #291     ecut=    60.00 Ry     beta= 0.30
     Davidson diagonalization with overlap
     ethr =  2.14E-09,  avg # of iterations =  9.2

     total cpu time spent up to now is    19500.1 secs

     total energy              =   -4133.52427215 Ry
     estimated scf accuracy    <       0.00006518 Ry

     total magnetization       =     3.67 Bohr mag/cell
     absolute magnetization    =     5.71 Bohr mag/cell

     iteration #292     ecut=    60.00 Ry     beta= 0.30
     Davidson diagonalization with overlap
     ethr =  2.14E-09,  avg # of iterations =  9.3

     total cpu time spent up to now is    19536.3 secs

     total energy              =   -4133.51449385 Ry
     estimated scf accuracy    <       0.00008255 Ry

     total magnetization       =     3.70 Bohr mag/cell
     absolute magnetization    =     5.58 Bohr mag/cell

     iteration #293     ecut=    60.00 Ry     beta= 0.30
     Davidson diagonalization with overlap
     c_bands:  1 eigenvalues not converged
     c_bands:  1 eigenvalues not converged
     c_bands:  1 eigenvalues not converged
     c_bands:  2 eigenvalues not converged
     c_bands:  1 eigenvalues not converged
     c_bands:  1 eigenvalues not converged
     c_bands:  3 eigenvalues not converged
     c_bands:  1 eigenvalues not converged
     c_bands:  2 eigenvalues not converged
     c_bands:  1 eigenvalues not converged
     c_bands:  1 eigenvalues not converged
     c_bands:  1 eigenvalues not converged
     c_bands:  3 eigenvalues not converged
     c_bands:  1 eigenvalues not converged
     c_bands:  2 eigenvalues not converged
     c_bands:  4 eigenvalues not converged
     c_bands:  1 eigenvalues not converged
     c_bands:  2 eigenvalues not converged
     c_bands:  2 eigenvalues not converged
     c_bands:  2 eigenvalues not converged
     c_bands:  1 eigenvalues not converged
     c_bands:  4 eigenvalues not converged
     c_bands:  2 eigenvalues not converged
     c_bands:  2 eigenvalues not converged
     c_bands:  3 eigenvalues not converged
     c_bands:  1 eigenvalues not converged
     c_bands:  1 eigenvalues not converged
     c_bands:  1 eigenvalues not converged
     ethr =  2.14E-09,  avg # of iterations = 18.6

     total cpu time spent up to now is    19588.1 secs

     total energy              =   -4133.44599351 Ry
     estimated scf accuracy    <       0.00062624 Ry

     total magnetization       =     3.99 Bohr mag/cell
     absolute magnetization    =     5.62 Bohr mag/cell

     iteration #294     ecut=    60.00 Ry     beta= 0.30
     Davidson diagonalization with overlap
     c_bands:  4 eigenvalues not converged
     c_bands:  5 eigenvalues not converged
     c_bands:  3 eigenvalues not converged
     c_bands:  5 eigenvalues not converged
     c_bands:  5 eigenvalues not converged
     c_bands:  3 eigenvalues not converged
     c_bands:  5 eigenvalues not converged
     c_bands:  1 eigenvalues not converged
     c_bands:  3 eigenvalues not converged
     c_bands:  5 eigenvalues not converged
     c_bands:  3 eigenvalues not converged
     c_bands:  2 eigenvalues not converged
     c_bands:  2 eigenvalues not converged
     c_bands:  2 eigenvalues not converged
     c_bands:  4 eigenvalues not converged
     c_bands:  2 eigenvalues not converged
     c_bands:  2 eigenvalues not converged
     c_bands:  3 eigenvalues not converged
     c_bands:  3 eigenvalues not converged
     ethr =  2.14E-09,  avg # of iterations = 23.4

     total cpu time spent up to now is    19651.4 secs

     total energy              =   -4133.52162411 Ry
     estimated scf accuracy    <       0.00002469 Ry

     total magnetization       =     3.08 Bohr mag/cell
     absolute magnetization    =     9.69 Bohr mag/cell

     iteration #295     ecut=    60.00 Ry     beta= 0.30
     Davidson diagonalization with overlap
     c_bands:  1 eigenvalues not converged
     c_bands:  1 eigenvalues not converged
     c_bands:  1 eigenvalues not converged
     c_bands:  1 eigenvalues not converged
     c_bands:  1 eigenvalues not converged
     c_bands:  1 eigenvalues not converged
     c_bands:  1 eigenvalues not converged
     c_bands:  1 eigenvalues not converged
     ethr =  2.14E-09,  avg # of iterations = 13.7

     total cpu time spent up to now is    19694.5 secs

     total energy              =   -4133.52287114 Ry
     estimated scf accuracy    <       0.00003593 Ry

     total magnetization       =     2.91 Bohr mag/cell
     absolute magnetization    =    10.83 Bohr mag/cell

     iteration #296     ecut=    60.00 Ry     beta= 0.30
     Davidson diagonalization with overlap
     c_bands:  1 eigenvalues not converged
     c_bands:  1 eigenvalues not converged
     ethr =  2.14E-09,  avg # of iterations = 13.1

     total cpu time spent up to now is    19735.6 secs

     total energy              =   -4133.38407815 Ry
     estimated scf accuracy    <       0.00005096 Ry

     total magnetization       =     2.84 Bohr mag/cell
     absolute magnetization    =    11.37 Bohr mag/cell

     iteration #297     ecut=    60.00 Ry     beta= 0.30
     Davidson diagonalization with overlap
     c_bands:  2 eigenvalues not converged
     c_bands:  2 eigenvalues not converged
     c_bands:  5 eigenvalues not converged
     c_bands:  3 eigenvalues not converged
     c_bands:  2 eigenvalues not converged
     c_bands:  2 eigenvalues not converged
     c_bands:  4 eigenvalues not converged
     c_bands:  1 eigenvalues not converged
     c_bands:  2 eigenvalues not converged
     c_bands:  1 eigenvalues not converged
     c_bands:  1 eigenvalues not converged
     c_bands:  1 eigenvalues not converged
     c_bands:  1 eigenvalues not converged
     c_bands:  1 eigenvalues not converged
     c_bands:  1 eigenvalues not converged
     ethr =  2.14E-09,  avg # of iterations = 29.7

     total cpu time spent up to now is    19809.3 secs

     total energy              =   -4133.49436900 Ry
     estimated scf accuracy    <       0.00091534 Ry

     total magnetization       =     4.06 Bohr mag/cell
     absolute magnetization    =     6.52 Bohr mag/cell

     iteration #298     ecut=    60.00 Ry     beta= 0.30
     Davidson diagonalization with overlap
     c_bands:  1 eigenvalues not converged
     c_bands:  1 eigenvalues not converged
     c_bands:  1 eigenvalues not converged
     c_bands:  2 eigenvalues not converged
     c_bands:  2 eigenvalues not converged
     c_bands:  1 eigenvalues not converged
     c_bands:  1 eigenvalues not converged
     c_bands:  5 eigenvalues not converged
     c_bands:  1 eigenvalues not converged
     c_bands:  2 eigenvalues not converged
     c_bands:  1 eigenvalues not converged
     c_bands:  1 eigenvalues not converged
     c_bands:  1 eigenvalues not converged
     c_bands:  5 eigenvalues not converged
     c_bands:  5 eigenvalues not converged
     c_bands:  1 eigenvalues not converged
     c_bands:  1 eigenvalues not converged
     c_bands:  1 eigenvalues not converged
     c_bands:  1 eigenvalues not converged
     c_bands:  3 eigenvalues not converged
     c_bands:  2 eigenvalues not converged
     c_bands:  2 eigenvalues not converged
     c_bands:  5 eigenvalues not converged
     c_bands:  3 eigenvalues not converged
     c_bands:  3 eigenvalues not converged
     c_bands:  1 eigenvalues not converged
     c_bands:  3 eigenvalues not converged
     c_bands:  3 eigenvalues not converged
     c_bands:  5 eigenvalues not converged
     c_bands:  3 eigenvalues not converged
     c_bands:  3 eigenvalues not converged
     c_bands:  3 eigenvalues not converged
     ethr =  2.14E-09,  avg # of iterations = 19.7

     total cpu time spent up to now is    19864.1 secs

     total energy              =   -4133.52416313 Ry
     estimated scf accuracy    <       0.00003208 Ry

     total magnetization       =     3.59 Bohr mag/cell
     absolute magnetization    =     6.04 Bohr mag/cell

     iteration #299     ecut=    60.00 Ry     beta= 0.30
     Davidson diagonalization with overlap
     c_bands:  1 eigenvalues not converged
     c_bands:  2 eigenvalues not converged
     c_bands:  2 eigenvalues not converged
     ethr =  2.14E-09,  avg # of iterations =  7.3

     total cpu time spent up to now is    19897.0 secs

     total energy              =   -4133.51938915 Ry
     estimated scf accuracy    <       0.00003338 Ry

     total magnetization       =     3.61 Bohr mag/cell
     absolute magnetization    =     5.96 Bohr mag/cell

     iteration #300     ecut=    60.00 Ry     beta= 0.30
     Davidson diagonalization with overlap
     c_bands:  3 eigenvalues not converged
     c_bands:  2 eigenvalues not converged
     c_bands:  2 eigenvalues not converged
     c_bands:  1 eigenvalues not converged
     c_bands:  2 eigenvalues not converged
     c_bands:  2 eigenvalues not converged
     c_bands:  2 eigenvalues not converged
     c_bands:  2 eigenvalues not converged
     c_bands:  2 eigenvalues not converged
     c_bands:  1 eigenvalues not converged
     c_bands:  2 eigenvalues not converged
     c_bands:  1 eigenvalues not converged
     c_bands:  2 eigenvalues not converged
     c_bands:  2 eigenvalues not converged
     ethr =  2.14E-09,  avg # of iterations = 16.8

     total cpu time spent up to now is    19945.1 secs

     total energy              =   -4133.51966340 Ry
     estimated scf accuracy    <       0.00001787 Ry

     total magnetization       =     3.39 Bohr mag/cell
     absolute magnetization    =     7.44 Bohr mag/cell

     End of self-consistent calculation

     convergence NOT achieved after 300 iterations: stopping

     Writing config to output data dir ./tmp/fecr_fe02cr14_vcr.save/ :
     XML data file, charge density
 
     init_run     :     67.65s CPU     44.01s WALL (       2 calls)
     electrons    :  25738.39s CPU  19782.94s WALL (       4 calls)
     update_pot   :     56.85s CPU     33.73s WALL (       2 calls)
     forces       :     11.23s CPU     10.50s WALL (       3 calls)
     stress       :     27.92s CPU     27.59s WALL (       3 calls)

     Called by init_run:
     wfcinit      :      5.95s CPU      6.65s WALL (       2 calls)
     potinit      :     60.09s CPU     35.61s WALL (       2 calls)
     hinit0       :      1.21s CPU      1.18s WALL (       2 calls)

     Called by electrons:
     c_bands      :  10567.38s CPU  10597.12s WALL (     504 calls)
     sum_band     :    465.79s CPU    464.65s WALL (     504 calls)
     v_of_rho     :     25.24s CPU     20.58s WALL (     507 calls)
     newd         :     20.49s CPU     20.49s WALL (     507 calls)
                                       20.58s GPU  (     507 calls)
     PAW_pot      :  14802.77s CPU   8752.22s WALL (     509 calls)
     mix_rho      :     17.05s CPU     17.08s WALL (     504 calls)

     Called by c_bands:
     init_us_2    :     39.32s CPU     37.03s WALL (   65152 calls)
     cegterg      :  10095.84s CPU  10125.01s WALL (   33426 calls)

     Called by *egterg:
     cdiaghg      :   3643.15s CPU   3667.53s WALL (  395303 calls)
                                     3666.96s GPU  (  395303 calls)
     h_psi        :   2720.61s CPU   2736.37s WALL (  395671 calls)
                                     2733.65s GPU  (  395671 calls)
     s_psi        :    201.15s CPU    204.08s WALL (  395671 calls)
     g_psi        :      1.93s CPU     20.29s WALL (  362117 calls)
                                       19.23s GPU  (  362117 calls)

     Called by h_psi:
     h_psi:calbec :     12.91s CPU    586.33s WALL (  395671 calls)
                                      584.37s GPU  (  395671 calls)
     vloc_psi     :   1404.05s CPU   1398.58s WALL (  395671 calls)
                                     1397.17s GPU  (  395671 calls)
     add_vuspsi   :    196.38s CPU    731.51s WALL (  395671 calls)
                                      729.99s GPU  (  395671 calls)

     General routines
     calbec       :     30.23s CPU     24.28s WALL (  429015 calls)
     fft          :      5.80s CPU      7.05s WALL (   12791 calls)
                                        1.56s GPU  (   11777 calls)
     ffts         :      1.90s CPU      1.93s WALL (    2022 calls)
                                        0.05s GPU  (    1008 calls)
     fftw         :     72.00s CPU   1198.32s WALL ( 3460802 calls)
                                     1190.37s GPU  ( 3460802 calls)
     interpolate  :      8.07s CPU      8.10s WALL (    1014 calls)
     davcio       :      0.04s CPU      0.89s WALL (      82 calls)
 
     Parallel routines
 
     PWSCF        :      7h12m CPU      5h32m WALL

 
   This run was terminated on:  19:43:43  22May2026            

=------------------------------------------------------------------------------=
   JOB DONE.
=------------------------------------------------------------------------------=
Warning: ieee_divide_by_zero is signaling
Warning: ieee_inexact is signaling
FORTRAN STOP
