--------------------------------------------------------------------------
WARNING: Open MPI tried to bind a process but failed.  This is a
warning only; your job will continue, though performance may
be degraded.

  Local host:        4b82db919bf5
  Application name:  /root/q-e-qe-7.3.1/bin/pw.x
  Error message:     failed to bind memory
  Location:          ../../../../../orte/mca/rtc/hwloc/rtc_hwloc.c:447

--------------------------------------------------------------------------

     Program PWSCF v.7.3.1 starts on 20May2026 at 11:24:14 

     This program is part of the open-source Quantum ESPRESSO suite
     for quantum simulation of materials; please cite
         "P. Giannozzi et al., J. Phys.:Condens. Matter 21 395502 (2009);
         "P. Giannozzi et al., J. Phys.:Condens. Matter 29 465901 (2017);
         "P. Giannozzi et al., J. Chem. Phys. 152 154105 (2020);
          URL http://www.quantum-espresso.org", 
     in publications or presentations arising from this work. More details at
     http://www.quantum-espresso.org/quote

     Parallel version (MPI & OpenMP), running on       8 processor cores
     Number of MPI processes:                 1
     Threads/MPI process:                     8

     MPI processes distributed on     1 nodes
     189073 MiB available memory on the printing compute node when the environment starts
 
     Reading input from inputs/fecr_fe06cr10_t0.00.in

     Current dimensions of program PWSCF are:
     Max number of different atomic species (ntypx) = 10
     Max number of k-points (npk) =  40000
     Max angular momentum in pseudopotentials (lmaxx) =  4
     file Fe.pbe-spn-kjpaw_psl.1.0.0.UPF: wavefunction(s)  3P 3D renormalized
     file Cr.pbe-spn-kjpaw_psl.1.0.0.UPF: wavefunction(s)  3S 3P 3D renormalized
     Found identity + ( -0.5000 -0.5000 -0.5000) symmetry
     This is a supercell, fractional translations are disabled
     Message from routine setup:
     using ibrav=0 with symmetry is DISCOURAGED, use correct ibrav instead
 
     Subspace diagonalization in iterative solution of the eigenvalue problem:
     a serial algorithm will be used

 
     G-vector sticks info
     --------------------
     sticks:   dense  smooth     PW     G-vecs:    dense   smooth      PW
     Sum        4317    2161    609               213127    75421   11459
 
     Using Slab Decomposition
 


     bravais-lattice index     =            0
     lattice parameter (alat)  =      10.6293  a.u.
     unit-cell volume          =    1200.9352 (a.u.)^3
     number of atoms/cell      =           16
     number of atomic types    =            2
     number of electrons       =       236.00
     number of Kohn-Sham states=          142
     kinetic-energy cutoff     =      60.0000  Ry
     charge density cutoff     =     480.0000  Ry
     scf convergence threshold =      1.0E-07
     mixing beta               =       0.3000
     number of iterations used =            8  plain     mixing
     Exchange-correlation= SLA  PW   PBX  PBC
                           (   1   4   3   4   0   0   0)

     GPU acceleration is ACTIVE.  1 visible GPUs per MPI rank


     celldm(1)=  10.629345  celldm(2)=   0.000000  celldm(3)=   0.000000
     celldm(4)=   0.000000  celldm(5)=   0.000000  celldm(6)=   0.000000

     crystal axes: (cart. coord. in units of alat)
               a(1) = (   1.000000   0.000000   0.000000 )  
               a(2) = (   0.000000   1.000000   0.000000 )  
               a(3) = (   0.000000   0.000000   1.000000 )  

     reciprocal axes: (cart. coord. in units 2 pi/alat)
               b(1) = (  1.000000  0.000000  0.000000 )  
               b(2) = (  0.000000  1.000000  0.000000 )  
               b(3) = (  0.000000  0.000000  1.000000 )  


     PseudoPot. # 1 for Fe read from file:
     ./pseudo/Fe.pbe-spn-kjpaw_psl.1.0.0.UPF
     MD5 check sum: fc81f059e5c5069939230b1155715ae8
     Pseudo is Projector augmented-wave + core cor, Zval = 16.0
     Generated using &quot;atomic&quot; code by A. Dal Corso  v.6.3
     Shape of augmentation charge: PSQ
     Using radial grid of 1191 points,  6 beta functions with: 
                l(1) =   0
                l(2) =   0
                l(3) =   1
                l(4) =   1
                l(5) =   2
                l(6) =   2
     Q(r) pseudized with 0 coefficients 


     PseudoPot. # 2 for Cr read from file:
     ./pseudo/Cr.pbe-spn-kjpaw_psl.1.0.0.UPF
     MD5 check sum: 198f1a2427a48552563eee314eba32ba
     Pseudo is Projector augmented-wave + core cor, Zval = 14.0
     Generated using &quot;atomic&quot; code by A. Dal Corso  v.6.3
     Shape of augmentation charge: PSQ
     Using radial grid of 1183 points,  6 beta functions with: 
                l(1) =   0
                l(2) =   0
                l(3) =   1
                l(4) =   1
                l(5) =   2
                l(6) =   2
     Q(r) pseudized with 0 coefficients 


     atomic species   valence    mass     pseudopotential
     Fe               16.00    55.84500     Fe( 1.00)
     Cr               14.00    51.99600     Cr( 1.00)

     Starting magnetic structure 
     atomic species   magnetization
     Fe              0.500
     Cr              0.300

      4 Sym. Ops., with inversion, found



   Cartesian axes

     site n.     atom                  positions (alat units)
         1        Cr     tau(   1) = (   0.0000000   0.0000000   0.0000000  )
         2        Fe     tau(   2) = (   0.2500000   0.2500000   0.2500000  )
         3        Fe     tau(   3) = (   0.0000000   0.0000000   0.5000000  )
         4        Cr     tau(   4) = (   0.2500000   0.2500000   0.7500000  )
         5        Cr     tau(   5) = (   0.0000000   0.5000000   0.0000000  )
         6        Fe     tau(   6) = (   0.2500000   0.7500000   0.2500000  )
         7        Cr     tau(   7) = (   0.0000000   0.5000000   0.5000000  )
         8        Cr     tau(   8) = (   0.2500000   0.7500000   0.7500000  )
         9        Cr     tau(   9) = (   0.5000000   0.0000000   0.0000000  )
        10        Cr     tau(  10) = (   0.7500000   0.2500000   0.2500000  )
        11        Cr     tau(  11) = (   0.5000000   0.0000000   0.5000000  )
        12        Fe     tau(  12) = (   0.7500000   0.2500000   0.7500000  )
        13        Fe     tau(  13) = (   0.5000000   0.5000000   0.0000000  )
        14        Cr     tau(  14) = (   0.7500000   0.7500000   0.2500000  )
        15        Cr     tau(  15) = (   0.5000000   0.5000000   0.5000000  )
        16        Fe     tau(  16) = (   0.7500000   0.7500000   0.7500000  )

     number of k points=    80  Marzari-Vanderbilt smearing, width (Ry)=  0.0200
                       cart. coord. in units 2pi/alat
        k(    1) = (   0.0000000   0.0000000   0.0000000), wk =   0.0046296
        k(    2) = (   0.0000000   0.0000000   0.1666667), wk =   0.0092593
        k(    3) = (   0.0000000   0.0000000   0.3333333), wk =   0.0092593
        k(    4) = (   0.0000000   0.0000000  -0.5000000), wk =   0.0046296
        k(    5) = (   0.0000000   0.1666667   0.1666667), wk =   0.0185185
        k(    6) = (   0.0000000   0.1666667   0.3333333), wk =   0.0185185
        k(    7) = (   0.0000000   0.1666667  -0.5000000), wk =   0.0092593
        k(    8) = (   0.0000000   0.3333333   0.3333333), wk =   0.0185185
        k(    9) = (   0.0000000   0.3333333  -0.5000000), wk =   0.0092593
        k(   10) = (   0.0000000  -0.5000000  -0.5000000), wk =   0.0046296
        k(   11) = (   0.1666667   0.1666667   0.1666667), wk =   0.0185185
        k(   12) = (   0.1666667   0.1666667   0.3333333), wk =   0.0185185
        k(   13) = (   0.1666667   0.1666667  -0.5000000), wk =   0.0185185
        k(   14) = (   0.1666667   0.3333333   0.3333333), wk =   0.0185185
        k(   15) = (   0.1666667   0.3333333  -0.5000000), wk =   0.0185185
        k(   16) = (   0.1666667  -0.5000000  -0.5000000), wk =   0.0092593
        k(   17) = (   0.3333333   0.3333333   0.3333333), wk =   0.0185185
        k(   18) = (   0.3333333   0.3333333  -0.5000000), wk =   0.0185185
        k(   19) = (   0.3333333  -0.5000000  -0.5000000), wk =   0.0092593
        k(   20) = (  -0.5000000  -0.5000000  -0.5000000), wk =   0.0046296
        k(   21) = (   0.1666667   0.0000000   0.0000000), wk =   0.0092593
        k(   22) = (   0.0000000   0.1666667   0.0000000), wk =   0.0092593
        k(   23) = (   0.3333333   0.0000000   0.0000000), wk =   0.0092593
        k(   24) = (   0.0000000   0.3333333   0.0000000), wk =   0.0092593
        k(   25) = (  -0.5000000   0.0000000   0.0000000), wk =   0.0046296
        k(   26) = (   0.0000000  -0.5000000   0.0000000), wk =   0.0046296
        k(   27) = (   0.1666667   0.0000000  -0.1666667), wk =   0.0092593
        k(   28) = (  -0.1666667   0.0000000  -0.1666667), wk =   0.0092593
        k(   29) = (   0.1666667  -0.1666667   0.0000000), wk =   0.0185185
        k(   30) = (   0.1666667   0.0000000  -0.3333333), wk =   0.0092593
        k(   31) = (  -0.1666667   0.0000000  -0.3333333), wk =   0.0092593
        k(   32) = (   0.3333333  -0.1666667   0.0000000), wk =   0.0185185
        k(   33) = (   0.0000000   0.3333333   0.1666667), wk =   0.0185185
        k(   34) = (   0.1666667   0.3333333   0.0000000), wk =   0.0185185
        k(   35) = (   0.3333333   0.0000000   0.1666667), wk =   0.0092593
        k(   36) = (   0.3333333   0.0000000  -0.1666667), wk =   0.0092593
        k(   37) = (   0.1666667   0.0000000   0.5000000), wk =   0.0092593
        k(   38) = (  -0.5000000  -0.1666667   0.0000000), wk =   0.0092593
        k(   39) = (   0.0000000  -0.5000000   0.1666667), wk =   0.0092593
        k(   40) = (   0.1666667  -0.5000000   0.0000000), wk =   0.0092593
        k(   41) = (  -0.5000000   0.0000000   0.1666667), wk =   0.0092593
        k(   42) = (   0.3333333   0.0000000  -0.3333333), wk =   0.0092593
        k(   43) = (  -0.3333333   0.0000000  -0.3333333), wk =   0.0092593
        k(   44) = (   0.3333333  -0.3333333   0.0000000), wk =   0.0185185
        k(   45) = (   0.3333333   0.0000000   0.5000000), wk =   0.0092593
        k(   46) = (  -0.5000000  -0.3333333   0.0000000), wk =   0.0092593
        k(   47) = (   0.0000000  -0.5000000   0.3333333), wk =   0.0092593
        k(   48) = (   0.3333333  -0.5000000   0.0000000), wk =   0.0092593
        k(   49) = (  -0.5000000   0.0000000   0.3333333), wk =   0.0092593
        k(   50) = (  -0.5000000   0.0000000   0.5000000), wk =   0.0046296
        k(   51) = (  -0.5000000   0.5000000   0.0000000), wk =   0.0046296
        k(   52) = (   0.1666667   0.1666667  -0.1666667), wk =   0.0185185
        k(   53) = (   0.1666667   0.1666667  -0.3333333), wk =   0.0185185
        k(   54) = (   0.3333333  -0.1666667   0.1666667), wk =   0.0185185
        k(   55) = (   0.3333333   0.1666667  -0.1666667), wk =   0.0185185
        k(   56) = (  -0.1666667   0.3333333   0.1666667), wk =   0.0185185
        k(   57) = (  -0.1666667  -0.3333333  -0.1666667), wk =   0.0185185
        k(   58) = (  -0.5000000  -0.1666667   0.1666667), wk =   0.0185185
        k(   59) = (  -0.1666667  -0.5000000   0.1666667), wk =   0.0092593
        k(   60) = (  -0.1666667   0.5000000  -0.1666667), wk =   0.0092593
        k(   61) = (   0.3333333   0.1666667  -0.3333333), wk =   0.0185185
        k(   62) = (  -0.3333333  -0.1666667  -0.3333333), wk =   0.0185185
        k(   63) = (   0.3333333  -0.3333333   0.1666667), wk =   0.0185185
        k(   64) = (   0.3333333   0.3333333  -0.1666667), wk =   0.0185185
        k(   65) = (  -0.1666667   0.3333333   0.3333333), wk =   0.0185185
        k(   66) = (   0.3333333   0.1666667   0.5000000), wk =   0.0185185
        k(   67) = (  -0.5000000  -0.3333333   0.1666667), wk =   0.0185185
        k(   68) = (  -0.1666667  -0.5000000   0.3333333), wk =   0.0092593
        k(   69) = (  -0.1666667   0.5000000  -0.3333333), wk =   0.0092593
        k(   70) = (   0.3333333  -0.5000000   0.1666667), wk =   0.0092593
        k(   71) = (   0.3333333   0.5000000  -0.1666667), wk =   0.0092593
        k(   72) = (  -0.5000000   0.1666667   0.3333333), wk =   0.0185185
        k(   73) = (  -0.5000000   0.1666667   0.5000000), wk =   0.0092593
        k(   74) = (  -0.5000000   0.5000000   0.1666667), wk =   0.0092593
        k(   75) = (   0.3333333   0.3333333  -0.3333333), wk =   0.0185185
        k(   76) = (  -0.5000000  -0.3333333   0.3333333), wk =   0.0185185
        k(   77) = (  -0.3333333  -0.5000000   0.3333333), wk =   0.0092593
        k(   78) = (  -0.3333333   0.5000000  -0.3333333), wk =   0.0092593
        k(   79) = (  -0.5000000   0.3333333   0.5000000), wk =   0.0092593
        k(   80) = (  -0.5000000   0.5000000   0.3333333), wk =   0.0092593

     Dense  grid:   213127 G-vectors     FFT dimensions: (  75,  75,  75)

     Smooth grid:    75421 G-vectors     FFT dimensions: (  54,  54,  54)

     Estimated max dynamical RAM per process >       4.10 GB

     Check: negative core charge=   -0.000003
     Generating pointlists ...
     new r_m :   0.1786 (alat units)  1.8986 (a.u.) for type    1
     new r_m :   0.1786 (alat units)  1.8986 (a.u.) for type    2

     Initial potential from superposition of free atoms

     starting charge     235.9896, renormalised to     236.0000
     Starting wfcs are  160 randomized atomic wfcs
     Checking if some PAW data can be deallocated... 

     total cpu time spent up to now is       27.8 secs

     Self-consistent Calculation

     iteration #  1     ecut=    60.00 Ry     beta= 0.30
     Davidson diagonalization with overlap
     ethr =  1.00E-02,  avg # of iterations =  5.2

     negative rho (up, down):  1.639E-01 1.720E+00

     total cpu time spent up to now is       75.3 secs

     total energy              =   -4442.72910823 Ry
     estimated scf accuracy    <     237.54972087 Ry

     total magnetization       =    46.18 Bohr mag/cell
     absolute magnetization    =    64.99 Bohr mag/cell

     iteration #  2     ecut=    60.00 Ry     beta= 0.30
     Davidson diagonalization with overlap
     ethr =  1.00E-02,  avg # of iterations =  5.2

     negative rho (up, down):  1.176E-01 1.297E+00

     total cpu time spent up to now is      120.8 secs

     total energy              =   -4444.65534745 Ry
     estimated scf accuracy    <      72.43800806 Ry

     total magnetization       =    23.47 Bohr mag/cell
     absolute magnetization    =    24.21 Bohr mag/cell

     iteration #  3     ecut=    60.00 Ry     beta= 0.30
     Davidson diagonalization with overlap
     ethr =  1.00E-02,  avg # of iterations =  5.5

     negative rho (up, down):  9.214E-02 1.134E+00

     total cpu time spent up to now is      170.4 secs

     total energy              =   -4445.81076462 Ry
     estimated scf accuracy    <     143.28723884 Ry

     total magnetization       =    23.64 Bohr mag/cell
     absolute magnetization    =    23.97 Bohr mag/cell

     iteration #  4     ecut=    60.00 Ry     beta= 0.30
     Davidson diagonalization with overlap
     ethr =  1.00E-02,  avg # of iterations =  3.5

     negative rho (up, down):  7.681E-02 1.026E+00

     total cpu time spent up to now is      212.8 secs

     total energy              =   -4454.04517830 Ry
     estimated scf accuracy    <      18.59613871 Ry

     total magnetization       =    24.47 Bohr mag/cell
     absolute magnetization    =    25.40 Bohr mag/cell

     iteration #  5     ecut=    60.00 Ry     beta= 0.30
     Davidson diagonalization with overlap
     ethr =  7.88E-03,  avg # of iterations =  3.0

     negative rho (up, down):  3.572E-02 6.819E-01

     total cpu time spent up to now is      252.1 secs

     total energy              =   -4455.51010208 Ry
     estimated scf accuracy    <      16.83241955 Ry

     total magnetization       =    25.08 Bohr mag/cell
     absolute magnetization    =    25.74 Bohr mag/cell

     iteration #  6     ecut=    60.00 Ry     beta= 0.30
     Davidson diagonalization with overlap
     ethr =  7.13E-03,  avg # of iterations =  2.1

     negative rho (up, down):  9.158E-03 3.674E-01

     total cpu time spent up to now is      289.6 secs

     total energy              =   -4455.99733824 Ry
     estimated scf accuracy    <      13.65673379 Ry

     total magnetization       =    24.05 Bohr mag/cell
     absolute magnetization    =    24.74 Bohr mag/cell

     iteration #  7     ecut=    60.00 Ry     beta= 0.30
     Davidson diagonalization with overlap
     ethr =  5.79E-03,  avg # of iterations =  1.3

     negative rho (up, down):  1.601E-03 2.107E-01

     total cpu time spent up to now is      324.7 secs

     total energy              =   -4456.89357405 Ry
     estimated scf accuracy    <       7.01231280 Ry

     total magnetization       =    21.53 Bohr mag/cell
     absolute magnetization    =    22.30 Bohr mag/cell

     iteration #  8     ecut=    60.00 Ry     beta= 0.30
     Davidson diagonalization with overlap
     ethr =  2.97E-03,  avg # of iterations =  1.3

     negative rho (up, down):  0.000E+00 6.473E-02

     total cpu time spent up to now is      360.5 secs

     total energy              =   -4457.18990988 Ry
     estimated scf accuracy    <       3.20127431 Ry

     total magnetization       =    19.02 Bohr mag/cell
     absolute magnetization    =    20.03 Bohr mag/cell

     iteration #  9     ecut=    60.00 Ry     beta= 0.30
     Davidson diagonalization with overlap
     ethr =  1.36E-03,  avg # of iterations =  2.1

     negative rho (up, down):  0.000E+00 2.701E-03

     total cpu time spent up to now is      397.8 secs

     total energy              =   -4457.40009690 Ry
     estimated scf accuracy    <       3.06802138 Ry

     total magnetization       =    17.79 Bohr mag/cell
     absolute magnetization    =    18.93 Bohr mag/cell

     iteration # 10     ecut=    60.00 Ry     beta= 0.30
     Davidson diagonalization with overlap
     ethr =  1.30E-03,  avg # of iterations =  1.6

     negative rho (up, down):  0.000E+00 4.198E-04

     total cpu time spent up to now is      434.2 secs

     total energy              =   -4457.42879063 Ry
     estimated scf accuracy    <       2.54888048 Ry

     total magnetization       =    16.03 Bohr mag/cell
     absolute magnetization    =    17.38 Bohr mag/cell

     iteration # 11     ecut=    60.00 Ry     beta= 0.30
     Davidson diagonalization with overlap
     ethr =  1.08E-03,  avg # of iterations =  1.3

     negative rho (up, down):  0.000E+00 2.294E-04

     total cpu time spent up to now is      469.3 secs

     total energy              =   -4457.52901494 Ry
     estimated scf accuracy    <       0.34187760 Ry

     total magnetization       =    14.28 Bohr mag/cell
     absolute magnetization    =    15.91 Bohr mag/cell

     iteration # 12     ecut=    60.00 Ry     beta= 0.30
     Davidson diagonalization with overlap
     c_bands:  1 eigenvalues not converged
     ethr =  1.45E-04,  avg # of iterations =  9.0

     negative rho (up, down):  0.000E+00 1.119E-04

     total cpu time spent up to now is      524.1 secs

     total energy              =   -4457.56549782 Ry
     estimated scf accuracy    <       0.45488825 Ry

     total magnetization       =    13.56 Bohr mag/cell
     absolute magnetization    =    15.01 Bohr mag/cell

     iteration # 13     ecut=    60.00 Ry     beta= 0.30
     Davidson diagonalization with overlap
     ethr =  1.45E-04,  avg # of iterations =  1.4

     total cpu time spent up to now is      558.9 secs

     total energy              =   -4457.58915164 Ry
     estimated scf accuracy    <       0.08274489 Ry

     total magnetization       =    13.23 Bohr mag/cell
     absolute magnetization    =    14.69 Bohr mag/cell

     iteration # 14     ecut=    60.00 Ry     beta= 0.30
     Davidson diagonalization with overlap
     c_bands:  1 eigenvalues not converged
     c_bands:  1 eigenvalues not converged
     ethr =  3.51E-05,  avg # of iterations =  6.5

     total cpu time spent up to now is      606.5 secs

     total energy              =   -4457.59704218 Ry
     estimated scf accuracy    <       0.13833060 Ry

     total magnetization       =    12.81 Bohr mag/cell
     absolute magnetization    =    14.25 Bohr mag/cell

     iteration # 15     ecut=    60.00 Ry     beta= 0.30
     Davidson diagonalization with overlap
     ethr =  3.51E-05,  avg # of iterations =  2.0

     total cpu time spent up to now is      644.0 secs

     total energy              =   -4457.60319251 Ry
     estimated scf accuracy    <       0.11417836 Ry

     total magnetization       =    12.65 Bohr mag/cell
     absolute magnetization    =    14.14 Bohr mag/cell

     iteration # 16     ecut=    60.00 Ry     beta= 0.30
     Davidson diagonalization with overlap
     ethr =  3.51E-05,  avg # of iterations =  2.1

     total cpu time spent up to now is      681.2 secs

     total energy              =   -4457.60588132 Ry
     estimated scf accuracy    <       0.07309947 Ry

     total magnetization       =    12.23 Bohr mag/cell
     absolute magnetization    =    13.70 Bohr mag/cell

     iteration # 17     ecut=    60.00 Ry     beta= 0.30
     Davidson diagonalization with overlap
     ethr =  3.10E-05,  avg # of iterations =  1.3

     total cpu time spent up to now is      715.6 secs

     total energy              =   -4457.61616379 Ry
     estimated scf accuracy    <       0.04246582 Ry

     total magnetization       =    12.24 Bohr mag/cell
     absolute magnetization    =    13.65 Bohr mag/cell

     iteration # 18     ecut=    60.00 Ry     beta= 0.30
     Davidson diagonalization with overlap
     ethr =  1.80E-05,  avg # of iterations =  2.2

     total cpu time spent up to now is      752.1 secs

     total energy              =   -4457.62131654 Ry
     estimated scf accuracy    <       0.04016931 Ry

     total magnetization       =    11.29 Bohr mag/cell
     absolute magnetization    =    12.87 Bohr mag/cell

     iteration # 19     ecut=    60.00 Ry     beta= 0.30
     Davidson diagonalization with overlap
     c_bands:  1 eigenvalues not converged
     ethr =  1.70E-05,  avg # of iterations =  1.6

     total cpu time spent up to now is      788.1 secs

     total energy              =   -4457.62228065 Ry
     estimated scf accuracy    <       0.03224184 Ry

     total magnetization       =    11.08 Bohr mag/cell
     absolute magnetization    =    12.68 Bohr mag/cell

     iteration # 20     ecut=    60.00 Ry     beta= 0.30
     Davidson diagonalization with overlap
     ethr =  1.37E-05,  avg # of iterations =  2.7

     total cpu time spent up to now is      826.3 secs

     total energy              =   -4457.62328679 Ry
     estimated scf accuracy    <       0.03431684 Ry

     total magnetization       =    11.04 Bohr mag/cell
     absolute magnetization    =    12.61 Bohr mag/cell

     iteration # 21     ecut=    60.00 Ry     beta= 0.30
     Davidson diagonalization with overlap
     ethr =  1.37E-05,  avg # of iterations =  1.1

     total cpu time spent up to now is      860.7 secs

     total energy              =   -4457.62486565 Ry
     estimated scf accuracy    <       0.00254818 Ry

     total magnetization       =    10.89 Bohr mag/cell
     absolute magnetization    =    12.48 Bohr mag/cell

     iteration # 22     ecut=    60.00 Ry     beta= 0.30
     Davidson diagonalization with overlap
     c_bands:  1 eigenvalues not converged
     c_bands:  1 eigenvalues not converged
     ethr =  1.08E-06,  avg # of iterations = 10.6

     total cpu time spent up to now is      918.9 secs

     total energy              =   -4457.62535299 Ry
     estimated scf accuracy    <       0.00148341 Ry

     total magnetization       =    10.84 Bohr mag/cell
     absolute magnetization    =    12.42 Bohr mag/cell

     iteration # 23     ecut=    60.00 Ry     beta= 0.30
     Davidson diagonalization with overlap
     ethr =  6.29E-07,  avg # of iterations =  2.5

     total cpu time spent up to now is      957.3 secs

     total energy              =   -4457.62540272 Ry
     estimated scf accuracy    <       0.00122426 Ry

     total magnetization       =    10.72 Bohr mag/cell
     absolute magnetization    =    12.32 Bohr mag/cell

     iteration # 24     ecut=    60.00 Ry     beta= 0.30
     Davidson diagonalization with overlap
     ethr =  5.19E-07,  avg # of iterations =  4.8

     total cpu time spent up to now is     1002.3 secs

     total energy              =   -4457.62534968 Ry
     estimated scf accuracy    <       0.00602930 Ry

     total magnetization       =    10.64 Bohr mag/cell
     absolute magnetization    =    12.24 Bohr mag/cell

     iteration # 25     ecut=    60.00 Ry     beta= 0.30
     Davidson diagonalization with overlap
     ethr =  5.19E-07,  avg # of iterations =  3.1

     total cpu time spent up to now is     1042.3 secs

     total energy              =   -4457.62566482 Ry
     estimated scf accuracy    <       0.00034334 Ry

     total magnetization       =    10.67 Bohr mag/cell
     absolute magnetization    =    12.25 Bohr mag/cell

     iteration # 26     ecut=    60.00 Ry     beta= 0.30
     Davidson diagonalization with overlap
     ethr =  1.45E-07,  avg # of iterations =  5.8

     total cpu time spent up to now is     1089.8 secs

     total energy              =   -4457.62568406 Ry
     estimated scf accuracy    <       0.00157088 Ry

     total magnetization       =    10.60 Bohr mag/cell
     absolute magnetization    =    12.18 Bohr mag/cell

     iteration # 27     ecut=    60.00 Ry     beta= 0.30
     Davidson diagonalization with overlap
     ethr =  1.45E-07,  avg # of iterations =  4.0

     total cpu time spent up to now is     1132.4 secs

     total energy              =   -4457.62577733 Ry
     estimated scf accuracy    <       0.00017080 Ry

     total magnetization       =    10.56 Bohr mag/cell
     absolute magnetization    =    12.14 Bohr mag/cell

     iteration # 28     ecut=    60.00 Ry     beta= 0.30
     Davidson diagonalization with overlap
     ethr =  7.24E-08,  avg # of iterations =  4.5

     total cpu time spent up to now is     1175.2 secs

     total energy              =   -4457.62581599 Ry
     estimated scf accuracy    <       0.00015982 Ry

     total magnetization       =    10.55 Bohr mag/cell
     absolute magnetization    =    12.12 Bohr mag/cell

     iteration # 29     ecut=    60.00 Ry     beta= 0.30
     Davidson diagonalization with overlap
     ethr =  6.77E-08,  avg # of iterations =  4.1

     total cpu time spent up to now is     1217.6 secs

     total energy              =   -4457.62582006 Ry
     estimated scf accuracy    <       0.00034927 Ry

     total magnetization       =    10.56 Bohr mag/cell
     absolute magnetization    =    12.11 Bohr mag/cell

     iteration # 30     ecut=    60.00 Ry     beta= 0.30
     Davidson diagonalization with overlap
     ethr =  6.77E-08,  avg # of iterations =  2.9

     total cpu time spent up to now is     1257.3 secs

     total energy              =   -4457.62583275 Ry
     estimated scf accuracy    <       0.00031674 Ry

     total magnetization       =    10.56 Bohr mag/cell
     absolute magnetization    =    12.10 Bohr mag/cell

     iteration # 31     ecut=    60.00 Ry     beta= 0.30
     Davidson diagonalization with overlap
     ethr =  6.77E-08,  avg # of iterations =  2.0

     total cpu time spent up to now is     1294.7 secs

     total energy              =   -4457.62585930 Ry
     estimated scf accuracy    <       0.00009026 Ry

     total magnetization       =    10.54 Bohr mag/cell
     absolute magnetization    =    12.08 Bohr mag/cell

     iteration # 32     ecut=    60.00 Ry     beta= 0.30
     Davidson diagonalization with overlap
     ethr =  3.82E-08,  avg # of iterations =  5.0

     total cpu time spent up to now is     1338.9 secs

     total energy              =   -4457.62587613 Ry
     estimated scf accuracy    <       0.00030188 Ry

     total magnetization       =    10.55 Bohr mag/cell
     absolute magnetization    =    12.08 Bohr mag/cell

     iteration # 33     ecut=    60.00 Ry     beta= 0.30
     Davidson diagonalization with overlap
     ethr =  3.82E-08,  avg # of iterations =  5.3

     total cpu time spent up to now is     1385.0 secs

     total energy              =   -4457.62590546 Ry
     estimated scf accuracy    <       0.00005631 Ry

     total magnetization       =    10.55 Bohr mag/cell
     absolute magnetization    =    12.05 Bohr mag/cell

     iteration # 34     ecut=    60.00 Ry     beta= 0.30
     Davidson diagonalization with overlap
     ethr =  2.39E-08,  avg # of iterations =  5.2

     total cpu time spent up to now is     1429.4 secs

     total energy              =   -4457.62590824 Ry
     estimated scf accuracy    <       0.00024260 Ry

     total magnetization       =    10.58 Bohr mag/cell
     absolute magnetization    =    12.07 Bohr mag/cell

     iteration # 35     ecut=    60.00 Ry     beta= 0.30
     Davidson diagonalization with overlap
     ethr =  2.39E-08,  avg # of iterations =  4.5

     total cpu time spent up to now is     1472.2 secs

     total energy              =   -4457.62592843 Ry
     estimated scf accuracy    <       0.00010038 Ry

     total magnetization       =    10.56 Bohr mag/cell
     absolute magnetization    =    12.04 Bohr mag/cell

     iteration # 36     ecut=    60.00 Ry     beta= 0.30
     Davidson diagonalization with overlap
     ethr =  2.39E-08,  avg # of iterations =  1.9

     total cpu time spent up to now is     1509.5 secs

     total energy              =   -4457.62594207 Ry
     estimated scf accuracy    <       0.00002662 Ry

     total magnetization       =    10.56 Bohr mag/cell
     absolute magnetization    =    12.04 Bohr mag/cell

     iteration # 37     ecut=    60.00 Ry     beta= 0.30
     Davidson diagonalization with overlap
     ethr =  1.13E-08,  avg # of iterations =  5.8

     total cpu time spent up to now is     1557.2 secs

     total energy              =   -4457.62595222 Ry
     estimated scf accuracy    <       0.00003005 Ry

     total magnetization       =    10.57 Bohr mag/cell
     absolute magnetization    =    12.03 Bohr mag/cell

     iteration # 38     ecut=    60.00 Ry     beta= 0.30
     Davidson diagonalization with overlap
     ethr =  1.13E-08,  avg # of iterations =  1.7

     total cpu time spent up to now is     1593.7 secs

     total energy              =   -4457.62595405 Ry
     estimated scf accuracy    <       0.00001750 Ry

     total magnetization       =    10.57 Bohr mag/cell
     absolute magnetization    =    12.03 Bohr mag/cell

     iteration # 39     ecut=    60.00 Ry     beta= 0.30
     Davidson diagonalization with overlap
     ethr =  7.42E-09,  avg # of iterations =  1.9

     total cpu time spent up to now is     1630.8 secs

     total energy              =   -4457.62596163 Ry
     estimated scf accuracy    <       0.00002042 Ry

     total magnetization       =    10.57 Bohr mag/cell
     absolute magnetization    =    12.03 Bohr mag/cell

     iteration # 40     ecut=    60.00 Ry     beta= 0.30
     Davidson diagonalization with overlap
     ethr =  7.42E-09,  avg # of iterations =  4.3

     total cpu time spent up to now is     1673.6 secs

     total energy              =   -4457.62596924 Ry
     estimated scf accuracy    <       0.00002672 Ry

     total magnetization       =    10.58 Bohr mag/cell
     absolute magnetization    =    12.02 Bohr mag/cell

     iteration # 41     ecut=    60.00 Ry     beta= 0.30
     Davidson diagonalization with overlap
     ethr =  7.42E-09,  avg # of iterations =  5.1

     total cpu time spent up to now is     1718.8 secs

     total energy              =   -4457.62597979 Ry
     estimated scf accuracy    <       0.00001746 Ry

     total magnetization       =    10.59 Bohr mag/cell
     absolute magnetization    =    12.02 Bohr mag/cell

     iteration # 42     ecut=    60.00 Ry     beta= 0.30
     Davidson diagonalization with overlap
     ethr =  7.40E-09,  avg # of iterations =  4.6

     total cpu time spent up to now is     1762.6 secs

     total energy              =   -4457.62598637 Ry
     estimated scf accuracy    <       0.00002111 Ry

     total magnetization       =    10.59 Bohr mag/cell
     absolute magnetization    =    12.01 Bohr mag/cell

     iteration # 43     ecut=    60.00 Ry     beta= 0.30
     Davidson diagonalization with overlap
     ethr =  7.40E-09,  avg # of iterations =  4.8

     total cpu time spent up to now is     1805.2 secs

     total energy              =   -4457.62599128 Ry
     estimated scf accuracy    <       0.00001204 Ry

     total magnetization       =    10.60 Bohr mag/cell
     absolute magnetization    =    12.01 Bohr mag/cell

     iteration # 44     ecut=    60.00 Ry     beta= 0.30
     Davidson diagonalization with overlap
     ethr =  5.10E-09,  avg # of iterations =  2.8

     total cpu time spent up to now is     1844.9 secs

     total energy              =   -4457.62599689 Ry
     estimated scf accuracy    <       0.00001436 Ry

     total magnetization       =    10.60 Bohr mag/cell
     absolute magnetization    =    12.01 Bohr mag/cell

     iteration # 45     ecut=    60.00 Ry     beta= 0.30
     Davidson diagonalization with overlap
     ethr =  5.10E-09,  avg # of iterations =  5.7

     total cpu time spent up to now is     1893.9 secs

     total energy              =   -4457.62599704 Ry
     estimated scf accuracy    <       0.00001716 Ry

     total magnetization       =    10.60 Bohr mag/cell
     absolute magnetization    =    12.01 Bohr mag/cell

     iteration # 46     ecut=    60.00 Ry     beta= 0.30
     Davidson diagonalization with overlap
     ethr =  5.10E-09,  avg # of iterations =  3.8

     total cpu time spent up to now is     1937.3 secs

     total energy              =   -4457.62599899 Ry
     estimated scf accuracy    <       0.00001641 Ry

     total magnetization       =    10.60 Bohr mag/cell
     absolute magnetization    =    12.01 Bohr mag/cell

     iteration # 47     ecut=    60.00 Ry     beta= 0.30
     Davidson diagonalization with overlap
     ethr =  5.10E-09,  avg # of iterations =  1.6

     total cpu time spent up to now is     1973.3 secs

     total energy              =   -4457.62599927 Ry
     estimated scf accuracy    <       0.00001624 Ry

     total magnetization       =    10.60 Bohr mag/cell
     absolute magnetization    =    12.01 Bohr mag/cell

     iteration # 48     ecut=    60.00 Ry     beta= 0.30
     Davidson diagonalization with overlap
     ethr =  5.10E-09,  avg # of iterations =  1.2

     total cpu time spent up to now is     2008.3 secs

     total energy              =   -4457.62600318 Ry
     estimated scf accuracy    <       0.00001565 Ry

     total magnetization       =    10.60 Bohr mag/cell
     absolute magnetization    =    12.01 Bohr mag/cell

     iteration # 49     ecut=    60.00 Ry     beta= 0.30
     Davidson diagonalization with overlap
     ethr =  5.10E-09,  avg # of iterations =  1.2

     total cpu time spent up to now is     2044.3 secs

     total energy              =   -4457.62600860 Ry
     estimated scf accuracy    <       0.00001372 Ry

     total magnetization       =    10.60 Bohr mag/cell
     absolute magnetization    =    12.01 Bohr mag/cell

     iteration # 50     ecut=    60.00 Ry     beta= 0.30
     Davidson diagonalization with overlap
     ethr =  5.10E-09,  avg # of iterations =  5.1

     total cpu time spent up to now is     2090.0 secs

     total energy              =   -4457.62601434 Ry
     estimated scf accuracy    <       0.00001942 Ry

     total magnetization       =    10.61 Bohr mag/cell
     absolute magnetization    =    12.01 Bohr mag/cell

     iteration # 51     ecut=    60.00 Ry     beta= 0.30
     Davidson diagonalization with overlap
     ethr =  5.10E-09,  avg # of iterations =  4.2

     total cpu time spent up to now is     2132.4 secs

     total energy              =   -4457.62600797 Ry
     estimated scf accuracy    <       0.00005793 Ry

     total magnetization       =    10.60 Bohr mag/cell
     absolute magnetization    =    12.01 Bohr mag/cell

     iteration # 52     ecut=    60.00 Ry     beta= 0.30
     Davidson diagonalization with overlap
     ethr =  5.10E-09,  avg # of iterations =  6.8

     total cpu time spent up to now is     2186.9 secs

     total energy              =   -4457.62603994 Ry
     estimated scf accuracy    <       0.00001304 Ry

     total magnetization       =    10.62 Bohr mag/cell
     absolute magnetization    =    12.02 Bohr mag/cell

     iteration # 53     ecut=    60.00 Ry     beta= 0.30
     Davidson diagonalization with overlap
     ethr =  5.10E-09,  avg # of iterations =  1.0

     total cpu time spent up to now is     2221.2 secs

     total energy              =   -4457.62604151 Ry
     estimated scf accuracy    <       0.00001422 Ry

     total magnetization       =    10.62 Bohr mag/cell
     absolute magnetization    =    12.02 Bohr mag/cell

     iteration # 54     ecut=    60.00 Ry     beta= 0.30
     Davidson diagonalization with overlap
     ethr =  5.10E-09,  avg # of iterations =  1.0

     total cpu time spent up to now is     2254.7 secs

     total energy              =   -4457.62603847 Ry
     estimated scf accuracy    <       0.00001301 Ry

     total magnetization       =    10.62 Bohr mag/cell
     absolute magnetization    =    12.02 Bohr mag/cell

     iteration # 55     ecut=    60.00 Ry     beta= 0.30
     Davidson diagonalization with overlap
     ethr =  5.10E-09,  avg # of iterations =  1.0

     total cpu time spent up to now is     2289.2 secs

     total energy              =   -4457.62601920 Ry
     estimated scf accuracy    <       0.00001561 Ry

     total magnetization       =    10.62 Bohr mag/cell
     absolute magnetization    =    12.02 Bohr mag/cell

     iteration # 56     ecut=    60.00 Ry     beta= 0.30
     Davidson diagonalization with overlap
     ethr =  5.10E-09,  avg # of iterations =  5.5

     total cpu time spent up to now is     2337.8 secs

     total energy              =   -4457.62602879 Ry
     estimated scf accuracy    <       0.00005473 Ry

     total magnetization       =    10.61 Bohr mag/cell
     absolute magnetization    =    12.02 Bohr mag/cell

     iteration # 57     ecut=    60.00 Ry     beta= 0.30
     Davidson diagonalization with overlap
     ethr =  5.10E-09,  avg # of iterations =  4.2

     total cpu time spent up to now is     2379.5 secs

     total energy              =   -4457.62602828 Ry
     estimated scf accuracy    <       0.00002067 Ry

     total magnetization       =    10.61 Bohr mag/cell
     absolute magnetization    =    12.02 Bohr mag/cell

     iteration # 58     ecut=    60.00 Ry     beta= 0.30
     Davidson diagonalization with overlap
     ethr =  5.10E-09,  avg # of iterations =  2.2

     total cpu time spent up to now is     2416.3 secs

     total energy              =   -4457.62603421 Ry
     estimated scf accuracy    <       0.00001437 Ry

     total magnetization       =    10.61 Bohr mag/cell
     absolute magnetization    =    12.02 Bohr mag/cell

     iteration # 59     ecut=    60.00 Ry     beta= 0.30
     Davidson diagonalization with overlap
     ethr =  5.10E-09,  avg # of iterations =  5.2

     total cpu time spent up to now is     2462.0 secs

     total energy              =   -4457.62604365 Ry
     estimated scf accuracy    <       0.00001205 Ry

     total magnetization       =    10.62 Bohr mag/cell
     absolute magnetization    =    12.02 Bohr mag/cell

     iteration # 60     ecut=    60.00 Ry     beta= 0.30
     Davidson diagonalization with overlap
     ethr =  5.10E-09,  avg # of iterations =  3.8

     total cpu time spent up to now is     2503.2 secs

     total energy              =   -4457.62604955 Ry
     estimated scf accuracy    <       0.00001439 Ry

     total magnetization       =    10.62 Bohr mag/cell
     absolute magnetization    =    12.02 Bohr mag/cell

     iteration # 61     ecut=    60.00 Ry     beta= 0.30
     Davidson diagonalization with overlap
     ethr =  5.10E-09,  avg # of iterations =  5.4

     total cpu time spent up to now is     2549.3 secs

     total energy              =   -4457.62605308 Ry
     estimated scf accuracy    <       0.00002014 Ry

     total magnetization       =    10.62 Bohr mag/cell
     absolute magnetization    =    12.03 Bohr mag/cell

     iteration # 62     ecut=    60.00 Ry     beta= 0.30
     Davidson diagonalization with overlap
     ethr =  5.10E-09,  avg # of iterations =  3.3

     total cpu time spent up to now is     2589.6 secs

     total energy              =   -4457.62600942 Ry
     estimated scf accuracy    <       0.00004416 Ry

     total magnetization       =    10.62 Bohr mag/cell
     absolute magnetization    =    12.03 Bohr mag/cell

     iteration # 63     ecut=    60.00 Ry     beta= 0.30
     Davidson diagonalization with overlap
     ethr =  5.10E-09,  avg # of iterations =  8.2

     total cpu time spent up to now is     2649.6 secs

     total energy              =   -4457.62608077 Ry
     estimated scf accuracy    <       0.00001366 Ry

     total magnetization       =    10.63 Bohr mag/cell
     absolute magnetization    =    12.05 Bohr mag/cell

     iteration # 64     ecut=    60.00 Ry     beta= 0.30
     Davidson diagonalization with overlap
     ethr =  5.10E-09,  avg # of iterations =  5.5

     total cpu time spent up to now is     2699.8 secs

     total energy              =   -4457.62601733 Ry
     estimated scf accuracy    <       0.00001120 Ry

     total magnetization       =    10.63 Bohr mag/cell
     absolute magnetization    =    12.07 Bohr mag/cell

     iteration # 65     ecut=    60.00 Ry     beta= 0.30
     Davidson diagonalization with overlap
     ethr =  4.75E-09,  avg # of iterations =  7.4

     total cpu time spent up to now is     2755.4 secs

     total energy              =   -4457.62593140 Ry
     estimated scf accuracy    <       0.00001056 Ry

     total magnetization       =    10.63 Bohr mag/cell
     absolute magnetization    =    12.04 Bohr mag/cell

     iteration # 66     ecut=    60.00 Ry     beta= 0.30
     Davidson diagonalization with overlap
     ethr =  4.47E-09,  avg # of iterations =  9.7

     total cpu time spent up to now is     2821.6 secs

     total energy              =   -4457.62600600 Ry
     estimated scf accuracy    <       0.00000533 Ry

     total magnetization       =    10.64 Bohr mag/cell
     absolute magnetization    =    12.11 Bohr mag/cell

     iteration # 67     ecut=    60.00 Ry     beta= 0.30
     Davidson diagonalization with overlap
     ethr =  2.26E-09,  avg # of iterations =  9.7

     total cpu time spent up to now is     2888.1 secs

     total energy              =   -4457.62604676 Ry
     estimated scf accuracy    <       0.00002636 Ry

     total magnetization       =    10.63 Bohr mag/cell
     absolute magnetization    =    12.06 Bohr mag/cell

     iteration # 68     ecut=    60.00 Ry     beta= 0.30
     Davidson diagonalization with overlap
     ethr =  2.26E-09,  avg # of iterations =  8.5

     total cpu time spent up to now is     2950.3 secs

     total energy              =   -4457.62596254 Ry
     estimated scf accuracy    <       0.00001583 Ry

     total magnetization       =    10.64 Bohr mag/cell
     absolute magnetization    =    12.10 Bohr mag/cell

     iteration # 69     ecut=    60.00 Ry     beta= 0.30
     Davidson diagonalization with overlap
     ethr =  2.26E-09,  avg # of iterations = 11.1

     total cpu time spent up to now is     3022.4 secs

     total energy              =   -4457.62613088 Ry
     estimated scf accuracy    <       0.00000458 Ry

     total magnetization       =    10.66 Bohr mag/cell
     absolute magnetization    =    12.20 Bohr mag/cell

     iteration # 70     ecut=    60.00 Ry     beta= 0.30
     Davidson diagonalization with overlap
     ethr =  1.94E-09,  avg # of iterations =  5.3

     total cpu time spent up to now is     3070.2 secs

     total energy              =   -4457.62611449 Ry
     estimated scf accuracy    <       0.00000263 Ry

     total magnetization       =    10.65 Bohr mag/cell
     absolute magnetization    =    12.18 Bohr mag/cell

     iteration # 71     ecut=    60.00 Ry     beta= 0.30
     Davidson diagonalization with overlap
     ethr =  1.11E-09,  avg # of iterations =  8.6

     total cpu time spent up to now is     3132.5 secs

     total energy              =   -4457.62614484 Ry
     estimated scf accuracy    <       0.00000282 Ry

     total magnetization       =    10.66 Bohr mag/cell
     absolute magnetization    =    12.23 Bohr mag/cell

     iteration # 72     ecut=    60.00 Ry     beta= 0.30
     Davidson diagonalization with overlap
     ethr =  1.11E-09,  avg # of iterations =  1.3

     total cpu time spent up to now is     3167.8 secs

     total energy              =   -4457.62614528 Ry
     estimated scf accuracy    <       0.00000338 Ry

     total magnetization       =    10.66 Bohr mag/cell
     absolute magnetization    =    12.23 Bohr mag/cell

     iteration # 73     ecut=    60.00 Ry     beta= 0.30
     Davidson diagonalization with overlap
     ethr =  1.11E-09,  avg # of iterations =  3.4

     total cpu time spent up to now is     3207.6 secs

     total energy              =   -4457.62613542 Ry
     estimated scf accuracy    <       0.00000172 Ry

     total magnetization       =    10.66 Bohr mag/cell
     absolute magnetization    =    12.23 Bohr mag/cell

     iteration # 74     ecut=    60.00 Ry     beta= 0.30
     Davidson diagonalization with overlap
     ethr =  7.30E-10,  avg # of iterations =  8.6

     total cpu time spent up to now is     3270.0 secs

     total energy              =   -4457.62615028 Ry
     estimated scf accuracy    <       0.00000326 Ry

     total magnetization       =    10.66 Bohr mag/cell
     absolute magnetization    =    12.27 Bohr mag/cell

     iteration # 75     ecut=    60.00 Ry     beta= 0.30
     Davidson diagonalization with overlap
     ethr =  7.30E-10,  avg # of iterations =  5.4

     total cpu time spent up to now is     3315.5 secs

     total energy              =   -4457.62612010 Ry
     estimated scf accuracy    <       0.00000639 Ry

     total magnetization       =    10.66 Bohr mag/cell
     absolute magnetization    =    12.28 Bohr mag/cell

     iteration # 76     ecut=    60.00 Ry     beta= 0.30
     Davidson diagonalization with overlap
     ethr =  7.30E-10,  avg # of iterations = 10.4

     total cpu time spent up to now is     3382.8 secs

     total energy              =   -4457.62615225 Ry
     estimated scf accuracy    <       0.00000179 Ry

     total magnetization       =    10.67 Bohr mag/cell
     absolute magnetization    =    12.34 Bohr mag/cell

     iteration # 77     ecut=    60.00 Ry     beta= 0.30
     Davidson diagonalization with overlap
     ethr =  7.30E-10,  avg # of iterations =  6.1

     total cpu time spent up to now is     3434.5 secs

     total energy              =   -4457.62615509 Ry
     estimated scf accuracy    <       0.00000517 Ry

     total magnetization       =    10.67 Bohr mag/cell
     absolute magnetization    =    12.36 Bohr mag/cell

     iteration # 78     ecut=    60.00 Ry     beta= 0.30
     Davidson diagonalization with overlap
     ethr =  7.30E-10,  avg # of iterations =  1.9

     total cpu time spent up to now is     3471.8 secs

     total energy              =   -4457.62611767 Ry
     estimated scf accuracy    <       0.00000118 Ry

     total magnetization       =    10.67 Bohr mag/cell
     absolute magnetization    =    12.36 Bohr mag/cell

     iteration # 79     ecut=    60.00 Ry     beta= 0.30
     Davidson diagonalization with overlap
     ethr =  4.99E-10,  avg # of iterations = 10.9

     total cpu time spent up to now is     3543.0 secs

     total energy              =   -4457.62613212 Ry
     estimated scf accuracy    <       0.00000191 Ry

     total magnetization       =    10.67 Bohr mag/cell
     absolute magnetization    =    12.43 Bohr mag/cell

     iteration # 80     ecut=    60.00 Ry     beta= 0.30
     Davidson diagonalization with overlap
     ethr =  4.99E-10,  avg # of iterations = 10.1

     total cpu time spent up to now is     3611.1 secs

     total energy              =   -4457.62615542 Ry
     estimated scf accuracy    <       0.00000303 Ry

     total magnetization       =    10.67 Bohr mag/cell
     absolute magnetization    =    12.37 Bohr mag/cell

     iteration # 81     ecut=    60.00 Ry     beta= 0.30
     Davidson diagonalization with overlap
     ethr =  4.99E-10,  avg # of iterations =  5.1

     total cpu time spent up to now is     3658.0 secs

     total energy              =   -4457.62614364 Ry
     estimated scf accuracy    <       0.00000473 Ry

     total magnetization       =    10.67 Bohr mag/cell
     absolute magnetization    =    12.38 Bohr mag/cell

     iteration # 82     ecut=    60.00 Ry     beta= 0.30
     Davidson diagonalization with overlap
     ethr =  4.99E-10,  avg # of iterations =  8.0

     total cpu time spent up to now is     3719.0 secs

     total energy              =   -4457.62615211 Ry
     estimated scf accuracy    <       0.00000094 Ry

     total magnetization       =    10.67 Bohr mag/cell
     absolute magnetization    =    12.42 Bohr mag/cell

     iteration # 83     ecut=    60.00 Ry     beta= 0.30
     Davidson diagonalization with overlap
     ethr =  4.00E-10,  avg # of iterations =  7.1

     total cpu time spent up to now is     3774.5 secs

     total energy              =   -4457.62615556 Ry
     estimated scf accuracy    <       0.00000064 Ry

     total magnetization       =    10.67 Bohr mag/cell
     absolute magnetization    =    12.44 Bohr mag/cell

     iteration # 84     ecut=    60.00 Ry     beta= 0.30
     Davidson diagonalization with overlap
     ethr =  2.72E-10,  avg # of iterations =  5.1

     total cpu time spent up to now is     3819.6 secs

     total energy              =   -4457.62615470 Ry
     estimated scf accuracy    <       0.00000090 Ry

     total magnetization       =    10.67 Bohr mag/cell
     absolute magnetization    =    12.43 Bohr mag/cell

     iteration # 85     ecut=    60.00 Ry     beta= 0.30
     Davidson diagonalization with overlap
     ethr =  2.72E-10,  avg # of iterations =  5.2

     total cpu time spent up to now is     3867.7 secs

     total energy              =   -4457.62615468 Ry
     estimated scf accuracy    <       0.00000065 Ry

     total magnetization       =    10.67 Bohr mag/cell
     absolute magnetization    =    12.44 Bohr mag/cell

     iteration # 86     ecut=    60.00 Ry     beta= 0.30
     Davidson diagonalization with overlap
     ethr =  2.72E-10,  avg # of iterations =  5.4

     total cpu time spent up to now is     3917.4 secs

     total energy              =   -4457.62615585 Ry
     estimated scf accuracy    <       0.00000063 Ry

     total magnetization       =    10.67 Bohr mag/cell
     absolute magnetization    =    12.43 Bohr mag/cell

     iteration # 87     ecut=    60.00 Ry     beta= 0.30
     Davidson diagonalization with overlap
     ethr =  2.68E-10,  avg # of iterations =  1.0

     total cpu time spent up to now is     3951.5 secs

     total energy              =   -4457.62615576 Ry
     estimated scf accuracy    <       0.00000025 Ry

     total magnetization       =    10.67 Bohr mag/cell
     absolute magnetization    =    12.43 Bohr mag/cell

     iteration # 88     ecut=    60.00 Ry     beta= 0.30
     Davidson diagonalization with overlap
     ethr =  1.06E-10,  avg # of iterations =  5.5

     total cpu time spent up to now is     3997.7 secs

     total energy              =   -4457.62615585 Ry
     estimated scf accuracy    <       0.00000062 Ry

     total magnetization       =    10.67 Bohr mag/cell
     absolute magnetization    =    12.43 Bohr mag/cell

     iteration # 89     ecut=    60.00 Ry     beta= 0.30
     Davidson diagonalization with overlap
     ethr =  1.06E-10,  avg # of iterations =  3.5

     total cpu time spent up to now is     4038.0 secs

     total energy              =   -4457.62615562 Ry
     estimated scf accuracy    <       0.00000014 Ry

     total magnetization       =    10.67 Bohr mag/cell
     absolute magnetization    =    12.43 Bohr mag/cell

     iteration # 90     ecut=    60.00 Ry     beta= 0.30
     Davidson diagonalization with overlap
     ethr =  5.76E-11,  avg # of iterations =  6.4

     total cpu time spent up to now is     4090.6 secs

     total energy              =   -4457.62615585 Ry
     estimated scf accuracy    <       0.00000074 Ry

     total magnetization       =    10.67 Bohr mag/cell
     absolute magnetization    =    12.44 Bohr mag/cell

     iteration # 91     ecut=    60.00 Ry     beta= 0.30
     Davidson diagonalization with overlap
     ethr =  5.76E-11,  avg # of iterations =  5.2

     total cpu time spent up to now is     4136.6 secs

     total energy              =   -4457.62615583 Ry
     estimated scf accuracy    <       0.00000057 Ry

     total magnetization       =    10.67 Bohr mag/cell
     absolute magnetization    =    12.43 Bohr mag/cell

     iteration # 92     ecut=    60.00 Ry     beta= 0.30
     Davidson diagonalization with overlap
     ethr =  5.76E-11,  avg # of iterations =  5.6

     total cpu time spent up to now is     4184.6 secs

     total energy              =   -4457.62615594 Ry
     estimated scf accuracy    <       0.00000042 Ry

     total magnetization       =    10.67 Bohr mag/cell
     absolute magnetization    =    12.43 Bohr mag/cell

     iteration # 93     ecut=    60.00 Ry     beta= 0.30
     Davidson diagonalization with overlap
     ethr =  5.76E-11,  avg # of iterations =  4.5

     total cpu time spent up to now is     4227.3 secs

     total energy              =   -4457.62615599 Ry
     estimated scf accuracy    <       0.00000050 Ry

     total magnetization       =    10.67 Bohr mag/cell
     absolute magnetization    =    12.43 Bohr mag/cell

     iteration # 94     ecut=    60.00 Ry     beta= 0.30
     Davidson diagonalization with overlap
     ethr =  5.76E-11,  avg # of iterations =  4.0

     total cpu time spent up to now is     4268.6 secs

     total energy              =   -4457.62615595 Ry
     estimated scf accuracy    <       0.00000028 Ry

     total magnetization       =    10.67 Bohr mag/cell
     absolute magnetization    =    12.43 Bohr mag/cell

     iteration # 95     ecut=    60.00 Ry     beta= 0.30
     Davidson diagonalization with overlap
     ethr =  5.76E-11,  avg # of iterations =  4.4

     total cpu time spent up to now is     4311.8 secs

     total energy              =   -4457.62615598 Ry
     estimated scf accuracy    <       0.00000029 Ry

     total magnetization       =    10.67 Bohr mag/cell
     absolute magnetization    =    12.43 Bohr mag/cell

     iteration # 96     ecut=    60.00 Ry     beta= 0.30
     Davidson diagonalization with overlap
     ethr =  5.76E-11,  avg # of iterations =  2.7

     total cpu time spent up to now is     4350.3 secs

     total energy              =   -4457.62615598 Ry
     estimated scf accuracy    <       0.00000023 Ry

     total magnetization       =    10.67 Bohr mag/cell
     absolute magnetization    =    12.43 Bohr mag/cell

     iteration # 97     ecut=    60.00 Ry     beta= 0.30
     Davidson diagonalization with overlap
     ethr =  5.76E-11,  avg # of iterations =  2.0

     total cpu time spent up to now is     4388.0 secs

     total energy              =   -4457.62615600 Ry
     estimated scf accuracy    <       0.00000021 Ry

     total magnetization       =    10.67 Bohr mag/cell
     absolute magnetization    =    12.43 Bohr mag/cell

     iteration # 98     ecut=    60.00 Ry     beta= 0.30
     Davidson diagonalization with overlap
     ethr =  5.76E-11,  avg # of iterations =  1.8

     total cpu time spent up to now is     4424.7 secs

     total energy              =   -4457.62615599 Ry
     estimated scf accuracy    <       0.00000011 Ry

     total magnetization       =    10.67 Bohr mag/cell
     absolute magnetization    =    12.43 Bohr mag/cell

     iteration # 99     ecut=    60.00 Ry     beta= 0.30
     Davidson diagonalization with overlap
     ethr =  4.81E-11,  avg # of iterations =  1.1
 
     Magnetic moment per site  (integrated on atomic sphere of radius R)
     atom   1 (R=0.179)  charge= 12.1476  magn=  0.1795
     atom   2 (R=0.179)  charge= 14.4454  magn=  1.6309
     atom   3 (R=0.179)  charge= 14.4227  magn=  1.7952
     atom   4 (R=0.179)  charge= 12.1653  magn= -0.1022
     atom   5 (R=0.179)  charge= 12.1474  magn=  0.1798
     atom   6 (R=0.179)  charge= 14.4454  magn=  1.6309
     atom   7 (R=0.179)  charge= 12.1487  magn=  0.2353
     atom   8 (R=0.179)  charge= 12.1653  magn= -0.1022
     atom   9 (R=0.179)  charge= 12.1485  magn=  0.2351
     atom  10 (R=0.179)  charge= 12.1653  magn= -0.1022
     atom  11 (R=0.179)  charge= 12.1474  magn=  0.1804
     atom  12 (R=0.179)  charge= 14.4454  magn=  1.6309
     atom  13 (R=0.179)  charge= 14.4229  magn=  1.7949
     atom  14 (R=0.179)  charge= 12.1653  magn= -0.1022
     atom  15 (R=0.179)  charge= 12.1470  magn=  0.1795
     atom  16 (R=0.179)  charge= 14.4454  magn=  1.6309

     total cpu time spent up to now is     4459.6 secs

     End of self-consistent calculation

     Number of k-points >= 100: set verbosity='high' to print the bands.

     the Fermi energy is    19.9262 ev

!    total energy              =   -4457.62615601 Ry
     total all-electron energy =    -36290.732140 Ry
     estimated scf accuracy    <       0.00000009 Ry
     smearing contrib. (-TS)   =      -0.00262694 Ry
     internal energy E=F+TS    =   -4457.62352906 Ry

     The total energy is F=E-TS. E is the sum of the following terms:
     one-electron contribution =   -1187.35624471 Ry
     hartree contribution      =     746.28596298 Ry
     xc contribution           =    -389.40368146 Ry
     ewald contribution        =   -2387.90478899 Ry
     one-center paw contrib.   =   -1239.24477689 Ry

     total magnetization       =    10.67 Bohr mag/cell
     absolute magnetization    =    12.43 Bohr mag/cell

     convergence has been achieved in  99 iterations


     Computing stress (Cartesian axis) and pressure

          total   stress  (Ry/bohr**3)                   (kbar)     P=       43.93
   0.00022089   0.00000000   0.00016966           32.49        0.00       24.96
   0.00000000   0.00045414   0.00000000            0.00       66.81        0.00
   0.00016966   0.00000000   0.00022093           24.96        0.00       32.50


     Writing all to output data dir ./tmp/fecr_fe06cr10_t0.00.save/ :
     XML data file, charge density, pseudopotentials, collected wavefunctions
 
     init_run     :     37.37s CPU     27.35s WALL (       1 calls)
     electrons    :   5647.22s CPU   4431.77s WALL (       1 calls)
     stress       :     23.58s CPU     23.18s WALL (       1 calls)

     Called by init_run:
     wfcinit      :      7.24s CPU      8.94s WALL (       1 calls)
     potinit      :     29.26s CPU     17.41s WALL (       1 calls)
     hinit0       :      0.56s CPU      0.58s WALL (       1 calls)

     Called by electrons:
     c_bands      :   2445.19s CPU   2452.85s WALL (      99 calls)
     sum_band     :    224.44s CPU    224.34s WALL (      99 calls)
     v_of_rho     :      5.50s CPU      4.60s WALL (     100 calls)
     newd         :      3.90s CPU      3.92s WALL (     100 calls)
                                        3.92s GPU  (     100 calls)
     PAW_pot      :   2991.46s CPU   1757.48s WALL (     100 calls)
     mix_rho      :      3.28s CPU      3.30s WALL (      99 calls)

     Called by c_bands:
     init_us_2    :     18.98s CPU     17.94s WALL (   32000 calls)
     cegterg      :   2209.95s CPU   2217.95s WALL (   15840 calls)

     Called by *egterg:
     cdiaghg      :    768.01s CPU    774.31s WALL (   85825 calls)
                                      773.49s GPU  (   85825 calls)
     h_psi        :    670.67s CPU    675.07s WALL (   85985 calls)
                                      673.80s GPU  (   85985 calls)
     s_psi        :     43.60s CPU     44.23s WALL (   85985 calls)
     g_psi        :      0.39s CPU      3.75s WALL (   69985 calls)
                                        3.55s GPU  (   69985 calls)

     Called by h_psi:
     h_psi:calbec :      3.09s CPU    140.59s WALL (   85985 calls)
                                      140.28s GPU  (   85985 calls)
     vloc_psi     :    354.63s CPU    354.21s WALL (   85985 calls)
                                      353.92s GPU  (   85985 calls)
     add_vuspsi   :     42.55s CPU    175.64s WALL (   85985 calls)
                                      174.71s GPU  (   85985 calls)

     General routines
     calbec       :      3.80s CPU      3.96s WALL (  101985 calls)
     fft          :      1.15s CPU      1.40s WALL (    2519 calls)
                                        0.31s GPU  (    2319 calls)
     ffts         :      0.38s CPU      0.38s WALL (     398 calls)
                                        0.01s GPU  (     198 calls)
     fftw         :     19.84s CPU    332.58s WALL (  921898 calls)
                                      330.45s GPU  (  921898 calls)
     interpolate  :      1.61s CPU      1.62s WALL (     200 calls)
 
     Parallel routines
 
     PWSCF        :      1h35m CPU      1h14m WALL

 
   This run was terminated on:  12:39: 3  20May2026            

=------------------------------------------------------------------------------=
   JOB DONE.
=------------------------------------------------------------------------------=
Warning: ieee_divide_by_zero is signaling
Warning: ieee_inexact is signaling
FORTRAN STOP
