--------------------------------------------------------------------------
WARNING: Open MPI tried to bind a process but failed.  This is a
warning only; your job will continue, though performance may
be degraded.

  Local host:        b1c76c1b6516
  Application name:  /workspace/q-e-qe-7.3.1/bin/pw.x
  Error message:     failed to bind memory
  Location:          ../../../../../orte/mca/rtc/hwloc/rtc_hwloc.c:447

--------------------------------------------------------------------------

     Program PWSCF v.7.3.1 starts on 13May2026 at 12:53:56 

     This program is part of the open-source Quantum ESPRESSO suite
     for quantum simulation of materials; please cite
         "P. Giannozzi et al., J. Phys.:Condens. Matter 21 395502 (2009);
         "P. Giannozzi et al., J. Phys.:Condens. Matter 29 465901 (2017);
         "P. Giannozzi et al., J. Chem. Phys. 152 154105 (2020);
          URL http://www.quantum-espresso.org", 
     in publications or presentations arising from this work. More details at
     http://www.quantum-espresso.org/quote

     Parallel version (MPI & OpenMP), running on       8 processor cores
     Number of MPI processes:                 1
     Threads/MPI process:                     8

     MPI processes distributed on     1 nodes
     174726 MiB available memory on the printing compute node when the environment starts
 
     Reading input from inputs/fecr_fe11cr05_t0.01.in

     Current dimensions of program PWSCF are:
     Max number of different atomic species (ntypx) = 10
     Max number of k-points (npk) =  40000
     Max angular momentum in pseudopotentials (lmaxx) =  4
     file Fe.pbe-spn-kjpaw_psl.1.0.0.UPF: wavefunction(s)  3P 3D renormalized
     file Cr.pbe-spn-kjpaw_psl.1.0.0.UPF: wavefunction(s)  3S 3P 3D renormalized
     Message from routine setup:
     using ibrav=0 with symmetry is DISCOURAGED, use correct ibrav instead
 
     Subspace diagonalization in iterative solution of the eigenvalue problem:
     a serial algorithm will be used

 
     G-vector sticks info
     --------------------
     sticks:   dense  smooth     PW     G-vecs:    dense   smooth      PW
     Sum        4493    2241    641               230313    81463   12253
 
     Using Slab Decomposition
 


     bravais-lattice index     =            0
     lattice parameter (alat)  =      10.8520  a.u.
     unit-cell volume          =    1297.2105 (a.u.)^3
     number of atoms/cell      =           16
     number of atomic types    =            2
     number of electrons       =       246.00
     number of Kohn-Sham states=          148
     kinetic-energy cutoff     =      60.0000  Ry
     charge density cutoff     =     480.0000  Ry
     scf convergence threshold =      1.0E-08
     mixing beta               =       0.3000
     number of iterations used =            8  plain     mixing
     Exchange-correlation= SLA  PW   PBX  PBC
                           (   1   4   3   4   0   0   0)

     GPU acceleration is ACTIVE.  1 visible GPUs per MPI rank


     celldm(1)=  10.851992  celldm(2)=   0.000000  celldm(3)=   0.000000
     celldm(4)=   0.000000  celldm(5)=   0.000000  celldm(6)=   0.000000

     crystal axes: (cart. coord. in units of alat)
               a(1) = (   1.000000   0.000000   0.000000 )  
               a(2) = (   0.000000   1.000000   0.000000 )  
               a(3) = (   0.000000   0.000000   1.015037 )  

     reciprocal axes: (cart. coord. in units 2 pi/alat)
               b(1) = (  1.000000  0.000000  0.000000 )  
               b(2) = (  0.000000  1.000000  0.000000 )  
               b(3) = (  0.000000  0.000000  0.985185 )  


     PseudoPot. # 1 for Fe read from file:
     ./pseudo/Fe.pbe-spn-kjpaw_psl.1.0.0.UPF
     MD5 check sum: fc81f059e5c5069939230b1155715ae8
     Pseudo is Projector augmented-wave + core cor, Zval = 16.0
     Generated using &quot;atomic&quot; code by A. Dal Corso  v.6.3
     Shape of augmentation charge: PSQ
     Using radial grid of 1191 points,  6 beta functions with: 
                l(1) =   0
                l(2) =   0
                l(3) =   1
                l(4) =   1
                l(5) =   2
                l(6) =   2
     Q(r) pseudized with 0 coefficients 


     PseudoPot. # 2 for Cr read from file:
     ./pseudo/Cr.pbe-spn-kjpaw_psl.1.0.0.UPF
     MD5 check sum: 198f1a2427a48552563eee314eba32ba
     Pseudo is Projector augmented-wave + core cor, Zval = 14.0
     Generated using &quot;atomic&quot; code by A. Dal Corso  v.6.3
     Shape of augmentation charge: PSQ
     Using radial grid of 1183 points,  6 beta functions with: 
                l(1) =   0
                l(2) =   0
                l(3) =   1
                l(4) =   1
                l(5) =   2
                l(6) =   2
     Q(r) pseudized with 0 coefficients 


     atomic species   valence    mass     pseudopotential
     Fe               16.00    55.84500     Fe( 1.00)
     Cr               14.00    51.99600     Cr( 1.00)

     Starting magnetic structure 
     atomic species   magnetization
     Fe              0.500
     Cr              0.300

      4 Sym. Ops., with inversion, found ( 3 have fractional translation)



   Cartesian axes

     site n.     atom                  positions (alat units)
         1        Cr     tau(   1) = (   0.0000000   0.0000000   0.0000000  )
         2        Fe     tau(   2) = (   0.2500000   0.2500000   0.2537593  )
         3        Fe     tau(   3) = (   0.0000000   0.0000000   0.5075187  )
         4        Cr     tau(   4) = (   0.2500000   0.2500000   0.7612780  )
         5        Fe     tau(   5) = (   0.0000000   0.5000000   0.0000000  )
         6        Fe     tau(   6) = (   0.2500000   0.7500000   0.2537593  )
         7        Cr     tau(   7) = (   0.0000000   0.5000000   0.5075187  )
         8        Fe     tau(   8) = (   0.2500000   0.7500000   0.7612780  )
         9        Cr     tau(   9) = (   0.5000000   0.0000000   0.0000000  )
        10        Fe     tau(  10) = (   0.7500000   0.2500000   0.2537593  )
        11        Fe     tau(  11) = (   0.5000000   0.0000000   0.5075187  )
        12        Fe     tau(  12) = (   0.7500000   0.2500000   0.7612780  )
        13        Fe     tau(  13) = (   0.5000000   0.5000000   0.0000000  )
        14        Fe     tau(  14) = (   0.7500000   0.7500000   0.2537593  )
        15        Cr     tau(  15) = (   0.5000000   0.5000000   0.5075187  )
        16        Fe     tau(  16) = (   0.7500000   0.7500000   0.7612780  )

     number of k points=    80  Marzari-Vanderbilt smearing, width (Ry)=  0.0200
                       cart. coord. in units 2pi/alat
        k(    1) = (   0.0000000   0.0000000   0.0000000), wk =   0.0046296
        k(    2) = (   0.0000000   0.0000000   0.1641976), wk =   0.0092593
        k(    3) = (   0.0000000   0.0000000   0.3283951), wk =   0.0092593
        k(    4) = (   0.0000000   0.0000000  -0.4925927), wk =   0.0046296
        k(    5) = (   0.0000000   0.1666667   0.0000000), wk =   0.0092593
        k(    6) = (   0.0000000   0.1666667   0.1641976), wk =   0.0092593
        k(    7) = (   0.0000000   0.1666667   0.3283951), wk =   0.0092593
        k(    8) = (   0.0000000   0.1666667  -0.4925927), wk =   0.0092593
        k(    9) = (   0.0000000   0.3333333   0.0000000), wk =   0.0092593
        k(   10) = (   0.0000000   0.3333333   0.1641976), wk =   0.0092593
        k(   11) = (   0.0000000   0.3333333   0.3283951), wk =   0.0092593
        k(   12) = (   0.0000000   0.3333333  -0.4925927), wk =   0.0092593
        k(   13) = (   0.0000000  -0.5000000   0.0000000), wk =   0.0046296
        k(   14) = (   0.0000000  -0.5000000   0.1641976), wk =   0.0092593
        k(   15) = (   0.0000000  -0.5000000   0.3283951), wk =   0.0092593
        k(   16) = (   0.0000000  -0.5000000  -0.4925927), wk =   0.0046296
        k(   17) = (   0.1666667   0.1666667   0.0000000), wk =   0.0185185
        k(   18) = (   0.1666667   0.1666667   0.1641976), wk =   0.0185185
        k(   19) = (   0.1666667   0.1666667   0.3283951), wk =   0.0185185
        k(   20) = (   0.1666667   0.1666667  -0.4925927), wk =   0.0185185
        k(   21) = (   0.1666667   0.3333333   0.0000000), wk =   0.0185185
        k(   22) = (   0.1666667   0.3333333   0.1641976), wk =   0.0185185
        k(   23) = (   0.1666667   0.3333333   0.3283951), wk =   0.0185185
        k(   24) = (   0.1666667   0.3333333  -0.4925927), wk =   0.0185185
        k(   25) = (   0.1666667  -0.5000000   0.0000000), wk =   0.0092593
        k(   26) = (   0.1666667  -0.5000000   0.1641976), wk =   0.0185185
        k(   27) = (   0.1666667  -0.5000000   0.3283951), wk =   0.0185185
        k(   28) = (   0.1666667  -0.5000000  -0.4925927), wk =   0.0092593
        k(   29) = (   0.3333333   0.3333333   0.0000000), wk =   0.0185185
        k(   30) = (   0.3333333   0.3333333   0.1641976), wk =   0.0185185
        k(   31) = (   0.3333333   0.3333333   0.3283951), wk =   0.0185185
        k(   32) = (   0.3333333   0.3333333  -0.4925927), wk =   0.0185185
        k(   33) = (   0.3333333  -0.5000000   0.0000000), wk =   0.0092593
        k(   34) = (   0.3333333  -0.5000000   0.1641976), wk =   0.0185185
        k(   35) = (   0.3333333  -0.5000000   0.3283951), wk =   0.0185185
        k(   36) = (   0.3333333  -0.5000000  -0.4925927), wk =   0.0092593
        k(   37) = (  -0.5000000  -0.5000000   0.0000000), wk =   0.0046296
        k(   38) = (  -0.5000000  -0.5000000   0.1641976), wk =   0.0092593
        k(   39) = (  -0.5000000  -0.5000000   0.3283951), wk =   0.0092593
        k(   40) = (  -0.5000000  -0.5000000  -0.4925927), wk =   0.0046296
        k(   41) = (   0.1666667   0.0000000   0.0000000), wk =   0.0092593
        k(   42) = (   0.1666667   0.0000000  -0.1641976), wk =   0.0185185
        k(   43) = (   0.0000000   0.1666667  -0.1641976), wk =   0.0092593
        k(   44) = (   0.1666667   0.0000000  -0.3283951), wk =   0.0185185
        k(   45) = (   0.0000000   0.1666667  -0.3283951), wk =   0.0092593
        k(   46) = (   0.1666667   0.0000000   0.4925927), wk =   0.0092593
        k(   47) = (   0.3333333   0.0000000   0.0000000), wk =   0.0092593
        k(   48) = (   0.3333333   0.0000000  -0.1641976), wk =   0.0185185
        k(   49) = (   0.0000000   0.3333333  -0.1641976), wk =   0.0092593
        k(   50) = (   0.3333333   0.0000000  -0.3283951), wk =   0.0185185
        k(   51) = (   0.0000000   0.3333333  -0.3283951), wk =   0.0092593
        k(   52) = (   0.3333333   0.0000000   0.4925927), wk =   0.0092593
        k(   53) = (  -0.5000000   0.0000000   0.0000000), wk =   0.0046296
        k(   54) = (  -0.5000000   0.0000000  -0.1641976), wk =   0.0092593
        k(   55) = (  -0.5000000   0.0000000  -0.3283951), wk =   0.0092593
        k(   56) = (  -0.5000000   0.0000000   0.4925927), wk =   0.0046296
        k(   57) = (   0.1666667   0.1666667  -0.1641976), wk =   0.0185185
        k(   58) = (   0.1666667   0.1666667  -0.3283951), wk =   0.0185185
        k(   59) = (   0.3333333   0.1666667   0.0000000), wk =   0.0185185
        k(   60) = (   0.3333333   0.1666667  -0.1641976), wk =   0.0185185
        k(   61) = (  -0.3333333  -0.1666667  -0.1641976), wk =   0.0185185
        k(   62) = (  -0.1666667   0.3333333  -0.1641976), wk =   0.0185185
        k(   63) = (   0.3333333   0.1666667  -0.3283951), wk =   0.0185185
        k(   64) = (  -0.3333333  -0.1666667  -0.3283951), wk =   0.0185185
        k(   65) = (  -0.1666667   0.3333333  -0.3283951), wk =   0.0185185
        k(   66) = (   0.3333333   0.1666667   0.4925927), wk =   0.0185185
        k(   67) = (  -0.5000000   0.1666667   0.0000000), wk =   0.0092593
        k(   68) = (  -0.5000000   0.1666667  -0.1641976), wk =   0.0092593
        k(   69) = (   0.5000000  -0.1666667  -0.1641976), wk =   0.0092593
        k(   70) = (  -0.5000000   0.1666667  -0.3283951), wk =   0.0092593
        k(   71) = (   0.5000000  -0.1666667  -0.3283951), wk =   0.0092593
        k(   72) = (  -0.5000000   0.1666667   0.4925927), wk =   0.0092593
        k(   73) = (   0.3333333   0.3333333  -0.1641976), wk =   0.0185185
        k(   74) = (   0.3333333   0.3333333  -0.3283951), wk =   0.0185185
        k(   75) = (  -0.5000000   0.3333333   0.0000000), wk =   0.0092593
        k(   76) = (  -0.5000000   0.3333333  -0.1641976), wk =   0.0092593
        k(   77) = (   0.5000000  -0.3333333  -0.1641976), wk =   0.0092593
        k(   78) = (  -0.5000000   0.3333333  -0.3283951), wk =   0.0092593
        k(   79) = (   0.5000000  -0.3333333  -0.3283951), wk =   0.0092593
        k(   80) = (  -0.5000000   0.3333333   0.4925927), wk =   0.0092593

     Dense  grid:   230313 G-vectors     FFT dimensions: (  80,  80,  80)

     Smooth grid:    81463 G-vectors     FFT dimensions: (  54,  54,  60)

     Estimated max dynamical RAM per process >       4.58 GB

     Check: negative core charge=   -0.000003
     Generating pointlists ...
     new r_m :   0.1795 (alat units)  1.9481 (a.u.) for type    1
     new r_m :   0.1795 (alat units)  1.9481 (a.u.) for type    2

     Initial potential from superposition of free atoms

     starting charge     245.9913, renormalised to     246.0000
     Starting wfcs are  160 randomized atomic wfcs
     Checking if some PAW data can be deallocated... 

     total cpu time spent up to now is       24.6 secs

     Self-consistent Calculation

     iteration #  1     ecut=    60.00 Ry     beta= 0.30
     Davidson diagonalization with overlap
     ethr =  1.00E-02,  avg # of iterations =  3.8

     negative rho (up, down):  0.000E+00 6.226E-01

     total cpu time spent up to now is       81.2 secs

     total energy              =   -4852.32849563 Ry
     estimated scf accuracy    <      39.25165512 Ry

     total magnetization       =    50.01 Bohr mag/cell
     absolute magnetization    =    58.27 Bohr mag/cell

     iteration #  2     ecut=    60.00 Ry     beta= 0.30
     Davidson diagonalization with overlap
     ethr =  1.00E-02,  avg # of iterations =  4.4

     negative rho (up, down):  0.000E+00 4.944E-01

     total cpu time spent up to now is      138.1 secs

     total energy              =   -4852.61105095 Ry
     estimated scf accuracy    <      63.50940352 Ry

     total magnetization       =    24.96 Bohr mag/cell
     absolute magnetization    =    26.70 Bohr mag/cell

     iteration #  3     ecut=    60.00 Ry     beta= 0.30
     Davidson diagonalization with overlap
     ethr =  1.00E-02,  avg # of iterations =  2.6

     negative rho (up, down):  0.000E+00 3.570E-01

     total cpu time spent up to now is      187.3 secs

     total energy              =   -4859.12274395 Ry
     estimated scf accuracy    <      15.02556585 Ry

     total magnetization       =    45.67 Bohr mag/cell
     absolute magnetization    =    47.58 Bohr mag/cell

     iteration #  4     ecut=    60.00 Ry     beta= 0.30
     Davidson diagonalization with overlap
     ethr =  6.11E-03,  avg # of iterations =  1.6

     negative rho (up, down):  0.000E+00 2.918E-01

     total cpu time spent up to now is      230.3 secs

     total energy              =   -4860.32209906 Ry
     estimated scf accuracy    <       7.86138996 Ry

     total magnetization       =    39.80 Bohr mag/cell
     absolute magnetization    =    41.12 Bohr mag/cell

     iteration #  5     ecut=    60.00 Ry     beta= 0.30
     Davidson diagonalization with overlap
     ethr =  3.20E-03,  avg # of iterations =  1.5

     negative rho (up, down):  0.000E+00 3.126E-02

     total cpu time spent up to now is      272.7 secs

     total energy              =   -4861.94289954 Ry
     estimated scf accuracy    <       4.22318023 Ry

     total magnetization       =    40.32 Bohr mag/cell
     absolute magnetization    =    41.10 Bohr mag/cell

     iteration #  6     ecut=    60.00 Ry     beta= 0.30
     Davidson diagonalization with overlap
     ethr =  1.72E-03,  avg # of iterations =  3.4

     negative rho (up, down):  0.000E+00 1.256E-02

     total cpu time spent up to now is      322.8 secs

     total energy              =   -4862.18332234 Ry
     estimated scf accuracy    <       4.99488987 Ry

     total magnetization       =    30.63 Bohr mag/cell
     absolute magnetization    =    32.81 Bohr mag/cell

     iteration #  7     ecut=    60.00 Ry     beta= 0.30
     Davidson diagonalization with overlap
     ethr =  1.72E-03,  avg # of iterations =  1.6

     negative rho (up, down):  0.000E+00 4.782E-03

     total cpu time spent up to now is      365.5 secs

     total energy              =   -4862.44113846 Ry
     estimated scf accuracy    <       1.85413472 Ry

     total magnetization       =    31.82 Bohr mag/cell
     absolute magnetization    =    33.74 Bohr mag/cell

     iteration #  8     ecut=    60.00 Ry     beta= 0.30
     Davidson diagonalization with overlap
     ethr =  7.54E-04,  avg # of iterations =  2.3

     negative rho (up, down):  0.000E+00 3.413E-03

     total cpu time spent up to now is      411.5 secs

     total energy              =   -4862.54839373 Ry
     estimated scf accuracy    <       1.17423627 Ry

     total magnetization       =    28.90 Bohr mag/cell
     absolute magnetization    =    31.31 Bohr mag/cell

     iteration #  9     ecut=    60.00 Ry     beta= 0.30
     Davidson diagonalization with overlap
     ethr =  4.77E-04,  avg # of iterations =  2.8

     negative rho (up, down):  0.000E+00 5.400E-03

     total cpu time spent up to now is      458.7 secs

     total energy              =   -4862.69487107 Ry
     estimated scf accuracy    <       0.34281863 Ry

     total magnetization       =    28.16 Bohr mag/cell
     absolute magnetization    =    30.82 Bohr mag/cell

     iteration # 10     ecut=    60.00 Ry     beta= 0.30
     Davidson diagonalization with overlap
     ethr =  1.39E-04,  avg # of iterations =  4.8

     negative rho (up, down):  0.000E+00 4.090E-03

     total cpu time spent up to now is      513.3 secs

     total energy              =   -4862.71906528 Ry
     estimated scf accuracy    <       0.78912397 Ry

     total magnetization       =    24.84 Bohr mag/cell
     absolute magnetization    =    28.08 Bohr mag/cell

     iteration # 11     ecut=    60.00 Ry     beta= 0.30
     Davidson diagonalization with overlap
     ethr =  1.39E-04,  avg # of iterations =  1.3

     negative rho (up, down):  0.000E+00 3.412E-03

     total cpu time spent up to now is      554.8 secs

     total energy              =   -4862.74310856 Ry
     estimated scf accuracy    <       0.38944032 Ry

     total magnetization       =    25.01 Bohr mag/cell
     absolute magnetization    =    28.12 Bohr mag/cell

     iteration # 12     ecut=    60.00 Ry     beta= 0.30
     Davidson diagonalization with overlap
     ethr =  1.39E-04,  avg # of iterations =  1.7

     negative rho (up, down):  0.000E+00 3.070E-03

     total cpu time spent up to now is      598.2 secs

     total energy              =   -4862.76575253 Ry
     estimated scf accuracy    <       0.21285389 Ry

     total magnetization       =    24.20 Bohr mag/cell
     absolute magnetization    =    27.41 Bohr mag/cell

     iteration # 13     ecut=    60.00 Ry     beta= 0.30
     Davidson diagonalization with overlap
     ethr =  8.65E-05,  avg # of iterations =  2.1

     negative rho (up, down):  0.000E+00 1.499E-03

     total cpu time spent up to now is      643.1 secs

     total energy              =   -4862.79470825 Ry
     estimated scf accuracy    <       0.12388041 Ry

     total magnetization       =    23.90 Bohr mag/cell
     absolute magnetization    =    27.12 Bohr mag/cell

     iteration # 14     ecut=    60.00 Ry     beta= 0.30
     Davidson diagonalization with overlap
     ethr =  5.04E-05,  avg # of iterations =  2.3

     negative rho (up, down):  0.000E+00 1.339E-03

     total cpu time spent up to now is      688.7 secs

     total energy              =   -4862.80199742 Ry
     estimated scf accuracy    <       0.10481280 Ry

     total magnetization       =    23.19 Bohr mag/cell
     absolute magnetization    =    26.47 Bohr mag/cell

     iteration # 15     ecut=    60.00 Ry     beta= 0.30
     Davidson diagonalization with overlap
     ethr =  4.26E-05,  avg # of iterations =  1.9

     negative rho (up, down):  0.000E+00 1.328E-03

     total cpu time spent up to now is      733.5 secs

     total energy              =   -4862.80293650 Ry
     estimated scf accuracy    <       0.12743455 Ry

     total magnetization       =    22.92 Bohr mag/cell
     absolute magnetization    =    26.18 Bohr mag/cell

     iteration # 16     ecut=    60.00 Ry     beta= 0.30
     Davidson diagonalization with overlap
     ethr =  4.26E-05,  avg # of iterations =  1.5

     negative rho (up, down):  0.000E+00 1.153E-03

     total cpu time spent up to now is      775.5 secs

     total energy              =   -4862.80678461 Ry
     estimated scf accuracy    <       0.05886908 Ry

     total magnetization       =    22.77 Bohr mag/cell
     absolute magnetization    =    26.04 Bohr mag/cell

     iteration # 17     ecut=    60.00 Ry     beta= 0.30
     Davidson diagonalization with overlap
     c_bands:  1 eigenvalues not converged
     ethr =  2.39E-05,  avg # of iterations =  6.6

     negative rho (up, down):  0.000E+00 9.328E-04

     total cpu time spent up to now is      839.3 secs

     total energy              =   -4862.80258692 Ry
     estimated scf accuracy    <       0.34031195 Ry

     total magnetization       =    22.79 Bohr mag/cell
     absolute magnetization    =    26.02 Bohr mag/cell

     iteration # 18     ecut=    60.00 Ry     beta= 0.30
     Davidson diagonalization with overlap
     ethr =  2.39E-05,  avg # of iterations =  2.4

     negative rho (up, down):  0.000E+00 8.870E-04

     total cpu time spent up to now is      885.4 secs

     total energy              =   -4862.81741311 Ry
     estimated scf accuracy    <       0.01368400 Ry

     total magnetization       =    22.52 Bohr mag/cell
     absolute magnetization    =    25.88 Bohr mag/cell

     iteration # 19     ecut=    60.00 Ry     beta= 0.30
     Davidson diagonalization with overlap
     c_bands:  1 eigenvalues not converged
     ethr =  5.56E-06,  avg # of iterations =  7.5

     negative rho (up, down):  0.000E+00 9.131E-04

     total cpu time spent up to now is      951.4 secs

     total energy              =   -4862.81843970 Ry
     estimated scf accuracy    <       0.01899669 Ry

     total magnetization       =    22.28 Bohr mag/cell
     absolute magnetization    =    25.72 Bohr mag/cell

     iteration # 20     ecut=    60.00 Ry     beta= 0.30
     Davidson diagonalization with overlap
     ethr =  5.56E-06,  avg # of iterations =  2.6

     negative rho (up, down):  0.000E+00 9.401E-04

     total cpu time spent up to now is      998.4 secs

     total energy              =   -4862.81870471 Ry
     estimated scf accuracy    <       0.02044348 Ry

     total magnetization       =    22.21 Bohr mag/cell
     absolute magnetization    =    25.67 Bohr mag/cell

     iteration # 21     ecut=    60.00 Ry     beta= 0.30
     Davidson diagonalization with overlap
     c_bands:  1 eigenvalues not converged
     ethr =  5.56E-06,  avg # of iterations =  3.0

     negative rho (up, down):  0.000E+00 9.073E-04

     total cpu time spent up to now is     1046.9 secs

     total energy              =   -4862.81955499 Ry
     estimated scf accuracy    <       0.03148760 Ry

     total magnetization       =    22.30 Bohr mag/cell
     absolute magnetization    =    25.73 Bohr mag/cell

     iteration # 22     ecut=    60.00 Ry     beta= 0.30
     Davidson diagonalization with overlap
     ethr =  5.56E-06,  avg # of iterations =  1.2

     negative rho (up, down):  0.000E+00 8.517E-04

     total cpu time spent up to now is     1088.1 secs

     total energy              =   -4862.82158369 Ry
     estimated scf accuracy    <       0.00860896 Ry

     total magnetization       =    22.16 Bohr mag/cell
     absolute magnetization    =    25.67 Bohr mag/cell

     iteration # 23     ecut=    60.00 Ry     beta= 0.30
     Davidson diagonalization with overlap
     ethr =  3.50E-06,  avg # of iterations =  1.9

     negative rho (up, down):  0.000E+00 8.752E-04

     total cpu time spent up to now is     1132.5 secs

     total energy              =   -4862.82156846 Ry
     estimated scf accuracy    <       0.00936706 Ry

     total magnetization       =    22.02 Bohr mag/cell
     absolute magnetization    =    25.68 Bohr mag/cell

     iteration # 24     ecut=    60.00 Ry     beta= 0.30
     Davidson diagonalization with overlap
     ethr =  3.50E-06,  avg # of iterations =  1.2

     negative rho (up, down):  0.000E+00 8.543E-04

     total cpu time spent up to now is     1173.2 secs

     total energy              =   -4862.82257925 Ry
     estimated scf accuracy    <       0.00819249 Ry

     total magnetization       =    22.10 Bohr mag/cell
     absolute magnetization    =    25.74 Bohr mag/cell

     iteration # 25     ecut=    60.00 Ry     beta= 0.30
     Davidson diagonalization with overlap
     ethr =  3.33E-06,  avg # of iterations =  1.3

     negative rho (up, down):  0.000E+00 9.022E-04

     total cpu time spent up to now is     1214.3 secs

     total energy              =   -4862.82192763 Ry
     estimated scf accuracy    <       0.00577134 Ry

     total magnetization       =    21.98 Bohr mag/cell
     absolute magnetization    =    25.75 Bohr mag/cell

     iteration # 26     ecut=    60.00 Ry     beta= 0.30
     Davidson diagonalization with overlap
     ethr =  2.35E-06,  avg # of iterations =  2.1

     negative rho (up, down):  0.000E+00 8.493E-04

     total cpu time spent up to now is     1259.7 secs

     total energy              =   -4862.82335966 Ry
     estimated scf accuracy    <       0.01078815 Ry

     total magnetization       =    22.09 Bohr mag/cell
     absolute magnetization    =    25.73 Bohr mag/cell

     iteration # 27     ecut=    60.00 Ry     beta= 0.30
     Davidson diagonalization with overlap
     ethr =  2.35E-06,  avg # of iterations =  6.1

     negative rho (up, down):  0.000E+00 8.875E-04

     total cpu time spent up to now is     1322.5 secs

     total energy              =   -4862.82299460 Ry
     estimated scf accuracy    <       0.01180796 Ry

     total magnetization       =    21.64 Bohr mag/cell
     absolute magnetization    =    26.00 Bohr mag/cell

     iteration # 28     ecut=    60.00 Ry     beta= 0.30
     Davidson diagonalization with overlap
     ethr =  2.35E-06,  avg # of iterations =  2.0

     negative rho (up, down):  0.000E+00 8.881E-04

     total cpu time spent up to now is     1367.2 secs

     total energy              =   -4862.82501540 Ry
     estimated scf accuracy    <       0.00361972 Ry

     total magnetization       =    21.86 Bohr mag/cell
     absolute magnetization    =    25.82 Bohr mag/cell

     iteration # 29     ecut=    60.00 Ry     beta= 0.30
     Davidson diagonalization with overlap
     c_bands:  1 eigenvalues not converged
     c_bands:  2 eigenvalues not converged
     ethr =  1.47E-06,  avg # of iterations =  2.1

     negative rho (up, down):  0.000E+00 8.933E-04

     total cpu time spent up to now is     1411.5 secs

     total energy              =   -4862.82512260 Ry
     estimated scf accuracy    <       0.00354157 Ry

     total magnetization       =    21.76 Bohr mag/cell
     absolute magnetization    =    25.90 Bohr mag/cell

     iteration # 30     ecut=    60.00 Ry     beta= 0.30
     Davidson diagonalization with overlap
     ethr =  1.44E-06,  avg # of iterations =  1.4

     negative rho (up, down):  0.000E+00 9.107E-04

     total cpu time spent up to now is     1453.6 secs

     total energy              =   -4862.82615087 Ry
     estimated scf accuracy    <       0.00607642 Ry

     total magnetization       =    21.79 Bohr mag/cell
     absolute magnetization    =    25.92 Bohr mag/cell

     iteration # 31     ecut=    60.00 Ry     beta= 0.30
     Davidson diagonalization with overlap
     ethr =  1.44E-06,  avg # of iterations =  5.6

     negative rho (up, down):  0.000E+00 9.079E-04

     total cpu time spent up to now is     1515.0 secs

     total energy              =   -4862.82574275 Ry
     estimated scf accuracy    <       0.00588760 Ry

     total magnetization       =    21.45 Bohr mag/cell
     absolute magnetization    =    26.27 Bohr mag/cell

     iteration # 32     ecut=    60.00 Ry     beta= 0.30
     Davidson diagonalization with overlap
     ethr =  1.44E-06,  avg # of iterations =  2.7

     negative rho (up, down):  0.000E+00 9.175E-04

     total cpu time spent up to now is     1562.6 secs

     total energy              =   -4862.82714942 Ry
     estimated scf accuracy    <       0.00548773 Ry

     total magnetization       =    21.67 Bohr mag/cell
     absolute magnetization    =    26.11 Bohr mag/cell

     iteration # 33     ecut=    60.00 Ry     beta= 0.30
     Davidson diagonalization with overlap
     ethr =  1.44E-06,  avg # of iterations =  1.3

     negative rho (up, down):  0.000E+00 9.244E-04

     total cpu time spent up to now is     1603.7 secs

     total energy              =   -4862.82744716 Ry
     estimated scf accuracy    <       0.00395571 Ry

     total magnetization       =    21.57 Bohr mag/cell
     absolute magnetization    =    26.22 Bohr mag/cell

     iteration # 34     ecut=    60.00 Ry     beta= 0.30
     Davidson diagonalization with overlap
     ethr =  1.44E-06,  avg # of iterations =  1.4

     negative rho (up, down):  0.000E+00 9.443E-04

     total cpu time spent up to now is     1645.2 secs

     total energy              =   -4862.82835310 Ry
     estimated scf accuracy    <       0.00525513 Ry

     total magnetization       =    21.52 Bohr mag/cell
     absolute magnetization    =    26.21 Bohr mag/cell

     iteration # 35     ecut=    60.00 Ry     beta= 0.30
     Davidson diagonalization with overlap
     ethr =  1.44E-06,  avg # of iterations =  3.2

     negative rho (up, down):  0.000E+00 9.915E-04

     total cpu time spent up to now is     1695.0 secs

     total energy              =   -4862.82869387 Ry
     estimated scf accuracy    <       0.00367544 Ry

     total magnetization       =    21.36 Bohr mag/cell
     absolute magnetization    =    26.52 Bohr mag/cell

     iteration # 36     ecut=    60.00 Ry     beta= 0.30
     Davidson diagonalization with overlap
     ethr =  1.44E-06,  avg # of iterations =  7.0

     negative rho (up, down):  0.000E+00 9.624E-04

     total cpu time spent up to now is     1766.9 secs

     total energy              =   -4862.82949421 Ry
     estimated scf accuracy    <       0.00208443 Ry

     total magnetization       =    20.97 Bohr mag/cell
     absolute magnetization    =    27.31 Bohr mag/cell

     iteration # 37     ecut=    60.00 Ry     beta= 0.30
     Davidson diagonalization with overlap
     ethr =  8.47E-07,  avg # of iterations =  4.2

     negative rho (up, down):  0.000E+00 9.626E-04

     total cpu time spent up to now is     1821.0 secs

     total energy              =   -4862.83007066 Ry
     estimated scf accuracy    <       0.00243988 Ry

     total magnetization       =    21.19 Bohr mag/cell
     absolute magnetization    =    26.87 Bohr mag/cell

     iteration # 38     ecut=    60.00 Ry     beta= 0.30
     Davidson diagonalization with overlap
     ethr =  8.47E-07,  avg # of iterations =  1.8

     negative rho (up, down):  0.000E+00 9.895E-04

     total cpu time spent up to now is     1865.8 secs

     total energy              =   -4862.83100571 Ry
     estimated scf accuracy    <       0.00302311 Ry

     total magnetization       =    21.25 Bohr mag/cell
     absolute magnetization    =    26.80 Bohr mag/cell

     iteration # 39     ecut=    60.00 Ry     beta= 0.30
     Davidson diagonalization with overlap
     ethr =  8.47E-07,  avg # of iterations =  3.0

     negative rho (up, down):  0.000E+00 1.056E-03

     total cpu time spent up to now is     1915.3 secs

     total energy              =   -4862.82972790 Ry
     estimated scf accuracy    <       0.00143995 Ry

     total magnetization       =    21.05 Bohr mag/cell
     absolute magnetization    =    27.17 Bohr mag/cell

     iteration # 40     ecut=    60.00 Ry     beta= 0.30
     Davidson diagonalization with overlap
     c_bands:  1 eigenvalues not converged
     ethr =  5.85E-07,  avg # of iterations =  8.2

     negative rho (up, down):  0.000E+00 1.062E-03

     total cpu time spent up to now is     1998.7 secs

     total energy              =   -4862.83522380 Ry
     estimated scf accuracy    <       0.00134208 Ry

     total magnetization       =    20.56 Bohr mag/cell
     absolute magnetization    =    28.24 Bohr mag/cell

     iteration # 41     ecut=    60.00 Ry     beta= 0.30
     Davidson diagonalization with overlap
     ethr =  5.46E-07,  avg # of iterations =  1.8

     negative rho (up, down):  0.000E+00 1.096E-03

     total cpu time spent up to now is     2042.9 secs

     total energy              =   -4862.83532573 Ry
     estimated scf accuracy    <       0.00346940 Ry

     total magnetization       =    20.58 Bohr mag/cell
     absolute magnetization    =    28.27 Bohr mag/cell

     iteration # 42     ecut=    60.00 Ry     beta= 0.30
     Davidson diagonalization with overlap
     ethr =  5.46E-07,  avg # of iterations =  6.5

     negative rho (up, down):  0.000E+00 1.106E-03

     total cpu time spent up to now is     2109.0 secs

     total energy              =   -4862.83682043 Ry
     estimated scf accuracy    <       0.00233891 Ry

     total magnetization       =    20.39 Bohr mag/cell
     absolute magnetization    =    28.87 Bohr mag/cell

     iteration # 43     ecut=    60.00 Ry     beta= 0.30
     Davidson diagonalization with overlap
     ethr =  5.46E-07,  avg # of iterations =  2.8

     negative rho (up, down):  0.000E+00 1.131E-03

     total cpu time spent up to now is     2158.1 secs

     total energy              =   -4862.83694278 Ry
     estimated scf accuracy    <       0.00306521 Ry

     total magnetization       =    20.30 Bohr mag/cell
     absolute magnetization    =    29.03 Bohr mag/cell

     iteration # 44     ecut=    60.00 Ry     beta= 0.30
     Davidson diagonalization with overlap
     ethr =  5.46E-07,  avg # of iterations =  6.0

     negative rho (up, down):  0.000E+00 1.144E-03

     total cpu time spent up to now is     2222.6 secs

     total energy              =   -4862.83782744 Ry
     estimated scf accuracy    <       0.00372095 Ry

     total magnetization       =    20.10 Bohr mag/cell
     absolute magnetization    =    29.43 Bohr mag/cell

     iteration # 45     ecut=    60.00 Ry     beta= 0.30
     Davidson diagonalization with overlap
     ethr =  5.46E-07,  avg # of iterations =  4.0

     negative rho (up, down):  0.000E+00 1.128E-03

     total cpu time spent up to now is     2275.1 secs

     total energy              =   -4862.83772272 Ry
     estimated scf accuracy    <       0.00061166 Ry

     total magnetization       =    20.05 Bohr mag/cell
     absolute magnetization    =    29.70 Bohr mag/cell

     iteration # 46     ecut=    60.00 Ry     beta= 0.30
     Davidson diagonalization with overlap
     ethr =  2.49E-07,  avg # of iterations =  3.9

     negative rho (up, down):  0.000E+00 1.178E-03

     total cpu time spent up to now is     2330.0 secs

     total energy              =   -4862.83638023 Ry
     estimated scf accuracy    <       0.00333536 Ry

     total magnetization       =    20.16 Bohr mag/cell
     absolute magnetization    =    29.47 Bohr mag/cell

     iteration # 47     ecut=    60.00 Ry     beta= 0.30
     Davidson diagonalization with overlap
     ethr =  2.49E-07,  avg # of iterations =  7.7

     negative rho (up, down):  0.000E+00 1.156E-03

     total cpu time spent up to now is     2411.8 secs

     total energy              =   -4862.83831837 Ry
     estimated scf accuracy    <       0.00123863 Ry

     total magnetization       =    19.88 Bohr mag/cell
     absolute magnetization    =    30.35 Bohr mag/cell

     iteration # 48     ecut=    60.00 Ry     beta= 0.30
     Davidson diagonalization with overlap
     ethr =  2.49E-07,  avg # of iterations =  5.1

     negative rho (up, down):  0.000E+00 1.199E-03

     total cpu time spent up to now is     2472.5 secs

     total energy              =   -4862.83743639 Ry
     estimated scf accuracy    <       0.00144675 Ry

     total magnetization       =    20.00 Bohr mag/cell
     absolute magnetization    =    30.02 Bohr mag/cell

     iteration # 49     ecut=    60.00 Ry     beta= 0.30
     Davidson diagonalization with overlap
     ethr =  2.49E-07,  avg # of iterations =  6.8

     negative rho (up, down):  0.000E+00 1.209E-03

     total cpu time spent up to now is     2548.4 secs

     total energy              =   -4862.83940516 Ry
     estimated scf accuracy    <       0.00047325 Ry

     total magnetization       =    19.76 Bohr mag/cell
     absolute magnetization    =    30.78 Bohr mag/cell

     iteration # 50     ecut=    60.00 Ry     beta= 0.30
     Davidson diagonalization with overlap
     ethr =  1.92E-07,  avg # of iterations =  5.5

     negative rho (up, down):  0.000E+00 1.204E-03

     total cpu time spent up to now is     2609.8 secs

     total energy              =   -4862.83961772 Ry
     estimated scf accuracy    <       0.00065033 Ry

     total magnetization       =    19.71 Bohr mag/cell
     absolute magnetization    =    31.02 Bohr mag/cell

     iteration # 51     ecut=    60.00 Ry     beta= 0.30
     Davidson diagonalization with overlap
     ethr =  1.92E-07,  avg # of iterations =  1.2

     negative rho (up, down):  0.000E+00 1.210E-03

     total cpu time spent up to now is     2650.7 secs

     total energy              =   -4862.83964009 Ry
     estimated scf accuracy    <       0.00023150 Ry

     total magnetization       =    19.74 Bohr mag/cell
     absolute magnetization    =    30.95 Bohr mag/cell

     iteration # 52     ecut=    60.00 Ry     beta= 0.30
     Davidson diagonalization with overlap
     ethr =  9.41E-08,  avg # of iterations =  5.4

     negative rho (up, down):  0.000E+00 1.202E-03

     total cpu time spent up to now is     2711.7 secs

     total energy              =   -4862.83982801 Ry
     estimated scf accuracy    <       0.00055333 Ry

     total magnetization       =    19.73 Bohr mag/cell
     absolute magnetization    =    31.14 Bohr mag/cell

     iteration # 53     ecut=    60.00 Ry     beta= 0.30
     Davidson diagonalization with overlap
     ethr =  9.41E-08,  avg # of iterations =  3.7

     negative rho (up, down):  0.000E+00 1.195E-03

     total cpu time spent up to now is     2764.2 secs

     total energy              =   -4862.83979018 Ry
     estimated scf accuracy    <       0.00083920 Ry

     total magnetization       =    19.77 Bohr mag/cell
     absolute magnetization    =    31.06 Bohr mag/cell

     iteration # 54     ecut=    60.00 Ry     beta= 0.30
     Davidson diagonalization with overlap
     ethr =  9.41E-08,  avg # of iterations =  4.6

     negative rho (up, down):  0.000E+00 1.213E-03

     total cpu time spent up to now is     2820.6 secs

     total energy              =   -4862.83934261 Ry
     estimated scf accuracy    <       0.00071251 Ry

     total magnetization       =    19.81 Bohr mag/cell
     absolute magnetization    =    30.95 Bohr mag/cell

     iteration # 55     ecut=    60.00 Ry     beta= 0.30
     Davidson diagonalization with overlap
     ethr =  9.41E-08,  avg # of iterations =  7.0

     negative rho (up, down):  0.000E+00 1.197E-03

     total cpu time spent up to now is     2896.3 secs

     total energy              =   -4862.83976712 Ry
     estimated scf accuracy    <       0.00015091 Ry

     total magnetization       =    19.73 Bohr mag/cell
     absolute magnetization    =    31.33 Bohr mag/cell

     iteration # 56     ecut=    60.00 Ry     beta= 0.30
     Davidson diagonalization with overlap
     ethr =  6.13E-08,  avg # of iterations =  5.5

     negative rho (up, down):  0.000E+00 1.205E-03

     total cpu time spent up to now is     2962.7 secs

     total energy              =   -4862.83984291 Ry
     estimated scf accuracy    <       0.00078557 Ry

     total magnetization       =    19.81 Bohr mag/cell
     absolute magnetization    =    31.06 Bohr mag/cell

     iteration # 57     ecut=    60.00 Ry     beta= 0.30
     Davidson diagonalization with overlap
     ethr =  6.13E-08,  avg # of iterations =  5.5

     negative rho (up, down):  0.000E+00 1.206E-03

     total cpu time spent up to now is     3028.1 secs

     total energy              =   -4862.84000003 Ry
     estimated scf accuracy    <       0.00012552 Ry

     total magnetization       =    19.79 Bohr mag/cell
     absolute magnetization    =    31.25 Bohr mag/cell

     iteration # 58     ecut=    60.00 Ry     beta= 0.30
     Davidson diagonalization with overlap
     ethr =  5.10E-08,  avg # of iterations =  2.0

     negative rho (up, down):  0.000E+00 1.205E-03

     total cpu time spent up to now is     3073.3 secs

     total energy              =   -4862.84001342 Ry
     estimated scf accuracy    <       0.00021264 Ry

     total magnetization       =    19.78 Bohr mag/cell
     absolute magnetization    =    31.25 Bohr mag/cell

     iteration # 59     ecut=    60.00 Ry     beta= 0.30
     Davidson diagonalization with overlap
     ethr =  5.10E-08,  avg # of iterations =  1.2

     negative rho (up, down):  0.000E+00 1.201E-03

     total cpu time spent up to now is     3114.4 secs

     total energy              =   -4862.84002661 Ry
     estimated scf accuracy    <       0.00003139 Ry

     total magnetization       =    19.79 Bohr mag/cell
     absolute magnetization    =    31.26 Bohr mag/cell

     iteration # 60     ecut=    60.00 Ry     beta= 0.30
     Davidson diagonalization with overlap
     ethr =  1.28E-08,  avg # of iterations =  5.1

     negative rho (up, down):  0.000E+00 1.199E-03

     total cpu time spent up to now is     3174.6 secs

     total energy              =   -4862.84003047 Ry
     estimated scf accuracy    <       0.00015421 Ry

     total magnetization       =    19.81 Bohr mag/cell
     absolute magnetization    =    31.19 Bohr mag/cell

     iteration # 61     ecut=    60.00 Ry     beta= 0.30
     Davidson diagonalization with overlap
     ethr =  1.28E-08,  avg # of iterations =  5.6

     negative rho (up, down):  0.000E+00 1.197E-03

     total cpu time spent up to now is     3236.7 secs

     total energy              =   -4862.84005452 Ry
     estimated scf accuracy    <       0.00002271 Ry

     total magnetization       =    19.82 Bohr mag/cell
     absolute magnetization    =    31.21 Bohr mag/cell

     iteration # 62     ecut=    60.00 Ry     beta= 0.30
     Davidson diagonalization with overlap
     ethr =  9.23E-09,  avg # of iterations =  2.0

     negative rho (up, down):  0.000E+00 1.196E-03

     total cpu time spent up to now is     3281.8 secs

     total energy              =   -4862.84005639 Ry
     estimated scf accuracy    <       0.00003288 Ry

     total magnetization       =    19.83 Bohr mag/cell
     absolute magnetization    =    31.19 Bohr mag/cell

     iteration # 63     ecut=    60.00 Ry     beta= 0.30
     Davidson diagonalization with overlap
     ethr =  9.23E-09,  avg # of iterations =  1.9

     negative rho (up, down):  0.000E+00 1.195E-03

     total cpu time spent up to now is     3326.0 secs

     total energy              =   -4862.84005717 Ry
     estimated scf accuracy    <       0.00001267 Ry

     total magnetization       =    19.84 Bohr mag/cell
     absolute magnetization    =    31.18 Bohr mag/cell

     iteration # 64     ecut=    60.00 Ry     beta= 0.30
     Davidson diagonalization with overlap
     ethr =  5.15E-09,  avg # of iterations =  3.5

     negative rho (up, down):  0.000E+00 1.195E-03

     total cpu time spent up to now is     3376.3 secs

     total energy              =   -4862.84005891 Ry
     estimated scf accuracy    <       0.00001421 Ry

     total magnetization       =    19.84 Bohr mag/cell
     absolute magnetization    =    31.18 Bohr mag/cell

     iteration # 65     ecut=    60.00 Ry     beta= 0.30
     Davidson diagonalization with overlap
     ethr =  5.15E-09,  avg # of iterations =  1.4

     negative rho (up, down):  0.000E+00 1.195E-03

     total cpu time spent up to now is     3418.0 secs

     total energy              =   -4862.84005957 Ry
     estimated scf accuracy    <       0.00001583 Ry

     total magnetization       =    19.84 Bohr mag/cell
     absolute magnetization    =    31.18 Bohr mag/cell

     iteration # 66     ecut=    60.00 Ry     beta= 0.30
     Davidson diagonalization with overlap
     ethr =  5.15E-09,  avg # of iterations =  1.3

     negative rho (up, down):  0.000E+00 1.194E-03

     total cpu time spent up to now is     3459.1 secs

     total energy              =   -4862.84006131 Ry
     estimated scf accuracy    <       0.00000306 Ry

     total magnetization       =    19.84 Bohr mag/cell
     absolute magnetization    =    31.17 Bohr mag/cell

     iteration # 67     ecut=    60.00 Ry     beta= 0.30
     Davidson diagonalization with overlap
     ethr =  1.24E-09,  avg # of iterations =  4.2

     negative rho (up, down):  0.000E+00 1.193E-03

     total cpu time spent up to now is     3515.6 secs

     total energy              =   -4862.84006202 Ry
     estimated scf accuracy    <       0.00000536 Ry

     total magnetization       =    19.84 Bohr mag/cell
     absolute magnetization    =    31.17 Bohr mag/cell

     iteration # 68     ecut=    60.00 Ry     beta= 0.30
     Davidson diagonalization with overlap
     ethr =  1.24E-09,  avg # of iterations =  2.5

     negative rho (up, down):  0.000E+00 1.192E-03

     total cpu time spent up to now is     3562.7 secs

     total energy              =   -4862.84006109 Ry
     estimated scf accuracy    <       0.00000739 Ry

     total magnetization       =    19.84 Bohr mag/cell
     absolute magnetization    =    31.17 Bohr mag/cell

     iteration # 69     ecut=    60.00 Ry     beta= 0.30
     Davidson diagonalization with overlap
     ethr =  1.24E-09,  avg # of iterations =  5.1

     negative rho (up, down):  0.000E+00 1.192E-03

     total cpu time spent up to now is     3621.2 secs

     total energy              =   -4862.84006219 Ry
     estimated scf accuracy    <       0.00000696 Ry

     total magnetization       =    19.85 Bohr mag/cell
     absolute magnetization    =    31.16 Bohr mag/cell

     iteration # 70     ecut=    60.00 Ry     beta= 0.30
     Davidson diagonalization with overlap
     ethr =  1.24E-09,  avg # of iterations =  1.5

     negative rho (up, down):  0.000E+00 1.192E-03

     total cpu time spent up to now is     3663.7 secs

     total energy              =   -4862.84006260 Ry
     estimated scf accuracy    <       0.00000146 Ry

     total magnetization       =    19.84 Bohr mag/cell
     absolute magnetization    =    31.16 Bohr mag/cell

     iteration # 71     ecut=    60.00 Ry     beta= 0.30
     Davidson diagonalization with overlap
     ethr =  5.93E-10,  avg # of iterations =  2.7

     negative rho (up, down):  0.000E+00 1.192E-03

     total cpu time spent up to now is     3711.9 secs

     total energy              =   -4862.84006273 Ry
     estimated scf accuracy    <       0.00000180 Ry

     total magnetization       =    19.84 Bohr mag/cell
     absolute magnetization    =    31.16 Bohr mag/cell

     iteration # 72     ecut=    60.00 Ry     beta= 0.30
     Davidson diagonalization with overlap
     ethr =  5.93E-10,  avg # of iterations =  1.1

     negative rho (up, down):  0.000E+00 1.191E-03

     total cpu time spent up to now is     3751.8 secs

     total energy              =   -4862.84006283 Ry
     estimated scf accuracy    <       0.00000031 Ry

     total magnetization       =    19.84 Bohr mag/cell
     absolute magnetization    =    31.16 Bohr mag/cell

     iteration # 73     ecut=    60.00 Ry     beta= 0.30
     Davidson diagonalization with overlap
     ethr =  1.26E-10,  avg # of iterations =  4.5

     negative rho (up, down):  0.000E+00 1.191E-03

     total cpu time spent up to now is     3807.0 secs

     total energy              =   -4862.84006285 Ry
     estimated scf accuracy    <       0.00000064 Ry

     total magnetization       =    19.84 Bohr mag/cell
     absolute magnetization    =    31.17 Bohr mag/cell

     iteration # 74     ecut=    60.00 Ry     beta= 0.30
     Davidson diagonalization with overlap
     ethr =  1.26E-10,  avg # of iterations =  4.3

     negative rho (up, down):  0.000E+00 1.191E-03

     total cpu time spent up to now is     3863.0 secs

     total energy              =   -4862.84006280 Ry
     estimated scf accuracy    <       0.00000088 Ry

     total magnetization       =    19.84 Bohr mag/cell
     absolute magnetization    =    31.17 Bohr mag/cell

     iteration # 75     ecut=    60.00 Ry     beta= 0.30
     Davidson diagonalization with overlap
     ethr =  1.26E-10,  avg # of iterations =  3.3

     negative rho (up, down):  0.000E+00 1.191E-03

     total cpu time spent up to now is     3915.0 secs

     total energy              =   -4862.84006289 Ry
     estimated scf accuracy    <       0.00000063 Ry

     total magnetization       =    19.84 Bohr mag/cell
     absolute magnetization    =    31.17 Bohr mag/cell

     iteration # 76     ecut=    60.00 Ry     beta= 0.30
     Davidson diagonalization with overlap
     ethr =  1.26E-10,  avg # of iterations =  1.7

     negative rho (up, down):  0.000E+00 1.191E-03

     total cpu time spent up to now is     3958.6 secs

     total energy              =   -4862.84006294 Ry
     estimated scf accuracy    <       0.00000018 Ry

     total magnetization       =    19.84 Bohr mag/cell
     absolute magnetization    =    31.17 Bohr mag/cell

     iteration # 77     ecut=    60.00 Ry     beta= 0.30
     Davidson diagonalization with overlap
     ethr =  7.50E-11,  avg # of iterations =  2.2

     negative rho (up, down):  0.000E+00 1.191E-03

     total cpu time spent up to now is     4004.5 secs

     total energy              =   -4862.84006294 Ry
     estimated scf accuracy    <       0.00000030 Ry

     total magnetization       =    19.84 Bohr mag/cell
     absolute magnetization    =    31.17 Bohr mag/cell

     iteration # 78     ecut=    60.00 Ry     beta= 0.30
     Davidson diagonalization with overlap
     ethr =  7.50E-11,  avg # of iterations =  3.1

     negative rho (up, down):  0.000E+00 1.191E-03

     total cpu time spent up to now is     4054.9 secs

     total energy              =   -4862.84006298 Ry
     estimated scf accuracy    <       0.00000007 Ry

     total magnetization       =    19.84 Bohr mag/cell
     absolute magnetization    =    31.17 Bohr mag/cell

     iteration # 79     ecut=    60.00 Ry     beta= 0.30
     Davidson diagonalization with overlap
     ethr =  2.69E-11,  avg # of iterations =  3.5

     negative rho (up, down):  0.000E+00 1.191E-03

     total cpu time spent up to now is     4105.0 secs

     total energy              =   -4862.84006298 Ry
     estimated scf accuracy    <       0.00000012 Ry

     total magnetization       =    19.84 Bohr mag/cell
     absolute magnetization    =    31.17 Bohr mag/cell

     iteration # 80     ecut=    60.00 Ry     beta= 0.30
     Davidson diagonalization with overlap
     ethr =  2.69E-11,  avg # of iterations =  2.2

     negative rho (up, down):  0.000E+00 1.191E-03

     total cpu time spent up to now is     4151.1 secs

     total energy              =   -4862.84006299 Ry
     estimated scf accuracy    <       0.00000008 Ry

     total magnetization       =    19.84 Bohr mag/cell
     absolute magnetization    =    31.17 Bohr mag/cell

     iteration # 81     ecut=    60.00 Ry     beta= 0.30
     Davidson diagonalization with overlap
     ethr =  2.69E-11,  avg # of iterations =  1.4

     negative rho (up, down):  0.000E+00 1.191E-03

     total cpu time spent up to now is     4193.2 secs

     total energy              =   -4862.84006300 Ry
     estimated scf accuracy    <       0.00000003 Ry

     total magnetization       =    19.84 Bohr mag/cell
     absolute magnetization    =    31.17 Bohr mag/cell

     iteration # 82     ecut=    60.00 Ry     beta= 0.30
     Davidson diagonalization with overlap
     ethr =  1.31E-11,  avg # of iterations =  3.0

     negative rho (up, down):  0.000E+00 1.191E-03

     total cpu time spent up to now is     4242.4 secs

     total energy              =   -4862.84006300 Ry
     estimated scf accuracy    <       0.00000005 Ry

     total magnetization       =    19.84 Bohr mag/cell
     absolute magnetization    =    31.17 Bohr mag/cell

     iteration # 83     ecut=    60.00 Ry     beta= 0.30
     Davidson diagonalization with overlap
     ethr =  1.31E-11,  avg # of iterations =  2.5

     negative rho (up, down):  0.000E+00 1.191E-03

     total cpu time spent up to now is     4287.9 secs

     total energy              =   -4862.84006301 Ry
     estimated scf accuracy    <       0.00000002 Ry

     total magnetization       =    19.84 Bohr mag/cell
     absolute magnetization    =    31.17 Bohr mag/cell

     iteration # 84     ecut=    60.00 Ry     beta= 0.30
     Davidson diagonalization with overlap
     ethr =  7.76E-12,  avg # of iterations =  1.8

     negative rho (up, down):  0.000E+00 1.191E-03

     total cpu time spent up to now is     4332.2 secs

     total energy              =   -4862.84006301 Ry
     estimated scf accuracy    <       0.00000002 Ry

     total magnetization       =    19.84 Bohr mag/cell
     absolute magnetization    =    31.17 Bohr mag/cell

     iteration # 85     ecut=    60.00 Ry     beta= 0.30
     Davidson diagonalization with overlap
     ethr =  7.76E-12,  avg # of iterations =  5.6

     negative rho (up, down):  0.000E+00 1.191E-03
 
     Magnetic moment per site  (integrated on atomic sphere of radius R)
     atom   1 (R=0.180)  charge= 12.1708  magn= -1.1381
     atom   2 (R=0.180)  charge= 14.4708  magn=  2.1712
     atom   3 (R=0.180)  charge= 14.4581  magn=  2.2872
     atom   4 (R=0.180)  charge= 12.2123  magn=  0.6679
     atom   5 (R=0.180)  charge= 14.4581  magn=  2.2872
     atom   6 (R=0.180)  charge= 14.4692  magn=  2.1772
     atom   7 (R=0.180)  charge= 12.1708  magn= -1.1381
     atom   8 (R=0.180)  charge= 14.4717  magn=  2.1642
     atom   9 (R=0.180)  charge= 12.1708  magn= -1.1381
     atom  10 (R=0.180)  charge= 14.4689  magn=  2.2469
     atom  11 (R=0.180)  charge= 14.4581  magn=  2.2872
     atom  12 (R=0.180)  charge= 14.4722  magn=  2.1342
     atom  13 (R=0.180)  charge= 14.4581  magn=  2.2872
     atom  14 (R=0.180)  charge= 14.4665  magn=  2.2984
     atom  15 (R=0.180)  charge= 12.1708  magn= -1.1381
     atom  16 (R=0.180)  charge= 14.4687  magn=  2.2560

     total cpu time spent up to now is     4392.6 secs

     End of self-consistent calculation

     Number of k-points >= 100: set verbosity='high' to print the bands.

     the Fermi energy is    17.8932 ev

!    total energy              =   -4862.84006302 Ry
     total all-electron energy =    -38509.765319 Ry
     estimated scf accuracy    <          8.7E-09 Ry
     smearing contrib. (-TS)   =      -0.00405614 Ry
     internal energy E=F+TS    =   -4862.83600688 Ry

     The total energy is F=E-TS. E is the sum of the following terms:
     one-electron contribution =   -1563.26863369 Ry
     hartree contribution      =     926.37144910 Ry
     xc contribution           =    -416.06696099 Ry
     ewald contribution        =   -2527.94869100 Ry
     one-center paw contrib.   =   -1281.92317031 Ry

     total magnetization       =    19.84 Bohr mag/cell
     absolute magnetization    =    31.17 Bohr mag/cell

     convergence has been achieved in  85 iterations


     Computing stress (Cartesian axis) and pressure


     negative rho (up, down):  0.000E+00 1.191E-03
          total   stress  (Ry/bohr**3)                   (kbar)     P=      -92.44
  -0.00046725   0.00000000   0.00000000          -68.73        0.00        0.00
   0.00000000  -0.00065606   0.00005964            0.00      -96.51        8.77
   0.00000000   0.00005964  -0.00076190            0.00        8.77     -112.08


     Writing all to output data dir ./tmp/fecr_fe11cr05_t0.01.save/ :
     XML data file, charge density, pseudopotentials, collected wavefunctions
 
     init_run     :     28.76s CPU     24.20s WALL (       1 calls)
     electrons    :   4892.28s CPU   4368.02s WALL (       1 calls)
     stress       :     44.97s CPU     44.46s WALL (       1 calls)

     Called by init_run:
     wfcinit      :     12.88s CPU     14.62s WALL (       1 calls)
     potinit      :     15.15s CPU      8.73s WALL (       1 calls)
     hinit0       :      0.45s CPU      0.45s WALL (       1 calls)

     Called by electrons:
     c_bands      :   3322.90s CPU   3326.67s WALL (      85 calls)
     sum_band     :    318.76s CPU    318.28s WALL (      85 calls)
     v_of_rho     :      1.80s CPU      1.73s WALL (      86 calls)
     newd         :      6.72s CPU      6.74s WALL (      86 calls)
                                        6.74s GPU  (      86 calls)
     PAW_pot      :   1250.24s CPU    716.61s WALL (      86 calls)
     mix_rho      :      3.62s CPU      3.63s WALL (      85 calls)

     Called by c_bands:
     init_us_2    :     20.40s CPU     20.00s WALL (   27520 calls)
     cegterg      :   3116.27s CPU   3120.31s WALL (   13600 calls)

     Called by *egterg:
     cdiaghg      :    757.74s CPU    761.27s WALL (   58835 calls)
                                      761.00s GPU  (   58835 calls)
     h_psi        :   1109.09s CPU   1112.70s WALL (   58995 calls)
                                     1111.82s GPU  (   58995 calls)
     s_psi        :     35.22s CPU     35.52s WALL (   58995 calls)
     g_psi        :      0.24s CPU      5.56s WALL (   45235 calls)
                                        5.38s GPU  (   45235 calls)

     Called by h_psi:
     h_psi:calbec :      2.29s CPU    193.81s WALL (   58995 calls)
                                      193.56s GPU  (   58995 calls)
     vloc_psi     :    649.98s CPU    651.72s WALL (   58995 calls)
                                      651.48s GPU  (   58995 calls)
     add_vuspsi   :     34.01s CPU    262.08s WALL (   58995 calls)
                                      261.83s GPU  (   58995 calls)

     General routines
     calbec       :      2.97s CPU      3.12s WALL (   72755 calls)
     fft          :      1.79s CPU      2.13s WALL (    2169 calls)
                                        0.39s GPU  (    1997 calls)
     ffts         :      0.27s CPU      0.28s WALL (     342 calls)
                                        0.02s GPU  (     170 calls)
     fftw         :     13.97s CPU    662.97s WALL (  783262 calls)
                                      660.46s GPU  (  783262 calls)
     interpolate  :      2.25s CPU      2.20s WALL (     172 calls)
 
     Parallel routines
 
     PWSCF        :      1h22m CPU      1h13m WALL

 
   This run was terminated on:  14: 7:56  13May2026            

=------------------------------------------------------------------------------=
   JOB DONE.
=------------------------------------------------------------------------------=
Warning: ieee_invalid is signaling
Warning: ieee_divide_by_zero is signaling
Warning: ieee_inexact is signaling
FORTRAN STOP
