--------------------------------------------------------------------------
WARNING: Open MPI tried to bind a process but failed.  This is a
warning only; your job will continue, though performance may
be degraded.

  Local host:        4b82db919bf5
  Application name:  /root/q-e-qe-7.3.1/bin/pw.x
  Error message:     failed to bind memory
  Location:          ../../../../../orte/mca/rtc/hwloc/rtc_hwloc.c:447

--------------------------------------------------------------------------

     Program PWSCF v.7.3.1 starts on 20May2026 at 10: 0:38 

     This program is part of the open-source Quantum ESPRESSO suite
     for quantum simulation of materials; please cite
         "P. Giannozzi et al., J. Phys.:Condens. Matter 21 395502 (2009);
         "P. Giannozzi et al., J. Phys.:Condens. Matter 29 465901 (2017);
         "P. Giannozzi et al., J. Chem. Phys. 152 154105 (2020);
          URL http://www.quantum-espresso.org", 
     in publications or presentations arising from this work. More details at
     http://www.quantum-espresso.org/quote

     Parallel version (MPI & OpenMP), running on       8 processor cores
     Number of MPI processes:                 1
     Threads/MPI process:                     8

     MPI processes distributed on     1 nodes
     195429 MiB available memory on the printing compute node when the environment starts
 
     Reading input from inputs/fecr_fe06cr10_t-0.01.in

     Current dimensions of program PWSCF are:
     Max number of different atomic species (ntypx) = 10
     Max number of k-points (npk) =  40000
     Max angular momentum in pseudopotentials (lmaxx) =  4
     file Fe.pbe-spn-kjpaw_psl.1.0.0.UPF: wavefunction(s)  3P 3D renormalized
     file Cr.pbe-spn-kjpaw_psl.1.0.0.UPF: wavefunction(s)  3S 3P 3D renormalized
     Found identity + ( -0.5000 -0.5000  0.5000) symmetry
     This is a supercell, fractional translations are disabled
     Message from routine setup:
     using ibrav=0 with symmetry is DISCOURAGED, use correct ibrav instead
 
     Subspace diagonalization in iterative solution of the eigenvalue problem:
     a serial algorithm will be used

 
     G-vector sticks info
     --------------------
     sticks:   dense  smooth     PW     G-vecs:    dense   smooth      PW
     Sum        4373    2185    621               213253    75387   11423
 
     Using Slab Decomposition
 


     bravais-lattice index     =            0
     lattice parameter (alat)  =      10.6829  a.u.
     unit-cell volume          =    1200.9351 (a.u.)^3
     number of atoms/cell      =           16
     number of atomic types    =            2
     number of electrons       =       236.00
     number of Kohn-Sham states=          142
     kinetic-energy cutoff     =      60.0000  Ry
     charge density cutoff     =     480.0000  Ry
     scf convergence threshold =      1.0E-07
     mixing beta               =       0.3000
     number of iterations used =            8  plain     mixing
     Exchange-correlation= SLA  PW   PBX  PBC
                           (   1   4   3   4   0   0   0)

     GPU acceleration is ACTIVE.  1 visible GPUs per MPI rank


     celldm(1)=  10.682894  celldm(2)=   0.000000  celldm(3)=   0.000000
     celldm(4)=   0.000000  celldm(5)=   0.000000  celldm(6)=   0.000000

     crystal axes: (cart. coord. in units of alat)
               a(1) = (   1.000000   0.000000   0.000000 )  
               a(2) = (   0.000000   1.000000   0.000000 )  
               a(3) = (   0.000000   0.000000   0.985038 )  

     reciprocal axes: (cart. coord. in units 2 pi/alat)
               b(1) = (  1.000000  0.000000  0.000000 )  
               b(2) = (  0.000000  1.000000  0.000000 )  
               b(3) = (  0.000000  0.000000  1.015190 )  


     PseudoPot. # 1 for Fe read from file:
     ./pseudo/Fe.pbe-spn-kjpaw_psl.1.0.0.UPF
     MD5 check sum: fc81f059e5c5069939230b1155715ae8
     Pseudo is Projector augmented-wave + core cor, Zval = 16.0
     Generated using &quot;atomic&quot; code by A. Dal Corso  v.6.3
     Shape of augmentation charge: PSQ
     Using radial grid of 1191 points,  6 beta functions with: 
                l(1) =   0
                l(2) =   0
                l(3) =   1
                l(4) =   1
                l(5) =   2
                l(6) =   2
     Q(r) pseudized with 0 coefficients 


     PseudoPot. # 2 for Cr read from file:
     ./pseudo/Cr.pbe-spn-kjpaw_psl.1.0.0.UPF
     MD5 check sum: 198f1a2427a48552563eee314eba32ba
     Pseudo is Projector augmented-wave + core cor, Zval = 14.0
     Generated using &quot;atomic&quot; code by A. Dal Corso  v.6.3
     Shape of augmentation charge: PSQ
     Using radial grid of 1183 points,  6 beta functions with: 
                l(1) =   0
                l(2) =   0
                l(3) =   1
                l(4) =   1
                l(5) =   2
                l(6) =   2
     Q(r) pseudized with 0 coefficients 


     atomic species   valence    mass     pseudopotential
     Fe               16.00    55.84500     Fe( 1.00)
     Cr               14.00    51.99600     Cr( 1.00)

     Starting magnetic structure 
     atomic species   magnetization
     Fe              0.500
     Cr              0.300

      4 Sym. Ops., with inversion, found



   Cartesian axes

     site n.     atom                  positions (alat units)
         1        Cr     tau(   1) = (   0.0000000   0.0000000   0.0000000  )
         2        Fe     tau(   2) = (   0.2500000   0.2500000   0.2462594  )
         3        Fe     tau(   3) = (   0.0000000   0.0000000   0.4925188  )
         4        Cr     tau(   4) = (   0.2500000   0.2500000   0.7387781  )
         5        Cr     tau(   5) = (   0.0000000   0.5000000   0.0000000  )
         6        Fe     tau(   6) = (   0.2500000   0.7500000   0.2462594  )
         7        Cr     tau(   7) = (   0.0000000   0.5000000   0.4925188  )
         8        Cr     tau(   8) = (   0.2500000   0.7500000   0.7387781  )
         9        Cr     tau(   9) = (   0.5000000   0.0000000   0.0000000  )
        10        Cr     tau(  10) = (   0.7500000   0.2500000   0.2462594  )
        11        Cr     tau(  11) = (   0.5000000   0.0000000   0.4925188  )
        12        Fe     tau(  12) = (   0.7500000   0.2500000   0.7387781  )
        13        Fe     tau(  13) = (   0.5000000   0.5000000   0.0000000  )
        14        Cr     tau(  14) = (   0.7500000   0.7500000   0.2462594  )
        15        Cr     tau(  15) = (   0.5000000   0.5000000   0.4925188  )
        16        Fe     tau(  16) = (   0.7500000   0.7500000   0.7387781  )

     number of k points=    80  Marzari-Vanderbilt smearing, width (Ry)=  0.0200
                       cart. coord. in units 2pi/alat
        k(    1) = (   0.0000000   0.0000000   0.0000000), wk =   0.0046296
        k(    2) = (   0.0000000   0.0000000   0.1691983), wk =   0.0092593
        k(    3) = (   0.0000000   0.0000000   0.3383966), wk =   0.0092593
        k(    4) = (   0.0000000   0.0000000  -0.5075949), wk =   0.0046296
        k(    5) = (   0.0000000   0.1666667   0.0000000), wk =   0.0092593
        k(    6) = (   0.0000000   0.1666667   0.1691983), wk =   0.0185185
        k(    7) = (   0.0000000   0.1666667   0.3383966), wk =   0.0185185
        k(    8) = (   0.0000000   0.1666667  -0.5075949), wk =   0.0092593
        k(    9) = (   0.0000000   0.3333333   0.0000000), wk =   0.0092593
        k(   10) = (   0.0000000   0.3333333   0.1691983), wk =   0.0185185
        k(   11) = (   0.0000000   0.3333333   0.3383966), wk =   0.0185185
        k(   12) = (   0.0000000   0.3333333  -0.5075949), wk =   0.0092593
        k(   13) = (   0.0000000  -0.5000000   0.0000000), wk =   0.0046296
        k(   14) = (   0.0000000  -0.5000000   0.1691983), wk =   0.0092593
        k(   15) = (   0.0000000  -0.5000000   0.3383966), wk =   0.0092593
        k(   16) = (   0.0000000  -0.5000000  -0.5075949), wk =   0.0046296
        k(   17) = (   0.1666667   0.1666667   0.0000000), wk =   0.0185185
        k(   18) = (   0.1666667   0.1666667   0.1691983), wk =   0.0185185
        k(   19) = (   0.1666667   0.1666667   0.3383966), wk =   0.0185185
        k(   20) = (   0.1666667   0.1666667  -0.5075949), wk =   0.0185185
        k(   21) = (   0.1666667   0.3333333   0.0000000), wk =   0.0185185
        k(   22) = (   0.1666667   0.3333333   0.1691983), wk =   0.0185185
        k(   23) = (   0.1666667   0.3333333   0.3383966), wk =   0.0185185
        k(   24) = (   0.1666667   0.3333333  -0.5075949), wk =   0.0185185
        k(   25) = (   0.1666667  -0.5000000   0.0000000), wk =   0.0092593
        k(   26) = (   0.1666667  -0.5000000   0.1691983), wk =   0.0092593
        k(   27) = (   0.1666667  -0.5000000   0.3383966), wk =   0.0092593
        k(   28) = (   0.1666667  -0.5000000  -0.5075949), wk =   0.0092593
        k(   29) = (   0.3333333   0.3333333   0.0000000), wk =   0.0185185
        k(   30) = (   0.3333333   0.3333333   0.1691983), wk =   0.0185185
        k(   31) = (   0.3333333   0.3333333   0.3383966), wk =   0.0185185
        k(   32) = (   0.3333333   0.3333333  -0.5075949), wk =   0.0185185
        k(   33) = (   0.3333333  -0.5000000   0.0000000), wk =   0.0092593
        k(   34) = (   0.3333333  -0.5000000   0.1691983), wk =   0.0092593
        k(   35) = (   0.3333333  -0.5000000   0.3383966), wk =   0.0092593
        k(   36) = (   0.3333333  -0.5000000  -0.5075949), wk =   0.0092593
        k(   37) = (  -0.5000000  -0.5000000   0.0000000), wk =   0.0046296
        k(   38) = (  -0.5000000  -0.5000000   0.1691983), wk =   0.0092593
        k(   39) = (  -0.5000000  -0.5000000   0.3383966), wk =   0.0092593
        k(   40) = (  -0.5000000  -0.5000000  -0.5075949), wk =   0.0046296
        k(   41) = (   0.1666667   0.0000000   0.0000000), wk =   0.0092593
        k(   42) = (   0.1666667   0.0000000  -0.1691983), wk =   0.0092593
        k(   43) = (  -0.1666667   0.0000000  -0.1691983), wk =   0.0092593
        k(   44) = (   0.1666667   0.0000000  -0.3383966), wk =   0.0092593
        k(   45) = (  -0.1666667   0.0000000  -0.3383966), wk =   0.0092593
        k(   46) = (   0.1666667   0.0000000   0.5075949), wk =   0.0092593
        k(   47) = (   0.3333333   0.0000000   0.0000000), wk =   0.0092593
        k(   48) = (   0.3333333   0.0000000  -0.1691983), wk =   0.0092593
        k(   49) = (  -0.3333333   0.0000000  -0.1691983), wk =   0.0092593
        k(   50) = (   0.3333333   0.0000000  -0.3383966), wk =   0.0092593
        k(   51) = (  -0.3333333   0.0000000  -0.3383966), wk =   0.0092593
        k(   52) = (   0.3333333   0.0000000   0.5075949), wk =   0.0092593
        k(   53) = (  -0.5000000   0.0000000   0.0000000), wk =   0.0046296
        k(   54) = (  -0.5000000   0.0000000  -0.1691983), wk =   0.0092593
        k(   55) = (  -0.5000000   0.0000000  -0.3383966), wk =   0.0092593
        k(   56) = (  -0.5000000   0.0000000   0.5075949), wk =   0.0046296
        k(   57) = (   0.1666667   0.1666667  -0.1691983), wk =   0.0185185
        k(   58) = (   0.1666667   0.1666667  -0.3383966), wk =   0.0185185
        k(   59) = (   0.3333333   0.1666667   0.0000000), wk =   0.0185185
        k(   60) = (   0.3333333   0.1666667  -0.1691983), wk =   0.0185185
        k(   61) = (  -0.3333333  -0.1666667  -0.1691983), wk =   0.0185185
        k(   62) = (  -0.1666667  -0.3333333   0.1691983), wk =   0.0185185
        k(   63) = (   0.3333333   0.1666667  -0.3383966), wk =   0.0185185
        k(   64) = (  -0.3333333  -0.1666667  -0.3383966), wk =   0.0185185
        k(   65) = (  -0.1666667  -0.3333333   0.3383966), wk =   0.0185185
        k(   66) = (   0.3333333   0.1666667   0.5075949), wk =   0.0185185
        k(   67) = (  -0.5000000   0.1666667   0.0000000), wk =   0.0092593
        k(   68) = (  -0.5000000   0.1666667  -0.1691983), wk =   0.0185185
        k(   69) = (  -0.1666667   0.5000000   0.1691983), wk =   0.0092593
        k(   70) = (  -0.5000000   0.1666667  -0.3383966), wk =   0.0185185
        k(   71) = (  -0.1666667   0.5000000   0.3383966), wk =   0.0092593
        k(   72) = (  -0.5000000   0.1666667   0.5075949), wk =   0.0092593
        k(   73) = (   0.3333333   0.3333333  -0.1691983), wk =   0.0185185
        k(   74) = (   0.3333333   0.3333333  -0.3383966), wk =   0.0185185
        k(   75) = (  -0.5000000   0.3333333   0.0000000), wk =   0.0092593
        k(   76) = (  -0.5000000   0.3333333  -0.1691983), wk =   0.0185185
        k(   77) = (  -0.3333333   0.5000000   0.1691983), wk =   0.0092593
        k(   78) = (  -0.5000000   0.3333333  -0.3383966), wk =   0.0185185
        k(   79) = (  -0.3333333   0.5000000   0.3383966), wk =   0.0092593
        k(   80) = (  -0.5000000   0.3333333   0.5075949), wk =   0.0092593

     Dense  grid:   213253 G-vectors     FFT dimensions: (  75,  75,  75)

     Smooth grid:    75387 G-vectors     FFT dimensions: (  54,  54,  54)

     Estimated max dynamical RAM per process >       4.10 GB

     Check: negative core charge=   -0.000003
     Generating pointlists ...
     new r_m :   0.1777 (alat units)  1.8987 (a.u.) for type    1
     new r_m :   0.1777 (alat units)  1.8987 (a.u.) for type    2

     Initial potential from superposition of free atoms

     starting charge     235.9896, renormalised to     236.0000
     Starting wfcs are  160 randomized atomic wfcs
     Checking if some PAW data can be deallocated... 

     total cpu time spent up to now is       28.7 secs

     Self-consistent Calculation

     iteration #  1     ecut=    60.00 Ry     beta= 0.30
     Davidson diagonalization with overlap
     ethr =  1.00E-02,  avg # of iterations =  5.3

     negative rho (up, down):  1.754E-01 1.720E+00

     total cpu time spent up to now is       75.7 secs

     total energy              =   -4442.61395500 Ry
     estimated scf accuracy    <     239.07393854 Ry

     total magnetization       =    46.14 Bohr mag/cell
     absolute magnetization    =    65.04 Bohr mag/cell

     iteration #  2     ecut=    60.00 Ry     beta= 0.30
     Davidson diagonalization with overlap
     ethr =  1.00E-02,  avg # of iterations =  5.2

     negative rho (up, down):  1.266E-01 1.297E+00

     total cpu time spent up to now is      120.9 secs

     total energy              =   -4444.65258689 Ry
     estimated scf accuracy    <      72.61477620 Ry

     total magnetization       =    23.46 Bohr mag/cell
     absolute magnetization    =    24.18 Bohr mag/cell

     iteration #  3     ecut=    60.00 Ry     beta= 0.30
     Davidson diagonalization with overlap
     ethr =  1.00E-02,  avg # of iterations =  5.6

     negative rho (up, down):  1.004E-01 1.134E+00

     total cpu time spent up to now is      170.1 secs

     total energy              =   -4445.73709952 Ry
     estimated scf accuracy    <     143.74849826 Ry

     total magnetization       =    23.60 Bohr mag/cell
     absolute magnetization    =    23.92 Bohr mag/cell

     iteration #  4     ecut=    60.00 Ry     beta= 0.30
     Davidson diagonalization with overlap
     ethr =  1.00E-02,  avg # of iterations =  3.7

     negative rho (up, down):  8.438E-02 1.024E+00

     total cpu time spent up to now is      213.2 secs

     total energy              =   -4454.03708140 Ry
     estimated scf accuracy    <      18.52086796 Ry

     total magnetization       =    24.35 Bohr mag/cell
     absolute magnetization    =    25.29 Bohr mag/cell

     iteration #  5     ecut=    60.00 Ry     beta= 0.30
     Davidson diagonalization with overlap
     ethr =  7.85E-03,  avg # of iterations =  2.8

     negative rho (up, down):  4.077E-02 6.783E-01

     total cpu time spent up to now is      252.9 secs

     total energy              =   -4455.53572562 Ry
     estimated scf accuracy    <      17.02371412 Ry

     total magnetization       =    25.02 Bohr mag/cell
     absolute magnetization    =    25.68 Bohr mag/cell

     iteration #  6     ecut=    60.00 Ry     beta= 0.30
     Davidson diagonalization with overlap
     ethr =  7.21E-03,  avg # of iterations =  1.8

     negative rho (up, down):  1.025E-02 3.581E-01

     total cpu time spent up to now is      289.8 secs

     total energy              =   -4455.97667390 Ry
     estimated scf accuracy    <      13.25823554 Ry

     total magnetization       =    23.77 Bohr mag/cell
     absolute magnetization    =    24.46 Bohr mag/cell

     iteration #  7     ecut=    60.00 Ry     beta= 0.30
     Davidson diagonalization with overlap
     ethr =  5.62E-03,  avg # of iterations =  1.4

     negative rho (up, down):  2.364E-03 2.088E-01

     total cpu time spent up to now is      325.5 secs

     total energy              =   -4456.89513561 Ry
     estimated scf accuracy    <       7.47152393 Ry

     total magnetization       =    21.17 Bohr mag/cell
     absolute magnetization    =    21.96 Bohr mag/cell

     iteration #  8     ecut=    60.00 Ry     beta= 0.30
     Davidson diagonalization with overlap
     ethr =  3.17E-03,  avg # of iterations =  1.2

     negative rho (up, down):  0.000E+00 4.437E-02

     total cpu time spent up to now is      360.3 secs

     total energy              =   -4457.16791366 Ry
     estimated scf accuracy    <       3.13554553 Ry

     total magnetization       =    18.92 Bohr mag/cell
     absolute magnetization    =    19.92 Bohr mag/cell

     iteration #  9     ecut=    60.00 Ry     beta= 0.30
     Davidson diagonalization with overlap
     ethr =  1.33E-03,  avg # of iterations =  3.0

     negative rho (up, down):  0.000E+00 4.945E-04

     total cpu time spent up to now is      399.5 secs

     total energy              =   -4457.45104483 Ry
     estimated scf accuracy    <       3.00537096 Ry

     total magnetization       =    17.55 Bohr mag/cell
     absolute magnetization    =    18.70 Bohr mag/cell

     iteration # 10     ecut=    60.00 Ry     beta= 0.30
     Davidson diagonalization with overlap
     ethr =  1.27E-03,  avg # of iterations =  1.2

     negative rho (up, down):  0.000E+00 3.867E-04

     total cpu time spent up to now is      433.9 secs

     total energy              =   -4457.45590842 Ry
     estimated scf accuracy    <       1.97053721 Ry

     total magnetization       =    15.39 Bohr mag/cell
     absolute magnetization    =    16.84 Bohr mag/cell

     iteration # 11     ecut=    60.00 Ry     beta= 0.30
     Davidson diagonalization with overlap
     ethr =  8.35E-04,  avg # of iterations =  1.7

     negative rho (up, down):  0.000E+00 2.180E-04

     total cpu time spent up to now is      469.8 secs

     total energy              =   -4457.53419248 Ry
     estimated scf accuracy    <       0.28803547 Ry

     total magnetization       =    14.40 Bohr mag/cell
     absolute magnetization    =    15.92 Bohr mag/cell

     iteration # 12     ecut=    60.00 Ry     beta= 0.30
     Davidson diagonalization with overlap
     c_bands:  1 eigenvalues not converged
     ethr =  1.22E-04,  avg # of iterations =  8.8

     negative rho (up, down):  0.000E+00 1.102E-04

     total cpu time spent up to now is      525.3 secs

     total energy              =   -4457.56482062 Ry
     estimated scf accuracy    <       0.49653228 Ry

     total magnetization       =    13.54 Bohr mag/cell
     absolute magnetization    =    14.94 Bohr mag/cell

     iteration # 13     ecut=    60.00 Ry     beta= 0.30
     Davidson diagonalization with overlap
     ethr =  1.22E-04,  avg # of iterations =  1.2

     total cpu time spent up to now is      559.9 secs

     total energy              =   -4457.59136682 Ry
     estimated scf accuracy    <       0.06829155 Ry

     total magnetization       =    13.24 Bohr mag/cell
     absolute magnetization    =    14.63 Bohr mag/cell

     iteration # 14     ecut=    60.00 Ry     beta= 0.30
     Davidson diagonalization with overlap
     ethr =  2.89E-05,  avg # of iterations =  7.0

     total cpu time spent up to now is      609.7 secs

     total energy              =   -4457.60107855 Ry
     estimated scf accuracy    <       0.10774952 Ry

     total magnetization       =    12.83 Bohr mag/cell
     absolute magnetization    =    14.23 Bohr mag/cell

     iteration # 15     ecut=    60.00 Ry     beta= 0.30
     Davidson diagonalization with overlap
     ethr =  2.89E-05,  avg # of iterations =  2.4

     total cpu time spent up to now is      648.1 secs

     total energy              =   -4457.60535402 Ry
     estimated scf accuracy    <       0.10801326 Ry

     total magnetization       =    12.51 Bohr mag/cell
     absolute magnetization    =    13.92 Bohr mag/cell

     iteration # 16     ecut=    60.00 Ry     beta= 0.30
     Davidson diagonalization with overlap
     ethr =  2.89E-05,  avg # of iterations =  2.2

     total cpu time spent up to now is      685.5 secs

     total energy              =   -4457.61048613 Ry
     estimated scf accuracy    <       0.05724887 Ry

     total magnetization       =    12.18 Bohr mag/cell
     absolute magnetization    =    13.58 Bohr mag/cell

     iteration # 17     ecut=    60.00 Ry     beta= 0.30
     Davidson diagonalization with overlap
     ethr =  2.43E-05,  avg # of iterations =  2.1

     total cpu time spent up to now is      722.8 secs

     total energy              =   -4457.61587802 Ry
     estimated scf accuracy    <       0.07230997 Ry

     total magnetization       =    12.02 Bohr mag/cell
     absolute magnetization    =    13.37 Bohr mag/cell

     iteration # 18     ecut=    60.00 Ry     beta= 0.30
     Davidson diagonalization with overlap
     ethr =  2.43E-05,  avg # of iterations =  1.4

     total cpu time spent up to now is      758.5 secs

     total energy              =   -4457.62157100 Ry
     estimated scf accuracy    <       0.03302837 Ry

     total magnetization       =    11.40 Bohr mag/cell
     absolute magnetization    =    12.89 Bohr mag/cell

     iteration # 19     ecut=    60.00 Ry     beta= 0.30
     Davidson diagonalization with overlap
     ethr =  1.40E-05,  avg # of iterations =  1.8

     total cpu time spent up to now is      795.2 secs

     total energy              =   -4457.62353733 Ry
     estimated scf accuracy    <       0.02180039 Ry

     total magnetization       =    11.09 Bohr mag/cell
     absolute magnetization    =    12.61 Bohr mag/cell

     iteration # 20     ecut=    60.00 Ry     beta= 0.30
     Davidson diagonalization with overlap
     c_bands:  2 eigenvalues not converged
     ethr =  9.24E-06,  avg # of iterations =  2.3

     total cpu time spent up to now is      833.1 secs

     total energy              =   -4457.62465586 Ry
     estimated scf accuracy    <       0.00891747 Ry

     total magnetization       =    10.96 Bohr mag/cell
     absolute magnetization    =    12.47 Bohr mag/cell

     iteration # 21     ecut=    60.00 Ry     beta= 0.30
     Davidson diagonalization with overlap
     c_bands:  1 eigenvalues not converged
     c_bands:  1 eigenvalues not converged
     c_bands:  2 eigenvalues not converged
     c_bands:  1 eigenvalues not converged
     c_bands:  1 eigenvalues not converged
     c_bands:  1 eigenvalues not converged
     c_bands:  1 eigenvalues not converged
     ethr =  3.78E-06,  avg # of iterations =  7.7

     total cpu time spent up to now is      883.3 secs

     total energy              =   -4457.62524539 Ry
     estimated scf accuracy    <       0.00240204 Ry

     total magnetization       =    10.90 Bohr mag/cell
     absolute magnetization    =    12.41 Bohr mag/cell

     iteration # 22     ecut=    60.00 Ry     beta= 0.30
     Davidson diagonalization with overlap
     c_bands:  1 eigenvalues not converged
     c_bands:  1 eigenvalues not converged
     c_bands:  1 eigenvalues not converged
     ethr =  1.02E-06,  avg # of iterations =  8.9

     total cpu time spent up to now is      936.5 secs

     total energy              =   -4457.62563332 Ry
     estimated scf accuracy    <       0.00133755 Ry

     total magnetization       =    10.86 Bohr mag/cell
     absolute magnetization    =    12.36 Bohr mag/cell

     iteration # 23     ecut=    60.00 Ry     beta= 0.30
     Davidson diagonalization with overlap
     ethr =  5.67E-07,  avg # of iterations =  3.4

     total cpu time spent up to now is      977.3 secs

     total energy              =   -4457.62573317 Ry
     estimated scf accuracy    <       0.00095521 Ry

     total magnetization       =    10.72 Bohr mag/cell
     absolute magnetization    =    12.24 Bohr mag/cell

     iteration # 24     ecut=    60.00 Ry     beta= 0.30
     Davidson diagonalization with overlap
     c_bands:  1 eigenvalues not converged
     ethr =  4.05E-07,  avg # of iterations =  5.1

     total cpu time spent up to now is     1022.4 secs

     total energy              =   -4457.62568592 Ry
     estimated scf accuracy    <       0.00441455 Ry

     total magnetization       =    10.68 Bohr mag/cell
     absolute magnetization    =    12.20 Bohr mag/cell

     iteration # 25     ecut=    60.00 Ry     beta= 0.30
     Davidson diagonalization with overlap
     ethr =  4.05E-07,  avg # of iterations =  3.1

     total cpu time spent up to now is     1061.7 secs

     total energy              =   -4457.62591915 Ry
     estimated scf accuracy    <       0.00044702 Ry

     total magnetization       =    10.70 Bohr mag/cell
     absolute magnetization    =    12.20 Bohr mag/cell

     iteration # 26     ecut=    60.00 Ry     beta= 0.30
     Davidson diagonalization with overlap
     ethr =  1.89E-07,  avg # of iterations =  4.7

     total cpu time spent up to now is     1107.4 secs

     total energy              =   -4457.62604924 Ry
     estimated scf accuracy    <       0.00023375 Ry

     total magnetization       =    10.58 Bohr mag/cell
     absolute magnetization    =    12.09 Bohr mag/cell

     iteration # 27     ecut=    60.00 Ry     beta= 0.30
     Davidson diagonalization with overlap
     ethr =  9.90E-08,  avg # of iterations =  5.2

     total cpu time spent up to now is     1152.4 secs

     total energy              =   -4457.62607076 Ry
     estimated scf accuracy    <       0.00037097 Ry

     total magnetization       =    10.59 Bohr mag/cell
     absolute magnetization    =    12.09 Bohr mag/cell

     iteration # 28     ecut=    60.00 Ry     beta= 0.30
     Davidson diagonalization with overlap
     ethr =  9.90E-08,  avg # of iterations =  2.5

     total cpu time spent up to now is     1190.5 secs

     total energy              =   -4457.62610989 Ry
     estimated scf accuracy    <       0.00022842 Ry

     total magnetization       =    10.58 Bohr mag/cell
     absolute magnetization    =    12.07 Bohr mag/cell

     iteration # 29     ecut=    60.00 Ry     beta= 0.30
     Davidson diagonalization with overlap
     ethr =  9.68E-08,  avg # of iterations =  1.7

     total cpu time spent up to now is     1227.6 secs

     total energy              =   -4457.62614945 Ry
     estimated scf accuracy    <       0.00012892 Ry

     total magnetization       =    10.57 Bohr mag/cell
     absolute magnetization    =    12.05 Bohr mag/cell

     iteration # 30     ecut=    60.00 Ry     beta= 0.30
     Davidson diagonalization with overlap
     ethr =  5.46E-08,  avg # of iterations =  5.6

     total cpu time spent up to now is     1273.2 secs

     total energy              =   -4457.62613629 Ry
     estimated scf accuracy    <       0.00023556 Ry

     total magnetization       =    10.58 Bohr mag/cell
     absolute magnetization    =    12.04 Bohr mag/cell

     iteration # 31     ecut=    60.00 Ry     beta= 0.30
     Davidson diagonalization with overlap
     ethr =  5.46E-08,  avg # of iterations =  3.0

     total cpu time spent up to now is     1313.4 secs

     total energy              =   -4457.62615900 Ry
     estimated scf accuracy    <       0.00015880 Ry

     total magnetization       =    10.56 Bohr mag/cell
     absolute magnetization    =    12.03 Bohr mag/cell

     iteration # 32     ecut=    60.00 Ry     beta= 0.30
     Davidson diagonalization with overlap
     ethr =  5.46E-08,  avg # of iterations =  4.0

     total cpu time spent up to now is     1355.2 secs

     total energy              =   -4457.62618044 Ry
     estimated scf accuracy    <       0.00030688 Ry

     total magnetization       =    10.56 Bohr mag/cell
     absolute magnetization    =    12.02 Bohr mag/cell

     iteration # 33     ecut=    60.00 Ry     beta= 0.30
     Davidson diagonalization with overlap
     ethr =  5.46E-08,  avg # of iterations =  2.7

     total cpu time spent up to now is     1393.8 secs

     total energy              =   -4457.62621457 Ry
     estimated scf accuracy    <       0.00005585 Ry

     total magnetization       =    10.57 Bohr mag/cell
     absolute magnetization    =    12.00 Bohr mag/cell

     iteration # 34     ecut=    60.00 Ry     beta= 0.30
     Davidson diagonalization with overlap
     ethr =  2.37E-08,  avg # of iterations =  5.9

     total cpu time spent up to now is     1440.8 secs

     total energy              =   -4457.62621132 Ry
     estimated scf accuracy    <       0.00020944 Ry

     total magnetization       =    10.60 Bohr mag/cell
     absolute magnetization    =    12.02 Bohr mag/cell

     iteration # 35     ecut=    60.00 Ry     beta= 0.30
     Davidson diagonalization with overlap
     ethr =  2.37E-08,  avg # of iterations =  4.0

     total cpu time spent up to now is     1482.6 secs

     total energy              =   -4457.62622892 Ry
     estimated scf accuracy    <       0.00009059 Ry

     total magnetization       =    10.57 Bohr mag/cell
     absolute magnetization    =    11.99 Bohr mag/cell

     iteration # 36     ecut=    60.00 Ry     beta= 0.30
     Davidson diagonalization with overlap
     ethr =  2.37E-08,  avg # of iterations =  2.3

     total cpu time spent up to now is     1521.3 secs

     total energy              =   -4457.62623586 Ry
     estimated scf accuracy    <       0.00007542 Ry

     total magnetization       =    10.58 Bohr mag/cell
     absolute magnetization    =    11.99 Bohr mag/cell

     iteration # 37     ecut=    60.00 Ry     beta= 0.30
     Davidson diagonalization with overlap
     ethr =  2.37E-08,  avg # of iterations =  1.8

     total cpu time spent up to now is     1558.2 secs

     total energy              =   -4457.62624426 Ry
     estimated scf accuracy    <       0.00003977 Ry

     total magnetization       =    10.58 Bohr mag/cell
     absolute magnetization    =    11.99 Bohr mag/cell

     iteration # 38     ecut=    60.00 Ry     beta= 0.30
     Davidson diagonalization with overlap
     ethr =  1.69E-08,  avg # of iterations =  3.6

     total cpu time spent up to now is     1598.4 secs

     total energy              =   -4457.62625029 Ry
     estimated scf accuracy    <       0.00003636 Ry

     total magnetization       =    10.59 Bohr mag/cell
     absolute magnetization    =    11.99 Bohr mag/cell

     iteration # 39     ecut=    60.00 Ry     beta= 0.30
     Davidson diagonalization with overlap
     ethr =  1.54E-08,  avg # of iterations =  3.4

     total cpu time spent up to now is     1639.3 secs

     total energy              =   -4457.62625584 Ry
     estimated scf accuracy    <       0.00004954 Ry

     total magnetization       =    10.59 Bohr mag/cell
     absolute magnetization    =    11.99 Bohr mag/cell

     iteration # 40     ecut=    60.00 Ry     beta= 0.30
     Davidson diagonalization with overlap
     ethr =  1.54E-08,  avg # of iterations =  2.3

     total cpu time spent up to now is     1677.7 secs

     total energy              =   -4457.62626041 Ry
     estimated scf accuracy    <       0.00002504 Ry

     total magnetization       =    10.60 Bohr mag/cell
     absolute magnetization    =    11.99 Bohr mag/cell

     iteration # 41     ecut=    60.00 Ry     beta= 0.30
     Davidson diagonalization with overlap
     c_bands:  1 eigenvalues not converged
     ethr =  1.06E-08,  avg # of iterations =  6.3

     total cpu time spent up to now is     1728.3 secs

     total energy              =   -4457.62627542 Ry
     estimated scf accuracy    <       0.00002789 Ry

     total magnetization       =    10.61 Bohr mag/cell
     absolute magnetization    =    11.99 Bohr mag/cell

     iteration # 42     ecut=    60.00 Ry     beta= 0.30
     Davidson diagonalization with overlap
     ethr =  1.06E-08,  avg # of iterations =  1.1

     total cpu time spent up to now is     1763.4 secs

     total energy              =   -4457.62627039 Ry
     estimated scf accuracy    <       0.00001018 Ry

     total magnetization       =    10.62 Bohr mag/cell
     absolute magnetization    =    11.99 Bohr mag/cell

     iteration # 43     ecut=    60.00 Ry     beta= 0.30
     Davidson diagonalization with overlap
     ethr =  4.31E-09,  avg # of iterations =  5.3

     total cpu time spent up to now is     1808.7 secs

     total energy              =   -4457.62627699 Ry
     estimated scf accuracy    <       0.00002988 Ry

     total magnetization       =    10.61 Bohr mag/cell
     absolute magnetization    =    11.99 Bohr mag/cell

     iteration # 44     ecut=    60.00 Ry     beta= 0.30
     Davidson diagonalization with overlap
     ethr =  4.31E-09,  avg # of iterations =  5.1

     total cpu time spent up to now is     1853.5 secs

     total energy              =   -4457.62628536 Ry
     estimated scf accuracy    <       0.00000871 Ry

     total magnetization       =    10.62 Bohr mag/cell
     absolute magnetization    =    11.99 Bohr mag/cell

     iteration # 45     ecut=    60.00 Ry     beta= 0.30
     Davidson diagonalization with overlap
     ethr =  3.69E-09,  avg # of iterations =  4.6

     total cpu time spent up to now is     1897.5 secs

     total energy              =   -4457.62628968 Ry
     estimated scf accuracy    <       0.00001241 Ry

     total magnetization       =    10.63 Bohr mag/cell
     absolute magnetization    =    12.00 Bohr mag/cell

     iteration # 46     ecut=    60.00 Ry     beta= 0.30
     Davidson diagonalization with overlap
     ethr =  3.69E-09,  avg # of iterations =  4.3

     total cpu time spent up to now is     1939.7 secs

     total energy              =   -4457.62629156 Ry
     estimated scf accuracy    <       0.00001496 Ry

     total magnetization       =    10.63 Bohr mag/cell
     absolute magnetization    =    12.00 Bohr mag/cell

     iteration # 47     ecut=    60.00 Ry     beta= 0.30
     Davidson diagonalization with overlap
     ethr =  3.69E-09,  avg # of iterations =  4.2

     total cpu time spent up to now is     1982.1 secs

     total energy              =   -4457.62629651 Ry
     estimated scf accuracy    <       0.00001062 Ry

     total magnetization       =    10.63 Bohr mag/cell
     absolute magnetization    =    12.00 Bohr mag/cell

     iteration # 48     ecut=    60.00 Ry     beta= 0.30
     Davidson diagonalization with overlap
     ethr =  3.69E-09,  avg # of iterations =  5.1

     total cpu time spent up to now is     2026.2 secs

     total energy              =   -4457.62630061 Ry
     estimated scf accuracy    <       0.00000898 Ry

     total magnetization       =    10.63 Bohr mag/cell
     absolute magnetization    =    12.00 Bohr mag/cell

     iteration # 49     ecut=    60.00 Ry     beta= 0.30
     Davidson diagonalization with overlap
     ethr =  3.69E-09,  avg # of iterations =  2.4

     total cpu time spent up to now is     2064.4 secs

     total energy              =   -4457.62630092 Ry
     estimated scf accuracy    <       0.00000958 Ry

     total magnetization       =    10.64 Bohr mag/cell
     absolute magnetization    =    12.01 Bohr mag/cell

     iteration # 50     ecut=    60.00 Ry     beta= 0.30
     Davidson diagonalization with overlap
     ethr =  3.69E-09,  avg # of iterations =  1.6

     total cpu time spent up to now is     2101.0 secs

     total energy              =   -4457.62629914 Ry
     estimated scf accuracy    <       0.00000667 Ry

     total magnetization       =    10.64 Bohr mag/cell
     absolute magnetization    =    12.01 Bohr mag/cell

     iteration # 51     ecut=    60.00 Ry     beta= 0.30
     Davidson diagonalization with overlap
     ethr =  2.83E-09,  avg # of iterations =  1.2

     total cpu time spent up to now is     2136.6 secs

     total energy              =   -4457.62630367 Ry
     estimated scf accuracy    <       0.00001044 Ry

     total magnetization       =    10.63 Bohr mag/cell
     absolute magnetization    =    12.00 Bohr mag/cell

     iteration # 52     ecut=    60.00 Ry     beta= 0.30
     Davidson diagonalization with overlap
     ethr =  2.83E-09,  avg # of iterations =  5.3

     total cpu time spent up to now is     2182.7 secs

     total energy              =   -4457.62630228 Ry
     estimated scf accuracy    <       0.00000798 Ry

     total magnetization       =    10.64 Bohr mag/cell
     absolute magnetization    =    12.01 Bohr mag/cell

     iteration # 53     ecut=    60.00 Ry     beta= 0.30
     Davidson diagonalization with overlap
     ethr =  2.83E-09,  avg # of iterations =  3.6

     total cpu time spent up to now is     2222.1 secs

     total energy              =   -4457.62630221 Ry
     estimated scf accuracy    <       0.00000864 Ry

     total magnetization       =    10.64 Bohr mag/cell
     absolute magnetization    =    12.01 Bohr mag/cell

     iteration # 54     ecut=    60.00 Ry     beta= 0.30
     Davidson diagonalization with overlap
     ethr =  2.83E-09,  avg # of iterations =  1.3

     total cpu time spent up to now is     2257.8 secs

     total energy              =   -4457.62630319 Ry
     estimated scf accuracy    <       0.00000840 Ry

     total magnetization       =    10.63 Bohr mag/cell
     absolute magnetization    =    12.01 Bohr mag/cell

     iteration # 55     ecut=    60.00 Ry     beta= 0.30
     Davidson diagonalization with overlap
     ethr =  2.83E-09,  avg # of iterations =  1.4

     total cpu time spent up to now is     2293.3 secs

     total energy              =   -4457.62630535 Ry
     estimated scf accuracy    <       0.00001644 Ry

     total magnetization       =    10.64 Bohr mag/cell
     absolute magnetization    =    12.01 Bohr mag/cell

     iteration # 56     ecut=    60.00 Ry     beta= 0.30
     Davidson diagonalization with overlap
     ethr =  2.83E-09,  avg # of iterations =  4.7

     total cpu time spent up to now is     2337.1 secs

     total energy              =   -4457.62630801 Ry
     estimated scf accuracy    <       0.00003059 Ry

     total magnetization       =    10.64 Bohr mag/cell
     absolute magnetization    =    12.01 Bohr mag/cell

     iteration # 57     ecut=    60.00 Ry     beta= 0.30
     Davidson diagonalization with overlap
     ethr =  2.83E-09,  avg # of iterations =  5.2

     total cpu time spent up to now is     2382.8 secs

     total energy              =   -4457.62631306 Ry
     estimated scf accuracy    <       0.00002345 Ry

     total magnetization       =    10.64 Bohr mag/cell
     absolute magnetization    =    12.01 Bohr mag/cell

     iteration # 58     ecut=    60.00 Ry     beta= 0.30
     Davidson diagonalization with overlap
     ethr =  2.83E-09,  avg # of iterations =  5.2

     total cpu time spent up to now is     2428.4 secs

     total energy              =   -4457.62631569 Ry
     estimated scf accuracy    <       0.00000899 Ry

     total magnetization       =    10.65 Bohr mag/cell
     absolute magnetization    =    12.02 Bohr mag/cell

     iteration # 59     ecut=    60.00 Ry     beta= 0.30
     Davidson diagonalization with overlap
     ethr =  2.83E-09,  avg # of iterations =  2.1

     total cpu time spent up to now is     2467.9 secs

     total energy              =   -4457.62631711 Ry
     estimated scf accuracy    <       0.00001471 Ry

     total magnetization       =    10.65 Bohr mag/cell
     absolute magnetization    =    12.02 Bohr mag/cell

     iteration # 60     ecut=    60.00 Ry     beta= 0.30
     Davidson diagonalization with overlap
     ethr =  2.83E-09,  avg # of iterations =  5.5

     total cpu time spent up to now is     2512.9 secs

     total energy              =   -4457.62631919 Ry
     estimated scf accuracy    <       0.00003718 Ry

     total magnetization       =    10.65 Bohr mag/cell
     absolute magnetization    =    12.02 Bohr mag/cell

     iteration # 61     ecut=    60.00 Ry     beta= 0.30
     Davidson diagonalization with overlap
     ethr =  2.83E-09,  avg # of iterations =  5.1

     total cpu time spent up to now is     2558.9 secs

     total energy              =   -4457.62632043 Ry
     estimated scf accuracy    <       0.00001931 Ry

     total magnetization       =    10.65 Bohr mag/cell
     absolute magnetization    =    12.03 Bohr mag/cell

     iteration # 62     ecut=    60.00 Ry     beta= 0.30
     Davidson diagonalization with overlap
     ethr =  2.83E-09,  avg # of iterations =  4.0

     total cpu time spent up to now is     2600.3 secs

     total energy              =   -4457.62631687 Ry
     estimated scf accuracy    <       0.00002801 Ry

     total magnetization       =    10.65 Bohr mag/cell
     absolute magnetization    =    12.02 Bohr mag/cell

     iteration # 63     ecut=    60.00 Ry     beta= 0.30
     Davidson diagonalization with overlap
     ethr =  2.83E-09,  avg # of iterations =  3.4

     total cpu time spent up to now is     2641.0 secs

     total energy              =   -4457.62631975 Ry
     estimated scf accuracy    <       0.00000974 Ry

     total magnetization       =    10.65 Bohr mag/cell
     absolute magnetization    =    12.02 Bohr mag/cell

     iteration # 64     ecut=    60.00 Ry     beta= 0.30
     Davidson diagonalization with overlap
     ethr =  2.83E-09,  avg # of iterations =  1.0

     total cpu time spent up to now is     2675.8 secs

     total energy              =   -4457.62632032 Ry
     estimated scf accuracy    <       0.00000713 Ry

     total magnetization       =    10.65 Bohr mag/cell
     absolute magnetization    =    12.02 Bohr mag/cell

     iteration # 65     ecut=    60.00 Ry     beta= 0.30
     Davidson diagonalization with overlap
     ethr =  2.83E-09,  avg # of iterations =  1.3

     total cpu time spent up to now is     2712.0 secs

     total energy              =   -4457.62632355 Ry
     estimated scf accuracy    <       0.00001000 Ry

     total magnetization       =    10.65 Bohr mag/cell
     absolute magnetization    =    12.02 Bohr mag/cell

     iteration # 66     ecut=    60.00 Ry     beta= 0.30
     Davidson diagonalization with overlap
     ethr =  2.83E-09,  avg # of iterations =  5.6

     total cpu time spent up to now is     2761.1 secs

     total energy              =   -4457.62633261 Ry
     estimated scf accuracy    <       0.00001670 Ry

     total magnetization       =    10.65 Bohr mag/cell
     absolute magnetization    =    12.03 Bohr mag/cell

     iteration # 67     ecut=    60.00 Ry     beta= 0.30
     Davidson diagonalization with overlap
     ethr =  2.83E-09,  avg # of iterations =  4.5

     total cpu time spent up to now is     2803.7 secs

     total energy              =   -4457.62632072 Ry
     estimated scf accuracy    <       0.00001233 Ry

     total magnetization       =    10.65 Bohr mag/cell
     absolute magnetization    =    12.04 Bohr mag/cell

     iteration # 68     ecut=    60.00 Ry     beta= 0.30
     Davidson diagonalization with overlap
     ethr =  2.83E-09,  avg # of iterations =  5.1

     total cpu time spent up to now is     2849.5 secs

     total energy              =   -4457.62632861 Ry
     estimated scf accuracy    <       0.00001139 Ry

     total magnetization       =    10.65 Bohr mag/cell
     absolute magnetization    =    12.03 Bohr mag/cell

     iteration # 69     ecut=    60.00 Ry     beta= 0.30
     Davidson diagonalization with overlap
     ethr =  2.83E-09,  avg # of iterations =  5.3

     total cpu time spent up to now is     2895.1 secs

     total energy              =   -4457.62632673 Ry
     estimated scf accuracy    <       0.00003819 Ry

     total magnetization       =    10.65 Bohr mag/cell
     absolute magnetization    =    12.03 Bohr mag/cell

     iteration # 70     ecut=    60.00 Ry     beta= 0.30
     Davidson diagonalization with overlap
     ethr =  2.83E-09,  avg # of iterations =  6.8

     total cpu time spent up to now is     2949.6 secs

     total energy              =   -4457.62634484 Ry
     estimated scf accuracy    <       0.00001328 Ry

     total magnetization       =    10.65 Bohr mag/cell
     absolute magnetization    =    12.05 Bohr mag/cell

     iteration # 71     ecut=    60.00 Ry     beta= 0.30
     Davidson diagonalization with overlap
     ethr =  2.83E-09,  avg # of iterations =  1.1

     total cpu time spent up to now is     2984.0 secs

     total energy              =   -4457.62634696 Ry
     estimated scf accuracy    <       0.00000730 Ry

     total magnetization       =    10.65 Bohr mag/cell
     absolute magnetization    =    12.05 Bohr mag/cell

     iteration # 72     ecut=    60.00 Ry     beta= 0.30
     Davidson diagonalization with overlap
     ethr =  2.83E-09,  avg # of iterations =  5.5

     total cpu time spent up to now is     3030.7 secs

     total energy              =   -4457.62632092 Ry
     estimated scf accuracy    <       0.00002602 Ry

     total magnetization       =    10.65 Bohr mag/cell
     absolute magnetization    =    12.06 Bohr mag/cell

     iteration # 73     ecut=    60.00 Ry     beta= 0.30
     Davidson diagonalization with overlap
     ethr =  2.83E-09,  avg # of iterations =  6.0

     total cpu time spent up to now is     3082.1 secs

     total energy              =   -4457.62633839 Ry
     estimated scf accuracy    <       0.00004253 Ry

     total magnetization       =    10.65 Bohr mag/cell
     absolute magnetization    =    12.04 Bohr mag/cell

     iteration # 74     ecut=    60.00 Ry     beta= 0.30
     Davidson diagonalization with overlap
     ethr =  2.83E-09,  avg # of iterations =  5.0

     total cpu time spent up to now is     3126.3 secs

     total energy              =   -4457.62633666 Ry
     estimated scf accuracy    <       0.00000922 Ry

     total magnetization       =    10.65 Bohr mag/cell
     absolute magnetization    =    12.04 Bohr mag/cell

     iteration # 75     ecut=    60.00 Ry     beta= 0.30
     Davidson diagonalization with overlap
     ethr =  2.83E-09,  avg # of iterations =  6.2

     total cpu time spent up to now is     3178.9 secs

     total energy              =   -4457.62635447 Ry
     estimated scf accuracy    <       0.00000705 Ry

     total magnetization       =    10.65 Bohr mag/cell
     absolute magnetization    =    12.06 Bohr mag/cell

     iteration # 76     ecut=    60.00 Ry     beta= 0.30
     Davidson diagonalization with overlap
     ethr =  2.83E-09,  avg # of iterations =  1.5

     total cpu time spent up to now is     3215.1 secs

     total energy              =   -4457.62635119 Ry
     estimated scf accuracy    <       0.00000455 Ry

     total magnetization       =    10.65 Bohr mag/cell
     absolute magnetization    =    12.07 Bohr mag/cell

     iteration # 77     ecut=    60.00 Ry     beta= 0.30
     Davidson diagonalization with overlap
     ethr =  1.93E-09,  avg # of iterations =  2.1

     total cpu time spent up to now is     3252.3 secs

     total energy              =   -4457.62635057 Ry
     estimated scf accuracy    <       0.00000618 Ry

     total magnetization       =    10.65 Bohr mag/cell
     absolute magnetization    =    12.06 Bohr mag/cell

     iteration # 78     ecut=    60.00 Ry     beta= 0.30
     Davidson diagonalization with overlap
     ethr =  1.93E-09,  avg # of iterations =  3.6

     total cpu time spent up to now is     3292.6 secs

     total energy              =   -4457.62634759 Ry
     estimated scf accuracy    <       0.00000993 Ry

     total magnetization       =    10.65 Bohr mag/cell
     absolute magnetization    =    12.06 Bohr mag/cell

     iteration # 79     ecut=    60.00 Ry     beta= 0.30
     Davidson diagonalization with overlap
     ethr =  1.93E-09,  avg # of iterations =  6.3

     total cpu time spent up to now is     3346.3 secs

     total energy              =   -4457.62636253 Ry
     estimated scf accuracy    <       0.00000538 Ry

     total magnetization       =    10.65 Bohr mag/cell
     absolute magnetization    =    12.08 Bohr mag/cell

     iteration # 80     ecut=    60.00 Ry     beta= 0.30
     Davidson diagonalization with overlap
     ethr =  1.93E-09,  avg # of iterations =  5.3

     total cpu time spent up to now is     3394.6 secs

     total energy              =   -4457.62635187 Ry
     estimated scf accuracy    <       0.00000500 Ry

     total magnetization       =    10.66 Bohr mag/cell
     absolute magnetization    =    12.10 Bohr mag/cell

     iteration # 81     ecut=    60.00 Ry     beta= 0.30
     Davidson diagonalization with overlap
     ethr =  1.93E-09,  avg # of iterations =  8.0

     total cpu time spent up to now is     3454.3 secs

     total energy              =   -4457.62637615 Ry
     estimated scf accuracy    <       0.00000925 Ry

     total magnetization       =    10.66 Bohr mag/cell
     absolute magnetization    =    12.13 Bohr mag/cell

     iteration # 82     ecut=    60.00 Ry     beta= 0.30
     Davidson diagonalization with overlap
     ethr =  1.93E-09,  avg # of iterations =  6.0

     total cpu time spent up to now is     3507.1 secs

     total energy              =   -4457.62638616 Ry
     estimated scf accuracy    <       0.00001134 Ry

     total magnetization       =    10.67 Bohr mag/cell
     absolute magnetization    =    12.16 Bohr mag/cell

     iteration # 83     ecut=    60.00 Ry     beta= 0.30
     Davidson diagonalization with overlap
     ethr =  1.93E-09,  avg # of iterations =  1.1

     total cpu time spent up to now is     3541.9 secs

     total energy              =   -4457.62635628 Ry
     estimated scf accuracy    <       0.00000376 Ry

     total magnetization       =    10.67 Bohr mag/cell
     absolute magnetization    =    12.16 Bohr mag/cell

     iteration # 84     ecut=    60.00 Ry     beta= 0.30
     Davidson diagonalization with overlap
     ethr =  1.59E-09,  avg # of iterations =  7.8

     total cpu time spent up to now is     3599.2 secs

     total energy              =   -4457.62634015 Ry
     estimated scf accuracy    <       0.00001389 Ry

     total magnetization       =    10.66 Bohr mag/cell
     absolute magnetization    =    12.12 Bohr mag/cell

     iteration # 85     ecut=    60.00 Ry     beta= 0.30
     Davidson diagonalization with overlap
     ethr =  1.59E-09,  avg # of iterations =  8.7

     total cpu time spent up to now is     3662.0 secs

     total energy              =   -4457.62638927 Ry
     estimated scf accuracy    <       0.00000245 Ry

     total magnetization       =    10.67 Bohr mag/cell
     absolute magnetization    =    12.18 Bohr mag/cell

     iteration # 86     ecut=    60.00 Ry     beta= 0.30
     Davidson diagonalization with overlap
     ethr =  1.04E-09,  avg # of iterations =  4.1

     total cpu time spent up to now is     3703.6 secs

     total energy              =   -4457.62638058 Ry
     estimated scf accuracy    <       0.00000345 Ry

     total magnetization       =    10.67 Bohr mag/cell
     absolute magnetization    =    12.17 Bohr mag/cell

     iteration # 87     ecut=    60.00 Ry     beta= 0.30
     Davidson diagonalization with overlap
     ethr =  1.04E-09,  avg # of iterations =  7.6

     total cpu time spent up to now is     3762.1 secs

     total energy              =   -4457.62639360 Ry
     estimated scf accuracy    <       0.00000621 Ry

     total magnetization       =    10.67 Bohr mag/cell
     absolute magnetization    =    12.21 Bohr mag/cell

     iteration # 88     ecut=    60.00 Ry     beta= 0.30
     Davidson diagonalization with overlap
     ethr =  1.04E-09,  avg # of iterations =  6.3

     total cpu time spent up to now is     3815.0 secs

     total energy              =   -4457.62639958 Ry
     estimated scf accuracy    <       0.00000354 Ry

     total magnetization       =    10.68 Bohr mag/cell
     absolute magnetization    =    12.23 Bohr mag/cell

     iteration # 89     ecut=    60.00 Ry     beta= 0.30
     Davidson diagonalization with overlap
     ethr =  1.04E-09,  avg # of iterations =  5.1

     total cpu time spent up to now is     3860.0 secs

     total energy              =   -4457.62640085 Ry
     estimated scf accuracy    <       0.00000215 Ry

     total magnetization       =    10.68 Bohr mag/cell
     absolute magnetization    =    12.24 Bohr mag/cell

     iteration # 90     ecut=    60.00 Ry     beta= 0.30
     Davidson diagonalization with overlap
     ethr =  9.11E-10,  avg # of iterations =  5.0

     total cpu time spent up to now is     3903.1 secs

     total energy              =   -4457.62633987 Ry
     estimated scf accuracy    <       0.00000789 Ry

     total magnetization       =    10.68 Bohr mag/cell
     absolute magnetization    =    12.24 Bohr mag/cell

     iteration # 91     ecut=    60.00 Ry     beta= 0.30
     Davidson diagonalization with overlap
     ethr =  9.11E-10,  avg # of iterations = 11.0

     total cpu time spent up to now is     3973.7 secs

     total energy              =   -4457.62640772 Ry
     estimated scf accuracy    <       0.00000178 Ry

     total magnetization       =    10.69 Bohr mag/cell
     absolute magnetization    =    12.33 Bohr mag/cell

     iteration # 92     ecut=    60.00 Ry     beta= 0.30
     Davidson diagonalization with overlap
     ethr =  7.56E-10,  avg # of iterations =  1.3

     total cpu time spent up to now is     4009.1 secs

     total energy              =   -4457.62637767 Ry
     estimated scf accuracy    <       0.00000172 Ry

     total magnetization       =    10.69 Bohr mag/cell
     absolute magnetization    =    12.33 Bohr mag/cell

     iteration # 93     ecut=    60.00 Ry     beta= 0.30
     Davidson diagonalization with overlap
     ethr =  7.29E-10,  avg # of iterations = 10.1

     total cpu time spent up to now is     4076.8 secs

     total energy              =   -4457.62640562 Ry
     estimated scf accuracy    <       0.00000348 Ry

     total magnetization       =    10.69 Bohr mag/cell
     absolute magnetization    =    12.39 Bohr mag/cell

     iteration # 94     ecut=    60.00 Ry     beta= 0.30
     Davidson diagonalization with overlap
     ethr =  7.29E-10,  avg # of iterations =  5.7

     total cpu time spent up to now is     4127.5 secs

     total energy              =   -4457.62640703 Ry
     estimated scf accuracy    <       0.00000855 Ry

     total magnetization       =    10.69 Bohr mag/cell
     absolute magnetization    =    12.37 Bohr mag/cell

     iteration # 95     ecut=    60.00 Ry     beta= 0.30
     Davidson diagonalization with overlap
     ethr =  7.29E-10,  avg # of iterations =  5.4

     total cpu time spent up to now is     4176.2 secs

     total energy              =   -4457.62638329 Ry
     estimated scf accuracy    <       0.00000266 Ry

     total magnetization       =    10.69 Bohr mag/cell
     absolute magnetization    =    12.35 Bohr mag/cell

     iteration # 96     ecut=    60.00 Ry     beta= 0.30
     Davidson diagonalization with overlap
     ethr =  7.29E-10,  avg # of iterations =  9.3

     total cpu time spent up to now is     4241.5 secs

     total energy              =   -4457.62640928 Ry
     estimated scf accuracy    <       0.00000134 Ry

     total magnetization       =    10.69 Bohr mag/cell
     absolute magnetization    =    12.42 Bohr mag/cell

     iteration # 97     ecut=    60.00 Ry     beta= 0.30
     Davidson diagonalization with overlap
     ethr =  5.66E-10,  avg # of iterations =  5.0

     total cpu time spent up to now is     4285.2 secs

     total energy              =   -4457.62640924 Ry
     estimated scf accuracy    <       0.00000092 Ry

     total magnetization       =    10.69 Bohr mag/cell
     absolute magnetization    =    12.42 Bohr mag/cell

     iteration # 98     ecut=    60.00 Ry     beta= 0.30
     Davidson diagonalization with overlap
     ethr =  3.88E-10,  avg # of iterations =  5.2

     total cpu time spent up to now is     4330.9 secs

     total energy              =   -4457.62640597 Ry
     estimated scf accuracy    <       0.00000100 Ry

     total magnetization       =    10.69 Bohr mag/cell
     absolute magnetization    =    12.43 Bohr mag/cell

     iteration # 99     ecut=    60.00 Ry     beta= 0.30
     Davidson diagonalization with overlap
     ethr =  3.88E-10,  avg # of iterations =  7.2

     total cpu time spent up to now is     4385.9 secs

     total energy              =   -4457.62640726 Ry
     estimated scf accuracy    <       0.00000050 Ry

     total magnetization       =    10.69 Bohr mag/cell
     absolute magnetization    =    12.45 Bohr mag/cell

     iteration #100     ecut=    60.00 Ry     beta= 0.30
     Davidson diagonalization with overlap
     ethr =  2.11E-10,  avg # of iterations =  7.9

     total cpu time spent up to now is     4444.3 secs

     total energy              =   -4457.62640768 Ry
     estimated scf accuracy    <       0.00000338 Ry

     total magnetization       =    10.69 Bohr mag/cell
     absolute magnetization    =    12.42 Bohr mag/cell

     iteration #101     ecut=    60.00 Ry     beta= 0.30
     Davidson diagonalization with overlap
     ethr =  2.11E-10,  avg # of iterations =  7.1

     total cpu time spent up to now is     4499.5 secs

     total energy              =   -4457.62640854 Ry
     estimated scf accuracy    <       0.00000086 Ry

     total magnetization       =    10.69 Bohr mag/cell
     absolute magnetization    =    12.44 Bohr mag/cell

     iteration #102     ecut=    60.00 Ry     beta= 0.30
     Davidson diagonalization with overlap
     ethr =  2.11E-10,  avg # of iterations =  5.9

     total cpu time spent up to now is     4551.6 secs

     total energy              =   -4457.62640926 Ry
     estimated scf accuracy    <       0.00000336 Ry

     total magnetization       =    10.69 Bohr mag/cell
     absolute magnetization    =    12.45 Bohr mag/cell

     iteration #103     ecut=    60.00 Ry     beta= 0.30
     Davidson diagonalization with overlap
     ethr =  2.11E-10,  avg # of iterations =  5.4

     total cpu time spent up to now is     4598.4 secs

     total energy              =   -4457.62640809 Ry
     estimated scf accuracy    <       0.00000199 Ry

     total magnetization       =    10.69 Bohr mag/cell
     absolute magnetization    =    12.45 Bohr mag/cell

     iteration #104     ecut=    60.00 Ry     beta= 0.30
     Davidson diagonalization with overlap
     ethr =  2.11E-10,  avg # of iterations =  6.5

     total cpu time spent up to now is     4651.7 secs

     total energy              =   -4457.62640900 Ry
     estimated scf accuracy    <       0.00000028 Ry

     total magnetization       =    10.69 Bohr mag/cell
     absolute magnetization    =    12.46 Bohr mag/cell

     iteration #105     ecut=    60.00 Ry     beta= 0.30
     Davidson diagonalization with overlap
     ethr =  1.20E-10,  avg # of iterations =  5.1

     total cpu time spent up to now is     4696.4 secs

     total energy              =   -4457.62640856 Ry
     estimated scf accuracy    <       0.00000047 Ry

     total magnetization       =    10.69 Bohr mag/cell
     absolute magnetization    =    12.46 Bohr mag/cell

     iteration #106     ecut=    60.00 Ry     beta= 0.30
     Davidson diagonalization with overlap
     ethr =  1.20E-10,  avg # of iterations =  6.8

     total cpu time spent up to now is     4750.1 secs

     total energy              =   -4457.62640955 Ry
     estimated scf accuracy    <       0.00000031 Ry

     total magnetization       =    10.69 Bohr mag/cell
     absolute magnetization    =    12.45 Bohr mag/cell

     iteration #107     ecut=    60.00 Ry     beta= 0.30
     Davidson diagonalization with overlap
     ethr =  1.20E-10,  avg # of iterations =  1.1

     total cpu time spent up to now is     4784.3 secs

     total energy              =   -4457.62640959 Ry
     estimated scf accuracy    <       0.00000013 Ry

     total magnetization       =    10.69 Bohr mag/cell
     absolute magnetization    =    12.45 Bohr mag/cell

     iteration #108     ecut=    60.00 Ry     beta= 0.30
     Davidson diagonalization with overlap
     ethr =  5.55E-11,  avg # of iterations =  5.1

     total cpu time spent up to now is     4829.6 secs

     total energy              =   -4457.62640913 Ry
     estimated scf accuracy    <       0.00000044 Ry

     total magnetization       =    10.69 Bohr mag/cell
     absolute magnetization    =    12.44 Bohr mag/cell

     iteration #109     ecut=    60.00 Ry     beta= 0.30
     Davidson diagonalization with overlap
     ethr =  5.55E-11,  avg # of iterations =  7.8

     total cpu time spent up to now is     4887.6 secs

     total energy              =   -4457.62640896 Ry
     estimated scf accuracy    <       0.00000037 Ry

     total magnetization       =    10.69 Bohr mag/cell
     absolute magnetization    =    12.43 Bohr mag/cell

     iteration #110     ecut=    60.00 Ry     beta= 0.30
     Davidson diagonalization with overlap
     ethr =  5.55E-11,  avg # of iterations =  8.2

     total cpu time spent up to now is     4949.3 secs

     total energy              =   -4457.62641029 Ry
     estimated scf accuracy    <       0.00000021 Ry

     total magnetization       =    10.69 Bohr mag/cell
     absolute magnetization    =    12.42 Bohr mag/cell

     iteration #111     ecut=    60.00 Ry     beta= 0.30
     Davidson diagonalization with overlap
     ethr =  5.55E-11,  avg # of iterations =  1.5
 
     Magnetic moment per site  (integrated on atomic sphere of radius R)
     atom   1 (R=0.178)  charge= 12.1474  magn=  0.1726
     atom   2 (R=0.178)  charge= 14.4459  magn=  1.6323
     atom   3 (R=0.178)  charge= 14.4234  magn=  1.7868
     atom   4 (R=0.178)  charge= 12.1653  magn= -0.1005
     atom   5 (R=0.178)  charge= 12.1478  magn=  0.1874
     atom   6 (R=0.178)  charge= 14.4459  magn=  1.6323
     atom   7 (R=0.178)  charge= 12.1496  magn=  0.2407
     atom   8 (R=0.178)  charge= 12.1653  magn= -0.1005
     atom   9 (R=0.178)  charge= 12.1489  magn=  0.2406
     atom  10 (R=0.178)  charge= 12.1653  magn= -0.1005
     atom  11 (R=0.178)  charge= 12.1486  magn=  0.1873
     atom  12 (R=0.178)  charge= 14.4459  magn=  1.6323
     atom  13 (R=0.178)  charge= 14.4232  magn=  1.7870
     atom  14 (R=0.178)  charge= 12.1653  magn= -0.1005
     atom  15 (R=0.178)  charge= 12.1468  magn=  0.1723
     atom  16 (R=0.178)  charge= 14.4459  magn=  1.6323

     total cpu time spent up to now is     4985.6 secs

     End of self-consistent calculation

     Number of k-points >= 100: set verbosity='high' to print the bands.

     the Fermi energy is    19.9236 ev

!    total energy              =   -4457.62641023 Ry
     total all-electron energy =    -36290.732394 Ry
     estimated scf accuracy    <       0.00000010 Ry
     smearing contrib. (-TS)   =      -0.00253568 Ry
     internal energy E=F+TS    =   -4457.62387455 Ry

     The total energy is F=E-TS. E is the sum of the following terms:
     one-electron contribution =   -1187.34497010 Ry
     hartree contribution      =     746.27462648 Ry
     xc contribution           =    -389.40151260 Ry
     ewald contribution        =   -2387.90699004 Ry
     one-center paw contrib.   =   -1239.24502829 Ry

     total magnetization       =    10.69 Bohr mag/cell
     absolute magnetization    =    12.42 Bohr mag/cell

     convergence has been achieved in 111 iterations


     Computing stress (Cartesian axis) and pressure

          total   stress  (Ry/bohr**3)                   (kbar)     P=       43.95
   0.00016220   0.00000000   0.00016729           23.86        0.00       24.61
   0.00000000   0.00038935   0.00000000            0.00       57.28        0.00
   0.00016729   0.00000000   0.00034470           24.61        0.00       50.71


     Writing all to output data dir ./tmp/fecr_fe06cr10_t-0.01.save/ :
     XML data file, charge density, pseudopotentials, collected wavefunctions
 
     init_run     :     39.28s CPU     28.21s WALL (       1 calls)
     electrons    :   6335.04s CPU   4956.94s WALL (       1 calls)
     stress       :     23.56s CPU     23.17s WALL (       1 calls)

     Called by init_run:
     wfcinit      :      7.28s CPU      8.91s WALL (       1 calls)
     potinit      :     31.18s CPU     18.35s WALL (       1 calls)
     hinit0       :      0.55s CPU      0.56s WALL (       1 calls)

     Called by electrons:
     c_bands      :   2717.07s CPU   2724.86s WALL (     111 calls)
     sum_band     :    249.91s CPU    250.04s WALL (     111 calls)
     v_of_rho     :      6.17s CPU      5.25s WALL (     112 calls)
     newd         :      4.35s CPU      4.39s WALL (     112 calls)
                                        4.39s GPU  (     112 calls)
     PAW_pot      :   3382.08s CPU   1983.83s WALL (     112 calls)
     mix_rho      :      3.65s CPU      3.94s WALL (     111 calls)

     Called by c_bands:
     init_us_2    :     21.28s CPU     20.13s WALL (   35840 calls)
     cegterg      :   2455.25s CPU   2463.21s WALL (   17760 calls)

     Called by *egterg:
     cdiaghg      :    853.94s CPU    860.41s WALL (   96373 calls)
                                      860.01s GPU  (   96373 calls)
     h_psi        :    745.90s CPU    750.37s WALL (   96533 calls)
                                      749.62s GPU  (   96533 calls)
     s_psi        :     49.02s CPU     49.74s WALL (   96533 calls)
     g_psi        :      0.43s CPU      4.16s WALL (   78613 calls)
                                        3.92s GPU  (   78613 calls)

     Called by h_psi:
     h_psi:calbec :      3.55s CPU    156.76s WALL (   96533 calls)
                                      156.40s GPU  (   96533 calls)
     vloc_psi     :    393.61s CPU    393.31s WALL (   96533 calls)
                                      392.98s GPU  (   96533 calls)
     add_vuspsi   :     47.82s CPU    195.04s WALL (   96533 calls)
                                      194.68s GPU  (   96533 calls)

     General routines
     calbec       :      4.30s CPU      4.48s WALL (  114453 calls)
     fft          :      1.30s CPU      1.57s WALL (    2819 calls)
                                        0.35s GPU  (    2595 calls)
     ffts         :      0.42s CPU      0.43s WALL (     446 calls)
                                        0.01s GPU  (     222 calls)
     fftw         :     22.30s CPU    369.61s WALL ( 1025176 calls)
                                      367.23s GPU  ( 1025176 calls)
     interpolate  :      1.81s CPU      1.81s WALL (     224 calls)
 
     Parallel routines
 
     PWSCF        :      1h46m CPU      1h23m WALL

 
   This run was terminated on:  11:24:13  20May2026            

=------------------------------------------------------------------------------=
   JOB DONE.
=------------------------------------------------------------------------------=
Warning: ieee_divide_by_zero is signaling
Warning: ieee_inexact is signaling
FORTRAN STOP
