--------------------------------------------------------------------------
WARNING: Open MPI tried to bind a process but failed.  This is a
warning only; your job will continue, though performance may
be degraded.

  Local host:        4b82db919bf5
  Application name:  /root/q-e-qe-7.3.1/bin/pw.x
  Error message:     failed to bind memory
  Location:          ../../../../../orte/mca/rtc/hwloc/rtc_hwloc.c:447

--------------------------------------------------------------------------

     Program PWSCF v.7.3.1 starts on 17May2026 at 12:27: 8 

     This program is part of the open-source Quantum ESPRESSO suite
     for quantum simulation of materials; please cite
         "P. Giannozzi et al., J. Phys.:Condens. Matter 21 395502 (2009);
         "P. Giannozzi et al., J. Phys.:Condens. Matter 29 465901 (2017);
         "P. Giannozzi et al., J. Chem. Phys. 152 154105 (2020);
          URL http://www.quantum-espresso.org", 
     in publications or presentations arising from this work. More details at
     http://www.quantum-espresso.org/quote

     Parallel version (MPI & OpenMP), running on       8 processor cores
     Number of MPI processes:                 1
     Threads/MPI process:                     8

     MPI processes distributed on     1 nodes
     40464 MiB available memory on the printing compute node when the environment starts
 
     Reading input from inputs/fecr_fe09cr07_s0.00.in

     Current dimensions of program PWSCF are:
     Max number of different atomic species (ntypx) = 10
     Max number of k-points (npk) =  40000
     Max angular momentum in pseudopotentials (lmaxx) =  4
     file Fe.pbe-spn-kjpaw_psl.1.0.0.UPF: wavefunction(s)  3P 3D renormalized
     file Cr.pbe-spn-kjpaw_psl.1.0.0.UPF: wavefunction(s)  3S 3P 3D renormalized
     Message from routine setup:
     using ibrav=0 with symmetry is DISCOURAGED, use correct ibrav instead
 
     Subspace diagonalization in iterative solution of the eigenvalue problem:
     a serial algorithm will be used

 
     G-vector sticks info
     --------------------
     sticks:   dense  smooth     PW     G-vecs:    dense   smooth      PW
     Sum        4445    2225    633               222607    78805   11837
 
     Using Slab Decomposition
 


     bravais-lattice index     =            0
     lattice parameter (alat)  =      10.7829  a.u.
     unit-cell volume          =    1253.7205 (a.u.)^3
     number of atoms/cell      =           16
     number of atomic types    =            2
     number of electrons       =       242.00
     number of Kohn-Sham states=          145
     kinetic-energy cutoff     =      60.0000  Ry
     charge density cutoff     =     480.0000  Ry
     scf convergence threshold =      1.0E-08
     mixing beta               =       0.3000
     number of iterations used =            8  plain     mixing
     Exchange-correlation= SLA  PW   PBX  PBC
                           (   1   4   3   4   0   0   0)

     GPU acceleration is ACTIVE.  1 visible GPUs per MPI rank


     celldm(1)=  10.782850  celldm(2)=   0.000000  celldm(3)=   0.000000
     celldm(4)=   0.000000  celldm(5)=   0.000000  celldm(6)=   0.000000

     crystal axes: (cart. coord. in units of alat)
               a(1) = (   1.000000   0.000000   0.000000 )  
               a(2) = (   0.000000   1.000000   0.000000 )  
               a(3) = (   0.000000   0.000000   1.000000 )  

     reciprocal axes: (cart. coord. in units 2 pi/alat)
               b(1) = (  1.000000  0.000000  0.000000 )  
               b(2) = (  0.000000  1.000000  0.000000 )  
               b(3) = (  0.000000  0.000000  1.000000 )  


     PseudoPot. # 1 for Fe read from file:
     ./pseudo/Fe.pbe-spn-kjpaw_psl.1.0.0.UPF
     MD5 check sum: fc81f059e5c5069939230b1155715ae8
     Pseudo is Projector augmented-wave + core cor, Zval = 16.0
     Generated using &quot;atomic&quot; code by A. Dal Corso  v.6.3
     Shape of augmentation charge: PSQ
     Using radial grid of 1191 points,  6 beta functions with: 
                l(1) =   0
                l(2) =   0
                l(3) =   1
                l(4) =   1
                l(5) =   2
                l(6) =   2
     Q(r) pseudized with 0 coefficients 


     PseudoPot. # 2 for Cr read from file:
     ./pseudo/Cr.pbe-spn-kjpaw_psl.1.0.0.UPF
     MD5 check sum: 198f1a2427a48552563eee314eba32ba
     Pseudo is Projector augmented-wave + core cor, Zval = 14.0
     Generated using &quot;atomic&quot; code by A. Dal Corso  v.6.3
     Shape of augmentation charge: PSQ
     Using radial grid of 1183 points,  6 beta functions with: 
                l(1) =   0
                l(2) =   0
                l(3) =   1
                l(4) =   1
                l(5) =   2
                l(6) =   2
     Q(r) pseudized with 0 coefficients 


     atomic species   valence    mass     pseudopotential
     Fe               16.00    55.84500     Fe( 1.00)
     Cr               14.00    51.99600     Cr( 1.00)

     Starting magnetic structure 
     atomic species   magnetization
     Fe              0.500
     Cr              0.300

      4 Sym. Ops., with inversion, found ( 2 have fractional translation)



   Cartesian axes

     site n.     atom                  positions (alat units)
         1        Cr     tau(   1) = (   0.0000000   0.0000000   0.0000000  )
         2        Fe     tau(   2) = (   0.2500000   0.2500000   0.2500000  )
         3        Fe     tau(   3) = (   0.0000000   0.0000000   0.5000000  )
         4        Cr     tau(   4) = (   0.2500000   0.2500000   0.7500000  )
         5        Cr     tau(   5) = (   0.0000000   0.5000000   0.0000000  )
         6        Fe     tau(   6) = (   0.2500000   0.7500000   0.2500000  )
         7        Cr     tau(   7) = (   0.0000000   0.5000000   0.5000000  )
         8        Fe     tau(   8) = (   0.2500000   0.7500000   0.7500000  )
         9        Cr     tau(   9) = (   0.5000000   0.0000000   0.0000000  )
        10        Fe     tau(  10) = (   0.7500000   0.2500000   0.2500000  )
        11        Fe     tau(  11) = (   0.5000000   0.0000000   0.5000000  )
        12        Fe     tau(  12) = (   0.7500000   0.2500000   0.7500000  )
        13        Fe     tau(  13) = (   0.5000000   0.5000000   0.0000000  )
        14        Cr     tau(  14) = (   0.7500000   0.7500000   0.2500000  )
        15        Cr     tau(  15) = (   0.5000000   0.5000000   0.5000000  )
        16        Fe     tau(  16) = (   0.7500000   0.7500000   0.7500000  )

     number of k points=    68  Marzari-Vanderbilt smearing, width (Ry)=  0.0200
                       cart. coord. in units 2pi/alat
        k(    1) = (   0.0000000   0.0000000   0.0000000), wk =   0.0046296
        k(    2) = (   0.0000000   0.0000000   0.1666667), wk =   0.0185185
        k(    3) = (   0.0000000   0.0000000   0.3333333), wk =   0.0185185
        k(    4) = (   0.0000000   0.0000000  -0.5000000), wk =   0.0092593
        k(    5) = (   0.0000000   0.1666667   0.1666667), wk =   0.0092593
        k(    6) = (   0.0000000   0.1666667   0.3333333), wk =   0.0185185
        k(    7) = (   0.0000000   0.1666667  -0.5000000), wk =   0.0185185
        k(    8) = (   0.0000000   0.3333333   0.3333333), wk =   0.0092593
        k(    9) = (   0.0000000   0.3333333  -0.5000000), wk =   0.0185185
        k(   10) = (   0.0000000  -0.5000000  -0.5000000), wk =   0.0046296
        k(   11) = (   0.1666667   0.1666667   0.1666667), wk =   0.0092593
        k(   12) = (   0.1666667   0.1666667   0.3333333), wk =   0.0185185
        k(   13) = (   0.1666667   0.1666667  -0.5000000), wk =   0.0185185
        k(   14) = (   0.1666667   0.3333333   0.3333333), wk =   0.0092593
        k(   15) = (   0.1666667   0.3333333  -0.5000000), wk =   0.0185185
        k(   16) = (   0.1666667  -0.5000000  -0.5000000), wk =   0.0092593
        k(   17) = (   0.3333333   0.3333333   0.3333333), wk =   0.0092593
        k(   18) = (   0.3333333   0.3333333  -0.5000000), wk =   0.0185185
        k(   19) = (   0.3333333  -0.5000000  -0.5000000), wk =   0.0092593
        k(   20) = (  -0.5000000  -0.5000000  -0.5000000), wk =   0.0046296
        k(   21) = (   0.1666667   0.0000000   0.0000000), wk =   0.0092593
        k(   22) = (   0.3333333   0.0000000   0.0000000), wk =   0.0092593
        k(   23) = (  -0.5000000   0.0000000   0.0000000), wk =   0.0046296
        k(   24) = (   0.1666667   0.0000000  -0.1666667), wk =   0.0185185
        k(   25) = (  -0.1666667   0.0000000  -0.1666667), wk =   0.0185185
        k(   26) = (   0.0000000  -0.1666667   0.1666667), wk =   0.0092593
        k(   27) = (   0.1666667   0.0000000  -0.3333333), wk =   0.0185185
        k(   28) = (  -0.1666667   0.0000000  -0.3333333), wk =   0.0185185
        k(   29) = (   0.3333333  -0.1666667   0.0000000), wk =   0.0185185
        k(   30) = (  -0.3333333  -0.1666667   0.0000000), wk =   0.0185185
        k(   31) = (   0.0000000  -0.1666667   0.3333333), wk =   0.0185185
        k(   32) = (   0.1666667   0.0000000   0.5000000), wk =   0.0185185
        k(   33) = (  -0.5000000  -0.1666667   0.0000000), wk =   0.0185185
        k(   34) = (   0.3333333   0.0000000  -0.3333333), wk =   0.0185185
        k(   35) = (  -0.3333333   0.0000000  -0.3333333), wk =   0.0185185
        k(   36) = (   0.0000000  -0.3333333   0.3333333), wk =   0.0092593
        k(   37) = (   0.3333333   0.0000000   0.5000000), wk =   0.0185185
        k(   38) = (  -0.5000000  -0.3333333   0.0000000), wk =   0.0185185
        k(   39) = (  -0.5000000   0.0000000   0.5000000), wk =   0.0092593
        k(   40) = (   0.1666667   0.1666667  -0.1666667), wk =   0.0185185
        k(   41) = (  -0.1666667   0.1666667   0.1666667), wk =   0.0092593
        k(   42) = (   0.1666667   0.1666667  -0.3333333), wk =   0.0185185
        k(   43) = (   0.1666667  -0.1666667   0.3333333), wk =   0.0185185
        k(   44) = (  -0.1666667   0.1666667   0.3333333), wk =   0.0185185
        k(   45) = (   0.3333333  -0.1666667   0.1666667), wk =   0.0185185
        k(   46) = (  -0.3333333  -0.1666667  -0.1666667), wk =   0.0092593
        k(   47) = (  -0.3333333   0.1666667   0.1666667), wk =   0.0092593
        k(   48) = (   0.1666667  -0.1666667  -0.5000000), wk =   0.0185185
        k(   49) = (  -0.5000000  -0.1666667   0.1666667), wk =   0.0092593
        k(   50) = (   0.5000000  -0.1666667  -0.1666667), wk =   0.0092593
        k(   51) = (   0.3333333   0.1666667  -0.3333333), wk =   0.0185185
        k(   52) = (  -0.3333333  -0.1666667  -0.3333333), wk =   0.0185185
        k(   53) = (   0.3333333  -0.1666667   0.3333333), wk =   0.0185185
        k(   54) = (  -0.3333333   0.1666667   0.3333333), wk =   0.0185185
        k(   55) = (  -0.1666667   0.3333333   0.3333333), wk =   0.0092593
        k(   56) = (  -0.1666667  -0.3333333   0.3333333), wk =   0.0185185
        k(   57) = (   0.3333333   0.1666667   0.5000000), wk =   0.0185185
        k(   58) = (   0.3333333  -0.1666667  -0.5000000), wk =   0.0185185
        k(   59) = (  -0.5000000  -0.3333333   0.1666667), wk =   0.0185185
        k(   60) = (   0.5000000  -0.3333333  -0.1666667), wk =   0.0185185
        k(   61) = (  -0.1666667  -0.5000000   0.3333333), wk =   0.0185185
        k(   62) = (  -0.5000000   0.1666667   0.5000000), wk =   0.0185185
        k(   63) = (   0.3333333   0.3333333  -0.3333333), wk =   0.0185185
        k(   64) = (  -0.3333333   0.3333333   0.3333333), wk =   0.0092593
        k(   65) = (   0.3333333  -0.3333333  -0.5000000), wk =   0.0185185
        k(   66) = (  -0.5000000  -0.3333333   0.3333333), wk =   0.0092593
        k(   67) = (   0.5000000  -0.3333333  -0.3333333), wk =   0.0092593
        k(   68) = (  -0.5000000   0.3333333   0.5000000), wk =   0.0185185

     Dense  grid:   222607 G-vectors     FFT dimensions: (  75,  80,  80)

     Smooth grid:    78805 G-vectors     FFT dimensions: (  54,  54,  54)

     Estimated max dynamical RAM per process >       3.84 GB

     Check: negative core charge=   -0.000003
     Generating pointlists ...
     new r_m :   0.1786 (alat units)  1.9260 (a.u.) for type    1
     new r_m :   0.1786 (alat units)  1.9260 (a.u.) for type    2

     Initial potential from superposition of free atoms

     starting charge     241.9907, renormalised to     242.0000
     Starting wfcs are  160 randomized atomic wfcs
     Checking if some PAW data can be deallocated... 

     total cpu time spent up to now is       29.3 secs

     Self-consistent Calculation

     iteration #  1     ecut=    60.00 Ry     beta= 0.30
     Davidson diagonalization with overlap
     ethr =  1.00E-02,  avg # of iterations =  3.9

     negative rho (up, down):  0.000E+00 7.243E-01

     total cpu time spent up to now is       71.4 secs

     total energy              =   -4690.14096715 Ry
     estimated scf accuracy    <      51.55102745 Ry

     total magnetization       =    48.05 Bohr mag/cell
     absolute magnetization    =    58.35 Bohr mag/cell

     iteration #  2     ecut=    60.00 Ry     beta= 0.30
     Davidson diagonalization with overlap
     ethr =  1.00E-02,  avg # of iterations =  4.3

     negative rho (up, down):  0.000E+00 6.003E-01

     total cpu time spent up to now is      113.1 secs

     total energy              =   -4688.39821904 Ry
     estimated scf accuracy    <      84.51614717 Ry

     total magnetization       =    18.65 Bohr mag/cell
     absolute magnetization    =    19.73 Bohr mag/cell

     iteration #  3     ecut=    60.00 Ry     beta= 0.30
     Davidson diagonalization with overlap
     ethr =  1.00E-02,  avg # of iterations =  2.4

     negative rho (up, down):  0.000E+00 4.367E-01

     total cpu time spent up to now is      152.8 secs

     total energy              =   -4696.73797075 Ry
     estimated scf accuracy    <      20.15308691 Ry

     total magnetization       =    42.03 Bohr mag/cell
     absolute magnetization    =    42.59 Bohr mag/cell

     iteration #  4     ecut=    60.00 Ry     beta= 0.30
     Davidson diagonalization with overlap
     ethr =  8.33E-03,  avg # of iterations =  1.6

     negative rho (up, down):  0.000E+00 3.694E-01

     total cpu time spent up to now is      188.5 secs

     total energy              =   -4698.17584934 Ry
     estimated scf accuracy    <      10.90863956 Ry

     total magnetization       =    34.61 Bohr mag/cell
     absolute magnetization    =    35.28 Bohr mag/cell

     iteration #  5     ecut=    60.00 Ry     beta= 0.30
     Davidson diagonalization with overlap
     ethr =  4.51E-03,  avg # of iterations =  1.3

     negative rho (up, down):  0.000E+00 2.110E-01

     total cpu time spent up to now is      223.5 secs

     total energy              =   -4699.11448655 Ry
     estimated scf accuracy    <       6.19390407 Ry

     total magnetization       =    33.97 Bohr mag/cell
     absolute magnetization    =    34.56 Bohr mag/cell

     iteration #  6     ecut=    60.00 Ry     beta= 0.30
     Davidson diagonalization with overlap
     ethr =  2.56E-03,  avg # of iterations =  2.5

     negative rho (up, down):  0.000E+00 5.232E-03

     total cpu time spent up to now is      261.2 secs

     total energy              =   -4699.66795570 Ry
     estimated scf accuracy    <      11.91055534 Ry

     total magnetization       =    31.39 Bohr mag/cell
     absolute magnetization    =    32.49 Bohr mag/cell

     iteration #  7     ecut=    60.00 Ry     beta= 0.30
     Davidson diagonalization with overlap
     ethr =  2.56E-03,  avg # of iterations =  2.5

     negative rho (up, down):  0.000E+00 2.772E-03

     total cpu time spent up to now is      298.9 secs

     total energy              =   -4700.20686928 Ry
     estimated scf accuracy    <       5.64955350 Ry

     total magnetization       =    25.68 Bohr mag/cell
     absolute magnetization    =    27.23 Bohr mag/cell

     iteration #  8     ecut=    60.00 Ry     beta= 0.30
     Davidson diagonalization with overlap
     ethr =  2.33E-03,  avg # of iterations =  1.1

     negative rho (up, down):  0.000E+00 2.724E-03

     total cpu time spent up to now is      332.4 secs

     total energy              =   -4700.46247313 Ry
     estimated scf accuracy    <       0.92776388 Ry

     total magnetization       =    25.65 Bohr mag/cell
     absolute magnetization    =    27.38 Bohr mag/cell

     iteration #  9     ecut=    60.00 Ry     beta= 0.30
     Davidson diagonalization with overlap
     ethr =  3.83E-04,  avg # of iterations =  4.9

     negative rho (up, down):  0.000E+00 2.683E-03

     total cpu time spent up to now is      374.0 secs

     total energy              =   -4700.53555251 Ry
     estimated scf accuracy    <       0.67214877 Ry

     total magnetization       =    24.39 Bohr mag/cell
     absolute magnetization    =    26.25 Bohr mag/cell

     iteration # 10     ecut=    60.00 Ry     beta= 0.30
     Davidson diagonalization with overlap
     ethr =  2.78E-04,  avg # of iterations =  2.1

     negative rho (up, down):  0.000E+00 2.332E-03

     total cpu time spent up to now is      410.4 secs

     total energy              =   -4700.60790287 Ry
     estimated scf accuracy    <       1.02690142 Ry

     total magnetization       =    23.70 Bohr mag/cell
     absolute magnetization    =    25.62 Bohr mag/cell

     iteration # 11     ecut=    60.00 Ry     beta= 0.30
     Davidson diagonalization with overlap
     ethr =  2.78E-04,  avg # of iterations =  1.3

     negative rho (up, down):  0.000E+00 1.747E-03

     total cpu time spent up to now is      445.1 secs

     total energy              =   -4700.64531419 Ry
     estimated scf accuracy    <       0.79556017 Ry

     total magnetization       =    21.28 Bohr mag/cell
     absolute magnetization    =    23.63 Bohr mag/cell

     iteration # 12     ecut=    60.00 Ry     beta= 0.30
     Davidson diagonalization with overlap
     ethr =  2.78E-04,  avg # of iterations =  1.5

     negative rho (up, down):  0.000E+00 1.539E-03

     total cpu time spent up to now is      479.8 secs

     total energy              =   -4700.68427977 Ry
     estimated scf accuracy    <       0.40620947 Ry

     total magnetization       =    19.72 Bohr mag/cell
     absolute magnetization    =    22.33 Bohr mag/cell

     iteration # 13     ecut=    60.00 Ry     beta= 0.30
     Davidson diagonalization with overlap
     ethr =  1.68E-04,  avg # of iterations =  1.6

     negative rho (up, down):  0.000E+00 1.027E-03

     total cpu time spent up to now is      515.2 secs

     total energy              =   -4700.71255102 Ry
     estimated scf accuracy    <       0.07681858 Ry

     total magnetization       =    19.50 Bohr mag/cell
     absolute magnetization    =    21.99 Bohr mag/cell

     iteration # 14     ecut=    60.00 Ry     beta= 0.30
     Davidson diagonalization with overlap
     c_bands:  1 eigenvalues not converged
     c_bands:  1 eigenvalues not converged
     c_bands:  1 eigenvalues not converged
     c_bands:  1 eigenvalues not converged
     c_bands:  1 eigenvalues not converged
     ethr =  3.17E-05,  avg # of iterations =  9.3

     negative rho (up, down):  0.000E+00 7.492E-04

     total cpu time spent up to now is      568.6 secs

     total energy              =   -4700.72595175 Ry
     estimated scf accuracy    <       0.17863048 Ry

     total magnetization       =    19.30 Bohr mag/cell
     absolute magnetization    =    21.57 Bohr mag/cell

     iteration # 15     ecut=    60.00 Ry     beta= 0.30
     Davidson diagonalization with overlap
     ethr =  3.17E-05,  avg # of iterations =  1.5

     negative rho (up, down):  0.000E+00 5.998E-04

     total cpu time spent up to now is      604.8 secs

     total energy              =   -4700.73085106 Ry
     estimated scf accuracy    <       0.09673530 Ry

     total magnetization       =    19.13 Bohr mag/cell
     absolute magnetization    =    21.40 Bohr mag/cell

     iteration # 16     ecut=    60.00 Ry     beta= 0.30
     Davidson diagonalization with overlap
     ethr =  3.17E-05,  avg # of iterations =  1.7

     negative rho (up, down):  0.000E+00 2.384E-04

     total cpu time spent up to now is      640.6 secs

     total energy              =   -4700.73982398 Ry
     estimated scf accuracy    <       0.04110334 Ry

     total magnetization       =    18.46 Bohr mag/cell
     absolute magnetization    =    20.97 Bohr mag/cell

     iteration # 17     ecut=    60.00 Ry     beta= 0.30
     Davidson diagonalization with overlap
     c_bands:  1 eigenvalues not converged
     c_bands:  3 eigenvalues not converged
     c_bands:  2 eigenvalues not converged
     ethr =  1.70E-05,  avg # of iterations =  3.0

     negative rho (up, down):  0.000E+00 1.164E-04

     total cpu time spent up to now is      678.8 secs

     total energy              =   -4700.74479787 Ry
     estimated scf accuracy    <       0.04661635 Ry

     total magnetization       =    17.49 Bohr mag/cell
     absolute magnetization    =    20.22 Bohr mag/cell

     iteration # 18     ecut=    60.00 Ry     beta= 0.30
     Davidson diagonalization with overlap
     c_bands:  1 eigenvalues not converged
     c_bands:  1 eigenvalues not converged
     ethr =  1.70E-05,  avg # of iterations =  2.6

     negative rho (up, down):  0.000E+00 1.633E-04

     total cpu time spent up to now is      717.3 secs

     total energy              =   -4700.74426868 Ry
     estimated scf accuracy    <       0.02997315 Ry

     total magnetization       =    17.26 Bohr mag/cell
     absolute magnetization    =    20.08 Bohr mag/cell

     iteration # 19     ecut=    60.00 Ry     beta= 0.30
     Davidson diagonalization with overlap
     c_bands:  4 eigenvalues not converged
     c_bands:  1 eigenvalues not converged
     c_bands:  1 eigenvalues not converged
     ethr =  1.24E-05,  avg # of iterations =  2.8

     negative rho (up, down):  0.000E+00 8.587E-05

     total cpu time spent up to now is      756.1 secs

     total energy              =   -4700.74652908 Ry
     estimated scf accuracy    <       0.03096491 Ry

     total magnetization       =    17.56 Bohr mag/cell
     absolute magnetization    =    20.13 Bohr mag/cell

     iteration # 20     ecut=    60.00 Ry     beta= 0.30
     Davidson diagonalization with overlap
     c_bands:  2 eigenvalues not converged
     ethr =  1.24E-05,  avg # of iterations =  1.2

     negative rho (up, down):  0.000E+00 8.600E-05

     total cpu time spent up to now is      791.1 secs

     total energy              =   -4700.74813970 Ry
     estimated scf accuracy    <       0.00222764 Ry

     total magnetization       =    17.25 Bohr mag/cell
     absolute magnetization    =    20.04 Bohr mag/cell

     iteration # 21     ecut=    60.00 Ry     beta= 0.30
     Davidson diagonalization with overlap
     c_bands:  2 eigenvalues not converged
     c_bands:  3 eigenvalues not converged
     c_bands:  2 eigenvalues not converged
     c_bands:  3 eigenvalues not converged
     c_bands:  2 eigenvalues not converged
     c_bands:  1 eigenvalues not converged
     c_bands:  3 eigenvalues not converged
     c_bands:  5 eigenvalues not converged
     c_bands:  3 eigenvalues not converged
     c_bands:  2 eigenvalues not converged
     ethr =  9.21E-07,  avg # of iterations = 11.1

     negative rho (up, down):  0.000E+00 8.276E-05

     total cpu time spent up to now is      851.2 secs

     total energy              =   -4700.74820364 Ry
     estimated scf accuracy    <       0.01997483 Ry

     total magnetization       =    17.35 Bohr mag/cell
     absolute magnetization    =    20.08 Bohr mag/cell

     iteration # 22     ecut=    60.00 Ry     beta= 0.30
     Davidson diagonalization with overlap
     c_bands:  1 eigenvalues not converged
     c_bands:  1 eigenvalues not converged
     ethr =  9.21E-07,  avg # of iterations =  6.9

     negative rho (up, down):  0.000E+00 7.716E-05

     total cpu time spent up to now is      898.9 secs

     total energy              =   -4700.74932352 Ry
     estimated scf accuracy    <       0.00502809 Ry

     total magnetization       =    17.22 Bohr mag/cell
     absolute magnetization    =    20.03 Bohr mag/cell

     iteration # 23     ecut=    60.00 Ry     beta= 0.30
     Davidson diagonalization with overlap
     ethr =  9.21E-07,  avg # of iterations =  1.6

     negative rho (up, down):  0.000E+00 7.598E-05

     total cpu time spent up to now is      935.6 secs

     total energy              =   -4700.74995669 Ry
     estimated scf accuracy    <       0.00073596 Ry

     total magnetization       =    17.09 Bohr mag/cell
     absolute magnetization    =    19.98 Bohr mag/cell

     iteration # 24     ecut=    60.00 Ry     beta= 0.30
     Davidson diagonalization with overlap
     ethr =  3.04E-07,  avg # of iterations =  6.4

     negative rho (up, down):  0.000E+00 7.234E-05

     total cpu time spent up to now is      982.1 secs

     total energy              =   -4700.75027671 Ry
     estimated scf accuracy    <       0.00237390 Ry

     total magnetization       =    17.01 Bohr mag/cell
     absolute magnetization    =    19.99 Bohr mag/cell

     iteration # 25     ecut=    60.00 Ry     beta= 0.30
     Davidson diagonalization with overlap
     ethr =  3.04E-07,  avg # of iterations =  5.4

     negative rho (up, down):  0.000E+00 7.484E-05

     total cpu time spent up to now is     1025.7 secs

     total energy              =   -4700.75053000 Ry
     estimated scf accuracy    <       0.00075232 Ry

     total magnetization       =    16.92 Bohr mag/cell
     absolute magnetization    =    20.01 Bohr mag/cell

     iteration # 26     ecut=    60.00 Ry     beta= 0.30
     Davidson diagonalization with overlap
     ethr =  3.04E-07,  avg # of iterations =  4.2

     negative rho (up, down):  0.000E+00 7.625E-05

     total cpu time spent up to now is     1066.6 secs

     total energy              =   -4700.75070316 Ry
     estimated scf accuracy    <       0.00243824 Ry

     total magnetization       =    16.92 Bohr mag/cell
     absolute magnetization    =    20.05 Bohr mag/cell

     iteration # 27     ecut=    60.00 Ry     beta= 0.30
     Davidson diagonalization with overlap
     ethr =  3.04E-07,  avg # of iterations =  4.3

     negative rho (up, down):  0.000E+00 7.667E-05

     total cpu time spent up to now is     1108.5 secs

     total energy              =   -4700.75085126 Ry
     estimated scf accuracy    <       0.00092998 Ry

     total magnetization       =    16.88 Bohr mag/cell
     absolute magnetization    =    20.11 Bohr mag/cell

     iteration # 28     ecut=    60.00 Ry     beta= 0.30
     Davidson diagonalization with overlap
     ethr =  3.04E-07,  avg # of iterations =  4.0

     negative rho (up, down):  0.000E+00 7.743E-05

     total cpu time spent up to now is     1148.1 secs

     total energy              =   -4700.75083695 Ry
     estimated scf accuracy    <       0.00209701 Ry

     total magnetization       =    16.88 Bohr mag/cell
     absolute magnetization    =    20.12 Bohr mag/cell

     iteration # 29     ecut=    60.00 Ry     beta= 0.30
     Davidson diagonalization with overlap
     ethr =  3.04E-07,  avg # of iterations =  2.6

     negative rho (up, down):  0.000E+00 7.655E-05

     total cpu time spent up to now is     1185.6 secs

     total energy              =   -4700.75099359 Ry
     estimated scf accuracy    <       0.00119695 Ry

     total magnetization       =    16.91 Bohr mag/cell
     absolute magnetization    =    20.17 Bohr mag/cell

     iteration # 30     ecut=    60.00 Ry     beta= 0.30
     Davidson diagonalization with overlap
     ethr =  3.04E-07,  avg # of iterations =  2.3

     negative rho (up, down):  0.000E+00 7.741E-05

     total cpu time spent up to now is     1222.5 secs

     total energy              =   -4700.75116051 Ry
     estimated scf accuracy    <       0.00021395 Ry

     total magnetization       =    16.83 Bohr mag/cell
     absolute magnetization    =    20.19 Bohr mag/cell

     iteration # 31     ecut=    60.00 Ry     beta= 0.30
     Davidson diagonalization with overlap
     c_bands:  1 eigenvalues not converged
     ethr =  8.84E-08,  avg # of iterations =  6.9

     negative rho (up, down):  0.000E+00 7.835E-05

     total cpu time spent up to now is     1271.7 secs

     total energy              =   -4700.75122733 Ry
     estimated scf accuracy    <       0.00060915 Ry

     total magnetization       =    16.80 Bohr mag/cell
     absolute magnetization    =    20.26 Bohr mag/cell

     iteration # 32     ecut=    60.00 Ry     beta= 0.30
     Davidson diagonalization with overlap
     ethr =  8.84E-08,  avg # of iterations =  2.7

     negative rho (up, down):  0.000E+00 7.933E-05

     total cpu time spent up to now is     1309.4 secs

     total energy              =   -4700.75130978 Ry
     estimated scf accuracy    <       0.00050998 Ry

     total magnetization       =    16.80 Bohr mag/cell
     absolute magnetization    =    20.27 Bohr mag/cell

     iteration # 33     ecut=    60.00 Ry     beta= 0.30
     Davidson diagonalization with overlap
     ethr =  8.84E-08,  avg # of iterations =  3.5

     negative rho (up, down):  0.000E+00 7.984E-05

     total cpu time spent up to now is     1349.0 secs

     total energy              =   -4700.75139922 Ry
     estimated scf accuracy    <       0.00020336 Ry

     total magnetization       =    16.78 Bohr mag/cell
     absolute magnetization    =    20.34 Bohr mag/cell

     iteration # 34     ecut=    60.00 Ry     beta= 0.30
     Davidson diagonalization with overlap
     ethr =  8.40E-08,  avg # of iterations =  3.2

     negative rho (up, down):  0.000E+00 8.058E-05

     total cpu time spent up to now is     1387.3 secs

     total energy              =   -4700.75145770 Ry
     estimated scf accuracy    <       0.00018812 Ry

     total magnetization       =    16.77 Bohr mag/cell
     absolute magnetization    =    20.38 Bohr mag/cell

     iteration # 35     ecut=    60.00 Ry     beta= 0.30
     Davidson diagonalization with overlap
     ethr =  7.77E-08,  avg # of iterations =  4.7

     negative rho (up, down):  0.000E+00 8.256E-05

     total cpu time spent up to now is     1429.8 secs

     total energy              =   -4700.75149559 Ry
     estimated scf accuracy    <       0.00065876 Ry

     total magnetization       =    16.75 Bohr mag/cell
     absolute magnetization    =    20.43 Bohr mag/cell

     iteration # 36     ecut=    60.00 Ry     beta= 0.30
     Davidson diagonalization with overlap
     ethr =  7.77E-08,  avg # of iterations =  6.3

     negative rho (up, down):  0.000E+00 8.278E-05

     total cpu time spent up to now is     1477.8 secs

     total energy              =   -4700.75164787 Ry
     estimated scf accuracy    <       0.00028187 Ry

     total magnetization       =    16.71 Bohr mag/cell
     absolute magnetization    =    20.58 Bohr mag/cell

     iteration # 37     ecut=    60.00 Ry     beta= 0.30
     Davidson diagonalization with overlap
     ethr =  7.77E-08,  avg # of iterations =  1.1

     negative rho (up, down):  0.000E+00 8.298E-05

     total cpu time spent up to now is     1511.6 secs

     total energy              =   -4700.75168638 Ry
     estimated scf accuracy    <       0.00012766 Ry

     total magnetization       =    16.71 Bohr mag/cell
     absolute magnetization    =    20.59 Bohr mag/cell

     iteration # 38     ecut=    60.00 Ry     beta= 0.30
     Davidson diagonalization with overlap
     ethr =  5.28E-08,  avg # of iterations =  2.0

     negative rho (up, down):  0.000E+00 8.403E-05

     total cpu time spent up to now is     1548.1 secs

     total energy              =   -4700.75174229 Ry
     estimated scf accuracy    <       0.00013963 Ry

     total magnetization       =    16.71 Bohr mag/cell
     absolute magnetization    =    20.62 Bohr mag/cell

     iteration # 39     ecut=    60.00 Ry     beta= 0.30
     Davidson diagonalization with overlap
     ethr =  5.28E-08,  avg # of iterations =  5.6

     negative rho (up, down):  0.000E+00 8.407E-05

     total cpu time spent up to now is     1591.8 secs

     total energy              =   -4700.75177614 Ry
     estimated scf accuracy    <       0.00028743 Ry

     total magnetization       =    16.68 Bohr mag/cell
     absolute magnetization    =    20.71 Bohr mag/cell

     iteration # 40     ecut=    60.00 Ry     beta= 0.30
     Davidson diagonalization with overlap
     ethr =  5.28E-08,  avg # of iterations =  1.7

     negative rho (up, down):  0.000E+00 8.406E-05

     total cpu time spent up to now is     1627.8 secs

     total energy              =   -4700.75182599 Ry
     estimated scf accuracy    <       0.00013636 Ry

     total magnetization       =    16.69 Bohr mag/cell
     absolute magnetization    =    20.73 Bohr mag/cell

     iteration # 41     ecut=    60.00 Ry     beta= 0.30
     Davidson diagonalization with overlap
     ethr =  5.28E-08,  avg # of iterations =  3.0

     negative rho (up, down):  0.000E+00 8.425E-05

     total cpu time spent up to now is     1666.3 secs

     total energy              =   -4700.75186212 Ry
     estimated scf accuracy    <       0.00038232 Ry

     total magnetization       =    16.70 Bohr mag/cell
     absolute magnetization    =    20.77 Bohr mag/cell

     iteration # 42     ecut=    60.00 Ry     beta= 0.30
     Davidson diagonalization with overlap
     ethr =  5.28E-08,  avg # of iterations =  5.2

     negative rho (up, down):  0.000E+00 8.582E-05

     total cpu time spent up to now is     1710.6 secs

     total energy              =   -4700.75189217 Ry
     estimated scf accuracy    <       0.00042916 Ry

     total magnetization       =    16.69 Bohr mag/cell
     absolute magnetization    =    20.82 Bohr mag/cell

     iteration # 43     ecut=    60.00 Ry     beta= 0.30
     Davidson diagonalization with overlap
     ethr =  5.28E-08,  avg # of iterations =  5.9

     negative rho (up, down):  0.000E+00 8.664E-05

     total cpu time spent up to now is     1758.5 secs

     total energy              =   -4700.75206032 Ry
     estimated scf accuracy    <       0.00022471 Ry

     total magnetization       =    16.66 Bohr mag/cell
     absolute magnetization    =    21.01 Bohr mag/cell

     iteration # 44     ecut=    60.00 Ry     beta= 0.30
     Davidson diagonalization with overlap
     ethr =  5.28E-08,  avg # of iterations =  5.0

     negative rho (up, down):  0.000E+00 8.638E-05

     total cpu time spent up to now is     1801.6 secs

     total energy              =   -4700.75211586 Ry
     estimated scf accuracy    <       0.00014622 Ry

     total magnetization       =    16.65 Bohr mag/cell
     absolute magnetization    =    21.13 Bohr mag/cell

     iteration # 45     ecut=    60.00 Ry     beta= 0.30
     Davidson diagonalization with overlap
     ethr =  5.28E-08,  avg # of iterations =  1.6

     negative rho (up, down):  0.000E+00 8.639E-05

     total cpu time spent up to now is     1836.5 secs

     total energy              =   -4700.75213822 Ry
     estimated scf accuracy    <       0.00016144 Ry

     total magnetization       =    16.64 Bohr mag/cell
     absolute magnetization    =    21.13 Bohr mag/cell

     iteration # 46     ecut=    60.00 Ry     beta= 0.30
     Davidson diagonalization with overlap
     ethr =  5.28E-08,  avg # of iterations =  2.2

     negative rho (up, down):  0.000E+00 8.676E-05

     total cpu time spent up to now is     1873.7 secs

     total energy              =   -4700.75216754 Ry
     estimated scf accuracy    <       0.00012119 Ry

     total magnetization       =    16.64 Bohr mag/cell
     absolute magnetization    =    21.17 Bohr mag/cell

     iteration # 47     ecut=    60.00 Ry     beta= 0.30
     Davidson diagonalization with overlap
     ethr =  5.01E-08,  avg # of iterations =  5.8

     negative rho (up, down):  0.000E+00 8.686E-05

     total cpu time spent up to now is     1920.2 secs

     total energy              =   -4700.75224491 Ry
     estimated scf accuracy    <       0.00009790 Ry

     total magnetization       =    16.62 Bohr mag/cell
     absolute magnetization    =    21.31 Bohr mag/cell

     iteration # 48     ecut=    60.00 Ry     beta= 0.30
     Davidson diagonalization with overlap
     ethr =  4.05E-08,  avg # of iterations =  1.2

     negative rho (up, down):  0.000E+00 8.723E-05

     total cpu time spent up to now is     1954.6 secs

     total energy              =   -4700.75226202 Ry
     estimated scf accuracy    <       0.00016992 Ry

     total magnetization       =    16.62 Bohr mag/cell
     absolute magnetization    =    21.33 Bohr mag/cell

     iteration # 49     ecut=    60.00 Ry     beta= 0.30
     Davidson diagonalization with overlap
     ethr =  4.05E-08,  avg # of iterations =  5.2

     negative rho (up, down):  0.000E+00 8.658E-05

     total cpu time spent up to now is     2000.0 secs

     total energy              =   -4700.75222023 Ry
     estimated scf accuracy    <       0.00018647 Ry

     total magnetization       =    16.60 Bohr mag/cell
     absolute magnetization    =    21.44 Bohr mag/cell

     iteration # 50     ecut=    60.00 Ry     beta= 0.30
     Davidson diagonalization with overlap
     ethr =  4.05E-08,  avg # of iterations =  4.3

     negative rho (up, down):  0.000E+00 8.637E-05

     total cpu time spent up to now is     2042.0 secs

     total energy              =   -4700.75153210 Ry
     estimated scf accuracy    <       0.00009604 Ry

     total magnetization       =    16.62 Bohr mag/cell
     absolute magnetization    =    21.35 Bohr mag/cell

     iteration # 51     ecut=    60.00 Ry     beta= 0.30
     Davidson diagonalization with overlap
     ethr =  3.97E-08,  avg # of iterations =  8.3

     negative rho (up, down):  0.000E+00 8.651E-05

     total cpu time spent up to now is     2098.8 secs

     total energy              =   -4700.75191989 Ry
     estimated scf accuracy    <       0.00011370 Ry

     total magnetization       =    16.66 Bohr mag/cell
     absolute magnetization    =    20.97 Bohr mag/cell

     iteration # 52     ecut=    60.00 Ry     beta= 0.30
     Davidson diagonalization with overlap
     ethr =  3.97E-08,  avg # of iterations =  7.3

     negative rho (up, down):  0.000E+00 8.684E-05

     total cpu time spent up to now is     2152.3 secs

     total energy              =   -4700.75206744 Ry
     estimated scf accuracy    <       0.00013381 Ry

     total magnetization       =    16.63 Bohr mag/cell
     absolute magnetization    =    21.28 Bohr mag/cell

     iteration # 53     ecut=    60.00 Ry     beta= 0.30
     Davidson diagonalization with overlap
     ethr =  3.97E-08,  avg # of iterations =  5.1

     negative rho (up, down):  0.000E+00 8.652E-05

     total cpu time spent up to now is     2196.2 secs

     total energy              =   -4700.75214259 Ry
     estimated scf accuracy    <       0.00012019 Ry

     total magnetization       =    16.64 Bohr mag/cell
     absolute magnetization    =    21.15 Bohr mag/cell

     iteration # 54     ecut=    60.00 Ry     beta= 0.30
     Davidson diagonalization with overlap
     ethr =  3.97E-08,  avg # of iterations =  5.5

     negative rho (up, down):  0.000E+00 8.651E-05

     total cpu time spent up to now is     2241.7 secs

     total energy              =   -4700.75220588 Ry
     estimated scf accuracy    <       0.00034139 Ry

     total magnetization       =    16.63 Bohr mag/cell
     absolute magnetization    =    21.34 Bohr mag/cell

     iteration # 55     ecut=    60.00 Ry     beta= 0.30
     Davidson diagonalization with overlap
     ethr =  3.97E-08,  avg # of iterations =  3.1

     negative rho (up, down):  0.000E+00 8.646E-05

     total cpu time spent up to now is     2279.5 secs

     total energy              =   -4700.75224620 Ry
     estimated scf accuracy    <       0.00016835 Ry

     total magnetization       =    16.63 Bohr mag/cell
     absolute magnetization    =    21.29 Bohr mag/cell

     iteration # 56     ecut=    60.00 Ry     beta= 0.30
     Davidson diagonalization with overlap
     ethr =  3.97E-08,  avg # of iterations =  1.9

     negative rho (up, down):  0.000E+00 9.168E-05

     total cpu time spent up to now is     2315.7 secs

     total energy              =   -4700.75206796 Ry
     estimated scf accuracy    <       0.00015562 Ry

     total magnetization       =    16.62 Bohr mag/cell
     absolute magnetization    =    21.32 Bohr mag/cell

     iteration # 57     ecut=    60.00 Ry     beta= 0.30
     Davidson diagonalization with overlap
     ethr =  3.97E-08,  avg # of iterations =  7.9

     negative rho (up, down):  0.000E+00 8.647E-05

     total cpu time spent up to now is     2371.4 secs

     total energy              =   -4700.75219423 Ry
     estimated scf accuracy    <       0.00015375 Ry

     total magnetization       =    16.58 Bohr mag/cell
     absolute magnetization    =    21.67 Bohr mag/cell

     iteration # 58     ecut=    60.00 Ry     beta= 0.30
     Davidson diagonalization with overlap
     ethr =  3.97E-08,  avg # of iterations =  5.3

     negative rho (up, down):  0.000E+00 9.208E-05

     total cpu time spent up to now is     2419.1 secs

     total energy              =   -4700.75226108 Ry
     estimated scf accuracy    <       0.00016200 Ry

     total magnetization       =    16.61 Bohr mag/cell
     absolute magnetization    =    21.46 Bohr mag/cell

     iteration # 59     ecut=    60.00 Ry     beta= 0.30
     Davidson diagonalization with overlap
     ethr =  3.97E-08,  avg # of iterations =  6.3

     negative rho (up, down):  0.000E+00 8.799E-05

     total cpu time spent up to now is     2469.8 secs

     total energy              =   -4700.75225237 Ry
     estimated scf accuracy    <       0.00055535 Ry

     total magnetization       =    16.58 Bohr mag/cell
     absolute magnetization    =    21.71 Bohr mag/cell

     iteration # 60     ecut=    60.00 Ry     beta= 0.30
     Davidson diagonalization with overlap
     ethr =  3.97E-08,  avg # of iterations =  5.3

     negative rho (up, down):  0.000E+00 8.914E-05

     total cpu time spent up to now is     2515.7 secs

     total energy              =   -4700.75240743 Ry
     estimated scf accuracy    <       0.00011167 Ry

     total magnetization       =    16.60 Bohr mag/cell
     absolute magnetization    =    21.53 Bohr mag/cell

     iteration # 61     ecut=    60.00 Ry     beta= 0.30
     Davidson diagonalization with overlap
     ethr =  3.97E-08,  avg # of iterations =  3.0

     negative rho (up, down):  0.000E+00 1.028E-04

     total cpu time spent up to now is     2553.7 secs

     total energy              =   -4700.75208275 Ry
     estimated scf accuracy    <       0.00007883 Ry

     total magnetization       =    16.59 Bohr mag/cell
     absolute magnetization    =    21.59 Bohr mag/cell

     iteration # 62     ecut=    60.00 Ry     beta= 0.30
     Davidson diagonalization with overlap
     ethr =  3.26E-08,  avg # of iterations =  9.4

     negative rho (up, down):  0.000E+00 1.049E-04

     total cpu time spent up to now is     2614.3 secs

     total energy              =   -4700.75265656 Ry
     estimated scf accuracy    <       0.00006160 Ry

     total magnetization       =    16.54 Bohr mag/cell
     absolute magnetization    =    22.01 Bohr mag/cell

     iteration # 63     ecut=    60.00 Ry     beta= 0.30
     Davidson diagonalization with overlap
     ethr =  2.55E-08,  avg # of iterations =  5.5

     negative rho (up, down):  0.000E+00 1.055E-04

     total cpu time spent up to now is     2658.2 secs

     total energy              =   -4700.75267340 Ry
     estimated scf accuracy    <       0.00020075 Ry

     total magnetization       =    16.53 Bohr mag/cell
     absolute magnetization    =    22.09 Bohr mag/cell

     iteration # 64     ecut=    60.00 Ry     beta= 0.30
     Davidson diagonalization with overlap
     ethr =  2.55E-08,  avg # of iterations =  2.1

     negative rho (up, down):  0.000E+00 1.089E-04

     total cpu time spent up to now is     2695.5 secs

     total energy              =   -4700.75269339 Ry
     estimated scf accuracy    <       0.00006568 Ry

     total magnetization       =    16.52 Bohr mag/cell
     absolute magnetization    =    22.09 Bohr mag/cell

     iteration # 65     ecut=    60.00 Ry     beta= 0.30
     Davidson diagonalization with overlap
     ethr =  2.55E-08,  avg # of iterations =  5.2

     negative rho (up, down):  0.000E+00 1.156E-04

     total cpu time spent up to now is     2739.4 secs

     total energy              =   -4700.75270383 Ry
     estimated scf accuracy    <       0.00012145 Ry

     total magnetization       =    16.51 Bohr mag/cell
     absolute magnetization    =    22.16 Bohr mag/cell

     iteration # 66     ecut=    60.00 Ry     beta= 0.30
     Davidson diagonalization with overlap
     ethr =  2.55E-08,  avg # of iterations =  6.7

     negative rho (up, down):  0.000E+00 1.007E-04

     total cpu time spent up to now is     2789.9 secs

     total energy              =   -4700.75241909 Ry
     estimated scf accuracy    <       0.00010760 Ry

     total magnetization       =    16.49 Bohr mag/cell
     absolute magnetization    =    22.31 Bohr mag/cell

     iteration # 67     ecut=    60.00 Ry     beta= 0.30
     Davidson diagonalization with overlap
     ethr =  2.55E-08,  avg # of iterations =  7.7

     negative rho (up, down):  0.000E+00 1.107E-04

     total cpu time spent up to now is     2844.1 secs

     total energy              =   -4700.75261621 Ry
     estimated scf accuracy    <       0.00011015 Ry

     total magnetization       =    16.53 Bohr mag/cell
     absolute magnetization    =    22.04 Bohr mag/cell

     iteration # 68     ecut=    60.00 Ry     beta= 0.30
     Davidson diagonalization with overlap
     ethr =  2.55E-08,  avg # of iterations =  6.8

     negative rho (up, down):  0.000E+00 1.248E-04

     total cpu time spent up to now is     2895.8 secs

     total energy              =   -4700.75255581 Ry
     estimated scf accuracy    <       0.00013278 Ry

     total magnetization       =    16.49 Bohr mag/cell
     absolute magnetization    =    22.24 Bohr mag/cell

     iteration # 69     ecut=    60.00 Ry     beta= 0.30
     Davidson diagonalization with overlap
     ethr =  2.55E-08,  avg # of iterations =  8.3

     negative rho (up, down):  0.000E+00 1.215E-04

     total cpu time spent up to now is     2952.7 secs

     total energy              =   -4700.75285387 Ry
     estimated scf accuracy    <       0.00004943 Ry

     total magnetization       =    16.44 Bohr mag/cell
     absolute magnetization    =    22.56 Bohr mag/cell

     iteration # 70     ecut=    60.00 Ry     beta= 0.30
     Davidson diagonalization with overlap
     ethr =  2.04E-08,  avg # of iterations =  2.7

     negative rho (up, down):  0.000E+00 1.375E-04

     total cpu time spent up to now is     2990.4 secs

     total energy              =   -4700.75240298 Ry
     estimated scf accuracy    <       0.00010075 Ry

     total magnetization       =    16.44 Bohr mag/cell
     absolute magnetization    =    22.52 Bohr mag/cell

     iteration # 71     ecut=    60.00 Ry     beta= 0.30
     Davidson diagonalization with overlap
     c_bands:  1 eigenvalues not converged
     ethr =  2.04E-08,  avg # of iterations = 10.3

     negative rho (up, down):  0.000E+00 1.337E-04

     total cpu time spent up to now is     3054.0 secs

     total energy              =   -4700.75294036 Ry
     estimated scf accuracy    <       0.00001939 Ry

     total magnetization       =    16.36 Bohr mag/cell
     absolute magnetization    =    22.95 Bohr mag/cell

     iteration # 72     ecut=    60.00 Ry     beta= 0.30
     Davidson diagonalization with overlap
     ethr =  8.01E-09,  avg # of iterations =  5.9

     negative rho (up, down):  0.000E+00 1.369E-04

     total cpu time spent up to now is     3101.5 secs

     total energy              =   -4700.75293327 Ry
     estimated scf accuracy    <       0.00016747 Ry

     total magnetization       =    16.37 Bohr mag/cell
     absolute magnetization    =    22.88 Bohr mag/cell

     iteration # 73     ecut=    60.00 Ry     beta= 0.30
     Davidson diagonalization with overlap
     ethr =  8.01E-09,  avg # of iterations =  6.7

     negative rho (up, down):  0.000E+00 1.393E-04

     total cpu time spent up to now is     3151.1 secs

     total energy              =   -4700.75290127 Ry
     estimated scf accuracy    <       0.00001200 Ry

     total magnetization       =    16.35 Bohr mag/cell
     absolute magnetization    =    22.98 Bohr mag/cell

     iteration # 74     ecut=    60.00 Ry     beta= 0.30
     Davidson diagonalization with overlap
     ethr =  4.96E-09,  avg # of iterations =  8.8

     negative rho (up, down):  0.000E+00 1.381E-04

     total cpu time spent up to now is     3210.6 secs

     total energy              =   -4700.75297884 Ry
     estimated scf accuracy    <       0.00004236 Ry

     total magnetization       =    16.29 Bohr mag/cell
     absolute magnetization    =    23.15 Bohr mag/cell

     iteration # 75     ecut=    60.00 Ry     beta= 0.30
     Davidson diagonalization with overlap
     ethr =  4.96E-09,  avg # of iterations =  6.1

     negative rho (up, down):  0.000E+00 1.359E-04

     total cpu time spent up to now is     3258.9 secs

     total energy              =   -4700.75298858 Ry
     estimated scf accuracy    <       0.00001716 Ry

     total magnetization       =    16.27 Bohr mag/cell
     absolute magnetization    =    23.21 Bohr mag/cell

     iteration # 76     ecut=    60.00 Ry     beta= 0.30
     Davidson diagonalization with overlap
     ethr =  4.96E-09,  avg # of iterations =  5.1

     negative rho (up, down):  0.000E+00 1.306E-04

     total cpu time spent up to now is     3302.1 secs

     total energy              =   -4700.75295687 Ry
     estimated scf accuracy    <       0.00000569 Ry

     total magnetization       =    16.28 Bohr mag/cell
     absolute magnetization    =    23.16 Bohr mag/cell

     iteration # 77     ecut=    60.00 Ry     beta= 0.30
     Davidson diagonalization with overlap
     ethr =  2.35E-09,  avg # of iterations =  8.7

     negative rho (up, down):  0.000E+00 1.363E-04

     total cpu time spent up to now is     3361.6 secs

     total energy              =   -4700.75294360 Ry
     estimated scf accuracy    <       0.00002368 Ry

     total magnetization       =    16.29 Bohr mag/cell
     absolute magnetization    =    23.06 Bohr mag/cell

     iteration # 78     ecut=    60.00 Ry     beta= 0.30
     Davidson diagonalization with overlap
     ethr =  2.35E-09,  avg # of iterations =  9.6

     negative rho (up, down):  0.000E+00 1.349E-04

     total cpu time spent up to now is     3423.7 secs

     total energy              =   -4700.75299368 Ry
     estimated scf accuracy    <       0.00000898 Ry

     total magnetization       =    16.27 Bohr mag/cell
     absolute magnetization    =    23.19 Bohr mag/cell

     iteration # 79     ecut=    60.00 Ry     beta= 0.30
     Davidson diagonalization with overlap
     ethr =  2.35E-09,  avg # of iterations =  4.9

     negative rho (up, down):  0.000E+00 1.350E-04

     total cpu time spent up to now is     3465.7 secs

     total energy              =   -4700.75299661 Ry
     estimated scf accuracy    <       0.00000094 Ry

     total magnetization       =    16.27 Bohr mag/cell
     absolute magnetization    =    23.17 Bohr mag/cell

     iteration # 80     ecut=    60.00 Ry     beta= 0.30
     Davidson diagonalization with overlap
     ethr =  3.89E-10,  avg # of iterations =  4.7

     negative rho (up, down):  0.000E+00 1.351E-04

     total cpu time spent up to now is     3507.1 secs

     total energy              =   -4700.75299690 Ry
     estimated scf accuracy    <       0.00000141 Ry

     total magnetization       =    16.27 Bohr mag/cell
     absolute magnetization    =    23.17 Bohr mag/cell

     iteration # 81     ecut=    60.00 Ry     beta= 0.30
     Davidson diagonalization with overlap
     ethr =  3.89E-10,  avg # of iterations =  4.0

     negative rho (up, down):  0.000E+00 1.359E-04

     total cpu time spent up to now is     3547.9 secs

     total energy              =   -4700.75299642 Ry
     estimated scf accuracy    <       0.00000199 Ry

     total magnetization       =    16.27 Bohr mag/cell
     absolute magnetization    =    23.18 Bohr mag/cell

     iteration # 82     ecut=    60.00 Ry     beta= 0.30
     Davidson diagonalization with overlap
     ethr =  3.89E-10,  avg # of iterations =  5.7

     negative rho (up, down):  0.000E+00 1.360E-04

     total cpu time spent up to now is     3594.6 secs

     total energy              =   -4700.75299671 Ry
     estimated scf accuracy    <       0.00000043 Ry

     total magnetization       =    16.27 Bohr mag/cell
     absolute magnetization    =    23.17 Bohr mag/cell

     iteration # 83     ecut=    60.00 Ry     beta= 0.30
     Davidson diagonalization with overlap
     ethr =  1.78E-10,  avg # of iterations =  6.1

     negative rho (up, down):  0.000E+00 1.365E-04

     total cpu time spent up to now is     3644.1 secs

     total energy              =   -4700.75299729 Ry
     estimated scf accuracy    <       0.00000168 Ry

     total magnetization       =    16.26 Bohr mag/cell
     absolute magnetization    =    23.19 Bohr mag/cell

     iteration # 84     ecut=    60.00 Ry     beta= 0.30
     Davidson diagonalization with overlap
     ethr =  1.78E-10,  avg # of iterations =  5.1

     negative rho (up, down):  0.000E+00 1.367E-04

     total cpu time spent up to now is     3688.8 secs

     total energy              =   -4700.75299759 Ry
     estimated scf accuracy    <       0.00000029 Ry

     total magnetization       =    16.27 Bohr mag/cell
     absolute magnetization    =    23.19 Bohr mag/cell

     iteration # 85     ecut=    60.00 Ry     beta= 0.30
     Davidson diagonalization with overlap
     ethr =  1.18E-10,  avg # of iterations =  3.3

     negative rho (up, down):  0.000E+00 1.371E-04

     total cpu time spent up to now is     3728.6 secs

     total energy              =   -4700.75299744 Ry
     estimated scf accuracy    <       0.00000019 Ry

     total magnetization       =    16.27 Bohr mag/cell
     absolute magnetization    =    23.19 Bohr mag/cell

     iteration # 86     ecut=    60.00 Ry     beta= 0.30
     Davidson diagonalization with overlap
     ethr =  7.71E-11,  avg # of iterations =  7.0

     negative rho (up, down):  0.000E+00 1.371E-04

     total cpu time spent up to now is     3779.7 secs

     total energy              =   -4700.75299785 Ry
     estimated scf accuracy    <       0.00000021 Ry

     total magnetization       =    16.26 Bohr mag/cell
     absolute magnetization    =    23.20 Bohr mag/cell

     iteration # 87     ecut=    60.00 Ry     beta= 0.30
     Davidson diagonalization with overlap
     ethr =  7.71E-11,  avg # of iterations =  3.4

     negative rho (up, down):  0.000E+00 1.374E-04

     total cpu time spent up to now is     3820.2 secs

     total energy              =   -4700.75299786 Ry
     estimated scf accuracy    <       0.00000083 Ry

     total magnetization       =    16.26 Bohr mag/cell
     absolute magnetization    =    23.20 Bohr mag/cell

     iteration # 88     ecut=    60.00 Ry     beta= 0.30
     Davidson diagonalization with overlap
     ethr =  7.71E-11,  avg # of iterations =  5.2

     negative rho (up, down):  0.000E+00 1.378E-04

     total cpu time spent up to now is     3863.5 secs

     total energy              =   -4700.75299790 Ry
     estimated scf accuracy    <       0.00000013 Ry

     total magnetization       =    16.26 Bohr mag/cell
     absolute magnetization    =    23.21 Bohr mag/cell

     iteration # 89     ecut=    60.00 Ry     beta= 0.30
     Davidson diagonalization with overlap
     ethr =  5.22E-11,  avg # of iterations =  6.2

     negative rho (up, down):  0.000E+00 1.380E-04

     total cpu time spent up to now is     3913.9 secs

     total energy              =   -4700.75299807 Ry
     estimated scf accuracy    <       0.00000005 Ry

     total magnetization       =    16.26 Bohr mag/cell
     absolute magnetization    =    23.21 Bohr mag/cell

     iteration # 90     ecut=    60.00 Ry     beta= 0.30
     Davidson diagonalization with overlap
     ethr =  2.27E-11,  avg # of iterations =  6.3

     negative rho (up, down):  0.000E+00 1.382E-04

     total cpu time spent up to now is     3963.8 secs

     total energy              =   -4700.75299816 Ry
     estimated scf accuracy    <       0.00000007 Ry

     total magnetization       =    16.26 Bohr mag/cell
     absolute magnetization    =    23.22 Bohr mag/cell

     iteration # 91     ecut=    60.00 Ry     beta= 0.30
     Davidson diagonalization with overlap
     ethr =  2.27E-11,  avg # of iterations =  5.3

     negative rho (up, down):  0.000E+00 1.382E-04

     total cpu time spent up to now is     4009.5 secs

     total energy              =   -4700.75299819 Ry
     estimated scf accuracy    <       0.00000011 Ry

     total magnetization       =    16.26 Bohr mag/cell
     absolute magnetization    =    23.22 Bohr mag/cell

     iteration # 92     ecut=    60.00 Ry     beta= 0.30
     Davidson diagonalization with overlap
     ethr =  2.27E-11,  avg # of iterations =  2.7

     negative rho (up, down):  0.000E+00 1.385E-04

     total cpu time spent up to now is     4047.4 secs

     total energy              =   -4700.75299809 Ry
     estimated scf accuracy    <       0.00000004 Ry

     total magnetization       =    16.26 Bohr mag/cell
     absolute magnetization    =    23.22 Bohr mag/cell

     iteration # 93     ecut=    60.00 Ry     beta= 0.30
     Davidson diagonalization with overlap
     ethr =  1.63E-11,  avg # of iterations =  8.0

     negative rho (up, down):  0.000E+00 1.389E-04

     total cpu time spent up to now is     4102.4 secs

     total energy              =   -4700.75299809 Ry
     estimated scf accuracy    <       0.00000008 Ry

     total magnetization       =    16.26 Bohr mag/cell
     absolute magnetization    =    23.23 Bohr mag/cell

     iteration # 94     ecut=    60.00 Ry     beta= 0.30
     Davidson diagonalization with overlap
     ethr =  1.63E-11,  avg # of iterations =  8.4

     negative rho (up, down):  0.000E+00 1.386E-04

     total cpu time spent up to now is     4158.9 secs

     total energy              =   -4700.75299817 Ry
     estimated scf accuracy    <       0.00000007 Ry

     total magnetization       =    16.25 Bohr mag/cell
     absolute magnetization    =    23.24 Bohr mag/cell

     iteration # 95     ecut=    60.00 Ry     beta= 0.30
     Davidson diagonalization with overlap
     ethr =  1.63E-11,  avg # of iterations =  7.6

     negative rho (up, down):  0.000E+00 1.388E-04

     total cpu time spent up to now is     4212.5 secs

     total energy              =   -4700.75299819 Ry
     estimated scf accuracy    <       0.00000013 Ry

     total magnetization       =    16.26 Bohr mag/cell
     absolute magnetization    =    23.23 Bohr mag/cell

     iteration # 96     ecut=    60.00 Ry     beta= 0.30
     Davidson diagonalization with overlap
     ethr =  1.63E-11,  avg # of iterations =  7.5

     negative rho (up, down):  0.000E+00 1.389E-04

     total cpu time spent up to now is     4266.3 secs

     total energy              =   -4700.75299831 Ry
     estimated scf accuracy    <       0.00000004 Ry

     total magnetization       =    16.25 Bohr mag/cell
     absolute magnetization    =    23.24 Bohr mag/cell

     iteration # 97     ecut=    60.00 Ry     beta= 0.30
     Davidson diagonalization with overlap
     ethr =  1.63E-11,  avg # of iterations =  5.2

     negative rho (up, down):  0.000E+00 1.390E-04

     total cpu time spent up to now is     4310.7 secs

     total energy              =   -4700.75299830 Ry
     estimated scf accuracy    <       0.00000020 Ry

     total magnetization       =    16.25 Bohr mag/cell
     absolute magnetization    =    23.24 Bohr mag/cell

     iteration # 98     ecut=    60.00 Ry     beta= 0.30
     Davidson diagonalization with overlap
     ethr =  1.63E-11,  avg # of iterations =  5.3

     negative rho (up, down):  0.000E+00 1.389E-04

     total cpu time spent up to now is     4353.9 secs

     total energy              =   -4700.75299832 Ry
     estimated scf accuracy    <       0.00000002 Ry

     total magnetization       =    16.25 Bohr mag/cell
     absolute magnetization    =    23.24 Bohr mag/cell

     iteration # 99     ecut=    60.00 Ry     beta= 0.30
     Davidson diagonalization with overlap
     ethr =  9.22E-12,  avg # of iterations =  2.9

     negative rho (up, down):  0.000E+00 1.391E-04

     total cpu time spent up to now is     4391.3 secs

     total energy              =   -4700.75299826 Ry
     estimated scf accuracy    <       0.00000001 Ry

     total magnetization       =    16.25 Bohr mag/cell
     absolute magnetization    =    23.24 Bohr mag/cell

     iteration #100     ecut=    60.00 Ry     beta= 0.30
     Davidson diagonalization with overlap
     ethr =  5.57E-12,  avg # of iterations =  8.3

     negative rho (up, down):  0.000E+00 1.389E-04

     total cpu time spent up to now is     4448.0 secs

     total energy              =   -4700.75299830 Ry
     estimated scf accuracy    <       0.00000002 Ry

     total magnetization       =    16.25 Bohr mag/cell
     absolute magnetization    =    23.25 Bohr mag/cell

     iteration #101     ecut=    60.00 Ry     beta= 0.30
     Davidson diagonalization with overlap
     ethr =  5.57E-12,  avg # of iterations =  6.2

     negative rho (up, down):  0.000E+00 1.391E-04

     total cpu time spent up to now is     4498.1 secs

     total energy              =   -4700.75299827 Ry
     estimated scf accuracy    <       0.00000002 Ry

     total magnetization       =    16.25 Bohr mag/cell
     absolute magnetization    =    23.25 Bohr mag/cell

     iteration #102     ecut=    60.00 Ry     beta= 0.30
     Davidson diagonalization with overlap
     ethr =  5.57E-12,  avg # of iterations =  8.0

     negative rho (up, down):  0.000E+00 1.390E-04

     total cpu time spent up to now is     4554.0 secs

     total energy              =   -4700.75299833 Ry
     estimated scf accuracy    <       0.00000002 Ry

     total magnetization       =    16.25 Bohr mag/cell
     absolute magnetization    =    23.25 Bohr mag/cell

     iteration #103     ecut=    60.00 Ry     beta= 0.30
     Davidson diagonalization with overlap
     ethr =  5.57E-12,  avg # of iterations =  4.9

     negative rho (up, down):  0.000E+00 1.390E-04

     total cpu time spent up to now is     4597.0 secs

     total energy              =   -4700.75299832 Ry
     estimated scf accuracy    <       0.00000002 Ry

     total magnetization       =    16.25 Bohr mag/cell
     absolute magnetization    =    23.25 Bohr mag/cell

     iteration #104     ecut=    60.00 Ry     beta= 0.30
     Davidson diagonalization with overlap
     ethr =  5.57E-12,  avg # of iterations =  5.5

     negative rho (up, down):  0.000E+00 1.391E-04

     total cpu time spent up to now is     4644.4 secs

     total energy              =   -4700.75299824 Ry
     estimated scf accuracy    <       0.00000003 Ry

     total magnetization       =    16.25 Bohr mag/cell
     absolute magnetization    =    23.25 Bohr mag/cell

     iteration #105     ecut=    60.00 Ry     beta= 0.30
     Davidson diagonalization with overlap
     ethr =  5.57E-12,  avg # of iterations =  8.6

     negative rho (up, down):  0.000E+00 1.390E-04
 
     Magnetic moment per site  (integrated on atomic sphere of radius R)
     atom   1 (R=0.179)  charge= 12.1601  magn= -0.5373
     atom   2 (R=0.179)  charge= 14.4553  magn=  2.0080
     atom   3 (R=0.179)  charge= 14.4387  magn=  2.0883
     atom   4 (R=0.179)  charge= 12.1905  magn=  0.5368
     atom   5 (R=0.179)  charge= 12.1634  magn= -0.1950
     atom   6 (R=0.179)  charge= 14.4547  magn=  2.0258
     atom   7 (R=0.179)  charge= 12.1601  magn= -0.5373
     atom   8 (R=0.179)  charge= 14.4553  magn=  2.0080
     atom   9 (R=0.179)  charge= 12.1526  magn= -0.6949
     atom  10 (R=0.179)  charge= 14.4553  magn=  2.0080
     atom  11 (R=0.179)  charge= 14.4386  magn=  2.2834
     atom  12 (R=0.179)  charge= 14.4547  magn=  2.0258
     atom  13 (R=0.179)  charge= 14.4447  magn=  1.9589
     atom  14 (R=0.179)  charge= 12.1905  magn=  0.5368
     atom  15 (R=0.179)  charge= 12.1526  magn= -0.6949
     atom  16 (R=0.179)  charge= 14.4553  magn=  2.0080

     total cpu time spent up to now is     4704.0 secs

     End of self-consistent calculation

     Number of k-points >= 100: set verbosity='high' to print the bands.

     the Fermi energy is    18.7359 ev

!    total energy              =   -4700.75299833 Ry
     total all-electron energy =    -37622.150546 Ry
     estimated scf accuracy    <          3.7E-09 Ry
     smearing contrib. (-TS)   =      -0.00303605 Ry
     internal energy E=F+TS    =   -4700.74996228 Ry

     The total energy is F=E-TS. E is the sum of the following terms:
     one-electron contribution =   -1407.70963442 Ry
     hartree contribution      =     852.19173322 Ry
     xc contribution           =    -405.31022740 Ry
     ewald contribution        =   -2475.06799152 Ry
     one-center paw contrib.   =   -1264.85384216 Ry

     total magnetization       =    16.25 Bohr mag/cell
     absolute magnetization    =    23.25 Bohr mag/cell

     convergence has been achieved in 105 iterations


     Computing stress (Cartesian axis) and pressure


     negative rho (up, down):  0.000E+00 1.390E-04
          total   stress  (Ry/bohr**3)                   (kbar)     P=      -46.85
  -0.00024949   0.00005782   0.00005782          -36.70        8.51        8.51
   0.00005782  -0.00035302   0.00009727            8.51      -51.93       14.31
   0.00005782   0.00009727  -0.00035302            8.51       14.31      -51.93


     Writing all to output data dir ./tmp/fecr_fe09cr07_s0.00.save/ :
     XML data file, charge density, pseudopotentials, collected wavefunctions
 
     init_run     :     40.15s CPU     28.77s WALL (       1 calls)
     electrons    :   5993.15s CPU   4674.78s WALL (       1 calls)
     stress       :     21.38s CPU     20.83s WALL (       1 calls)

     Called by init_run:
     wfcinit      :      6.53s CPU      8.08s WALL (       1 calls)
     potinit      :     32.65s CPU     19.58s WALL (       1 calls)
     hinit0       :      0.69s CPU      0.69s WALL (       1 calls)

     Called by electrons:
     c_bands      :   2468.75s CPU   2477.30s WALL (     105 calls)
     sum_band     :    209.16s CPU    209.27s WALL (     105 calls)
     v_of_rho     :      5.31s CPU      4.35s WALL (     106 calls)
     newd         :      4.21s CPU      4.25s WALL (     106 calls)
                                        4.25s GPU  (     106 calls)
     PAW_pot      :   3331.62s CPU   1992.47s WALL (     106 calls)
     mix_rho      :      3.56s CPU      3.54s WALL (     105 calls)

     Called by c_bands:
     init_us_2    :     17.47s CPU     16.70s WALL (   28832 calls)
     cegterg      :   2251.38s CPU   2259.83s WALL (   14280 calls)

     Called by *egterg:
     cdiaghg      :    779.44s CPU    785.60s WALL (   83589 calls)
                                      785.67s GPU  (   83589 calls)
     h_psi        :    658.39s CPU    663.06s WALL (   83725 calls)
                                      662.41s GPU  (   83725 calls)
     s_psi        :     43.10s CPU     43.79s WALL (   83725 calls)
     g_psi        :      0.40s CPU      3.89s WALL (   69309 calls)
                                        3.69s GPU  (   69309 calls)

     Called by h_psi:
     h_psi:calbec :      3.15s CPU    139.14s WALL (   83725 calls)
                                      138.75s GPU  (   83725 calls)
     vloc_psi     :    346.53s CPU    346.20s WALL (   83725 calls)
                                      345.93s GPU  (   83725 calls)
     add_vuspsi   :     42.06s CPU    172.94s WALL (   83725 calls)
                                      172.56s GPU  (   83725 calls)

     General routines
     calbec       :      3.77s CPU      3.93s WALL (   98141 calls)
     fft          :      1.44s CPU      1.63s WALL (    2669 calls)
                                        0.24s GPU  (    2457 calls)
     ffts         :      0.41s CPU      0.42s WALL (     422 calls)
                                        0.01s GPU  (     210 calls)
     fftw         :     17.34s CPU    318.21s WALL (  936628 calls)
                                      315.63s GPU  (  936628 calls)
     interpolate  :      1.97s CPU      1.98s WALL (     212 calls)
 
     Parallel routines
 
     PWSCF        :      1h41m CPU      1h18m WALL

 
   This run was terminated on:  13:45:59  17May2026            

=------------------------------------------------------------------------------=
   JOB DONE.
=------------------------------------------------------------------------------=
Warning: ieee_invalid is signaling
Warning: ieee_divide_by_zero is signaling
Warning: ieee_inexact is signaling
FORTRAN STOP
