--------------------------------------------------------------------------
WARNING: Open MPI tried to bind a process but failed.  This is a
warning only; your job will continue, though performance may
be degraded.

  Local host:        4b82db919bf5
  Application name:  /root/q-e-qe-7.3.1/bin/pw.x
  Error message:     failed to bind memory
  Location:          ../../../../../orte/mca/rtc/hwloc/rtc_hwloc.c:447

--------------------------------------------------------------------------

     Program PWSCF v.7.3.1 starts on 20May2026 at 14:12:37 

     This program is part of the open-source Quantum ESPRESSO suite
     for quantum simulation of materials; please cite
         "P. Giannozzi et al., J. Phys.:Condens. Matter 21 395502 (2009);
         "P. Giannozzi et al., J. Phys.:Condens. Matter 29 465901 (2017);
         "P. Giannozzi et al., J. Chem. Phys. 152 154105 (2020);
          URL http://www.quantum-espresso.org", 
     in publications or presentations arising from this work. More details at
     http://www.quantum-espresso.org/quote

     Parallel version (MPI & OpenMP), running on       8 processor cores
     Number of MPI processes:                 1
     Threads/MPI process:                     8

     MPI processes distributed on     1 nodes
     183312 MiB available memory on the printing compute node when the environment starts
 
     Reading input from inputs/fecr_fe06cr10_s-0.01.in

     Current dimensions of program PWSCF are:
     Max number of different atomic species (ntypx) = 10
     Max number of k-points (npk) =  40000
     Max angular momentum in pseudopotentials (lmaxx) =  4
     file Fe.pbe-spn-kjpaw_psl.1.0.0.UPF: wavefunction(s)  3P 3D renormalized
     file Cr.pbe-spn-kjpaw_psl.1.0.0.UPF: wavefunction(s)  3S 3P 3D renormalized
     Found identity + ( -0.5000  0.5000  0.5000) symmetry
     This is a supercell, fractional translations are disabled
     Message from routine setup:
     using ibrav=0 with symmetry is DISCOURAGED, use correct ibrav instead
 
     Subspace diagonalization in iterative solution of the eigenvalue problem:
     a serial algorithm will be used

 
     G-vector sticks info
     --------------------
     sticks:   dense  smooth     PW     G-vecs:    dense   smooth      PW
     Sum        4311    2169    601               213253    75389   11383
 
     Using Slab Decomposition
 


     bravais-lattice index     =            0
     lattice parameter (alat)  =      10.6299  a.u.
     unit-cell volume          =    1200.8151 (a.u.)^3
     number of atoms/cell      =           16
     number of atomic types    =            2
     number of electrons       =       236.00
     number of Kohn-Sham states=          142
     kinetic-energy cutoff     =      60.0000  Ry
     charge density cutoff     =     480.0000  Ry
     scf convergence threshold =      1.0E-07
     mixing beta               =       0.3000
     number of iterations used =            8  plain     mixing
     Exchange-correlation= SLA  PW   PBX  PBC
                           (   1   4   3   4   0   0   0)

     GPU acceleration is ACTIVE.  1 visible GPUs per MPI rank


     celldm(1)=  10.629877  celldm(2)=   0.000000  celldm(3)=   0.000000
     celldm(4)=   0.000000  celldm(5)=   0.000000  celldm(6)=   0.000000

     crystal axes: (cart. coord. in units of alat)
               a(1) = (   0.999950  -0.009999   0.000000 )  
               a(2) = (  -0.009999   0.999950   0.000000 )  
               a(3) = (   0.000000   0.000000   0.999950 )  

     reciprocal axes: (cart. coord. in units 2 pi/alat)
               b(1) = (  1.000150  0.010001 -0.000000 )  
               b(2) = (  0.010001  1.000150 -0.000000 )  
               b(3) = ( -0.000000 -0.000000  1.000050 )  


     PseudoPot. # 1 for Fe read from file:
     ./pseudo/Fe.pbe-spn-kjpaw_psl.1.0.0.UPF
     MD5 check sum: fc81f059e5c5069939230b1155715ae8
     Pseudo is Projector augmented-wave + core cor, Zval = 16.0
     Generated using &quot;atomic&quot; code by A. Dal Corso  v.6.3
     Shape of augmentation charge: PSQ
     Using radial grid of 1191 points,  6 beta functions with: 
                l(1) =   0
                l(2) =   0
                l(3) =   1
                l(4) =   1
                l(5) =   2
                l(6) =   2
     Q(r) pseudized with 0 coefficients 


     PseudoPot. # 2 for Cr read from file:
     ./pseudo/Cr.pbe-spn-kjpaw_psl.1.0.0.UPF
     MD5 check sum: 198f1a2427a48552563eee314eba32ba
     Pseudo is Projector augmented-wave + core cor, Zval = 14.0
     Generated using &quot;atomic&quot; code by A. Dal Corso  v.6.3
     Shape of augmentation charge: PSQ
     Using radial grid of 1183 points,  6 beta functions with: 
                l(1) =   0
                l(2) =   0
                l(3) =   1
                l(4) =   1
                l(5) =   2
                l(6) =   2
     Q(r) pseudized with 0 coefficients 


     atomic species   valence    mass     pseudopotential
     Fe               16.00    55.84500     Fe( 1.00)
     Cr               14.00    51.99600     Cr( 1.00)

     Starting magnetic structure 
     atomic species   magnetization
     Fe              0.500
     Cr              0.300

      2 Sym. Ops., with inversion, found



   Cartesian axes

     site n.     atom                  positions (alat units)
         1        Cr     tau(   1) = (   0.0000000   0.0000000   0.0000000  )
         2        Fe     tau(   2) = (   0.2474876   0.2474876   0.2499875  )
         3        Fe     tau(   3) = (   0.0000000   0.0000000   0.4999750  )
         4        Cr     tau(   4) = (   0.2474876   0.2474876   0.7499625  )
         5        Cr     tau(   5) = (  -0.0049997   0.4999750   0.0000000  )
         6        Fe     tau(   6) = (   0.2424879   0.7474626   0.2499875  )
         7        Cr     tau(   7) = (  -0.0049997   0.4999750   0.4999750  )
         8        Cr     tau(   8) = (   0.2424879   0.7474626   0.7499625  )
         9        Cr     tau(   9) = (   0.4999750  -0.0049997   0.0000000  )
        10        Cr     tau(  10) = (   0.7474626   0.2424879   0.2499875  )
        11        Cr     tau(  11) = (   0.4999750  -0.0049997   0.4999750  )
        12        Fe     tau(  12) = (   0.7474626   0.2424879   0.7499625  )
        13        Fe     tau(  13) = (   0.4949753   0.4949753   0.0000000  )
        14        Cr     tau(  14) = (   0.7424629   0.7424629   0.2499875  )
        15        Cr     tau(  15) = (   0.4949753   0.4949753   0.4999750  )
        16        Fe     tau(  16) = (   0.7424629   0.7424629   0.7499625  )

     number of k points=   112  Marzari-Vanderbilt smearing, width (Ry)=  0.0200

     Number of k-points >= 100: set verbosity='high' to print them.

     Dense  grid:   213253 G-vectors     FFT dimensions: (  75,  75,  75)

     Smooth grid:    75389 G-vectors     FFT dimensions: (  54,  54,  54)

     Estimated max dynamical RAM per process >       5.37 GB

     Check: negative core charge=   -0.000003
     Generating pointlists ...
     new r_m :   0.1774 (alat units)  1.8860 (a.u.) for type    1
     new r_m :   0.1774 (alat units)  1.8860 (a.u.) for type    2

     Initial potential from superposition of free atoms

     starting charge     235.9896, renormalised to     236.0000
     Starting wfcs are  160 randomized atomic wfcs
     Checking if some PAW data can be deallocated... 

     total cpu time spent up to now is       32.1 secs

     Self-consistent Calculation

     iteration #  1     ecut=    60.00 Ry     beta= 0.30
     Davidson diagonalization with overlap
     ethr =  1.00E-02,  avg # of iterations =  5.8

     negative rho (up, down):  5.831E-01 4.514E+00

     total cpu time spent up to now is       93.1 secs

     total energy              =   -4427.34139711 Ry
     estimated scf accuracy    <     644.81233372 Ry

     total magnetization       =    45.31 Bohr mag/cell
     absolute magnetization    =    94.41 Bohr mag/cell

     iteration #  2     ecut=    60.00 Ry     beta= 0.30
     Davidson diagonalization with overlap
     ethr =  1.00E-02,  avg # of iterations =  6.0

     negative rho (up, down):  4.305E-01 3.316E+00

     total cpu time spent up to now is      153.6 secs

     total energy              =   -4440.58209669 Ry
     estimated scf accuracy    <     120.59984702 Ry

     total magnetization       =    23.09 Bohr mag/cell
     absolute magnetization    =    23.91 Bohr mag/cell

     iteration #  3     ecut=    60.00 Ry     beta= 0.30
     Davidson diagonalization with overlap
     ethr =  1.00E-02,  avg # of iterations =  5.2

     negative rho (up, down):  3.776E-01 2.948E+00

     total cpu time spent up to now is      220.3 secs

     total energy              =   -4441.99825804 Ry
     estimated scf accuracy    <     215.11225523 Ry

     total magnetization       =    18.92 Bohr mag/cell
     absolute magnetization    =    19.47 Bohr mag/cell

     iteration #  4     ecut=    60.00 Ry     beta= 0.30
     Davidson diagonalization with overlap
     ethr =  1.00E-02,  avg # of iterations =  4.8

     negative rho (up, down):  3.293E-01 2.612E+00

     total cpu time spent up to now is      279.2 secs

     total energy              =   -4454.06580968 Ry
     estimated scf accuracy    <      41.57927671 Ry

     total magnetization       =    27.64 Bohr mag/cell
     absolute magnetization    =    28.37 Bohr mag/cell

     iteration #  5     ecut=    60.00 Ry     beta= 0.30
     Davidson diagonalization with overlap
     ethr =  1.00E-02,  avg # of iterations =  1.1

     negative rho (up, down):  2.371E-01 1.975E+00

     total cpu time spent up to now is      320.0 secs

     total energy              =   -4454.87385444 Ry
     estimated scf accuracy    <      34.24413522 Ry

     total magnetization       =    24.84 Bohr mag/cell
     absolute magnetization    =    25.59 Bohr mag/cell

     iteration #  6     ecut=    60.00 Ry     beta= 0.30
     Davidson diagonalization with overlap
     ethr =  1.00E-02,  avg # of iterations =  1.0

     negative rho (up, down):  1.273E-01 1.197E+00

     total cpu time spent up to now is      361.1 secs

     total energy              =   -4455.29251858 Ry
     estimated scf accuracy    <      24.59763021 Ry

     total magnetization       =    26.41 Bohr mag/cell
     absolute magnetization    =    26.88 Bohr mag/cell

     iteration #  7     ecut=    60.00 Ry     beta= 0.30
     Davidson diagonalization with overlap
     ethr =  1.00E-02,  avg # of iterations =  1.0

     negative rho (up, down):  3.547E-02 5.111E-01

     total cpu time spent up to now is      401.8 secs

     total energy              =   -4456.79232895 Ry
     estimated scf accuracy    <      12.74329831 Ry

     total magnetization       =    24.49 Bohr mag/cell
     absolute magnetization    =    24.96 Bohr mag/cell

     iteration #  8     ecut=    60.00 Ry     beta= 0.30
     Davidson diagonalization with overlap
     ethr =  5.40E-03,  avg # of iterations =  1.0

     negative rho (up, down):  2.045E-02 3.706E-01

     total cpu time spent up to now is      442.5 secs

     total energy              =   -4457.03835606 Ry
     estimated scf accuracy    <       5.88587637 Ry

     total magnetization       =    20.96 Bohr mag/cell
     absolute magnetization    =    21.80 Bohr mag/cell

     iteration #  9     ecut=    60.00 Ry     beta= 0.30
     Davidson diagonalization with overlap
     ethr =  2.49E-03,  avg # of iterations =  1.0

     negative rho (up, down):  0.000E+00 7.007E-03

     total cpu time spent up to now is      484.0 secs

     total energy              =   -4457.34403501 Ry
     estimated scf accuracy    <       3.71334569 Ry

     total magnetization       =    20.13 Bohr mag/cell
     absolute magnetization    =    21.09 Bohr mag/cell

     iteration # 10     ecut=    60.00 Ry     beta= 0.30
     Davidson diagonalization with overlap
     ethr =  1.57E-03,  avg # of iterations =  1.1

     negative rho (up, down):  0.000E+00 1.267E-03

     total cpu time spent up to now is      524.9 secs

     total energy              =   -4457.43632884 Ry
     estimated scf accuracy    <       1.32422417 Ry

     total magnetization       =    16.52 Bohr mag/cell
     absolute magnetization    =    18.25 Bohr mag/cell

     iteration # 11     ecut=    60.00 Ry     beta= 0.30
     Davidson diagonalization with overlap
     ethr =  5.61E-04,  avg # of iterations =  1.6

     negative rho (up, down):  0.000E+00 8.979E-04

     total cpu time spent up to now is      567.4 secs

     total energy              =   -4457.47869085 Ry
     estimated scf accuracy    <       0.36069334 Ry

     total magnetization       =    15.43 Bohr mag/cell
     absolute magnetization    =    17.45 Bohr mag/cell

     iteration # 12     ecut=    60.00 Ry     beta= 0.30
     Davidson diagonalization with overlap
     ethr =  1.53E-04,  avg # of iterations =  7.5

     negative rho (up, down):  0.000E+00 7.698E-04

     total cpu time spent up to now is      633.5 secs

     total energy              =   -4457.51235498 Ry
     estimated scf accuracy    <       0.65589166 Ry

     total magnetization       =    14.28 Bohr mag/cell
     absolute magnetization    =    16.23 Bohr mag/cell

     iteration # 13     ecut=    60.00 Ry     beta= 0.30
     Davidson diagonalization with overlap
     ethr =  1.53E-04,  avg # of iterations =  1.3

     negative rho (up, down):  0.000E+00 4.449E-04

     total cpu time spent up to now is      676.1 secs

     total energy              =   -4457.56043401 Ry
     estimated scf accuracy    <       0.10604488 Ry

     total magnetization       =    14.13 Bohr mag/cell
     absolute magnetization    =    16.05 Bohr mag/cell

     iteration # 14     ecut=    60.00 Ry     beta= 0.30
     Davidson diagonalization with overlap
     c_bands:  1 eigenvalues not converged
     c_bands:  2 eigenvalues not converged
     c_bands:  1 eigenvalues not converged
     ethr =  4.49E-05,  avg # of iterations =  7.1

     negative rho (up, down):  0.000E+00 2.753E-04

     total cpu time spent up to now is      738.3 secs

     total energy              =   -4457.56775028 Ry
     estimated scf accuracy    <       0.22834368 Ry

     total magnetization       =    13.62 Bohr mag/cell
     absolute magnetization    =    15.57 Bohr mag/cell

     iteration # 15     ecut=    60.00 Ry     beta= 0.30
     Davidson diagonalization with overlap
     ethr =  4.49E-05,  avg # of iterations =  2.0

     negative rho (up, down):  0.000E+00 3.227E-05

     total cpu time spent up to now is      783.3 secs

     total energy              =   -4457.59329836 Ry
     estimated scf accuracy    <       0.07189324 Ry

     total magnetization       =    13.21 Bohr mag/cell
     absolute magnetization    =    15.15 Bohr mag/cell

     iteration # 16     ecut=    60.00 Ry     beta= 0.30
     Davidson diagonalization with overlap
     c_bands:  2 eigenvalues not converged
     c_bands:  1 eigenvalues not converged
     c_bands:  1 eigenvalues not converged
     ethr =  3.05E-05,  avg # of iterations =  5.3

     total cpu time spent up to now is      841.2 secs

     total energy              =   -4457.59821809 Ry
     estimated scf accuracy    <       0.23052923 Ry

     total magnetization       =    12.41 Bohr mag/cell
     absolute magnetization    =    14.39 Bohr mag/cell

     iteration # 17     ecut=    60.00 Ry     beta= 0.30
     Davidson diagonalization with overlap
     ethr =  3.05E-05,  avg # of iterations =  4.2

     total cpu time spent up to now is      894.2 secs

     total energy              =   -4457.60100773 Ry
     estimated scf accuracy    <       0.17338503 Ry

     total magnetization       =    11.77 Bohr mag/cell
     absolute magnetization    =    13.71 Bohr mag/cell

     iteration # 18     ecut=    60.00 Ry     beta= 0.30
     Davidson diagonalization with overlap
     c_bands:  1 eigenvalues not converged
     ethr =  3.05E-05,  avg # of iterations =  4.0

     total cpu time spent up to now is      946.8 secs

     total energy              =   -4457.60814411 Ry
     estimated scf accuracy    <       0.21394585 Ry

     total magnetization       =    11.95 Bohr mag/cell
     absolute magnetization    =    13.87 Bohr mag/cell

     iteration # 19     ecut=    60.00 Ry     beta= 0.30
     Davidson diagonalization with overlap
     ethr =  3.05E-05,  avg # of iterations =  1.6

     total cpu time spent up to now is      990.7 secs

     total energy              =   -4457.62002248 Ry
     estimated scf accuracy    <       0.01625940 Ry

     total magnetization       =    11.02 Bohr mag/cell
     absolute magnetization    =    13.06 Bohr mag/cell

     iteration # 20     ecut=    60.00 Ry     beta= 0.30
     Davidson diagonalization with overlap
     c_bands:  1 eigenvalues not converged
     c_bands:  1 eigenvalues not converged
     c_bands:  1 eigenvalues not converged
     c_bands:  1 eigenvalues not converged
     c_bands:  4 eigenvalues not converged
     c_bands:  1 eigenvalues not converged
     c_bands:  2 eigenvalues not converged
     c_bands:  3 eigenvalues not converged
     c_bands:  1 eigenvalues not converged
     c_bands:  2 eigenvalues not converged
     c_bands:  1 eigenvalues not converged
     c_bands:  1 eigenvalues not converged
     c_bands:  1 eigenvalues not converged
     c_bands:  1 eigenvalues not converged
     c_bands:  1 eigenvalues not converged
     c_bands:  5 eigenvalues not converged
     ethr =  6.89E-06,  avg # of iterations =  8.6

     total cpu time spent up to now is     1056.7 secs

     total energy              =   -4457.62119892 Ry
     estimated scf accuracy    <       0.00755629 Ry

     total magnetization       =    10.98 Bohr mag/cell
     absolute magnetization    =    12.95 Bohr mag/cell

     iteration # 21     ecut=    60.00 Ry     beta= 0.30
     Davidson diagonalization with overlap
     c_bands:  1 eigenvalues not converged
     c_bands:  1 eigenvalues not converged
     c_bands:  1 eigenvalues not converged
     c_bands:  1 eigenvalues not converged
     c_bands:  1 eigenvalues not converged
     c_bands:  1 eigenvalues not converged
     c_bands:  1 eigenvalues not converged
     c_bands:  1 eigenvalues not converged
     c_bands:  1 eigenvalues not converged
     c_bands:  2 eigenvalues not converged
     c_bands:  1 eigenvalues not converged
     c_bands:  2 eigenvalues not converged
     c_bands:  1 eigenvalues not converged
     c_bands:  1 eigenvalues not converged
     c_bands:  1 eigenvalues not converged
     ethr =  3.20E-06,  avg # of iterations =  9.6

     total cpu time spent up to now is     1127.4 secs

     total energy              =   -4457.62073320 Ry
     estimated scf accuracy    <       0.01099003 Ry

     total magnetization       =    10.85 Bohr mag/cell
     absolute magnetization    =    12.76 Bohr mag/cell

     iteration # 22     ecut=    60.00 Ry     beta= 0.30
     Davidson diagonalization with overlap
     c_bands:  1 eigenvalues not converged
     c_bands:  1 eigenvalues not converged
     c_bands:  1 eigenvalues not converged
     c_bands:  2 eigenvalues not converged
     ethr =  3.20E-06,  avg # of iterations =  8.6

     total cpu time spent up to now is     1195.1 secs

     total energy              =   -4457.62053476 Ry
     estimated scf accuracy    <       0.04751740 Ry

     total magnetization       =    10.92 Bohr mag/cell
     absolute magnetization    =    12.81 Bohr mag/cell

     iteration # 23     ecut=    60.00 Ry     beta= 0.30
     Davidson diagonalization with overlap
     ethr =  3.20E-06,  avg # of iterations =  5.6

     total cpu time spent up to now is     1250.4 secs

     total energy              =   -4457.62251199 Ry
     estimated scf accuracy    <       0.00270258 Ry

     total magnetization       =    10.70 Bohr mag/cell
     absolute magnetization    =    12.59 Bohr mag/cell

     iteration # 24     ecut=    60.00 Ry     beta= 0.30
     Davidson diagonalization with overlap
     ethr =  1.15E-06,  avg # of iterations =  4.5

     total cpu time spent up to now is     1304.2 secs

     total energy              =   -4457.62271897 Ry
     estimated scf accuracy    <       0.00232686 Ry

     total magnetization       =    10.64 Bohr mag/cell
     absolute magnetization    =    12.51 Bohr mag/cell

     iteration # 25     ecut=    60.00 Ry     beta= 0.30
     Davidson diagonalization with overlap
     ethr =  9.86E-07,  avg # of iterations =  1.9

     total cpu time spent up to now is     1348.9 secs

     total energy              =   -4457.62303098 Ry
     estimated scf accuracy    <       0.00206166 Ry

     total magnetization       =    10.71 Bohr mag/cell
     absolute magnetization    =    12.53 Bohr mag/cell

     iteration # 26     ecut=    60.00 Ry     beta= 0.30
     Davidson diagonalization with overlap
     ethr =  8.74E-07,  avg # of iterations =  3.1

     total cpu time spent up to now is     1398.3 secs

     total energy              =   -4457.62334275 Ry
     estimated scf accuracy    <       0.00181295 Ry

     total magnetization       =    10.54 Bohr mag/cell
     absolute magnetization    =    12.29 Bohr mag/cell

     iteration # 27     ecut=    60.00 Ry     beta= 0.30
     Davidson diagonalization with overlap
     ethr =  7.68E-07,  avg # of iterations =  1.7

     total cpu time spent up to now is     1442.5 secs

     total energy              =   -4457.62349281 Ry
     estimated scf accuracy    <       0.00049699 Ry

     total magnetization       =    10.49 Bohr mag/cell
     absolute magnetization    =    12.22 Bohr mag/cell

     iteration # 28     ecut=    60.00 Ry     beta= 0.30
     Davidson diagonalization with overlap
     ethr =  2.11E-07,  avg # of iterations =  5.8

     total cpu time spent up to now is     1501.5 secs

     total energy              =   -4457.62360592 Ry
     estimated scf accuracy    <       0.00068943 Ry

     total magnetization       =    10.51 Bohr mag/cell
     absolute magnetization    =    12.19 Bohr mag/cell

     iteration # 29     ecut=    60.00 Ry     beta= 0.30
     Davidson diagonalization with overlap
     ethr =  2.11E-07,  avg # of iterations =  3.3

     total cpu time spent up to now is     1549.6 secs

     total energy              =   -4457.62362307 Ry
     estimated scf accuracy    <       0.00071970 Ry

     total magnetization       =    10.53 Bohr mag/cell
     absolute magnetization    =    12.16 Bohr mag/cell

     iteration # 30     ecut=    60.00 Ry     beta= 0.30
     Davidson diagonalization with overlap
     ethr =  2.11E-07,  avg # of iterations =  1.6

     total cpu time spent up to now is     1593.8 secs

     total energy              =   -4457.62368358 Ry
     estimated scf accuracy    <       0.00024941 Ry

     total magnetization       =    10.50 Bohr mag/cell
     absolute magnetization    =    12.13 Bohr mag/cell

     iteration # 31     ecut=    60.00 Ry     beta= 0.30
     Davidson diagonalization with overlap
     ethr =  1.06E-07,  avg # of iterations =  3.2

     total cpu time spent up to now is     1644.1 secs

     total energy              =   -4457.62372325 Ry
     estimated scf accuracy    <       0.00034811 Ry

     total magnetization       =    10.51 Bohr mag/cell
     absolute magnetization    =    12.11 Bohr mag/cell

     iteration # 32     ecut=    60.00 Ry     beta= 0.30
     Davidson diagonalization with overlap
     c_bands:  1 eigenvalues not converged
     ethr =  1.06E-07,  avg # of iterations =  2.9

     total cpu time spent up to now is     1691.5 secs

     total energy              =   -4457.62373472 Ry
     estimated scf accuracy    <       0.00042902 Ry

     total magnetization       =    10.53 Bohr mag/cell
     absolute magnetization    =    12.11 Bohr mag/cell

     iteration # 33     ecut=    60.00 Ry     beta= 0.30
     Davidson diagonalization with overlap
     ethr =  1.06E-07,  avg # of iterations =  1.9

     total cpu time spent up to now is     1736.0 secs

     total energy              =   -4457.62379268 Ry
     estimated scf accuracy    <       0.00020540 Ry

     total magnetization       =    10.54 Bohr mag/cell
     absolute magnetization    =    12.11 Bohr mag/cell

     iteration # 34     ecut=    60.00 Ry     beta= 0.30
     Davidson diagonalization with overlap
     ethr =  8.70E-08,  avg # of iterations =  3.5

     total cpu time spent up to now is     1786.4 secs

     total energy              =   -4457.62381708 Ry
     estimated scf accuracy    <       0.00032967 Ry

     total magnetization       =    10.55 Bohr mag/cell
     absolute magnetization    =    12.07 Bohr mag/cell

     iteration # 35     ecut=    60.00 Ry     beta= 0.30
     Davidson diagonalization with overlap
     ethr =  8.70E-08,  avg # of iterations =  5.0

     total cpu time spent up to now is     1840.9 secs

     total energy              =   -4457.62387355 Ry
     estimated scf accuracy    <       0.00004078 Ry

     total magnetization       =    10.57 Bohr mag/cell
     absolute magnetization    =    12.03 Bohr mag/cell

     iteration # 36     ecut=    60.00 Ry     beta= 0.30
     Davidson diagonalization with overlap
     ethr =  1.73E-08,  avg # of iterations =  6.4

     total cpu time spent up to now is     1906.3 secs

     total energy              =   -4457.62387765 Ry
     estimated scf accuracy    <       0.00023938 Ry

     total magnetization       =    10.58 Bohr mag/cell
     absolute magnetization    =    12.03 Bohr mag/cell

     iteration # 37     ecut=    60.00 Ry     beta= 0.30
     Davidson diagonalization with overlap
     ethr =  1.73E-08,  avg # of iterations =  4.6

     total cpu time spent up to now is     1959.5 secs

     total energy              =   -4457.62388971 Ry
     estimated scf accuracy    <       0.00003737 Ry

     total magnetization       =    10.58 Bohr mag/cell
     absolute magnetization    =    12.02 Bohr mag/cell

     iteration # 38     ecut=    60.00 Ry     beta= 0.30
     Davidson diagonalization with overlap
     ethr =  1.58E-08,  avg # of iterations =  2.6

     total cpu time spent up to now is     2006.2 secs

     total energy              =   -4457.62389405 Ry
     estimated scf accuracy    <       0.00004290 Ry

     total magnetization       =    10.59 Bohr mag/cell
     absolute magnetization    =    12.02 Bohr mag/cell

     iteration # 39     ecut=    60.00 Ry     beta= 0.30
     Davidson diagonalization with overlap
     ethr =  1.58E-08,  avg # of iterations =  1.8

     total cpu time spent up to now is     2050.3 secs

     total energy              =   -4457.62390065 Ry
     estimated scf accuracy    <       0.00002879 Ry

     total magnetization       =    10.59 Bohr mag/cell
     absolute magnetization    =    12.02 Bohr mag/cell

     iteration # 40     ecut=    60.00 Ry     beta= 0.30
     Davidson diagonalization with overlap
     ethr =  1.22E-08,  avg # of iterations =  5.4

     total cpu time spent up to now is     2106.4 secs

     total energy              =   -4457.62390516 Ry
     estimated scf accuracy    <       0.00007938 Ry

     total magnetization       =    10.60 Bohr mag/cell
     absolute magnetization    =    12.02 Bohr mag/cell

     iteration # 41     ecut=    60.00 Ry     beta= 0.30
     Davidson diagonalization with overlap
     ethr =  1.22E-08,  avg # of iterations =  3.2

     total cpu time spent up to now is     2155.5 secs

     total energy              =   -4457.62391369 Ry
     estimated scf accuracy    <       0.00001573 Ry

     total magnetization       =    10.61 Bohr mag/cell
     absolute magnetization    =    12.02 Bohr mag/cell

     iteration # 42     ecut=    60.00 Ry     beta= 0.30
     Davidson diagonalization with overlap
     ethr =  6.67E-09,  avg # of iterations =  3.9

     total cpu time spent up to now is     2207.5 secs

     total energy              =   -4457.62391411 Ry
     estimated scf accuracy    <       0.00003992 Ry

     total magnetization       =    10.61 Bohr mag/cell
     absolute magnetization    =    12.03 Bohr mag/cell

     iteration # 43     ecut=    60.00 Ry     beta= 0.30
     Davidson diagonalization with overlap
     ethr =  6.67E-09,  avg # of iterations =  3.5

     total cpu time spent up to now is     2259.8 secs

     total energy              =   -4457.62391811 Ry
     estimated scf accuracy    <       0.00002225 Ry

     total magnetization       =    10.62 Bohr mag/cell
     absolute magnetization    =    12.02 Bohr mag/cell

     iteration # 44     ecut=    60.00 Ry     beta= 0.30
     Davidson diagonalization with overlap
     ethr =  6.67E-09,  avg # of iterations =  2.0

     total cpu time spent up to now is     2305.2 secs

     total energy              =   -4457.62391938 Ry
     estimated scf accuracy    <       0.00002449 Ry

     total magnetization       =    10.62 Bohr mag/cell
     absolute magnetization    =    12.02 Bohr mag/cell

     iteration # 45     ecut=    60.00 Ry     beta= 0.30
     Davidson diagonalization with overlap
     ethr =  6.67E-09,  avg # of iterations =  1.6

     total cpu time spent up to now is     2348.6 secs

     total energy              =   -4457.62392014 Ry
     estimated scf accuracy    <       0.00002242 Ry

     total magnetization       =    10.62 Bohr mag/cell
     absolute magnetization    =    12.03 Bohr mag/cell

     iteration # 46     ecut=    60.00 Ry     beta= 0.30
     Davidson diagonalization with overlap
     ethr =  6.67E-09,  avg # of iterations =  2.3

     total cpu time spent up to now is     2394.0 secs

     total energy              =   -4457.62392175 Ry
     estimated scf accuracy    <       0.00003003 Ry

     total magnetization       =    10.62 Bohr mag/cell
     absolute magnetization    =    12.03 Bohr mag/cell

     iteration # 47     ecut=    60.00 Ry     beta= 0.30
     Davidson diagonalization with overlap
     ethr =  6.67E-09,  avg # of iterations =  1.2

     total cpu time spent up to now is     2436.9 secs

     total energy              =   -4457.62392491 Ry
     estimated scf accuracy    <       0.00000584 Ry

     total magnetization       =    10.62 Bohr mag/cell
     absolute magnetization    =    12.03 Bohr mag/cell

     iteration # 48     ecut=    60.00 Ry     beta= 0.30
     Davidson diagonalization with overlap
     ethr =  2.48E-09,  avg # of iterations =  5.2

     total cpu time spent up to now is     2492.5 secs

     total energy              =   -4457.62392766 Ry
     estimated scf accuracy    <       0.00001821 Ry

     total magnetization       =    10.62 Bohr mag/cell
     absolute magnetization    =    12.03 Bohr mag/cell

     iteration # 49     ecut=    60.00 Ry     beta= 0.30
     Davidson diagonalization with overlap
     ethr =  2.48E-09,  avg # of iterations =  5.6

     total cpu time spent up to now is     2553.6 secs

     total energy              =   -4457.62393259 Ry
     estimated scf accuracy    <       0.00001389 Ry

     total magnetization       =    10.62 Bohr mag/cell
     absolute magnetization    =    12.04 Bohr mag/cell

     iteration # 50     ecut=    60.00 Ry     beta= 0.30
     Davidson diagonalization with overlap
     ethr =  2.48E-09,  avg # of iterations =  1.7

     total cpu time spent up to now is     2598.0 secs

     total energy              =   -4457.62393507 Ry
     estimated scf accuracy    <       0.00000473 Ry

     total magnetization       =    10.63 Bohr mag/cell
     absolute magnetization    =    12.04 Bohr mag/cell

     iteration # 51     ecut=    60.00 Ry     beta= 0.30
     Davidson diagonalization with overlap
     ethr =  2.00E-09,  avg # of iterations =  5.1

     total cpu time spent up to now is     2652.6 secs

     total energy              =   -4457.62393566 Ry
     estimated scf accuracy    <       0.00000816 Ry

     total magnetization       =    10.63 Bohr mag/cell
     absolute magnetization    =    12.05 Bohr mag/cell

     iteration # 52     ecut=    60.00 Ry     beta= 0.30
     Davidson diagonalization with overlap
     ethr =  2.00E-09,  avg # of iterations =  2.4

     total cpu time spent up to now is     2698.8 secs

     total energy              =   -4457.62393694 Ry
     estimated scf accuracy    <       0.00000853 Ry

     total magnetization       =    10.63 Bohr mag/cell
     absolute magnetization    =    12.05 Bohr mag/cell

     iteration # 53     ecut=    60.00 Ry     beta= 0.30
     Davidson diagonalization with overlap
     ethr =  2.00E-09,  avg # of iterations =  3.7

     total cpu time spent up to now is     2748.5 secs

     total energy              =   -4457.62393875 Ry
     estimated scf accuracy    <       0.00000969 Ry

     total magnetization       =    10.63 Bohr mag/cell
     absolute magnetization    =    12.05 Bohr mag/cell

     iteration # 54     ecut=    60.00 Ry     beta= 0.30
     Davidson diagonalization with overlap
     ethr =  2.00E-09,  avg # of iterations =  4.6

     total cpu time spent up to now is     2802.2 secs

     total energy              =   -4457.62394065 Ry
     estimated scf accuracy    <       0.00000392 Ry

     total magnetization       =    10.63 Bohr mag/cell
     absolute magnetization    =    12.05 Bohr mag/cell

     iteration # 55     ecut=    60.00 Ry     beta= 0.30
     Davidson diagonalization with overlap
     ethr =  1.66E-09,  avg # of iterations =  4.4

     total cpu time spent up to now is     2855.1 secs

     total energy              =   -4457.62394250 Ry
     estimated scf accuracy    <       0.00000753 Ry

     total magnetization       =    10.63 Bohr mag/cell
     absolute magnetization    =    12.06 Bohr mag/cell

     iteration # 56     ecut=    60.00 Ry     beta= 0.30
     Davidson diagonalization with overlap
     ethr =  1.66E-09,  avg # of iterations =  5.4

     total cpu time spent up to now is     2913.9 secs

     total energy              =   -4457.62394448 Ry
     estimated scf accuracy    <       0.00000655 Ry

     total magnetization       =    10.63 Bohr mag/cell
     absolute magnetization    =    12.07 Bohr mag/cell

     iteration # 57     ecut=    60.00 Ry     beta= 0.30
     Davidson diagonalization with overlap
     ethr =  1.66E-09,  avg # of iterations =  5.3

     total cpu time spent up to now is     2977.0 secs

     total energy              =   -4457.62395225 Ry
     estimated scf accuracy    <       0.00000457 Ry

     total magnetization       =    10.63 Bohr mag/cell
     absolute magnetization    =    12.08 Bohr mag/cell

     iteration # 58     ecut=    60.00 Ry     beta= 0.30
     Davidson diagonalization with overlap
     ethr =  1.66E-09,  avg # of iterations =  4.7

     total cpu time spent up to now is     3029.8 secs

     total energy              =   -4457.62395255 Ry
     estimated scf accuracy    <       0.00000318 Ry

     total magnetization       =    10.63 Bohr mag/cell
     absolute magnetization    =    12.09 Bohr mag/cell

     iteration # 59     ecut=    60.00 Ry     beta= 0.30
     Davidson diagonalization with overlap
     ethr =  1.35E-09,  avg # of iterations =  1.1

     total cpu time spent up to now is     3072.0 secs

     total energy              =   -4457.62395133 Ry
     estimated scf accuracy    <       0.00000375 Ry

     total magnetization       =    10.63 Bohr mag/cell
     absolute magnetization    =    12.09 Bohr mag/cell

     iteration # 60     ecut=    60.00 Ry     beta= 0.30
     Davidson diagonalization with overlap
     ethr =  1.35E-09,  avg # of iterations =  2.9

     total cpu time spent up to now is     3119.7 secs

     total energy              =   -4457.62395218 Ry
     estimated scf accuracy    <       0.00000630 Ry

     total magnetization       =    10.63 Bohr mag/cell
     absolute magnetization    =    12.08 Bohr mag/cell

     iteration # 61     ecut=    60.00 Ry     beta= 0.30
     Davidson diagonalization with overlap
     ethr =  1.35E-09,  avg # of iterations =  5.5

     total cpu time spent up to now is     3182.5 secs

     total energy              =   -4457.62395755 Ry
     estimated scf accuracy    <       0.00000387 Ry

     total magnetization       =    10.63 Bohr mag/cell
     absolute magnetization    =    12.10 Bohr mag/cell

     iteration # 62     ecut=    60.00 Ry     beta= 0.30
     Davidson diagonalization with overlap
     ethr =  1.35E-09,  avg # of iterations =  3.3

     total cpu time spent up to now is     3231.7 secs

     total energy              =   -4457.62395701 Ry
     estimated scf accuracy    <       0.00000554 Ry

     total magnetization       =    10.63 Bohr mag/cell
     absolute magnetization    =    12.11 Bohr mag/cell

     iteration # 63     ecut=    60.00 Ry     beta= 0.30
     Davidson diagonalization with overlap
     ethr =  1.35E-09,  avg # of iterations =  2.4

     total cpu time spent up to now is     3277.6 secs

     total energy              =   -4457.62395806 Ry
     estimated scf accuracy    <       0.00000282 Ry

     total magnetization       =    10.63 Bohr mag/cell
     absolute magnetization    =    12.10 Bohr mag/cell

     iteration # 64     ecut=    60.00 Ry     beta= 0.30
     Davidson diagonalization with overlap
     ethr =  1.19E-09,  avg # of iterations =  1.2

     total cpu time spent up to now is     3319.1 secs

     total energy              =   -4457.62395861 Ry
     estimated scf accuracy    <       0.00000246 Ry

     total magnetization       =    10.63 Bohr mag/cell
     absolute magnetization    =    12.10 Bohr mag/cell

     iteration # 65     ecut=    60.00 Ry     beta= 0.30
     Davidson diagonalization with overlap
     ethr =  1.04E-09,  avg # of iterations =  5.9

     total cpu time spent up to now is     3383.3 secs

     total energy              =   -4457.62396217 Ry
     estimated scf accuracy    <       0.00000441 Ry

     total magnetization       =    10.63 Bohr mag/cell
     absolute magnetization    =    12.12 Bohr mag/cell

     iteration # 66     ecut=    60.00 Ry     beta= 0.30
     Davidson diagonalization with overlap
     ethr =  1.04E-09,  avg # of iterations =  5.4

     total cpu time spent up to now is     3446.3 secs

     total energy              =   -4457.62396416 Ry
     estimated scf accuracy    <       0.00000350 Ry

     total magnetization       =    10.64 Bohr mag/cell
     absolute magnetization    =    12.13 Bohr mag/cell

     iteration # 67     ecut=    60.00 Ry     beta= 0.30
     Davidson diagonalization with overlap
     ethr =  1.04E-09,  avg # of iterations =  4.1

     total cpu time spent up to now is     3497.9 secs

     total energy              =   -4457.62396511 Ry
     estimated scf accuracy    <       0.00000310 Ry

     total magnetization       =    10.64 Bohr mag/cell
     absolute magnetization    =    12.13 Bohr mag/cell

     iteration # 68     ecut=    60.00 Ry     beta= 0.30
     Davidson diagonalization with overlap
     ethr =  1.04E-09,  avg # of iterations =  1.0

     total cpu time spent up to now is     3538.3 secs

     total energy              =   -4457.62396038 Ry
     estimated scf accuracy    <       0.00000267 Ry

     total magnetization       =    10.64 Bohr mag/cell
     absolute magnetization    =    12.13 Bohr mag/cell

     iteration # 69     ecut=    60.00 Ry     beta= 0.30
     Davidson diagonalization with overlap
     ethr =  1.04E-09,  avg # of iterations =  7.3

     total cpu time spent up to now is     3609.5 secs

     total energy              =   -4457.62396873 Ry
     estimated scf accuracy    <       0.00000270 Ry

     total magnetization       =    10.64 Bohr mag/cell
     absolute magnetization    =    12.16 Bohr mag/cell

     iteration # 70     ecut=    60.00 Ry     beta= 0.30
     Davidson diagonalization with overlap
     ethr =  1.04E-09,  avg # of iterations =  5.0

     total cpu time spent up to now is     3664.9 secs

     total energy              =   -4457.62397041 Ry
     estimated scf accuracy    <       0.00000389 Ry

     total magnetization       =    10.64 Bohr mag/cell
     absolute magnetization    =    12.15 Bohr mag/cell

     iteration # 71     ecut=    60.00 Ry     beta= 0.30
     Davidson diagonalization with overlap
     ethr =  1.04E-09,  avg # of iterations =  5.0

     total cpu time spent up to now is     3721.8 secs

     total energy              =   -4457.62397296 Ry
     estimated scf accuracy    <       0.00000248 Ry

     total magnetization       =    10.64 Bohr mag/cell
     absolute magnetization    =    12.16 Bohr mag/cell

     iteration # 72     ecut=    60.00 Ry     beta= 0.30
     Davidson diagonalization with overlap
     ethr =  1.04E-09,  avg # of iterations =  5.1

     total cpu time spent up to now is     3779.8 secs

     total energy              =   -4457.62397296 Ry
     estimated scf accuracy    <       0.00000298 Ry

     total magnetization       =    10.64 Bohr mag/cell
     absolute magnetization    =    12.17 Bohr mag/cell

     iteration # 73     ecut=    60.00 Ry     beta= 0.30
     Davidson diagonalization with overlap
     ethr =  1.04E-09,  avg # of iterations =  6.5

     total cpu time spent up to now is     3847.5 secs

     total energy              =   -4457.62397224 Ry
     estimated scf accuracy    <       0.00000262 Ry

     total magnetization       =    10.64 Bohr mag/cell
     absolute magnetization    =    12.19 Bohr mag/cell

     iteration # 74     ecut=    60.00 Ry     beta= 0.30
     Davidson diagonalization with overlap
     ethr =  1.04E-09,  avg # of iterations =  7.4

     total cpu time spent up to now is     3920.2 secs

     total energy              =   -4457.62398308 Ry
     estimated scf accuracy    <       0.00000320 Ry

     total magnetization       =    10.65 Bohr mag/cell
     absolute magnetization    =    12.22 Bohr mag/cell

     iteration # 75     ecut=    60.00 Ry     beta= 0.30
     Davidson diagonalization with overlap
     ethr =  1.04E-09,  avg # of iterations =  5.1

     total cpu time spent up to now is     3976.2 secs

     total energy              =   -4457.62397960 Ry
     estimated scf accuracy    <       0.00000131 Ry

     total magnetization       =    10.65 Bohr mag/cell
     absolute magnetization    =    12.23 Bohr mag/cell

     iteration # 76     ecut=    60.00 Ry     beta= 0.30
     Davidson diagonalization with overlap
     ethr =  5.57E-10,  avg # of iterations =  8.5

     total cpu time spent up to now is     4054.4 secs

     total energy              =   -4457.62398681 Ry
     estimated scf accuracy    <       0.00000446 Ry

     total magnetization       =    10.65 Bohr mag/cell
     absolute magnetization    =    12.25 Bohr mag/cell

     iteration # 77     ecut=    60.00 Ry     beta= 0.30
     Davidson diagonalization with overlap
     ethr =  5.57E-10,  avg # of iterations =  5.0

     total cpu time spent up to now is     4108.8 secs

     total energy              =   -4457.62395503 Ry
     estimated scf accuracy    <       0.00000237 Ry

     total magnetization       =    10.65 Bohr mag/cell
     absolute magnetization    =    12.25 Bohr mag/cell

     iteration # 78     ecut=    60.00 Ry     beta= 0.30
     Davidson diagonalization with overlap
     ethr =  5.57E-10,  avg # of iterations = 10.7

     total cpu time spent up to now is     4200.5 secs

     total energy              =   -4457.62397811 Ry
     estimated scf accuracy    <       0.00000286 Ry

     total magnetization       =    10.65 Bohr mag/cell
     absolute magnetization    =    12.31 Bohr mag/cell

     iteration # 79     ecut=    60.00 Ry     beta= 0.30
     Davidson diagonalization with overlap
     ethr =  5.57E-10,  avg # of iterations =  8.5

     total cpu time spent up to now is     4279.4 secs

     total energy              =   -4457.62397541 Ry
     estimated scf accuracy    <       0.00000273 Ry

     total magnetization       =    10.65 Bohr mag/cell
     absolute magnetization    =    12.28 Bohr mag/cell

     iteration # 80     ecut=    60.00 Ry     beta= 0.30
     Davidson diagonalization with overlap
     ethr =  5.57E-10,  avg # of iterations =  8.1

     total cpu time spent up to now is     4359.3 secs

     total energy              =   -4457.62398699 Ry
     estimated scf accuracy    <       0.00000102 Ry

     total magnetization       =    10.65 Bohr mag/cell
     absolute magnetization    =    12.32 Bohr mag/cell

     iteration # 81     ecut=    60.00 Ry     beta= 0.30
     Davidson diagonalization with overlap
     ethr =  4.31E-10,  avg # of iterations =  7.9

     total cpu time spent up to now is     4434.8 secs

     total energy              =   -4457.62399225 Ry
     estimated scf accuracy    <       0.00000078 Ry

     total magnetization       =    10.65 Bohr mag/cell
     absolute magnetization    =    12.34 Bohr mag/cell

     iteration # 82     ecut=    60.00 Ry     beta= 0.30
     Davidson diagonalization with overlap
     ethr =  3.32E-10,  avg # of iterations =  5.1

     total cpu time spent up to now is     4492.7 secs

     total energy              =   -4457.62398996 Ry
     estimated scf accuracy    <       0.00000157 Ry

     total magnetization       =    10.65 Bohr mag/cell
     absolute magnetization    =    12.34 Bohr mag/cell

     iteration # 83     ecut=    60.00 Ry     beta= 0.30
     Davidson diagonalization with overlap
     ethr =  3.32E-10,  avg # of iterations =  6.9

     total cpu time spent up to now is     4562.5 secs

     total energy              =   -4457.62399286 Ry
     estimated scf accuracy    <       0.00000055 Ry

     total magnetization       =    10.66 Bohr mag/cell
     absolute magnetization    =    12.36 Bohr mag/cell

     iteration # 84     ecut=    60.00 Ry     beta= 0.30
     Davidson diagonalization with overlap
     ethr =  2.31E-10,  avg # of iterations =  5.1

     total cpu time spent up to now is     4618.8 secs

     total energy              =   -4457.62399254 Ry
     estimated scf accuracy    <       0.00000118 Ry

     total magnetization       =    10.65 Bohr mag/cell
     absolute magnetization    =    12.35 Bohr mag/cell

     iteration # 85     ecut=    60.00 Ry     beta= 0.30
     Davidson diagonalization with overlap
     ethr =  2.31E-10,  avg # of iterations =  5.2

     total cpu time spent up to now is     4680.0 secs

     total energy              =   -4457.62399213 Ry
     estimated scf accuracy    <       0.00000056 Ry

     total magnetization       =    10.66 Bohr mag/cell
     absolute magnetization    =    12.36 Bohr mag/cell

     iteration # 86     ecut=    60.00 Ry     beta= 0.30
     Davidson diagonalization with overlap
     ethr =  2.31E-10,  avg # of iterations =  5.9

     total cpu time spent up to now is     4745.3 secs

     total energy              =   -4457.62399263 Ry
     estimated scf accuracy    <       0.00000025 Ry

     total magnetization       =    10.66 Bohr mag/cell
     absolute magnetization    =    12.37 Bohr mag/cell

     iteration # 87     ecut=    60.00 Ry     beta= 0.30
     Davidson diagonalization with overlap
     ethr =  1.07E-10,  avg # of iterations =  6.8

     total cpu time spent up to now is     4814.5 secs

     total energy              =   -4457.62399323 Ry
     estimated scf accuracy    <       0.00000033 Ry

     total magnetization       =    10.66 Bohr mag/cell
     absolute magnetization    =    12.38 Bohr mag/cell

     iteration # 88     ecut=    60.00 Ry     beta= 0.30
     Davidson diagonalization with overlap
     ethr =  1.07E-10,  avg # of iterations =  5.1

     total cpu time spent up to now is     4873.7 secs

     total energy              =   -4457.62399294 Ry
     estimated scf accuracy    <       0.00000039 Ry

     total magnetization       =    10.66 Bohr mag/cell
     absolute magnetization    =    12.39 Bohr mag/cell

     iteration # 89     ecut=    60.00 Ry     beta= 0.30
     Davidson diagonalization with overlap
     ethr =  1.07E-10,  avg # of iterations =  6.0

     total cpu time spent up to now is     4939.6 secs

     total energy              =   -4457.62399325 Ry
     estimated scf accuracy    <       0.00000052 Ry

     total magnetization       =    10.66 Bohr mag/cell
     absolute magnetization    =    12.38 Bohr mag/cell

     iteration # 90     ecut=    60.00 Ry     beta= 0.30
     Davidson diagonalization with overlap
     ethr =  1.07E-10,  avg # of iterations =  5.0

     total cpu time spent up to now is     4998.3 secs

     total energy              =   -4457.62399342 Ry
     estimated scf accuracy    <       0.00000021 Ry

     total magnetization       =    10.66 Bohr mag/cell
     absolute magnetization    =    12.38 Bohr mag/cell

     iteration # 91     ecut=    60.00 Ry     beta= 0.30
     Davidson diagonalization with overlap
     ethr =  9.00E-11,  avg # of iterations =  4.4

     total cpu time spent up to now is     5053.1 secs

     total energy              =   -4457.62399290 Ry
     estimated scf accuracy    <       0.00000034 Ry

     total magnetization       =    10.66 Bohr mag/cell
     absolute magnetization    =    12.39 Bohr mag/cell

     iteration # 92     ecut=    60.00 Ry     beta= 0.30
     Davidson diagonalization with overlap
     ethr =  9.00E-11,  avg # of iterations =  6.3

     total cpu time spent up to now is     5120.6 secs

     total energy              =   -4457.62399340 Ry
     estimated scf accuracy    <       0.00000016 Ry

     total magnetization       =    10.66 Bohr mag/cell
     absolute magnetization    =    12.39 Bohr mag/cell

     iteration # 93     ecut=    60.00 Ry     beta= 0.30
     Davidson diagonalization with overlap
     ethr =  6.61E-11,  avg # of iterations =  5.0

     total cpu time spent up to now is     5175.5 secs

     total energy              =   -4457.62399332 Ry
     estimated scf accuracy    <       0.00000016 Ry

     total magnetization       =    10.66 Bohr mag/cell
     absolute magnetization    =    12.39 Bohr mag/cell

     iteration # 94     ecut=    60.00 Ry     beta= 0.30
     Davidson diagonalization with overlap
     ethr =  6.61E-11,  avg # of iterations =  5.0
 
     Magnetic moment per site  (integrated on atomic sphere of radius R)
     atom   1 (R=0.177)  charge= 12.1064  magn=  0.1763
     atom   2 (R=0.177)  charge= 14.4025  magn=  1.6603
     atom   3 (R=0.177)  charge= 14.3813  magn=  1.7914
     atom   4 (R=0.177)  charge= 12.1224  magn= -0.1066
     atom   5 (R=0.177)  charge= 12.1063  magn=  0.1755
     atom   6 (R=0.177)  charge= 14.4045  magn=  1.5962
     atom   7 (R=0.177)  charge= 12.1072  magn=  0.2311
     atom   8 (R=0.177)  charge= 12.1250  magn= -0.0874
     atom   9 (R=0.177)  charge= 12.1074  magn=  0.2314
     atom  10 (R=0.177)  charge= 12.1250  magn= -0.0874
     atom  11 (R=0.177)  charge= 12.1060  magn=  0.1753
     atom  12 (R=0.177)  charge= 14.4045  magn=  1.5962
     atom  13 (R=0.177)  charge= 14.3813  magn=  1.7914
     atom  14 (R=0.177)  charge= 12.1224  magn= -0.1066
     atom  15 (R=0.177)  charge= 12.1056  magn=  0.1747
     atom  16 (R=0.177)  charge= 14.4025  magn=  1.6603

     total cpu time spent up to now is     5232.0 secs

     End of self-consistent calculation

     Number of k-points >= 100: set verbosity='high' to print the bands.

     the Fermi energy is    19.9297 ev

!    total energy              =   -4457.62399343 Ry
     total all-electron energy =    -36290.729977 Ry
     estimated scf accuracy    <       0.00000010 Ry
     smearing contrib. (-TS)   =      -0.00263042 Ry
     internal energy E=F+TS    =   -4457.62136301 Ry

     The total energy is F=E-TS. E is the sum of the following terms:
     one-electron contribution =   -1187.41916234 Ry
     hartree contribution      =     746.33712123 Ry
     xc contribution           =    -389.40756108 Ry
     ewald contribution        =   -2387.88717190 Ry
     one-center paw contrib.   =   -1239.24458892 Ry

     total magnetization       =    10.66 Bohr mag/cell
     absolute magnetization    =    12.39 Bohr mag/cell

     convergence has been achieved in  94 iterations


     Computing stress (Cartesian axis) and pressure

          total   stress  (Ry/bohr**3)                   (kbar)     P=       44.80
   0.00022641   0.00017305   0.00016900           33.31       25.46       24.86
   0.00017305   0.00045815  -0.00000001           25.46       67.40       -0.00
   0.00016900  -0.00000001   0.00022910           24.86       -0.00       33.70


     Writing all to output data dir ./tmp/fecr_fe06cr10_s-0.01.save/ :
     XML data file, charge density, pseudopotentials, collected wavefunctions
 
     init_run     :     42.05s CPU     31.61s WALL (       1 calls)
     electrons    :   6364.74s CPU   5199.91s WALL (       1 calls)
     stress       :     32.76s CPU     32.20s WALL (       1 calls)

     Called by init_run:
     wfcinit      :     10.26s CPU     12.42s WALL (       1 calls)
     potinit      :     30.89s CPU     18.17s WALL (       1 calls)
     hinit0       :      0.58s CPU      0.58s WALL (       1 calls)

     Called by electrons:
     c_bands      :   3213.74s CPU   3221.80s WALL (      94 calls)
     sum_band     :    293.47s CPU    293.62s WALL (      94 calls)
     v_of_rho     :      5.33s CPU      4.43s WALL (      95 calls)
     newd         :      3.70s CPU      3.74s WALL (      95 calls)
                                        3.73s GPU  (      95 calls)
     PAW_pot      :   2873.77s CPU   1688.92s WALL (      95 calls)
     mix_rho      :      3.14s CPU      3.11s WALL (      94 calls)

     Called by c_bands:
     init_us_2    :     25.10s CPU     23.76s WALL (   42560 calls)
     cegterg      :   2905.34s CPU   2913.48s WALL (   21057 calls)

     Called by *egterg:
     cdiaghg      :   1013.78s CPU   1021.00s WALL (  113898 calls)
                                     1021.07s GPU  (  113898 calls)
     h_psi        :    881.64s CPU    887.09s WALL (  114122 calls)
                                      885.46s GPU  (  114122 calls)
     s_psi        :     57.90s CPU     58.74s WALL (  114122 calls)
     g_psi        :      0.51s CPU      4.84s WALL (   92841 calls)
                                        4.57s GPU  (   92841 calls)

     Called by h_psi:
     h_psi:calbec :      4.13s CPU    185.37s WALL (  114122 calls)
                                      184.89s GPU  (  114122 calls)
     vloc_psi     :    465.03s CPU    464.48s WALL (  114122 calls)
                                      463.92s GPU  (  114122 calls)
     add_vuspsi   :     56.62s CPU    231.09s WALL (  114122 calls)
                                      230.17s GPU  (  114122 calls)

     General routines
     calbec       :      5.03s CPU      5.23s WALL (  135402 calls)
     fft          :      1.09s CPU      1.32s WALL (    2394 calls)
                                        0.29s GPU  (    2204 calls)
     ffts         :      0.35s CPU      0.36s WALL (     378 calls)
                                        0.01s GPU  (     188 calls)
     fftw         :     26.52s CPU    437.18s WALL ( 1212568 calls)
                                      434.22s GPU  ( 1212568 calls)
     interpolate  :      1.52s CPU      1.52s WALL (     190 calls)
 
     Parallel routines
 
     PWSCF        :      1h47m CPU      1h27m WALL

 
   This run was terminated on:  15:40:30  20May2026            

=------------------------------------------------------------------------------=
   JOB DONE.
=------------------------------------------------------------------------------=
Warning: ieee_divide_by_zero is signaling
Warning: ieee_inexact is signaling
FORTRAN STOP
