--------------------------------------------------------------------------
WARNING: Open MPI tried to bind a process but failed.  This is a
warning only; your job will continue, though performance may
be degraded.

  Local host:        b1c76c1b6516
  Application name:  /workspace/q-e-qe-7.3.1/bin/pw.x
  Error message:     failed to bind memory
  Location:          ../../../../../orte/mca/rtc/hwloc/rtc_hwloc.c:447

--------------------------------------------------------------------------

     Program PWSCF v.7.3.1 starts on 12May2026 at 21:13: 9 

     This program is part of the open-source Quantum ESPRESSO suite
     for quantum simulation of materials; please cite
         "P. Giannozzi et al., J. Phys.:Condens. Matter 21 395502 (2009);
         "P. Giannozzi et al., J. Phys.:Condens. Matter 29 465901 (2017);
         "P. Giannozzi et al., J. Chem. Phys. 152 154105 (2020);
          URL http://www.quantum-espresso.org", 
     in publications or presentations arising from this work. More details at
     http://www.quantum-espresso.org/quote

     Parallel version (MPI & OpenMP), running on       8 processor cores
     Number of MPI processes:                 1
     Threads/MPI process:                     8

     MPI processes distributed on     1 nodes
     192916 MiB available memory on the printing compute node when the environment starts
 
     Reading input from inputs/fecr_fe12cr04_h0.00.in

     Current dimensions of program PWSCF are:
     Max number of different atomic species (ntypx) = 10
     Max number of k-points (npk) =  40000
     Max angular momentum in pseudopotentials (lmaxx) =  4
     file Fe.pbe-spn-kjpaw_psl.1.0.0.UPF: wavefunction(s)  3P 3D renormalized
     file Cr.pbe-spn-kjpaw_psl.1.0.0.UPF: wavefunction(s)  3S 3P 3D renormalized
     Found identity + (  0.0000 -0.5000 -0.5000) symmetry
     This is a supercell, fractional translations are disabled
     Message from routine setup:
     using ibrav=0 with symmetry is DISCOURAGED, use correct ibrav instead
 
     Subspace diagonalization in iterative solution of the eigenvalue problem:
     a serial algorithm will be used

 
     G-vector sticks info
     --------------------
     sticks:   dense  smooth     PW     G-vecs:    dense   smooth      PW
     Sum        4577    2285    657               232701    82201   12533
 
     Using Slab Decomposition
 


     bravais-lattice index     =            0
     lattice parameter (alat)  =      10.9445  a.u.
     unit-cell volume          =    1310.9468 (a.u.)^3
     number of atoms/cell      =           16
     number of atomic types    =            2
     number of electrons       =       248.00
     number of Kohn-Sham states=          149
     kinetic-energy cutoff     =      60.0000  Ry
     charge density cutoff     =     480.0000  Ry
     scf convergence threshold =      1.0E-08
     mixing beta               =       0.3000
     number of iterations used =            8  plain     mixing
     Exchange-correlation= SLA  PW   PBX  PBC
                           (   1   4   3   4   0   0   0)

     GPU acceleration is ACTIVE.  1 visible GPUs per MPI rank


     celldm(1)=  10.944477  celldm(2)=   0.000000  celldm(3)=   0.000000
     celldm(4)=   0.000000  celldm(5)=   0.000000  celldm(6)=   0.000000

     crystal axes: (cart. coord. in units of alat)
               a(1) = (   1.000000   0.000000   0.000000 )  
               a(2) = (   0.000000   1.000000   0.000000 )  
               a(3) = (   0.000000   0.000000   1.000000 )  

     reciprocal axes: (cart. coord. in units 2 pi/alat)
               b(1) = (  1.000000  0.000000  0.000000 )  
               b(2) = (  0.000000  1.000000  0.000000 )  
               b(3) = (  0.000000  0.000000  1.000000 )  


     PseudoPot. # 1 for Fe read from file:
     ./pseudo/Fe.pbe-spn-kjpaw_psl.1.0.0.UPF
     MD5 check sum: fc81f059e5c5069939230b1155715ae8
     Pseudo is Projector augmented-wave + core cor, Zval = 16.0
     Generated using &quot;atomic&quot; code by A. Dal Corso  v.6.3
     Shape of augmentation charge: PSQ
     Using radial grid of 1191 points,  6 beta functions with: 
                l(1) =   0
                l(2) =   0
                l(3) =   1
                l(4) =   1
                l(5) =   2
                l(6) =   2
     Q(r) pseudized with 0 coefficients 


     PseudoPot. # 2 for Cr read from file:
     ./pseudo/Cr.pbe-spn-kjpaw_psl.1.0.0.UPF
     MD5 check sum: 198f1a2427a48552563eee314eba32ba
     Pseudo is Projector augmented-wave + core cor, Zval = 14.0
     Generated using &quot;atomic&quot; code by A. Dal Corso  v.6.3
     Shape of augmentation charge: PSQ
     Using radial grid of 1183 points,  6 beta functions with: 
                l(1) =   0
                l(2) =   0
                l(3) =   1
                l(4) =   1
                l(5) =   2
                l(6) =   2
     Q(r) pseudized with 0 coefficients 


     atomic species   valence    mass     pseudopotential
     Fe               16.00    55.84500     Fe( 1.00)
     Cr               14.00    51.99600     Cr( 1.00)

     Starting magnetic structure 
     atomic species   magnetization
     Fe              0.500
     Cr              0.300

     16 Sym. Ops., with inversion, found



   Cartesian axes

     site n.     atom                  positions (alat units)
         1        Cr     tau(   1) = (   0.0000000   0.0000000   0.0000000  )
         2        Fe     tau(   2) = (   0.2500000   0.2500000   0.2500000  )
         3        Fe     tau(   3) = (   0.0000000   0.0000000   0.5000000  )
         4        Fe     tau(   4) = (   0.2500000   0.2500000   0.7500000  )
         5        Fe     tau(   5) = (   0.0000000   0.5000000   0.0000000  )
         6        Fe     tau(   6) = (   0.2500000   0.7500000   0.2500000  )
         7        Cr     tau(   7) = (   0.0000000   0.5000000   0.5000000  )
         8        Fe     tau(   8) = (   0.2500000   0.7500000   0.7500000  )
         9        Cr     tau(   9) = (   0.5000000   0.0000000   0.0000000  )
        10        Fe     tau(  10) = (   0.7500000   0.2500000   0.2500000  )
        11        Fe     tau(  11) = (   0.5000000   0.0000000   0.5000000  )
        12        Fe     tau(  12) = (   0.7500000   0.2500000   0.7500000  )
        13        Fe     tau(  13) = (   0.5000000   0.5000000   0.0000000  )
        14        Fe     tau(  14) = (   0.7500000   0.7500000   0.2500000  )
        15        Cr     tau(  15) = (   0.5000000   0.5000000   0.5000000  )
        16        Fe     tau(  16) = (   0.7500000   0.7500000   0.7500000  )

     number of k points=    40  Marzari-Vanderbilt smearing, width (Ry)=  0.0200
                       cart. coord. in units 2pi/alat
        k(    1) = (   0.0000000   0.0000000   0.0000000), wk =   0.0046296
        k(    2) = (   0.0000000   0.0000000   0.1666667), wk =   0.0185185
        k(    3) = (   0.0000000   0.0000000   0.3333333), wk =   0.0185185
        k(    4) = (   0.0000000   0.0000000  -0.5000000), wk =   0.0092593
        k(    5) = (   0.0000000   0.1666667   0.1666667), wk =   0.0185185
        k(    6) = (   0.0000000   0.1666667   0.3333333), wk =   0.0370370
        k(    7) = (   0.0000000   0.1666667  -0.5000000), wk =   0.0185185
        k(    8) = (   0.0000000   0.3333333   0.3333333), wk =   0.0185185
        k(    9) = (   0.0000000   0.3333333  -0.5000000), wk =   0.0185185
        k(   10) = (   0.0000000  -0.5000000  -0.5000000), wk =   0.0046296
        k(   11) = (   0.1666667   0.1666667   0.1666667), wk =   0.0370370
        k(   12) = (   0.1666667   0.1666667   0.3333333), wk =   0.0740741
        k(   13) = (   0.1666667   0.1666667  -0.5000000), wk =   0.0370370
        k(   14) = (   0.1666667   0.3333333   0.3333333), wk =   0.0370370
        k(   15) = (   0.1666667   0.3333333  -0.5000000), wk =   0.0370370
        k(   16) = (   0.1666667  -0.5000000  -0.5000000), wk =   0.0092593
        k(   17) = (   0.3333333   0.3333333   0.3333333), wk =   0.0370370
        k(   18) = (   0.3333333   0.3333333  -0.5000000), wk =   0.0370370
        k(   19) = (   0.3333333  -0.5000000  -0.5000000), wk =   0.0092593
        k(   20) = (  -0.5000000  -0.5000000  -0.5000000), wk =   0.0046296
        k(   21) = (   0.1666667   0.0000000   0.0000000), wk =   0.0092593
        k(   22) = (   0.3333333   0.0000000   0.0000000), wk =   0.0092593
        k(   23) = (  -0.5000000   0.0000000   0.0000000), wk =   0.0046296
        k(   24) = (   0.1666667   0.1666667   0.0000000), wk =   0.0370370
        k(   25) = (   0.1666667   0.3333333   0.0000000), wk =   0.0370370
        k(   26) = (   0.3333333   0.0000000   0.1666667), wk =   0.0370370
        k(   27) = (   0.1666667  -0.5000000   0.0000000), wk =   0.0185185
        k(   28) = (  -0.5000000   0.0000000   0.1666667), wk =   0.0185185
        k(   29) = (   0.3333333   0.3333333   0.0000000), wk =   0.0370370
        k(   30) = (   0.3333333  -0.5000000   0.0000000), wk =   0.0185185
        k(   31) = (  -0.5000000   0.0000000   0.3333333), wk =   0.0185185
        k(   32) = (  -0.5000000  -0.5000000   0.0000000), wk =   0.0092593
        k(   33) = (   0.3333333   0.1666667   0.1666667), wk =   0.0370370
        k(   34) = (  -0.5000000   0.1666667   0.1666667), wk =   0.0185185
        k(   35) = (   0.3333333   0.3333333   0.1666667), wk =   0.0740741
        k(   36) = (   0.3333333  -0.5000000   0.1666667), wk =   0.0370370
        k(   37) = (  -0.5000000   0.1666667   0.3333333), wk =   0.0370370
        k(   38) = (  -0.5000000  -0.5000000   0.1666667), wk =   0.0185185
        k(   39) = (  -0.5000000   0.3333333   0.3333333), wk =   0.0185185
        k(   40) = (  -0.5000000  -0.5000000   0.3333333), wk =   0.0185185

     Dense  grid:   232701 G-vectors     FFT dimensions: (  80,  80,  80)

     Smooth grid:    82201 G-vectors     FFT dimensions: (  54,  54,  54)

     Estimated max dynamical RAM per process >       2.82 GB

     Check: negative core charge=   -0.000002
     Generating pointlists ...
     new r_m :   0.1786 (alat units)  1.9549 (a.u.) for type    1
     new r_m :   0.1786 (alat units)  1.9549 (a.u.) for type    2

     Initial potential from superposition of free atoms

     starting charge     247.9917, renormalised to     248.0000
     Starting wfcs are  160 randomized atomic wfcs
     Checking if some PAW data can be deallocated... 

     total cpu time spent up to now is       16.8 secs

     Self-consistent Calculation

     iteration #  1     ecut=    60.00 Ry     beta= 0.30
     Davidson diagonalization with overlap
     ethr =  1.00E-02,  avg # of iterations =  3.0

     total cpu time spent up to now is       46.3 secs

     total energy              =   -4938.04539494 Ry
     estimated scf accuracy    <      11.72173540 Ry

     total magnetization       =    50.00 Bohr mag/cell
     absolute magnetization    =    51.01 Bohr mag/cell

     iteration #  2     ecut=    60.00 Ry     beta= 0.30
     Davidson diagonalization with overlap
     ethr =  4.73E-03,  avg # of iterations =  6.1

     total cpu time spent up to now is       80.2 secs

     total energy              =   -4939.17345950 Ry
     estimated scf accuracy    <      53.40199179 Ry

     total magnetization       =    28.21 Bohr mag/cell
     absolute magnetization    =    29.79 Bohr mag/cell

     iteration #  3     ecut=    60.00 Ry     beta= 0.30
     Davidson diagonalization with overlap
     ethr =  4.73E-03,  avg # of iterations =  3.0

     negative rho (up, down):  0.000E+00 7.118E-04

     total cpu time spent up to now is      108.0 secs

     total energy              =   -4940.72256074 Ry
     estimated scf accuracy    <       9.73174003 Ry

     total magnetization       =    41.51 Bohr mag/cell
     absolute magnetization    =    42.20 Bohr mag/cell

     iteration #  4     ecut=    60.00 Ry     beta= 0.30
     Davidson diagonalization with overlap
     ethr =  3.92E-03,  avg # of iterations =  4.5

     negative rho (up, down):  0.000E+00 3.609E-03

     total cpu time spent up to now is      139.1 secs

     total energy              =   -4942.90165606 Ry
     estimated scf accuracy    <       8.03387742 Ry

     total magnetization       =    47.15 Bohr mag/cell
     absolute magnetization    =    47.81 Bohr mag/cell

     iteration #  5     ecut=    60.00 Ry     beta= 0.30
     Davidson diagonalization with overlap
     ethr =  3.24E-03,  avg # of iterations =  5.5

     negative rho (up, down):  0.000E+00 4.452E-03

     total cpu time spent up to now is      172.0 secs

     total energy              =   -4943.79249526 Ry
     estimated scf accuracy    <      27.45486800 Ry

     total magnetization       =    47.50 Bohr mag/cell
     absolute magnetization    =    48.01 Bohr mag/cell

     iteration #  6     ecut=    60.00 Ry     beta= 0.30
     Davidson diagonalization with overlap
     ethr =  3.24E-03,  avg # of iterations =  1.9

     negative rho (up, down):  0.000E+00 4.655E-03

     total cpu time spent up to now is      197.8 secs

     total energy              =   -4943.62880426 Ry
     estimated scf accuracy    <      17.30004658 Ry

     total magnetization       =    42.76 Bohr mag/cell
     absolute magnetization    =    43.64 Bohr mag/cell

     iteration #  7     ecut=    60.00 Ry     beta= 0.30
     Davidson diagonalization with overlap
     ethr =  3.24E-03,  avg # of iterations =  1.0

     negative rho (up, down):  0.000E+00 4.646E-03

     total cpu time spent up to now is      221.5 secs

     total energy              =   -4943.75217743 Ry
     estimated scf accuracy    <       6.47390503 Ry

     total magnetization       =    37.51 Bohr mag/cell
     absolute magnetization    =    38.94 Bohr mag/cell

     iteration #  8     ecut=    60.00 Ry     beta= 0.30
     Davidson diagonalization with overlap
     ethr =  2.61E-03,  avg # of iterations =  1.0

     negative rho (up, down):  0.000E+00 4.577E-03

     total cpu time spent up to now is      244.9 secs

     total energy              =   -4943.69824392 Ry
     estimated scf accuracy    <       4.34615452 Ry

     total magnetization       =    35.04 Bohr mag/cell
     absolute magnetization    =    36.71 Bohr mag/cell

     iteration #  9     ecut=    60.00 Ry     beta= 0.30
     Davidson diagonalization with overlap
     ethr =  1.75E-03,  avg # of iterations =  1.1

     negative rho (up, down):  0.000E+00 4.513E-03

     total cpu time spent up to now is      268.7 secs

     total energy              =   -4943.75104513 Ry
     estimated scf accuracy    <       1.64939528 Ry

     total magnetization       =    30.77 Bohr mag/cell
     absolute magnetization    =    32.98 Bohr mag/cell

     iteration # 10     ecut=    60.00 Ry     beta= 0.30
     Davidson diagonalization with overlap
     ethr =  6.65E-04,  avg # of iterations =  1.2

     negative rho (up, down):  0.000E+00 4.040E-03

     total cpu time spent up to now is      293.0 secs

     total energy              =   -4943.69208745 Ry
     estimated scf accuracy    <       0.97712577 Ry

     total magnetization       =    29.59 Bohr mag/cell
     absolute magnetization    =    31.87 Bohr mag/cell

     iteration # 11     ecut=    60.00 Ry     beta= 0.30
     Davidson diagonalization with overlap
     ethr =  3.94E-04,  avg # of iterations =  3.1

     negative rho (up, down):  0.000E+00 3.681E-03

     total cpu time spent up to now is      320.7 secs

     total energy              =   -4943.78517649 Ry
     estimated scf accuracy    <       0.47138733 Ry

     total magnetization       =    25.63 Bohr mag/cell
     absolute magnetization    =    28.52 Bohr mag/cell

     iteration # 12     ecut=    60.00 Ry     beta= 0.30
     Davidson diagonalization with overlap
     ethr =  1.90E-04,  avg # of iterations =  2.3

     negative rho (up, down):  0.000E+00 2.471E-03

     total cpu time spent up to now is      347.2 secs

     total energy              =   -4943.80938082 Ry
     estimated scf accuracy    <       0.09681365 Ry

     total magnetization       =    25.59 Bohr mag/cell
     absolute magnetization    =    28.30 Bohr mag/cell

     iteration # 13     ecut=    60.00 Ry     beta= 0.30
     Davidson diagonalization with overlap
     ethr =  3.90E-05,  avg # of iterations =  6.7

     negative rho (up, down):  0.000E+00 2.254E-03

     total cpu time spent up to now is      381.7 secs

     total energy              =   -4943.82440674 Ry
     estimated scf accuracy    <       0.19803241 Ry

     total magnetization       =    25.79 Bohr mag/cell
     absolute magnetization    =    28.40 Bohr mag/cell

     iteration # 14     ecut=    60.00 Ry     beta= 0.30
     Davidson diagonalization with overlap
     ethr =  3.90E-05,  avg # of iterations =  1.5

     negative rho (up, down):  0.000E+00 1.609E-03

     total cpu time spent up to now is      406.5 secs

     total energy              =   -4943.83359068 Ry
     estimated scf accuracy    <       0.08417660 Ry

     total magnetization       =    25.45 Bohr mag/cell
     absolute magnetization    =    28.25 Bohr mag/cell

     iteration # 15     ecut=    60.00 Ry     beta= 0.30
     Davidson diagonalization with overlap
     ethr =  3.39E-05,  avg # of iterations =  1.4

     negative rho (up, down):  0.000E+00 1.242E-03

     total cpu time spent up to now is      431.2 secs

     total energy              =   -4943.84438921 Ry
     estimated scf accuracy    <       0.06311562 Ry

     total magnetization       =    25.34 Bohr mag/cell
     absolute magnetization    =    28.43 Bohr mag/cell

     iteration # 16     ecut=    60.00 Ry     beta= 0.30
     Davidson diagonalization with overlap
     ethr =  2.54E-05,  avg # of iterations =  2.5

     negative rho (up, down):  0.000E+00 9.800E-04

     total cpu time spent up to now is      458.3 secs

     total energy              =   -4943.85282239 Ry
     estimated scf accuracy    <       0.01614879 Ry

     total magnetization       =    24.15 Bohr mag/cell
     absolute magnetization    =    28.35 Bohr mag/cell

     iteration # 17     ecut=    60.00 Ry     beta= 0.30
     Davidson diagonalization with overlap
     ethr =  6.51E-06,  avg # of iterations =  7.3

     negative rho (up, down):  0.000E+00 1.076E-03

     total cpu time spent up to now is      494.4 secs

     total energy              =   -4943.85608807 Ry
     estimated scf accuracy    <       0.02747454 Ry

     total magnetization       =    23.97 Bohr mag/cell
     absolute magnetization    =    28.94 Bohr mag/cell

     iteration # 18     ecut=    60.00 Ry     beta= 0.30
     Davidson diagonalization with overlap
     ethr =  6.51E-06,  avg # of iterations =  1.6

     negative rho (up, down):  0.000E+00 1.079E-03

     total cpu time spent up to now is      519.4 secs

     total energy              =   -4943.85772733 Ry
     estimated scf accuracy    <       0.00495877 Ry

     total magnetization       =    23.71 Bohr mag/cell
     absolute magnetization    =    28.85 Bohr mag/cell

     iteration # 19     ecut=    60.00 Ry     beta= 0.30
     Davidson diagonalization with overlap
     ethr =  2.00E-06,  avg # of iterations =  4.1

     negative rho (up, down):  0.000E+00 1.023E-03

     total cpu time spent up to now is      548.5 secs

     total energy              =   -4943.85926855 Ry
     estimated scf accuracy    <       0.00372688 Ry

     total magnetization       =    23.61 Bohr mag/cell
     absolute magnetization    =    28.95 Bohr mag/cell

     iteration # 20     ecut=    60.00 Ry     beta= 0.30
     Davidson diagonalization with overlap
     ethr =  1.50E-06,  avg # of iterations =  3.0

     negative rho (up, down):  0.000E+00 1.092E-03

     total cpu time spent up to now is      576.3 secs

     total energy              =   -4943.86127927 Ry
     estimated scf accuracy    <       0.00301871 Ry

     total magnetization       =    23.42 Bohr mag/cell
     absolute magnetization    =    29.16 Bohr mag/cell

     iteration # 21     ecut=    60.00 Ry     beta= 0.30
     Davidson diagonalization with overlap
     ethr =  1.22E-06,  avg # of iterations =  5.9

     negative rho (up, down):  0.000E+00 1.190E-03

     total cpu time spent up to now is      610.0 secs

     total energy              =   -4943.86321085 Ry
     estimated scf accuracy    <       0.00473719 Ry

     total magnetization       =    23.17 Bohr mag/cell
     absolute magnetization    =    29.60 Bohr mag/cell

     iteration # 22     ecut=    60.00 Ry     beta= 0.30
     Davidson diagonalization with overlap
     ethr =  1.22E-06,  avg # of iterations =  6.9

     negative rho (up, down):  0.000E+00 1.217E-03

     total cpu time spent up to now is      648.6 secs

     total energy              =   -4943.86788781 Ry
     estimated scf accuracy    <       0.00530762 Ry

     total magnetization       =    22.70 Bohr mag/cell
     absolute magnetization    =    30.74 Bohr mag/cell

     iteration # 23     ecut=    60.00 Ry     beta= 0.30
     Davidson diagonalization with overlap
     ethr =  1.22E-06,  avg # of iterations =  5.6

     negative rho (up, down):  0.000E+00 1.246E-03

     total cpu time spent up to now is      681.9 secs

     total energy              =   -4943.87034308 Ry
     estimated scf accuracy    <       0.00488389 Ry

     total magnetization       =    22.28 Bohr mag/cell
     absolute magnetization    =    31.31 Bohr mag/cell

     iteration # 24     ecut=    60.00 Ry     beta= 0.30
     Davidson diagonalization with overlap
     ethr =  1.22E-06,  avg # of iterations =  4.9

     negative rho (up, down):  0.000E+00 1.319E-03

     total cpu time spent up to now is      713.6 secs

     total energy              =   -4943.87127069 Ry
     estimated scf accuracy    <       0.00162100 Ry

     total magnetization       =    22.06 Bohr mag/cell
     absolute magnetization    =    31.86 Bohr mag/cell

     iteration # 25     ecut=    60.00 Ry     beta= 0.30
     Davidson diagonalization with overlap
     ethr =  6.54E-07,  avg # of iterations =  6.4

     negative rho (up, down):  0.000E+00 1.362E-03

     total cpu time spent up to now is      752.2 secs

     total energy              =   -4943.87423883 Ry
     estimated scf accuracy    <       0.00393421 Ry

     total magnetization       =    21.54 Bohr mag/cell
     absolute magnetization    =    32.72 Bohr mag/cell

     iteration # 26     ecut=    60.00 Ry     beta= 0.30
     Davidson diagonalization with overlap
     ethr =  6.54E-07,  avg # of iterations =  4.7

     negative rho (up, down):  0.000E+00 1.369E-03

     total cpu time spent up to now is      783.2 secs

     total energy              =   -4943.87426431 Ry
     estimated scf accuracy    <       0.00130956 Ry

     total magnetization       =    21.43 Bohr mag/cell
     absolute magnetization    =    33.06 Bohr mag/cell

     iteration # 27     ecut=    60.00 Ry     beta= 0.30
     Davidson diagonalization with overlap
     ethr =  5.28E-07,  avg # of iterations =  6.0

     negative rho (up, down):  0.000E+00 1.384E-03

     total cpu time spent up to now is      819.2 secs

     total energy              =   -4943.87538324 Ry
     estimated scf accuracy    <       0.00032747 Ry

     total magnetization       =    20.98 Bohr mag/cell
     absolute magnetization    =    33.69 Bohr mag/cell

     iteration # 28     ecut=    60.00 Ry     beta= 0.30
     Davidson diagonalization with overlap
     ethr =  1.32E-07,  avg # of iterations =  7.0

     negative rho (up, down):  0.000E+00 1.373E-03

     total cpu time spent up to now is      860.1 secs

     total energy              =   -4943.87633280 Ry
     estimated scf accuracy    <       0.00027524 Ry

     total magnetization       =    20.66 Bohr mag/cell
     absolute magnetization    =    34.16 Bohr mag/cell

     iteration # 29     ecut=    60.00 Ry     beta= 0.30
     Davidson diagonalization with overlap
     ethr =  1.11E-07,  avg # of iterations =  3.1

     negative rho (up, down):  0.000E+00 1.370E-03

     total cpu time spent up to now is      888.2 secs

     total energy              =   -4943.87638690 Ry
     estimated scf accuracy    <       0.00022824 Ry

     total magnetization       =    20.74 Bohr mag/cell
     absolute magnetization    =    34.09 Bohr mag/cell

     iteration # 30     ecut=    60.00 Ry     beta= 0.30
     Davidson diagonalization with overlap
     ethr =  9.20E-08,  avg # of iterations =  1.5

     negative rho (up, down):  0.000E+00 1.367E-03

     total cpu time spent up to now is      912.9 secs

     total energy              =   -4943.87640528 Ry
     estimated scf accuracy    <       0.00012639 Ry

     total magnetization       =    20.70 Bohr mag/cell
     absolute magnetization    =    34.10 Bohr mag/cell

     iteration # 31     ecut=    60.00 Ry     beta= 0.30
     Davidson diagonalization with overlap
     ethr =  5.10E-08,  avg # of iterations =  1.4

     negative rho (up, down):  0.000E+00 1.367E-03

     total cpu time spent up to now is      937.7 secs

     total energy              =   -4943.87638814 Ry
     estimated scf accuracy    <       0.00003045 Ry

     total magnetization       =    20.71 Bohr mag/cell
     absolute magnetization    =    34.10 Bohr mag/cell

     iteration # 32     ecut=    60.00 Ry     beta= 0.30
     Davidson diagonalization with overlap
     ethr =  1.23E-08,  avg # of iterations =  5.7

     negative rho (up, down):  0.000E+00 1.373E-03

     total cpu time spent up to now is      973.3 secs

     total energy              =   -4943.87642533 Ry
     estimated scf accuracy    <       0.00004301 Ry

     total magnetization       =    20.65 Bohr mag/cell
     absolute magnetization    =    34.19 Bohr mag/cell

     iteration # 33     ecut=    60.00 Ry     beta= 0.30
     Davidson diagonalization with overlap
     ethr =  1.23E-08,  avg # of iterations =  4.0

     negative rho (up, down):  0.000E+00 1.364E-03

     total cpu time spent up to now is     1002.9 secs

     total energy              =   -4943.87638606 Ry
     estimated scf accuracy    <       0.00005250 Ry

     total magnetization       =    20.63 Bohr mag/cell
     absolute magnetization    =    34.22 Bohr mag/cell

     iteration # 34     ecut=    60.00 Ry     beta= 0.30
     Davidson diagonalization with overlap
     ethr =  1.23E-08,  avg # of iterations =  5.4

     negative rho (up, down):  0.000E+00 1.367E-03

     total cpu time spent up to now is     1037.5 secs

     total energy              =   -4943.87642611 Ry
     estimated scf accuracy    <       0.00002524 Ry

     total magnetization       =    20.69 Bohr mag/cell
     absolute magnetization    =    34.13 Bohr mag/cell

     iteration # 35     ecut=    60.00 Ry     beta= 0.30
     Davidson diagonalization with overlap
     ethr =  1.02E-08,  avg # of iterations =  3.9

     negative rho (up, down):  0.000E+00 1.370E-03

     total cpu time spent up to now is     1067.0 secs

     total energy              =   -4943.87642898 Ry
     estimated scf accuracy    <       0.00003078 Ry

     total magnetization       =    20.67 Bohr mag/cell
     absolute magnetization    =    34.17 Bohr mag/cell

     iteration # 36     ecut=    60.00 Ry     beta= 0.30
     Davidson diagonalization with overlap
     ethr =  1.02E-08,  avg # of iterations =  4.7

     negative rho (up, down):  0.000E+00 1.370E-03

     total cpu time spent up to now is     1098.3 secs

     total energy              =   -4943.87643721 Ry
     estimated scf accuracy    <       0.00000425 Ry

     total magnetization       =    20.65 Bohr mag/cell
     absolute magnetization    =    34.21 Bohr mag/cell

     iteration # 37     ecut=    60.00 Ry     beta= 0.30
     Davidson diagonalization with overlap
     ethr =  1.71E-09,  avg # of iterations =  4.9

     negative rho (up, down):  0.000E+00 1.372E-03

     total cpu time spent up to now is     1129.1 secs

     total energy              =   -4943.87643853 Ry
     estimated scf accuracy    <       0.00000277 Ry

     total magnetization       =    20.64 Bohr mag/cell
     absolute magnetization    =    34.22 Bohr mag/cell

     iteration # 38     ecut=    60.00 Ry     beta= 0.30
     Davidson diagonalization with overlap
     ethr =  1.12E-09,  avg # of iterations =  3.5

     negative rho (up, down):  0.000E+00 1.372E-03

     total cpu time spent up to now is     1157.6 secs

     total energy              =   -4943.87643905 Ry
     estimated scf accuracy    <       0.00000071 Ry

     total magnetization       =    20.65 Bohr mag/cell
     absolute magnetization    =    34.22 Bohr mag/cell

     iteration # 39     ecut=    60.00 Ry     beta= 0.30
     Davidson diagonalization with overlap
     ethr =  2.85E-10,  avg # of iterations =  5.7

     negative rho (up, down):  0.000E+00 1.373E-03

     total cpu time spent up to now is     1191.6 secs

     total energy              =   -4943.87643949 Ry
     estimated scf accuracy    <       0.00000048 Ry

     total magnetization       =    20.65 Bohr mag/cell
     absolute magnetization    =    34.21 Bohr mag/cell

     iteration # 40     ecut=    60.00 Ry     beta= 0.30
     Davidson diagonalization with overlap
     ethr =  1.95E-10,  avg # of iterations =  3.6

     negative rho (up, down):  0.000E+00 1.372E-03

     total cpu time spent up to now is     1220.4 secs

     total energy              =   -4943.87643969 Ry
     estimated scf accuracy    <       0.00000030 Ry

     total magnetization       =    20.65 Bohr mag/cell
     absolute magnetization    =    34.21 Bohr mag/cell

     iteration # 41     ecut=    60.00 Ry     beta= 0.30
     Davidson diagonalization with overlap
     ethr =  1.19E-10,  avg # of iterations =  5.5

     negative rho (up, down):  0.000E+00 1.373E-03

     total cpu time spent up to now is     1252.6 secs

     total energy              =   -4943.87643961 Ry
     estimated scf accuracy    <       0.00000078 Ry

     total magnetization       =    20.65 Bohr mag/cell
     absolute magnetization    =    34.21 Bohr mag/cell

     iteration # 42     ecut=    60.00 Ry     beta= 0.30
     Davidson diagonalization with overlap
     ethr =  1.19E-10,  avg # of iterations =  3.8

     negative rho (up, down):  0.000E+00 1.372E-03

     total cpu time spent up to now is     1281.6 secs

     total energy              =   -4943.87643979 Ry
     estimated scf accuracy    <       0.00000025 Ry

     total magnetization       =    20.65 Bohr mag/cell
     absolute magnetization    =    34.21 Bohr mag/cell

     iteration # 43     ecut=    60.00 Ry     beta= 0.30
     Davidson diagonalization with overlap
     ethr =  1.03E-10,  avg # of iterations =  5.0

     negative rho (up, down):  0.000E+00 1.372E-03

     total cpu time spent up to now is     1314.5 secs

     total energy              =   -4943.87644000 Ry
     estimated scf accuracy    <       0.00000027 Ry

     total magnetization       =    20.65 Bohr mag/cell
     absolute magnetization    =    34.21 Bohr mag/cell

     iteration # 44     ecut=    60.00 Ry     beta= 0.30
     Davidson diagonalization with overlap
     ethr =  1.03E-10,  avg # of iterations =  5.8

     negative rho (up, down):  0.000E+00 1.372E-03

     total cpu time spent up to now is     1348.9 secs

     total energy              =   -4943.87644022 Ry
     estimated scf accuracy    <       0.00000012 Ry

     total magnetization       =    20.65 Bohr mag/cell
     absolute magnetization    =    34.21 Bohr mag/cell

     iteration # 45     ecut=    60.00 Ry     beta= 0.30
     Davidson diagonalization with overlap
     ethr =  4.74E-11,  avg # of iterations =  4.4

     negative rho (up, down):  0.000E+00 1.371E-03

     total cpu time spent up to now is     1379.7 secs

     total energy              =   -4943.87644026 Ry
     estimated scf accuracy    <       0.00000052 Ry

     total magnetization       =    20.65 Bohr mag/cell
     absolute magnetization    =    34.21 Bohr mag/cell

     iteration # 46     ecut=    60.00 Ry     beta= 0.30
     Davidson diagonalization with overlap
     ethr =  4.74E-11,  avg # of iterations =  4.7

     negative rho (up, down):  0.000E+00 1.371E-03

     total cpu time spent up to now is     1411.5 secs

     total energy              =   -4943.87644010 Ry
     estimated scf accuracy    <       0.00000009 Ry

     total magnetization       =    20.65 Bohr mag/cell
     absolute magnetization    =    34.21 Bohr mag/cell

     iteration # 47     ecut=    60.00 Ry     beta= 0.30
     Davidson diagonalization with overlap
     c_bands:  1 eigenvalues not converged
     ethr =  3.65E-11,  avg # of iterations =  8.0

     negative rho (up, down):  0.000E+00 1.371E-03

     total cpu time spent up to now is     1454.6 secs

     total energy              =   -4943.87644037 Ry
     estimated scf accuracy    <       0.00000028 Ry

     total magnetization       =    20.65 Bohr mag/cell
     absolute magnetization    =    34.21 Bohr mag/cell

     iteration # 48     ecut=    60.00 Ry     beta= 0.30
     Davidson diagonalization with overlap
     ethr =  3.65E-11,  avg # of iterations =  5.7

     negative rho (up, down):  0.000E+00 1.371E-03

     total cpu time spent up to now is     1488.3 secs

     total energy              =   -4943.87644041 Ry
     estimated scf accuracy    <       0.00000008 Ry

     total magnetization       =    20.65 Bohr mag/cell
     absolute magnetization    =    34.21 Bohr mag/cell

     iteration # 49     ecut=    60.00 Ry     beta= 0.30
     Davidson diagonalization with overlap
     ethr =  3.20E-11,  avg # of iterations =  5.9

     negative rho (up, down):  0.000E+00 1.371E-03

     total cpu time spent up to now is     1523.5 secs

     total energy              =   -4943.87644050 Ry
     estimated scf accuracy    <       0.00000004 Ry

     total magnetization       =    20.65 Bohr mag/cell
     absolute magnetization    =    34.21 Bohr mag/cell

     iteration # 50     ecut=    60.00 Ry     beta= 0.30
     Davidson diagonalization with overlap
     ethr =  1.79E-11,  avg # of iterations =  5.8

     negative rho (up, down):  0.000E+00 1.371E-03

     total cpu time spent up to now is     1560.5 secs

     total energy              =   -4943.87644059 Ry
     estimated scf accuracy    <       0.00000004 Ry

     total magnetization       =    20.65 Bohr mag/cell
     absolute magnetization    =    34.21 Bohr mag/cell

     iteration # 51     ecut=    60.00 Ry     beta= 0.30
     Davidson diagonalization with overlap
     ethr =  1.45E-11,  avg # of iterations =  2.7

     negative rho (up, down):  0.000E+00 1.371E-03

     total cpu time spent up to now is     1588.2 secs

     total energy              =   -4943.87644059 Ry
     estimated scf accuracy    <       0.00000002 Ry

     total magnetization       =    20.65 Bohr mag/cell
     absolute magnetization    =    34.21 Bohr mag/cell

     iteration # 52     ecut=    60.00 Ry     beta= 0.30
     Davidson diagonalization with overlap
     ethr =  7.96E-12,  avg # of iterations =  3.8

     negative rho (up, down):  0.000E+00 1.372E-03
 
     Magnetic moment per site  (integrated on atomic sphere of radius R)
     atom   1 (R=0.179)  charge= 12.1676  magn= -1.3746
     atom   2 (R=0.179)  charge= 14.4791  magn=  2.2100
     atom   3 (R=0.179)  charge= 14.4565  magn=  2.3783
     atom   4 (R=0.179)  charge= 14.4791  magn=  2.2100
     atom   5 (R=0.179)  charge= 14.4565  magn=  2.3783
     atom   6 (R=0.179)  charge= 14.4791  magn=  2.2100
     atom   7 (R=0.179)  charge= 12.1675  magn= -1.3759
     atom   8 (R=0.179)  charge= 14.4791  magn=  2.2100
     atom   9 (R=0.179)  charge= 12.1675  magn= -1.3751
     atom  10 (R=0.179)  charge= 14.4791  magn=  2.2100
     atom  11 (R=0.179)  charge= 14.4565  magn=  2.3783
     atom  12 (R=0.179)  charge= 14.4791  magn=  2.2100
     atom  13 (R=0.179)  charge= 14.4565  magn=  2.3783
     atom  14 (R=0.179)  charge= 14.4791  magn=  2.2100
     atom  15 (R=0.179)  charge= 12.1675  magn= -1.3763
     atom  16 (R=0.179)  charge= 14.4791  magn=  2.2100

     total cpu time spent up to now is     1617.0 secs

     End of self-consistent calculation

 ------ SPIN UP ------------


          k = 0.0000 0.0000 0.0000 ( 10395 PWs)   bands (ev):

   -70.8364 -70.8206 -70.8206 -70.8206 -70.8169 -70.8169 -70.8169 -70.8133
   -70.7234 -70.7198 -70.7198 -70.7120 -53.6744 -53.6732 -53.6610 -53.6602
   -36.9614 -36.9614 -36.9601 -36.9593 -36.9577 -36.9577 -36.9354 -36.9330
   -36.9330 -36.9070 -36.9029 -36.8940 -36.8940 -36.8851 -36.8774 -36.8756
   -36.8320 -36.8320 -36.8279 -36.8031 -36.7787 -36.7787 -36.7744 -36.7744
   -36.7688 -36.7688 -36.7494 -36.7453 -36.7399 -36.6992 -36.6992 -36.6910
   -36.6519 -36.6343 -36.6343 -36.6013 -25.1134 -25.1036 -25.0042 -25.0042
   -24.9957 -24.9957 -24.9891 -24.9891 -24.9852 -24.9852 -24.9723 -24.9695
     9.2295  12.6989  12.7116  12.7116  12.7502  12.7552  12.7968  12.7968
    12.8111  12.8188  12.8375  12.9286  12.9565  13.0861  13.2077  14.0488
    14.1995  14.1995  14.2280  14.2398  14.2398  14.2880  14.2922  14.2922
    14.3230  14.3230  14.5230  14.5358  14.5358  14.5601  14.7707  14.8884
    15.3289  15.3289  15.3345  15.3358  15.3897  15.3897  15.4233  15.4233
    15.4490  15.4557  15.5868  15.7661  15.7661  15.9508  16.0570  16.1391
    16.1456  16.1836  16.1944  16.2210  16.2328  16.2328  16.2541  16.2868
    16.3279  16.3898  16.4350  16.4350  16.8290  16.8290  16.9245  17.2878
    17.2878  17.2952  17.4126  17.4126  17.5262  17.6803  17.7061  17.7075
    17.8609  17.8609  17.8723  17.8723  17.9540  18.1154  18.2828  18.2828
    18.4107  18.4176  18.5120  18.5120  18.5603

          k = 0.0000 0.0000 0.1667 ( 10299 PWs)   bands (ev):

   -70.8355 -70.8217 -70.8203 -70.8203 -70.8170 -70.8170 -70.8165 -70.8134
   -70.7225 -70.7197 -70.7196 -70.7124 -53.6743 -53.6733 -53.6610 -53.6602
   -36.9593 -36.9580 -36.9579 -36.9564 -36.9538 -36.9535 -36.9347 -36.9305
   -36.9286 -36.9093 -36.9045 -36.8932 -36.8925 -36.8910 -36.8860 -36.8730
   -36.8356 -36.8316 -36.8283 -36.8280 -36.8039 -36.8003 -36.7672 -36.7666
   -36.7661 -36.7515 -36.7470 -36.7256 -36.7102 -36.7028 -36.7026 -36.6876
   -36.6541 -36.6402 -36.6383 -36.6060 -25.1127 -25.1039 -25.0038 -25.0036
   -24.9961 -24.9961 -24.9887 -24.9887 -24.9852 -24.9851 -24.9720 -24.9696
     9.3686  12.1424  12.7342  12.7472  12.7997  12.8051  12.8136  12.8484
    12.8705  12.8844  12.8961  12.9839  13.1183  13.1254  13.3768  14.0677
    14.0747  14.0937  14.1658  14.1796  14.2822  14.2844  14.2912  14.2989
    14.3062  14.3819  14.3874  14.5377  14.6709  14.7047  14.8130  14.8526
    15.2310  15.3192  15.3233  15.3281  15.3347  15.3351  15.3409  15.3622
    15.4818  15.5566  15.6337  15.7737  15.9109  15.9178  15.9370  15.9439
    15.9878  16.0611  16.1039  16.1505  16.2350  16.2499  16.2691  16.3042
    16.3502  16.3583  16.3862  16.4363  16.7679  16.9417  16.9469  17.1209
    17.2018  17.2390  17.3236  17.3437  17.3670  17.4382  17.4405  17.5617
    17.7616  17.7842  17.8536  17.9096  18.1130  18.2134  18.3566  18.3739
    18.3944  18.4473  18.5143  18.5448  18.8607

          k = 0.0000 0.0000 0.3333 ( 10323 PWs)   bands (ev):

   -70.8327 -70.8251 -70.8196 -70.8196 -70.8178 -70.8178 -70.8158 -70.8140
   -70.7202 -70.7197 -70.7197 -70.7143 -53.6742 -53.6734 -53.6610 -53.6602
   -36.9552 -36.9551 -36.9529 -36.9438 -36.9437 -36.9424 -36.9396 -36.9247
   -36.9166 -36.9096 -36.9095 -36.9094 -36.9049 -36.8899 -36.8818 -36.8660
   -36.8576 -36.8449 -36.8417 -36.8372 -36.8308 -36.8288 -36.7633 -36.7516
   -36.7491 -36.7479 -36.7158 -36.7135 -36.7129 -36.6952 -36.6794 -36.6740
   -36.6601 -36.6570 -36.6502 -36.6203 -25.1108 -25.1058 -25.0026 -25.0022
   -24.9978 -24.9976 -24.9882 -24.9880 -24.9860 -24.9859 -24.9717 -24.9701
     9.7772  11.2539  12.8250  12.8390  12.9200  12.9248  12.9322  12.9528
    13.0565  13.1030  13.1177  13.1427  13.1435  13.1593  13.4116  13.7215
    13.8153  13.9977  14.1016  14.1305  14.1598  14.2621  14.3638  14.3791
    14.4394  14.4716  14.5779  14.6025  14.8215  14.8609  14.9218  14.9440
    15.0593  15.0935  15.2915  15.2975  15.3028  15.3113  15.3142  15.3197
    15.3248  15.3320  15.4578  15.5313  15.7349  15.7371  15.7694  15.8230
    15.8831  16.0172  16.0415  16.1711  16.2407  16.2541  16.2555  16.2670
    16.3114  16.3464  16.3657  16.4345  16.6972  16.7254  16.7841  16.9381
    16.9887  17.0772  17.2133  17.2252  17.2324  17.4358  17.5414  17.5622
    17.7177  17.7527  17.9669  18.1287  18.1408  18.2570  18.2938  18.3611
    18.4645  18.5503  18.5637  18.6025  19.0719

          k = 0.0000 0.0000-0.5000 ( 10274 PWs)   bands (ev):

   -70.8289 -70.8289 -70.8187 -70.8187 -70.8187 -70.8187 -70.8148 -70.8148
   -70.7196 -70.7196 -70.7171 -70.7171 -53.6742 -53.6734 -53.6610 -53.6602
   -36.9533 -36.9533 -36.9461 -36.9461 -36.9286 -36.9286 -36.9281 -36.9281
   -36.9252 -36.9252 -36.9168 -36.9168 -36.8794 -36.8794 -36.8788 -36.8788
   -36.8643 -36.8643 -36.8559 -36.8559 -36.8299 -36.8299 -36.7576 -36.7576
   -36.7297 -36.7297 -36.7287 -36.7287 -36.6831 -36.6831 -36.6694 -36.6694
   -36.6692 -36.6692 -36.6433 -36.6433 -25.1086 -25.1079 -25.0005 -25.0002
   -24.9998 -24.9995 -24.9873 -24.9872 -24.9866 -24.9865 -24.9712 -24.9705
    10.4259  10.4259  12.9202  12.9202  12.9368  12.9368  13.0636  13.0636
    13.0704  13.0704  13.2626  13.2626  13.3948  13.3949  13.4575  13.4575
    13.5283  13.5283  14.1181  14.1181  14.2064  14.2064  14.6665  14.6666
    14.7160  14.7161  14.7248  14.7249  14.7341  14.7341  14.7443  14.7443
    14.8880  14.8880  15.2117  15.2118  15.2482  15.2483  15.2958  15.2958
    15.3047  15.3048  15.5281  15.5281  15.6024  15.6024  15.6769  15.6770
    15.8022  15.8022  16.0341  16.0342  16.1126  16.1126  16.2482  16.2482
    16.4153  16.4153  16.6301  16.6302  16.6852  16.6854  16.7287  16.7287
    17.0149  17.0149  17.0627  17.0628  17.3320  17.3321  17.5682  17.5688
    17.9547  17.9549  17.9817  17.9818  18.1661  18.1664  18.3821  18.3826
    18.4149  18.4154  18.8074  18.8078  18.8813

          k = 0.0000 0.1667 0.1667 ( 10267 PWs)   bands (ev):

   -70.8346 -70.8222 -70.8205 -70.8200 -70.8173 -70.8167 -70.8167 -70.8136
   -70.7217 -70.7197 -70.7196 -70.7130 -53.6743 -53.6733 -53.6610 -53.6602
   -36.9570 -36.9569 -36.9565 -36.9559 -36.9530 -36.9435 -36.9327 -36.9320
   -36.9226 -36.9113 -36.9070 -36.9063 -36.8979 -36.8823 -36.8813 -36.8706
   -36.8519 -36.8379 -36.8320 -36.8283 -36.8140 -36.7778 -36.7765 -36.7743
   -36.7694 -36.7489 -36.7484 -36.7132 -36.7023 -36.6990 -36.6947 -36.6847
   -36.6559 -36.6537 -36.6344 -36.6101 -25.1121 -25.1045 -25.0042 -25.0021
   -24.9977 -24.9955 -24.9889 -24.9880 -24.9858 -24.9850 -24.9718 -24.9697
     9.5060  12.1192  12.3440  12.7087  12.8434  12.8559  12.8687  12.8738
    12.9314  12.9439  12.9567  13.0488  13.1592  13.3730  13.4278  14.0237
    14.0689  14.0902  14.1211  14.1347  14.1754  14.2136  14.2974  14.3564
    14.3763  14.4008  14.5364  14.5477  14.5905  14.6928  14.7165  14.9054
    15.0875  15.1873  15.2647  15.2649  15.3120  15.4166  15.4447  15.4869
    15.5901  15.6096  15.6322  15.6511  15.7100  15.7370  15.8977  15.9006
    16.0148  16.0162  16.0693  16.1156  16.1187  16.1584  16.1647  16.2305
    16.3126  16.3633  16.4157  16.5994  16.8110  16.9213  16.9288  16.9439
    17.0153  17.0841  17.1520  17.1782  17.2169  17.4143  17.4888  17.7016
    17.8131  17.8370  17.8492  17.8511  17.8911  18.2884  18.3595  18.3678
    18.3836  18.5733  18.7492  18.9436  19.1031

          k = 0.0000 0.1667 0.3333 ( 10292 PWs)   bands (ev):

   -70.8321 -70.8248 -70.8201 -70.8194 -70.8181 -70.8174 -70.8160 -70.8143
   -70.7197 -70.7197 -70.7196 -70.7147 -53.6742 -53.6734 -53.6610 -53.6602
   -36.9532 -36.9529 -36.9526 -36.9506 -36.9430 -36.9373 -36.9275 -36.9264
   -36.9260 -36.9179 -36.9113 -36.9051 -36.8999 -36.8899 -36.8785 -36.8667
   -36.8644 -36.8455 -36.8451 -36.8315 -36.8293 -36.8119 -36.7672 -36.7663
   -36.7542 -36.7410 -36.7293 -36.7292 -36.7026 -36.6777 -36.6765 -36.6745
   -36.6673 -36.6613 -36.6390 -36.6223 -25.1105 -25.1061 -25.0038 -25.0004
   -24.9996 -24.9962 -24.9887 -24.9874 -24.9866 -24.9853 -24.9715 -24.9702
     9.9089  11.3514  12.4303  12.6748  12.9414  13.0059  13.0155  13.0376
    13.1231  13.1410  13.1632  13.2053  13.2209  13.3632  13.4720  13.7737
    13.8235  13.9808  14.1334  14.1503  14.1811  14.2302  14.3113  14.4008
    14.4022  14.5383  14.5520  14.6090  14.6301  14.8347  14.8454  14.8932
    14.9334  15.1332  15.1943  15.2127  15.2155  15.2655  15.2678  15.2755
    15.2799  15.4571  15.5656  15.6633  15.6714  15.6966  15.7374  15.7877
    15.8404  15.8650  15.9588  16.0289  16.1645  16.1730  16.1977  16.2211
    16.2666  16.3541  16.4079  16.4214  16.5062  16.8281  16.8429  16.8584
    16.8961  16.9162  16.9300  17.2810  17.3090  17.3548  17.5766  17.6799
    17.7170  17.7679  17.9799  18.1290  18.1295  18.2862  18.3279  18.3299
    18.3694  18.7116  18.8401  18.8419  18.8642

          k = 0.0000 0.1667-0.5000 ( 10284 PWs)   bands (ev):

   -70.8285 -70.8285 -70.8191 -70.8191 -70.8184 -70.8184 -70.8151 -70.8151
   -70.7197 -70.7197 -70.7171 -70.7171 -53.6742 -53.6734 -53.6610 -53.6602
   -36.9508 -36.9508 -36.9439 -36.9439 -36.9422 -36.9422 -36.9295 -36.9295
   -36.9187 -36.9187 -36.9081 -36.9081 -36.8949 -36.8949 -36.8779 -36.8779
   -36.8554 -36.8554 -36.8429 -36.8429 -36.8304 -36.8304 -36.7611 -36.7611
   -36.7486 -36.7486 -36.7131 -36.7131 -36.7064 -36.7064 -36.6691 -36.6691
   -36.6527 -36.6527 -36.6419 -36.6419 -25.1087 -25.1080 -25.0022 -25.0022
   -24.9978 -24.9977 -24.9880 -24.9880 -24.9861 -24.9860 -24.9712 -24.9705
    10.5461  10.5461  12.5934  12.5935  13.0373  13.0373  13.1417  13.1417
    13.2039  13.2039  13.3359  13.3360  13.4669  13.4669  13.4943  13.4943
    13.5621  13.5622  14.1522  14.1522  14.2451  14.2451  14.5915  14.5915
    14.5979  14.5979  14.5990  14.5990  14.6082  14.6082  14.9024  14.9024
    14.9166  14.9166  15.1380  15.1380  15.1662  15.1663  15.1984  15.1984
    15.3077  15.3077  15.3147  15.3147  15.6709  15.6709  15.6955  15.6955
    15.8701  15.8701  16.0595  16.0595  16.0817  16.0817  16.1996  16.1996
    16.3709  16.3709  16.3996  16.3996  16.5072  16.5072  16.7765  16.7766
    16.8923  16.8924  17.1816  17.1816  17.4552  17.4555  17.5638  17.5639
    17.6457  17.6460  18.1641  18.1643  18.2744  18.2748  18.4624  18.4625
    18.5438  18.5438  18.5735  18.5735  19.0988

          k = 0.0000 0.3333 0.3333 ( 10305 PWs)   bands (ev):

   -70.8302 -70.8255 -70.8207 -70.8189 -70.8187 -70.8168 -70.8168 -70.8150
   -70.7197 -70.7197 -70.7186 -70.7156 -53.6742 -53.6734 -53.6610 -53.6602
   -36.9560 -36.9486 -36.9459 -36.9451 -36.9417 -36.9406 -36.9321 -36.9305
   -36.9227 -36.9163 -36.9089 -36.9087 -36.9006 -36.8927 -36.8827 -36.8601
   -36.8566 -36.8488 -36.8418 -36.8323 -36.8303 -36.7765 -36.7762 -36.7743
   -36.7710 -36.7611 -36.7486 -36.7130 -36.7059 -36.6989 -36.6739 -36.6645
   -36.6532 -36.6529 -36.6344 -36.6285 -25.1097 -25.1071 -25.0045 -25.0021
   -24.9980 -24.9957 -24.9890 -24.9880 -24.9861 -24.9852 -24.9714 -24.9703
    10.2925  11.5108  11.7958  12.4102  13.1359  13.1895  13.1906  13.2229
    13.2767  13.3079  13.3178  13.3190  13.3678  13.3895  13.5798  13.8152
    13.8407  13.9677  14.0508  14.1041  14.1245  14.2153  14.4255  14.4305
    14.4435  14.4446  14.5215  14.5262  14.6496  14.6981  14.7174  14.7522
    14.8523  14.9007  15.0792  15.0802  15.0866  15.1045  15.1374  15.1754
    15.2082  15.3171  15.3980  15.4848  15.6593  15.7056  15.7099  15.8484
    15.8554  15.8646  15.9109  16.0221  16.0933  16.0948  16.1483  16.1566
    16.1714  16.1867  16.4043  16.4151  16.4586  16.5261  16.5834  16.7496
    16.8076  16.8548  17.1724  17.2866  17.3709  17.4177  17.5260  17.6171
    17.7523  17.8227  17.8349  18.0274  18.2618  18.2720  18.2873  18.4794
    18.5674  18.6631  19.0931  19.1359  19.3444

          k = 0.0000 0.3333-0.5000 ( 10314 PWs)   bands (ev):

   -70.8276 -70.8276 -70.8201 -70.8201 -70.8178 -70.8178 -70.8159 -70.8159
   -70.7197 -70.7197 -70.7171 -70.7171 -53.6742 -53.6734 -53.6610 -53.6603
   -36.9521 -36.9521 -36.9443 -36.9443 -36.9381 -36.9381 -36.9319 -36.9319
   -36.9235 -36.9235 -36.9112 -36.9112 -36.8910 -36.8910 -36.8746 -36.8746
   -36.8542 -36.8542 -36.8317 -36.8317 -36.8111 -36.8111 -36.7683 -36.7683
   -36.7664 -36.7664 -36.7400 -36.7400 -36.7025 -36.7025 -36.6690 -36.6690
   -36.6392 -36.6392 -36.6390 -36.6390 -25.1087 -25.1080 -25.0039 -25.0039
   -24.9964 -24.9964 -24.9888 -24.9887 -24.9855 -24.9855 -24.9712 -24.9705
    10.8876  10.8876  12.0557  12.0558  13.2669  13.2669  13.2943  13.2943
    13.3180  13.3180  13.5237  13.5237  13.5984  13.5985  13.6039  13.6039
    13.6628  13.6628  14.2052  14.2052  14.2631  14.2631  14.3266  14.3266
    14.3947  14.3947  14.4735  14.4735  14.5574  14.5574  14.8566  14.8567
    14.9039  14.9039  14.9112  14.9112  14.9588  14.9588  15.0489  15.0489
    15.1587  15.1587  15.2822  15.2822  15.7691  15.7691  15.7832  15.7832
    15.9449  15.9449  15.9852  15.9852  16.1001  16.1002  16.1139  16.1139
    16.1723  16.1724  16.2223  16.2223  16.4564  16.4564  16.6445  16.6445
    16.7905  16.7906  17.3545  17.3545  17.4145  17.4146  17.4927  17.4932
    17.7720  17.7723  17.9066  17.9067  18.2357  18.2363  18.3601  18.3601
    18.8464  18.8464  19.1540  19.1540  19.2742

          k = 0.0000-0.5000-0.5000 ( 10280 PWs)   bands (ev):

   -70.8270 -70.8270 -70.8207 -70.8207 -70.8168 -70.8168 -70.8168 -70.8168
   -70.7197 -70.7197 -70.7170 -70.7170 -53.6742 -53.6734 -53.6610 -53.6603
   -36.9556 -36.9556 -36.9364 -36.9364 -36.9362 -36.9362 -36.9313 -36.9313
   -36.9296 -36.9296 -36.9186 -36.9186 -36.8833 -36.8833 -36.8729 -36.8729
   -36.8536 -36.8536 -36.8323 -36.8323 -36.7764 -36.7764 -36.7754 -36.7754
   -36.7742 -36.7742 -36.7718 -36.7718 -36.6988 -36.6988 -36.6689 -36.6689
   -36.6378 -36.6378 -36.6343 -36.6343 -25.1087 -25.1080 -25.0045 -25.0045
   -24.9958 -24.9958 -24.9889 -24.9889 -24.9852 -24.9852 -24.9712 -24.9705
    11.2857  11.2857  11.5798  11.5799  13.2866  13.2866  13.4110  13.4110
    13.4633  13.4634  13.6086  13.6086  13.7243  13.7243  13.7401  13.7401
    13.8289  13.8289  14.0591  14.0592  14.0976  14.0976  14.1144  14.1145
    14.4520  14.4521  14.5042  14.5042  14.5561  14.5561  14.6889  14.6889
    14.7060  14.7060  14.7863  14.7863  14.8816  14.8816  14.9863  14.9863
    15.2648  15.2648  15.3433  15.3433  15.6976  15.6976  15.8924  15.8926
    15.8943  15.8943  16.0181  16.0181  16.0399  16.0399  16.0816  16.0816
    16.1281  16.1281  16.1437  16.1437  16.4963  16.4963  16.5572  16.5572
    16.7547  16.7547  17.3999  17.3999  17.4195  17.4195  17.4964  17.4968
    17.8107  17.8111  17.8122  17.8124  18.2046  18.2052  18.2752  18.2752
    19.1081  19.1085  19.3373  19.3373  19.4288

          k = 0.1667 0.1667 0.1667 ( 10269 PWs)   bands (ev):

   -70.8336 -70.8219 -70.8211 -70.8203 -70.8171 -70.8170 -70.8170 -70.8138
   -70.7216 -70.7198 -70.7192 -70.7134 -53.6734 -53.6725 -53.6619 -53.6611
   -36.9565 -36.9561 -36.9545 -36.9516 -36.9509 -36.9414 -36.9342 -36.9331
   -36.9134 -36.9111 -36.9065 -36.9059 -36.8948 -36.8865 -36.8792 -36.8697
   -36.8657 -36.8483 -36.8308 -36.8259 -36.8132 -36.8077 -36.7845 -36.7646
   -36.7528 -36.7504 -36.7358 -36.7124 -36.7084 -36.7018 -36.6862 -36.6719
   -36.6708 -36.6462 -36.6390 -36.6126 -25.1025 -25.0957 -25.0029 -25.0011
   -24.9971 -24.9951 -24.9893 -24.9887 -24.9869 -24.9862 -24.9809 -24.9792
     9.6424  12.2022  12.3178  12.4203  12.7914  12.8131  12.8334  12.9466
    12.9948  13.0080  13.0096  13.1199  13.4477  13.4508  13.4669  13.9618
    14.0127  14.0312  14.1325  14.1372  14.1949  14.2156  14.2816  14.3704
    14.3924  14.4336  14.5293  14.5380  14.5852  14.5983  14.7397  14.9407
    15.0257  15.0409  15.2302  15.2580  15.2646  15.3437  15.4891  15.5091
    15.5482  15.5536  15.6278  15.6365  15.6380  15.6730  15.6793  15.9560
    15.9595  16.1238  16.1352  16.1394  16.1636  16.1887  16.1903  16.2023
    16.2120  16.2552  16.2882  16.3684  16.4544  16.6216  16.6281  17.0839
    17.0974  17.1631  17.1692  17.2508  17.2533  17.5292  17.5837  17.7148
    17.8029  17.8990  17.9366  18.0034  18.1401  18.2659  18.3304  18.3566
    18.3792  18.4834  18.6207  18.7823  18.9241

          k = 0.1667 0.1667 0.3333 ( 10295 PWs)   bands (ev):

   -70.8312 -70.8244 -70.8203 -70.8198 -70.8180 -70.8178 -70.8164 -70.8145
   -70.7197 -70.7196 -70.7193 -70.7150 -53.6733 -53.6725 -53.6619 -53.6611
   -36.9530 -36.9515 -36.9513 -36.9472 -36.9419 -36.9388 -36.9286 -36.9278
   -36.9219 -36.9176 -36.9116 -36.8982 -36.8945 -36.8893 -36.8861 -36.8781
   -36.8543 -36.8517 -36.8386 -36.8373 -36.8293 -36.8021 -36.7984 -36.7648
   -36.7453 -36.7406 -36.7278 -36.7221 -36.7049 -36.6913 -36.6867 -36.6626
   -36.6605 -36.6549 -36.6415 -36.6233 -25.1012 -25.0972 -25.0026 -24.9996
   -24.9988 -24.9957 -24.9892 -24.9883 -24.9875 -24.9866 -24.9806 -24.9795
    10.0403  11.4564  12.5081  12.5233  12.7737  12.7845  13.0930  13.1023
    13.1695  13.1732  13.2458  13.2925  13.4521  13.4898  13.5103  13.7969
    13.8204  13.9765  14.1634  14.1688  14.1850  14.2191  14.2828  14.3429
    14.3803  14.5433  14.5479  14.6418  14.6669  14.7022  14.7077  14.8798
    14.9408  15.0169  15.0674  15.0979  15.1847  15.1935  15.2401  15.2543
    15.3128  15.3724  15.4891  15.5524  15.5815  15.6610  15.7117  15.7569
    15.7939  15.8446  15.9273  16.0598  16.1227  16.1349  16.1718  16.1983
    16.2712  16.2878  16.3549  16.3860  16.4278  16.5653  16.7285  16.8280
    17.0637  17.0857  17.1322  17.1335  17.3406  17.4743  17.7020  17.7474
    17.7555  17.9139  17.9480  18.0014  18.1647  18.3111  18.3128  18.4285
    18.4583  18.5247  18.7029  18.7392  18.9402

          k = 0.1667 0.1667-0.5000 ( 10278 PWs)   bands (ev):

   -70.8278 -70.8278 -70.8191 -70.8191 -70.8189 -70.8189 -70.8154 -70.8154
   -70.7195 -70.7195 -70.7172 -70.7172 -53.6733 -53.6726 -53.6619 -53.6611
   -36.9505 -36.9505 -36.9454 -36.9454 -36.9379 -36.9379 -36.9288 -36.9288
   -36.9191 -36.9191 -36.9085 -36.9085 -36.8964 -36.8964 -36.8681 -36.8681
   -36.8646 -36.8646 -36.8442 -36.8442 -36.8210 -36.8210 -36.7814 -36.7814
   -36.7323 -36.7323 -36.7172 -36.7172 -36.7141 -36.7141 -36.6684 -36.6684
   -36.6493 -36.6493 -36.6404 -36.6404 -25.0995 -25.0988 -25.0013 -25.0012
   -24.9972 -24.9971 -24.9887 -24.9886 -24.9871 -24.9871 -24.9803 -24.9797
    10.6678  10.6678  12.6880  12.6880  12.7008  12.7008  13.2873  13.2873
    13.3538  13.3538  13.3756  13.3756  13.5108  13.5108  13.5278  13.5279
    13.6025  13.6025  14.1793  14.1793  14.2643  14.2643  14.4988  14.4989
    14.5119  14.5119  14.5604  14.5604  14.6330  14.6331  14.8250  14.8251
    14.9321  14.9322  15.0442  15.0442  15.0522  15.0523  15.1911  15.1911
    15.2389  15.2389  15.2535  15.2535  15.4435  15.4436  15.7492  15.7492
    15.9240  15.9240  15.9750  15.9750  16.0259  16.0259  16.2453  16.2453
    16.2473  16.2474  16.4521  16.4521  16.5031  16.5031  16.7576  16.7576
    16.9861  16.9862  17.0555  17.0556  17.5352  17.5356  17.7025  17.7026
    17.7779  17.7781  18.0922  18.0923  18.2048  18.2049  18.3071  18.3076
    18.6239  18.6243  18.7059  18.7062  18.9190

          k = 0.1667 0.3333 0.3333 ( 10297 PWs)   bands (ev):

   -70.8294 -70.8250 -70.8204 -70.8195 -70.8187 -70.8174 -70.8170 -70.8152
   -70.7196 -70.7194 -70.7187 -70.7159 -53.6733 -53.6725 -53.6619 -53.6611
   -36.9507 -36.9483 -36.9448 -36.9441 -36.9403 -36.9400 -36.9311 -36.9303
   -36.9224 -36.9166 -36.9118 -36.9052 -36.9006 -36.8826 -36.8811 -36.8708
   -36.8484 -36.8482 -36.8480 -36.8467 -36.8209 -36.8093 -36.7836 -36.7821
   -36.7635 -36.7362 -36.7289 -36.7173 -36.7143 -36.7017 -36.6757 -36.6594
   -36.6515 -36.6505 -36.6389 -36.6298 -25.1004 -25.0980 -25.0033 -25.0012
   -24.9973 -24.9953 -24.9894 -24.9887 -24.9872 -24.9865 -24.9806 -24.9797
    10.4209  11.6218  11.9057  12.5287  12.7405  13.0446  13.1120  13.2126
    13.3470  13.4025  13.4157  13.4581  13.4672  13.6128  13.6348  13.8452
    13.8695  13.9959  14.0290  14.0291  14.2258  14.2292  14.3668  14.4254
    14.4300  14.4680  14.4739  14.5055  14.6503  14.6633  14.7061  14.7246
    14.7304  14.7970  14.9209  14.9898  15.0724  15.0879  15.0882  15.1007
    15.1010  15.1501  15.2954  15.3341  15.3995  15.4878  15.6168  15.7502
    15.8913  15.9329  16.0113  16.0723  16.1027  16.1101  16.1157  16.1400
    16.1439  16.1793  16.3282  16.4092  16.4577  16.5234  16.7997  16.8083
    16.9711  17.0158  17.1736  17.1872  17.3624  17.4162  17.5740  17.6567
    17.8781  17.9513  17.9594  18.0002  18.2466  18.2649  18.2666  18.3447
    18.6821  18.7286  18.8205  18.8794  19.0813

          k = 0.1667 0.3333-0.5000 ( 10270 PWs)   bands (ev):

   -70.8269 -70.8269 -70.8198 -70.8198 -70.8183 -70.8183 -70.8162 -70.8162
   -70.7195 -70.7195 -70.7172 -70.7172 -53.6733 -53.6726 -53.6619 -53.6611
   -36.9476 -36.9476 -36.9438 -36.9438 -36.9378 -36.9378 -36.9312 -36.9312
   -36.9237 -36.9237 -36.9078 -36.9078 -36.8933 -36.8933 -36.8644 -36.8644
   -36.8599 -36.8599 -36.8458 -36.8458 -36.8014 -36.8014 -36.8005 -36.8005
   -36.7420 -36.7420 -36.7344 -36.7344 -36.7055 -36.7055 -36.6665 -36.6665
   -36.6420 -36.6420 -36.6397 -36.6397 -25.0995 -25.0988 -25.0027 -25.0027
   -24.9958 -24.9958 -24.9892 -24.9891 -24.9867 -24.9867 -24.9804 -24.9797
    11.0095  11.0096  12.1735  12.1735  12.9723  12.9723  13.3488  13.3488
    13.4656  13.4656  13.5705  13.5705  13.6340  13.6340  13.6584  13.6585
    13.7291  13.7291  14.2186  14.2186  14.2921  14.2921  14.3081  14.3082
    14.3344  14.3344  14.5136  14.5136  14.5397  14.5397  14.7318  14.7319
    14.8063  14.8063  14.8294  14.8294  14.8882  14.8882  14.9810  14.9810
    15.0350  15.0350  15.2158  15.2158  15.4638  15.4639  15.6156  15.6156
    16.0059  16.0059  16.0326  16.0326  16.0464  16.0464  16.1479  16.1479
    16.1574  16.1574  16.4537  16.4537  16.4984  16.4984  16.6347  16.6347
    17.0203  17.0203  17.1521  17.1521  17.4950  17.4950  17.5369  17.5373
    17.8940  17.8942  17.9812  17.9813  18.2348  18.2353  18.4611  18.4611
    18.6638  18.6639  18.8299  18.8303  19.0395

          k = 0.1667-0.5000-0.5000 ( 10292 PWs)   bands (ev):

   -70.8264 -70.8264 -70.8205 -70.8205 -70.8175 -70.8175 -70.8170 -70.8170
   -70.7195 -70.7195 -70.7172 -70.7172 -53.6733 -53.6726 -53.6619 -53.6611
   -36.9502 -36.9502 -36.9363 -36.9363 -36.9358 -36.9358 -36.9311 -36.9311
   -36.9300 -36.9300 -36.9136 -36.9136 -36.8858 -36.8858 -36.8624 -36.8624
   -36.8571 -36.8571 -36.8479 -36.8479 -36.8101 -36.8101 -36.7823 -36.7823
   -36.7629 -36.7629 -36.7363 -36.7363 -36.7016 -36.7016 -36.6661 -36.6661
   -36.6394 -36.6394 -36.6389 -36.6389 -25.0996 -25.0989 -25.0033 -25.0033
   -24.9954 -24.9954 -24.9893 -24.9893 -24.9865 -24.9865 -24.9805 -24.9798
    11.4065  11.4065  11.7020  11.7020  13.2695  13.2695  13.3489  13.3489
    13.3685  13.3685  13.6934  13.6934  13.7615  13.7615  13.8372  13.8372
    13.9084  13.9084  14.0701  14.0701  14.0712  14.0712  14.1193  14.1193
    14.4564  14.4565  14.5305  14.5305  14.5423  14.5423  14.5433  14.5433
    14.6496  14.6496  14.7279  14.7279  14.7812  14.7812  14.9478  14.9478
    15.0326  15.0326  15.2830  15.2830  15.4275  15.4275  15.4608  15.4609
    16.0393  16.0393  16.0597  16.0597  16.1292  16.1292  16.1477  16.1477
    16.1778  16.1778  16.3095  16.3095  16.4442  16.4442  16.7831  16.7831
    16.8572  16.8572  17.2106  17.2107  17.4795  17.4795  17.5439  17.5443
    17.9368  17.9372  17.9490  17.9492  18.2031  18.2037  18.3309  18.3309
    18.8824  18.8830  19.1042  19.1042  19.1756

          k = 0.3333 0.3333 0.3333 ( 10273 PWs)   bands (ev):

   -70.8274 -70.8234 -70.8216 -70.8197 -70.8190 -70.8180 -70.8177 -70.8159
   -70.7193 -70.7188 -70.7185 -70.7166 -53.6709 -53.6701 -53.6643 -53.6635
   -36.9478 -36.9465 -36.9401 -36.9396 -36.9385 -36.9336 -36.9329 -36.9222
   -36.9216 -36.9168 -36.9118 -36.9026 -36.8932 -36.8894 -36.8785 -36.8771
   -36.8582 -36.8569 -36.8433 -36.8433 -36.8308 -36.8111 -36.8066 -36.8023
   -36.7424 -36.7285 -36.7267 -36.7100 -36.7075 -36.7026 -36.6810 -36.6525
   -36.6521 -36.6486 -36.6451 -36.6334 -25.0750 -25.0732 -25.0061 -25.0054
   -24.9997 -24.9979 -24.9952 -24.9940 -24.9907 -24.9906 -24.9899 -24.9897
    10.7933  11.9326  12.0632  12.2068  12.7747  12.8676  12.9286  13.4187
    13.4595  13.5384  13.6115  13.6782  13.6940  13.7109  13.7601  13.8263
    13.8650  13.9599  14.0049  14.0339  14.2621  14.2730  14.3017  14.3680
    14.3770  14.4579  14.4597  14.5056  14.5427  14.5569  14.5822  14.6381
    14.6411  14.6535  14.7417  14.8345  14.8616  14.8678  14.8704  14.9842
    14.9859  15.0350  15.0440  15.1083  15.1266  15.1812  15.2129  15.5981
    15.9966  16.0010  16.1067  16.1156  16.1233  16.1386  16.1553  16.2150
    16.2701  16.2711  16.3520  16.3576  16.4638  16.6188  16.8170  16.8252
    16.9363  17.0176  17.1526  17.3921  17.5435  17.5862  17.6734  17.7487
    18.0152  18.0503  18.0554  18.0620  18.1957  18.2379  18.2805  18.3467
    18.4845  18.4960  18.5581  18.6141  18.8384

          k = 0.3333 0.3333-0.5000 ( 10252 PWs)   bands (ev):

   -70.8251 -70.8251 -70.8201 -70.8201 -70.8191 -70.8191 -70.8170 -70.8170
   -70.7189 -70.7189 -70.7176 -70.7176 -53.6709 -53.6701 -53.6643 -53.6635
   -36.9427 -36.9427 -36.9414 -36.9414 -36.9320 -36.9320 -36.9297 -36.9297
   -36.9229 -36.9229 -36.9000 -36.9000 -36.8931 -36.8931 -36.8799 -36.8799
   -36.8563 -36.8563 -36.8443 -36.8443 -36.8299 -36.8299 -36.8021 -36.8021
   -36.7393 -36.7393 -36.7158 -36.7158 -36.7030 -36.7030 -36.6657 -36.6657
   -36.6471 -36.6471 -36.6417 -36.6417 -25.0744 -25.0737 -25.0059 -25.0053
   -24.9992 -24.9991 -24.9943 -24.9942 -24.9907 -24.9907 -24.9899 -24.9898
    11.3595  11.3595  12.4724  12.4724  12.5048  12.5048  13.3550  13.3550
    13.5678  13.5678  13.6557  13.6557  13.7172  13.7172  13.8722  13.8722
    13.8816  13.8816  14.1702  14.1702  14.2447  14.2447  14.2782  14.2782
    14.3496  14.3496  14.4885  14.4886  14.5006  14.5006  14.5237  14.5237
    14.5944  14.5944  14.7054  14.7054  14.7064  14.7064  14.8912  14.8912
    14.9450  14.9450  14.9924  14.9925  15.0132  15.0132  15.3252  15.3252
    16.0810  16.0810  16.0813  16.0813  16.1441  16.1441  16.2549  16.2549
    16.2972  16.2972  16.3106  16.3106  16.6957  16.6957  16.7682  16.7682
    16.9203  16.9203  17.1850  17.1850  17.6625  17.6629  17.6958  17.6959
    18.0627  18.0631  18.1251  18.1251  18.2267  18.2272  18.2558  18.2560
    18.5645  18.5647  18.6021  18.6023  18.7376

          k = 0.3333-0.5000-0.5000 ( 10252 PWs)   bands (ev):

   -70.8246 -70.8246 -70.8197 -70.8197 -70.8193 -70.8193 -70.8177 -70.8177
   -70.7188 -70.7188 -70.7176 -70.7176 -53.6709 -53.6702 -53.6643 -53.6635
   -36.9383 -36.9383 -36.9358 -36.9358 -36.9347 -36.9347 -36.9312 -36.9312
   -36.9269 -36.9269 -36.8988 -36.8988 -36.8836 -36.8836 -36.8768 -36.8768
   -36.8658 -36.8658 -36.8449 -36.8449 -36.8423 -36.8423 -36.7979 -36.7979
   -36.7420 -36.7420 -36.7098 -36.7098 -36.7027 -36.7027 -36.6591 -36.6591
   -36.6525 -36.6525 -36.6440 -36.6440 -25.0743 -25.0736 -25.0058 -25.0051
   -24.9998 -24.9998 -24.9942 -24.9942 -24.9907 -24.9907 -24.9898 -24.9898
    11.7541  11.7541  12.0483  12.0484  12.8499  12.8499  13.0377  13.0377
    13.5972  13.5972  13.8218  13.8218  13.9284  13.9285  14.0003  14.0003
    14.0528  14.0528  14.0627  14.0627  14.0964  14.0964  14.1265  14.1265
    14.3176  14.3176  14.4672  14.4673  14.5135  14.5135  14.5431  14.5431
    14.5553  14.5553  14.6078  14.6078  14.6421  14.6421  14.6951  14.6951
    14.8482  14.8482  14.9284  14.9285  15.0321  15.0322  15.0921  15.0921
    16.1020  16.1020  16.1023  16.1023  16.1508  16.1508  16.2773  16.2773
    16.3118  16.3118  16.5158  16.5158  16.6501  16.6501  16.8595  16.8595
    16.8960  16.8960  16.9898  16.9899  17.6883  17.6887  17.7201  17.7201
    18.0787  18.0792  18.1930  18.1936  18.2698  18.2700  18.3683  18.3688
    18.4699  18.4699  18.6119  18.6119  18.8741

          k =-0.5000-0.5000-0.5000 ( 10144 PWs)   bands (ev):

   -70.8219 -70.8219 -70.8219 -70.8219 -70.8186 -70.8186 -70.8186 -70.8186
   -70.7181 -70.7181 -70.7181 -70.7181 -53.6677 -53.6674 -53.6670 -53.6667
   -36.9354 -36.9354 -36.9354 -36.9354 -36.9328 -36.9328 -36.9328 -36.9328
   -36.9057 -36.9057 -36.9057 -36.9057 -36.8758 -36.8758 -36.8758 -36.8758
   -36.8751 -36.8751 -36.8751 -36.8751 -36.8193 -36.8193 -36.8193 -36.8193
   -36.7234 -36.7234 -36.7234 -36.7234 -36.6742 -36.6742 -36.6741 -36.6741
   -36.6509 -36.6509 -36.6509 -36.6509 -25.0401 -25.0398 -25.0394 -25.0391
   -24.9949 -24.9949 -24.9946 -24.9946 -24.9923 -24.9923 -24.9920 -24.9920
    12.2756  12.2756  12.2756  12.2756  12.5461  12.5461  12.5461  12.5461
    13.9083  13.9083  13.9083  13.9083  13.9131  13.9131  13.9131  13.9131
    14.1204  14.1204  14.1204  14.1204  14.2193  14.2193  14.2194  14.2194
    14.3285  14.3285  14.3285  14.3285  14.4225  14.4225  14.4225  14.4225
    14.4849  14.4849  14.4850  14.4850  14.7228  14.7228  14.7229  14.7229
    14.7925  14.7925  14.7925  14.7925  14.8058  14.8059  14.8059  14.8059
    16.1376  16.1376  16.1376  16.1376  16.1973  16.1973  16.1973  16.1973
    16.5283  16.5283  16.5283  16.5283  16.7741  16.7741  16.7741  16.7741
    16.9255  16.9255  16.9255  16.9255  17.9503  17.9505  17.9508  17.9510
    18.1123  18.1123  18.1124  18.1124  18.1586  18.1588  18.1592  18.1594
    18.6367  18.6369  18.6369  18.6371  18.6513

          k = 0.1667 0.0000 0.0000 ( 10299 PWs)   bands (ev):

   -70.8355 -70.8217 -70.8203 -70.8203 -70.8170 -70.8170 -70.8165 -70.8134
   -70.7231 -70.7199 -70.7191 -70.7122 -53.6735 -53.6724 -53.6619 -53.6611
   -36.9599 -36.9593 -36.9586 -36.9586 -36.9515 -36.9515 -36.9342 -36.9342
   -36.9286 -36.9066 -36.9030 -36.8909 -36.8909 -36.8851 -36.8763 -36.8738
   -36.8485 -36.8485 -36.8310 -36.8175 -36.8070 -36.8070 -36.7652 -36.7652
   -36.7490 -36.7455 -36.7358 -36.7358 -36.7333 -36.7020 -36.7020 -36.6794
   -36.6575 -36.6389 -36.6389 -36.6049 -25.1037 -25.0946 -25.0028 -25.0028
   -24.9950 -24.9950 -24.9895 -24.9895 -24.9862 -24.9862 -24.9812 -24.9791
     9.3690  12.1651  12.7471  12.7471  12.7940  12.8013  12.8315  12.8497
    12.8501  12.8501  12.8950  12.9996  13.0142  13.2144  13.3862  14.0516
    14.1058  14.1271  14.1659  14.1659  14.2258  14.2258  14.2868  14.2868
    14.3740  14.3740  14.3999  14.5870  14.6160  14.6636  14.6636  15.1146
    15.2368  15.2622  15.2622  15.2940  15.3146  15.3146  15.3725  15.3970
    15.3970  15.7042  15.7385  15.7820  15.9136  15.9136  15.9508  15.9508
    16.0222  16.0492  16.1036  16.1468  16.2132  16.2233  16.2519  16.2649
    16.3569  16.3882  16.3911  16.3911  16.6631  16.8988  16.8988  16.9276
    16.9276  17.3043  17.3043  17.4323  17.4707  17.6783  17.7891  17.8079
    17.8271  17.8271  17.8941  17.9953  18.0807  18.0807  18.3600  18.3600
    18.3790  18.4311  18.6140  18.6140  18.6342

          k = 0.3333 0.0000 0.0000 ( 10323 PWs)   bands (ev):

   -70.8326 -70.8250 -70.8196 -70.8196 -70.8178 -70.8178 -70.8158 -70.8140
   -70.7225 -70.7206 -70.7176 -70.7134 -53.6710 -53.6700 -53.6643 -53.6635
   -36.9598 -36.9594 -36.9519 -36.9519 -36.9380 -36.9380 -36.9346 -36.9346
   -36.9099 -36.9058 -36.9038 -36.8846 -36.8814 -36.8814 -36.8789 -36.8788
   -36.8788 -36.8648 -36.8484 -36.8400 -36.8389 -36.8389 -36.7483 -36.7463
   -36.7434 -36.7434 -36.7163 -36.7105 -36.7105 -36.7027 -36.7027 -36.6725
   -36.6563 -36.6525 -36.6525 -36.6160 -25.0777 -25.0708 -25.0058 -25.0051
   -24.9993 -24.9993 -24.9937 -24.9937 -24.9909 -24.9909 -24.9897 -24.9897
     9.7789  11.2649  12.8382  12.8382  12.9121  12.9392  12.9392  12.9542
    13.0297  13.0636  13.0924  13.1002  13.1892  13.2056  13.4309  13.6753
    13.8608  14.0022  14.1400  14.1400  14.1909  14.1909  14.2726  14.3715
    14.3715  14.5196  14.5196  14.5339  14.7737  14.8732  14.9395  14.9395
    15.0005  15.0005  15.2711  15.2711  15.3209  15.3209  15.4116  15.4258
    15.4284  15.4540  15.4540  15.4610  15.4799  15.8545  15.9758  15.9963
    16.0196  16.1130  16.1130  16.1598  16.2293  16.2350  16.2350  16.2458
    16.2667  16.2999  16.3380  16.3380  16.3787  16.4684  16.7171  16.9252
    17.0517  17.1958  17.1958  17.3078  17.3838  17.3838  17.7081  17.7081
    17.9304  17.9304  17.9636  18.1086  18.2517  18.2866  18.3001  18.4697
    18.5315  18.5315  18.5872  18.7247  18.7247

          k =-0.5000 0.0000 0.0000 ( 10274 PWs)   bands (ev):

   -70.8288 -70.8288 -70.8187 -70.8187 -70.8187 -70.8187 -70.8148 -70.8148
   -70.7216 -70.7216 -70.7153 -70.7153 -53.6678 -53.6675 -53.6670 -53.6667
   -36.9597 -36.9597 -36.9441 -36.9441 -36.9441 -36.9441 -36.9092 -36.9092
   -36.9092 -36.9092 -36.9049 -36.9049 -36.8820 -36.8820 -36.8817 -36.8817
   -36.8642 -36.8642 -36.8642 -36.8642 -36.8521 -36.8521 -36.7473 -36.7473
   -36.7246 -36.7246 -36.7245 -36.7245 -36.6938 -36.6937 -36.6741 -36.6741
   -36.6741 -36.6741 -36.6337 -36.6337 -25.0415 -25.0412 -25.0383 -25.0380
   -24.9949 -24.9949 -24.9946 -24.9946 -24.9922 -24.9922 -24.9919 -24.9919
    10.4307  10.4307  12.9321  12.9321  12.9321  12.9321  13.0526  13.0526
    13.0882  13.0882  13.2655  13.2655  13.3312  13.3312  13.5185  13.5185
    13.5226  13.5226  14.1541  14.1541  14.1541  14.1541  14.5363  14.5363
    14.7127  14.7127  14.7127  14.7127  14.7498  14.7498  14.7498  14.7498
    14.8289  14.8289  15.0661  15.0661  15.1749  15.1749  15.1749  15.1749
    15.6487  15.6487  15.7077  15.7077  15.7078  15.7078  15.7419  15.7419
    15.7594  15.7594  16.2376  16.2376  16.2534  16.2534  16.2534  16.2534
    16.3336  16.3337  16.3501  16.3501  16.3506  16.3507  16.6267  16.6267
    17.0492  17.0492  17.5371  17.5371  17.5371  17.5371  17.5663  17.5663
    17.5664  17.5664  18.1426  18.1428  18.2468  18.2470  18.5263  18.5266
    18.6855  18.6855  18.6857  18.6857  18.7350

          k = 0.1667 0.1667 0.0000 ( 10267 PWs)   bands (ev):

   -70.8345 -70.8214 -70.8213 -70.8200 -70.8173 -70.8167 -70.8167 -70.8136
   -70.7223 -70.7198 -70.7191 -70.7128 -53.6734 -53.6724 -53.6619 -53.6611
   -36.9580 -36.9579 -36.9572 -36.9541 -36.9497 -36.9479 -36.9359 -36.9318
   -36.9207 -36.9090 -36.9048 -36.8932 -36.8929 -36.8883 -36.8827 -36.8713
   -36.8590 -36.8496 -36.8310 -36.8195 -36.8105 -36.7995 -36.7905 -36.7590
   -36.7551 -36.7486 -36.7331 -36.7237 -36.7060 -36.7038 -36.6999 -36.6751
   -36.6640 -36.6426 -36.6400 -36.6089 -25.1031 -25.0952 -25.0025 -25.0023
   -24.9956 -24.9955 -24.9891 -24.9891 -24.9864 -24.9864 -24.9809 -24.9791
     9.5065  12.2182  12.2392  12.7070  12.8370  12.8496  12.8778  12.8959
    12.9109  12.9285  12.9513  13.0536  13.1743  13.4037  13.4193  13.9953
    14.0739  14.0914  14.1093  14.1177  14.2155  14.2617  14.2734  14.2802
    14.3516  14.4359  14.4813  14.5649  14.6046  14.6895  14.6958  15.0391
    15.1105  15.1123  15.2674  15.2934  15.2982  15.3134  15.4404  15.4422
    15.5697  15.6046  15.6277  15.6455  15.8137  15.8995  15.9015  15.9100
    15.9189  16.0243  16.0628  16.1278  16.1721  16.1876  16.2537  16.2699
    16.2769  16.3470  16.3943  16.5155  16.6401  16.7748  16.7821  16.9040
    16.9375  17.0177  17.1675  17.3051  17.3836  17.4992  17.7683  17.8617
    17.9057  17.9177  17.9586  18.0176  18.0263  18.1311  18.3331  18.3663
    18.4074  18.4934  18.5183  18.6050  18.7601

          k = 0.1667 0.3333 0.0000 ( 10292 PWs)   bands (ev):

   -70.8319 -70.8244 -70.8206 -70.8194 -70.8182 -70.8174 -70.8160 -70.8143
   -70.7201 -70.7197 -70.7193 -70.7146 -53.6733 -53.6725 -53.6619 -53.6611
   -36.9549 -36.9542 -36.9534 -36.9423 -36.9422 -36.9408 -36.9376 -36.9260
   -36.9161 -36.9106 -36.9098 -36.9013 -36.8997 -36.8943 -36.8805 -36.8766
   -36.8599 -36.8550 -36.8361 -36.8306 -36.8301 -36.8159 -36.7847 -36.7572
   -36.7531 -36.7314 -36.7264 -36.7176 -36.7094 -36.6951 -36.6808 -36.6677
   -36.6649 -36.6535 -36.6446 -36.6210 -25.1015 -25.0969 -25.0015 -25.0009
   -24.9972 -24.9970 -24.9888 -24.9887 -24.9870 -24.9869 -24.9806 -24.9794
     9.9096  11.3572  12.4160  12.6665  12.9290  13.0019  13.0186  13.0783
    13.1054  13.1398  13.1560  13.2094  13.2292  13.4132  13.4518  13.7467
    13.8079  13.9616  14.1411  14.1881  14.2243  14.2338  14.2937  14.3027
    14.4069  14.4317  14.5721  14.6828  14.7170  14.7459  14.8525  14.9702
    15.0216  15.1058  15.1271  15.1722  15.2217  15.2465  15.2629  15.2703
    15.3038  15.4148  15.5675  15.6929  15.7188  15.7339  15.7372  15.7624
    15.8132  15.8205  15.8218  16.0519  16.1770  16.2421  16.2436  16.2956
    16.3292  16.3822  16.3956  16.5121  16.5647  16.5669  16.5727  16.7144
    16.9025  16.9085  17.1829  17.3368  17.3815  17.4928  17.5556  17.8047
    17.8421  18.0297  18.0329  18.0746  18.1086  18.2361  18.2677  18.3163
    18.3843  18.4547  18.5439  18.7768  18.8534

          k = 0.3333 0.0000 0.1667 ( 10292 PWs)   bands (ev):

   -70.8319 -70.8243 -70.8206 -70.8194 -70.8182 -70.8174 -70.8160 -70.8143
   -70.7218 -70.7204 -70.7177 -70.7140 -53.6710 -53.6701 -53.6643 -53.6635
   -36.9580 -36.9580 -36.9518 -36.9482 -36.9396 -36.9368 -36.9355 -36.9319
   -36.9083 -36.9055 -36.8991 -36.8941 -36.8927 -36.8885 -36.8807 -36.8785
   -36.8755 -36.8648 -36.8384 -36.8374 -36.8313 -36.8276 -36.7740 -36.7535
   -36.7464 -36.7389 -36.7190 -36.7153 -36.7075 -36.7021 -36.6855 -36.6795
   -36.6552 -36.6529 -36.6458 -36.6178 -25.0772 -25.0712 -25.0059 -25.0052
   -24.9990 -24.9989 -24.9942 -24.9941 -24.9907 -24.9906 -24.9897 -24.9897
     9.9109  11.3676  12.4012  12.6648  12.9421  13.0244  13.0257  13.0787
    13.0801  13.1158  13.1287  13.2260  13.2537  13.4110  13.4736  13.7016
    13.8544  13.9645  14.1693  14.1844  14.2298  14.2351  14.2415  14.2591
    14.2988  14.4757  14.5812  14.5987  14.7916  14.8072  14.8268  14.8495
    14.9414  15.0961  15.1307  15.1941  15.2216  15.2766  15.3054  15.3274
    15.3472  15.3850  15.4961  15.5438  15.6563  15.7604  15.8430  15.8992
    15.9082  15.9973  16.0562  16.0795  16.1802  16.1922  16.2194  16.2521
    16.3020  16.3141  16.3228  16.3431  16.4489  16.4975  16.5910  16.7074
    16.9748  16.9988  17.1235  17.3360  17.4843  17.5145  17.7502  17.9122
    17.9583  17.9588  18.0188  18.0676  18.1124  18.2298  18.2666  18.3566
    18.4456  18.4839  18.5474  18.5886  18.8366

          k = 0.1667-0.5000 0.0000 ( 10284 PWs)   bands (ev):

   -70.8283 -70.8283 -70.8194 -70.8194 -70.8184 -70.8184 -70.8151 -70.8151
   -70.7195 -70.7195 -70.7173 -70.7173 -53.6733 -53.6726 -53.6619 -53.6611
   -36.9529 -36.9529 -36.9471 -36.9471 -36.9283 -36.9283 -36.9280 -36.9280
   -36.9232 -36.9232 -36.9157 -36.9157 -36.8896 -36.8896 -36.8699 -36.8699
   -36.8677 -36.8677 -36.8452 -36.8452 -36.8277 -36.8277 -36.7698 -36.7698
   -36.7347 -36.7347 -36.7176 -36.7176 -36.7047 -36.7047 -36.6712 -36.6712
   -36.6535 -36.6535 -36.6408 -36.6408 -25.0995 -25.0988 -24.9998 -24.9994
   -24.9991 -24.9987 -24.9882 -24.9881 -24.9875 -24.9874 -24.9803 -24.9796
    10.5475  10.5475  12.5825  12.5825  13.0225  13.0226  13.1537  13.1537
    13.2715  13.2716  13.3058  13.3059  13.4471  13.4472  13.4886  13.4886
    13.5596  13.5597  14.1572  14.1572  14.2252  14.2252  14.5406  14.5406
    14.5869  14.5869  14.5906  14.5906  14.7149  14.7149  14.8131  14.8131
    14.9864  14.9864  15.1066  15.1066  15.1850  15.1850  15.2162  15.2162
    15.3767  15.3767  15.4095  15.4095  15.4190  15.4190  15.6915  15.6915
    15.8747  15.8747  16.0308  16.0308  16.0444  16.0444  16.3536  16.3536
    16.3912  16.3912  16.3952  16.3953  16.4852  16.4852  16.8204  16.8204
    16.9220  16.9221  16.9922  16.9924  17.5925  17.5926  17.6251  17.6257
    17.9216  17.9217  18.1391  18.1394  18.1933  18.1935  18.1951  18.1954
    18.4490  18.4496  18.6408  18.6409  19.2095

          k =-0.5000 0.0000 0.1667 ( 10284 PWs)   bands (ev):

   -70.8282 -70.8282 -70.8194 -70.8194 -70.8184 -70.8184 -70.8152 -70.8152
   -70.7211 -70.7211 -70.7158 -70.7157 -53.6677 -53.6674 -53.6670 -53.6667
   -36.9580 -36.9580 -36.9453 -36.9453 -36.9413 -36.9413 -36.9155 -36.9155
   -36.9099 -36.9098 -36.9045 -36.9045 -36.8935 -36.8935 -36.8723 -36.8723
   -36.8691 -36.8691 -36.8511 -36.8511 -36.8427 -36.8427 -36.7617 -36.7617
   -36.7298 -36.7298 -36.7129 -36.7129 -36.7123 -36.7123 -36.6755 -36.6755
   -36.6596 -36.6596 -36.6327 -36.6327 -25.0415 -25.0412 -25.0384 -25.0381
   -24.9946 -24.9946 -24.9943 -24.9943 -24.9925 -24.9924 -24.9922 -24.9921
    10.5518  10.5518  12.5759  12.5759  13.0342  13.0342  13.1579  13.1579
    13.2784  13.2784  13.3109  13.3109  13.3799  13.3799  13.5514  13.5514
    13.5531  13.5531  14.1872  14.1872  14.1946  14.1946  14.4277  14.4277
    14.5148  14.5148  14.6577  14.6577  14.7202  14.7202  14.8466  14.8466
    14.9453  14.9453  15.0715  15.0715  15.0737  15.0737  15.0744  15.0744
    15.4198  15.4199  15.5898  15.5898  15.6181  15.6182  15.7506  15.7506
    15.8459  15.8459  16.1684  16.1684  16.2354  16.2354  16.2480  16.2480
    16.3273  16.3273  16.3446  16.3446  16.3506  16.3506  16.5573  16.5573
    16.8715  16.8715  17.4513  17.4514  17.6222  17.6223  17.7166  17.7167
    17.7287  17.7287  18.1589  18.1590  18.2175  18.2177  18.3388  18.3388
    18.4473  18.4473  18.5009  18.5011  19.1848

          k = 0.3333 0.3333 0.0000 ( 10305 PWs)   bands (ev):

   -70.8297 -70.8231 -70.8231 -70.8195 -70.8187 -70.8168 -70.8168 -70.8150
   -70.7200 -70.7197 -70.7183 -70.7155 -53.6709 -53.6701 -53.6643 -53.6635
   -36.9547 -36.9539 -36.9516 -36.9439 -36.9386 -36.9351 -36.9293 -36.9247
   -36.9153 -36.9109 -36.9098 -36.9018 -36.9006 -36.8924 -36.8790 -36.8779
   -36.8759 -36.8474 -36.8326 -36.8291 -36.8265 -36.8091 -36.7999 -36.7697
   -36.7538 -36.7468 -36.7285 -36.7088 -36.7030 -36.7011 -36.6957 -36.6635
   -36.6550 -36.6458 -36.6402 -36.6243 -25.0760 -25.0724 -25.0063 -25.0057
   -24.9980 -24.9977 -24.9952 -24.9950 -24.9907 -24.9907 -24.9898 -24.9898
    10.2956  11.6413  11.6495  12.3924  13.1942  13.2141  13.2208  13.2329
    13.2357  13.2680  13.2837  13.3454  13.3925  13.4839  13.5090  13.7727
    13.8801  13.8947  13.9061  14.2195  14.2404  14.2480  14.3307  14.3422
    14.3449  14.3629  14.5094  14.6111  14.6652  14.7266  14.7824  14.7878
    14.9056  14.9231  15.0369  15.0783  15.0862  15.1280  15.1331  15.1446
    15.2539  15.2845  15.3015  15.5107  15.5610  15.6058  15.6198  15.7309
    15.8707  15.9482  16.0055  16.1251  16.1266  16.1396  16.1477  16.2118
    16.2251  16.3125  16.3433  16.3751  16.3921  16.5998  16.6353  16.6537
    16.6915  16.9555  16.9949  17.3816  17.5958  17.6449  17.6850  17.9370
    17.9807  17.9922  18.0028  18.0951  18.1331  18.1662  18.1715  18.2272
    18.3742  18.4368  18.5046  18.5532  19.2949

          k = 0.3333-0.5000 0.0000 ( 10314 PWs)   bands (ev):

   -70.8264 -70.8264 -70.8214 -70.8214 -70.8178 -70.8178 -70.8159 -70.8159
   -70.7190 -70.7190 -70.7177 -70.7177 -53.6709 -53.6701 -53.6643 -53.6635
   -36.9521 -36.9521 -36.9491 -36.9491 -36.9262 -36.9262 -36.9258 -36.9258
   -36.9223 -36.9223 -36.9072 -36.9072 -36.9053 -36.9053 -36.8780 -36.8780
   -36.8488 -36.8488 -36.8317 -36.8317 -36.8202 -36.8202 -36.7892 -36.7892
   -36.7452 -36.7452 -36.7323 -36.7323 -36.7010 -36.7010 -36.6769 -36.6769
   -36.6405 -36.6405 -36.6365 -36.6365 -25.0747 -25.0740 -25.0064 -25.0059
   -24.9970 -24.9965 -24.9963 -24.9959 -24.9907 -24.9906 -24.9900 -24.9899
    10.8970  10.8970  12.0304  12.0304  13.2973  13.2974  13.3248  13.3249
    13.3943  13.3944  13.4376  13.4377  13.5738  13.5738  13.6090  13.6090
    13.6276  13.6276  14.1946  14.1946  14.2387  14.2387  14.3371  14.3371
    14.3594  14.3594  14.4329  14.4330  14.7391  14.7391  14.7603  14.7604
    14.8884  14.8885  14.9270  14.9270  14.9680  14.9680  15.0556  15.0556
    15.2726  15.2726  15.3132  15.3133  15.3689  15.3690  15.7671  15.7671
    15.9532  15.9532  16.0265  16.0265  16.0406  16.0406  16.2066  16.2066
    16.2981  16.2981  16.3145  16.3145  16.4665  16.4665  16.6553  16.6553
    16.9308  16.9309  16.9956  16.9956  17.7701  17.7707  17.8752  17.8753
    17.8772  17.8775  18.0002  18.0003  18.1146  18.1152  18.2085  18.2087
    18.4695  18.4701  18.4758  18.4759  19.7610

          k =-0.5000 0.0000 0.3333 ( 10314 PWs)   bands (ev):

   -70.8264 -70.8264 -70.8214 -70.8214 -70.8178 -70.8178 -70.8159 -70.8159
   -70.7200 -70.7199 -70.7168 -70.7168 -53.6677 -53.6674 -53.6670 -53.6667
   -36.9544 -36.9544 -36.9478 -36.9478 -36.9337 -36.9337 -36.9210 -36.9210
   -36.9152 -36.9152 -36.9078 -36.9078 -36.9003 -36.9003 -36.8830 -36.8830
   -36.8470 -36.8470 -36.8345 -36.8345 -36.8264 -36.8264 -36.7845 -36.7845
   -36.7419 -36.7418 -36.7366 -36.7365 -36.6982 -36.6982 -36.6795 -36.6795
   -36.6443 -36.6443 -36.6321 -36.6321 -25.0410 -25.0407 -25.0393 -25.0390
   -24.9944 -24.9943 -24.9941 -24.9940 -24.9929 -24.9929 -24.9926 -24.9926
    10.9000  10.9000  12.0262  12.0262  13.3072  13.3073  13.3344  13.3344
    13.3684  13.3684  13.4509  13.4509  13.5721  13.5721  13.6196  13.6196
    13.6259  13.6259  14.2027  14.2027  14.2648  14.2648  14.2772  14.2773
    14.2828  14.2828  14.4997  14.4997  14.6983  14.6983  14.8257  14.8257
    14.8934  14.8934  14.8966  14.8966  14.9213  14.9213  15.0409  15.0409
    15.2223  15.2223  15.3595  15.3595  15.4331  15.4331  15.7812  15.7812
    15.9942  15.9942  16.0866  16.0866  16.1356  16.1356  16.1825  16.1825
    16.2108  16.2108  16.2643  16.2643  16.4595  16.4595  16.6687  16.6687
    16.7506  16.7506  17.1967  17.1968  17.7324  17.7324  17.8344  17.8346
    17.9682  17.9682  18.0702  18.0703  18.1111  18.1113  18.1763  18.1764
    18.4125  18.4126  18.4632  18.4634  19.7532

          k =-0.5000-0.5000 0.0000 ( 10280 PWs)   bands (ev):

   -70.8239 -70.8239 -70.8239 -70.8239 -70.8168 -70.8168 -70.8168 -70.8168
   -70.7183 -70.7183 -70.7183 -70.7183 -53.6677 -53.6674 -53.6670 -53.6667
   -36.9508 -36.9508 -36.9508 -36.9508 -36.9240 -36.9240 -36.9240 -36.9240
   -36.9179 -36.9179 -36.9179 -36.9179 -36.8927 -36.8927 -36.8926 -36.8926
   -36.8309 -36.8309 -36.8309 -36.8309 -36.8068 -36.8068 -36.8068 -36.8068
   -36.7486 -36.7486 -36.7486 -36.7486 -36.6869 -36.6869 -36.6869 -36.6869
   -36.6352 -36.6352 -36.6352 -36.6352 -25.0405 -25.0402 -25.0398 -25.0395
   -24.9939 -24.9939 -24.9937 -24.9936 -24.9932 -24.9932 -24.9929 -24.9929
    11.4239  11.4239  11.4239  11.4239  13.4001  13.4001  13.4001  13.4001
    13.5875  13.5875  13.5876  13.5876  13.6084  13.6084  13.6084  13.6084
    13.8768  13.8769  13.8769  13.8769  14.2409  14.2409  14.2409  14.2409
    14.3484  14.3484  14.3484  14.3484  14.6775  14.6775  14.6775  14.6775
    14.8328  14.8328  14.8328  14.8328  14.8839  14.8839  14.8839  14.8839
    15.3082  15.3082  15.3082  15.3082  15.5278  15.5278  15.5278  15.5278
    16.1061  16.1061  16.1062  16.1062  16.1317  16.1317  16.1317  16.1317
    16.1854  16.1854  16.1854  16.1854  16.5536  16.5536  16.5537  16.5537
    16.9470  16.9471  16.9471  16.9472  17.8634  17.8635  17.8635  17.8635
    17.9555  17.9557  17.9561  17.9563  18.1327  18.1327  18.1327  18.1327
    18.4403  18.4404  18.4407  18.4408  20.3030

          k = 0.3333 0.1667 0.1667 ( 10295 PWs)   bands (ev):

   -70.8311 -70.8239 -70.8209 -70.8196 -70.8182 -70.8177 -70.8163 -70.8145
   -70.7212 -70.7202 -70.7179 -70.7145 -53.6709 -53.6701 -53.6643 -53.6635
   -36.9564 -36.9562 -36.9485 -36.9479 -36.9381 -36.9363 -36.9344 -36.9325
   -36.9105 -36.9073 -36.9030 -36.8936 -36.8929 -36.8905 -36.8848 -36.8780
   -36.8725 -36.8594 -36.8402 -36.8349 -36.8315 -36.8181 -36.7881 -36.7628
   -36.7431 -36.7431 -36.7114 -36.7113 -36.7103 -36.7026 -36.6955 -36.6701
   -36.6525 -36.6503 -36.6468 -36.6201 -25.0768 -25.0716 -25.0060 -25.0053
   -24.9995 -24.9978 -24.9950 -24.9938 -24.9907 -24.9906 -24.9898 -24.9897
    10.0419  11.4720  12.4092  12.6005  12.7351  12.8207  13.1012  13.1498
    13.1591  13.1640  13.1859  13.3217  13.4337  13.5369  13.5519  13.7103
    13.8485  14.0103  14.0495  14.1806  14.2419  14.2526  14.2599  14.3000
    14.3116  14.4986  14.5795  14.5799  14.7156  14.7207  14.7694  14.8397
    14.8484  15.0336  15.1256  15.1560  15.1685  15.2024  15.2106  15.2593
    15.2634  15.3169  15.4348  15.5490  15.5770  15.7362  15.7572  15.7877
    15.8191  15.9109  16.0545  16.0639  16.1707  16.1847  16.2190  16.2231
    16.2493  16.2535  16.2687  16.3513  16.4023  16.4314  16.6468  16.7454
    16.9206  17.1801  17.2753  17.3343  17.3419  17.5918  17.6181  17.8051
    17.9690  17.9791  18.0182  18.1001  18.1697  18.2245  18.3373  18.3692
    18.4122  18.5111  18.5312  18.6033  18.7620

          k =-0.5000 0.1667 0.1667 ( 10278 PWs)   bands (ev):

   -70.8275 -70.8275 -70.8196 -70.8195 -70.8187 -70.8187 -70.8154 -70.8154
   -70.7207 -70.7207 -70.7160 -70.7160 -53.6677 -53.6674 -53.6670 -53.6667
   -36.9563 -36.9563 -36.9431 -36.9431 -36.9416 -36.9416 -36.9158 -36.9158
   -36.9121 -36.9121 -36.9055 -36.9055 -36.8986 -36.8985 -36.8666 -36.8666
   -36.8629 -36.8629 -36.8604 -36.8604 -36.8293 -36.8293 -36.7760 -36.7760
   -36.7243 -36.7242 -36.7216 -36.7216 -36.7113 -36.7113 -36.6742 -36.6742
   -36.6554 -36.6554 -36.6327 -36.6327 -25.0413 -25.0410 -25.0387 -25.0384
   -24.9949 -24.9946 -24.9943 -24.9940 -24.9928 -24.9925 -24.9922 -24.9919
    10.6732  10.6732  12.6196  12.6196  12.7591  12.7591  13.3149  13.3149
    13.3791  13.3791  13.4064  13.4064  13.4093  13.4093  13.5515  13.5515
    13.6149  13.6149  14.1987  14.1987  14.2450  14.2450  14.3504  14.3504
    14.4860  14.4860  14.5916  14.5916  14.6734  14.6734  14.8932  14.8932
    14.9411  14.9411  14.9482  14.9483  15.0129  15.0129  15.0265  15.0265
    15.3244  15.3244  15.4048  15.4049  15.4537  15.4537  15.7780  15.7780
    15.9003  15.9003  16.1570  16.1570  16.1602  16.1602  16.1988  16.1988
    16.2755  16.2755  16.3102  16.3102  16.3769  16.3769  16.6294  16.6294
    16.9684  16.9684  17.4388  17.4389  17.4678  17.4679  17.6770  17.6771
    18.0414  18.0415  18.0749  18.0750  18.2153  18.2153  18.2396  18.2398
    18.4698  18.4701  18.6641  18.6643  18.8153

          k = 0.3333 0.3333 0.1667 ( 10297 PWs)   bands (ev):

   -70.8290 -70.8230 -70.8227 -70.8193 -70.8191 -70.8171 -70.8171 -70.8152
   -70.7197 -70.7196 -70.7183 -70.7158 -53.6709 -53.6701 -53.6643 -53.6635
   -36.9527 -36.9517 -36.9483 -36.9417 -36.9387 -36.9340 -36.9311 -36.9228
   -36.9169 -36.9155 -36.9118 -36.9013 -36.8989 -36.8852 -36.8832 -36.8778
   -36.8706 -36.8520 -36.8336 -36.8292 -36.8243 -36.8189 -36.8037 -36.7826
   -36.7438 -36.7430 -36.7201 -36.7153 -36.7046 -36.7019 -36.6924 -36.6593
   -36.6532 -36.6453 -36.6433 -36.6268 -25.0757 -25.0727 -25.0062 -25.0056
   -24.9991 -24.9968 -24.9961 -24.9942 -24.9907 -24.9906 -24.9899 -24.9898
    10.4234  11.7463  11.7593  12.5076  12.7588  13.0928  13.0939  13.2742
    13.3262  13.3284  13.4179  13.4904  13.5218  13.5711  13.6934  13.8003
    13.8635  13.8811  13.9685  14.1537  14.2449  14.2548  14.3266  14.3722
    14.4018  14.4038  14.4805  14.5357  14.6323  14.6522  14.7335  14.7354
    14.8088  14.8226  14.9223  14.9997  15.0580  15.0843  15.0895  15.1246
    15.1288  15.1488  15.1684  15.3745  15.4111  15.4380  15.4780  15.7614
    15.9062  15.9345  16.0747  16.1085  16.1198  16.1214  16.1725  16.1730
    16.2489  16.2520  16.2623  16.3308  16.3821  16.5668  16.7154  16.7465
    16.8380  17.1020  17.2114  17.3328  17.4715  17.6177  17.7521  17.8646
    17.9364  17.9611  18.0195  18.0593  18.0628  18.2537  18.2588  18.3195
    18.4072  18.4411  18.5849  18.5976  18.8374

          k = 0.3333-0.5000 0.1667 ( 10270 PWs)   bands (ev):

   -70.8260 -70.8260 -70.8210 -70.8210 -70.8181 -70.8181 -70.8162 -70.8162
   -70.7190 -70.7190 -70.7177 -70.7177 -53.6709 -53.6701 -53.6643 -53.6635
   -36.9494 -36.9494 -36.9468 -36.9468 -36.9294 -36.9294 -36.9270 -36.9270
   -36.9201 -36.9201 -36.9041 -36.9041 -36.9034 -36.9034 -36.8792 -36.8792
   -36.8472 -36.8472 -36.8417 -36.8417 -36.8118 -36.8118 -36.8047 -36.8047
   -36.7345 -36.7345 -36.7326 -36.7326 -36.7017 -36.7017 -36.6736 -36.6736
   -36.6422 -36.6422 -36.6380 -36.6380 -25.0745 -25.0738 -25.0062 -25.0056
   -24.9980 -24.9978 -24.9951 -24.9950 -24.9907 -24.9906 -24.9899 -24.9898
    11.0176  11.0176  12.1467  12.1467  12.9931  12.9931  13.4288  13.4289
    13.4790  13.4791  13.5218  13.5218  13.5452  13.5452  13.7051  13.7051
    13.7165  13.7165  14.2013  14.2013  14.2434  14.2434  14.3127  14.3127
    14.3678  14.3678  14.4537  14.4537  14.6715  14.6715  14.7002  14.7002
    14.7656  14.7656  14.8425  14.8425  14.8613  14.8613  15.0375  15.0375
    15.1474  15.1474  15.2004  15.2004  15.2203  15.2203  15.6367  15.6367
    16.0220  16.0220  16.0473  16.0473  16.0699  16.0699  16.1846  16.1847
    16.2636  16.2636  16.3078  16.3078  16.4973  16.4973  16.6775  16.6775
    17.0512  17.0512  17.1277  17.1278  17.6717  17.6720  17.8506  17.8508
    17.9626  17.9627  18.0165  18.0165  18.0428  18.0430  18.2655  18.2660
    18.5035  18.5036  18.5077  18.5081  19.1700

          k =-0.5000 0.1667 0.3333 ( 10270 PWs)   bands (ev):

   -70.8259 -70.8259 -70.8212 -70.8212 -70.8181 -70.8181 -70.8161 -70.8161
   -70.7197 -70.7196 -70.7170 -70.7170 -53.6677 -53.6674 -53.6670 -53.6667
   -36.9522 -36.9522 -36.9450 -36.9450 -36.9346 -36.9346 -36.9181 -36.9181
   -36.9161 -36.9161 -36.9073 -36.9073 -36.9023 -36.9023 -36.8804 -36.8804
   -36.8494 -36.8494 -36.8429 -36.8429 -36.8175 -36.8175 -36.7993 -36.7993
   -36.7362 -36.7362 -36.7314 -36.7314 -36.6978 -36.6978 -36.6771 -36.6771
   -36.6459 -36.6459 -36.6339 -36.6339 -25.0409 -25.0406 -25.0393 -25.0389
   -24.9947 -24.9944 -24.9939 -24.9936 -24.9932 -24.9929 -24.9925 -24.9922
    11.0214  11.0214  12.1392  12.1392  12.9939  12.9939  13.4416  13.4416
    13.4578  13.4578  13.5410  13.5410  13.5986  13.5986  13.6287  13.6288
    13.7422  13.7422  14.1591  14.1591  14.2745  14.2745  14.3028  14.3028
    14.3295  14.3295  14.4754  14.4754  14.6504  14.6504  14.7192  14.7192
    14.7818  14.7818  14.7989  14.7989  14.8885  14.8885  15.0101  15.0101
    15.1012  15.1012  15.2438  15.2438  15.2448  15.2449  15.6634  15.6634
    16.0151  16.0151  16.1181  16.1181  16.1481  16.1481  16.1553  16.1553
    16.2474  16.2474  16.2615  16.2616  16.4526  16.4526  16.6383  16.6383
    16.9897  16.9897  17.3278  17.3279  17.6349  17.6350  17.7893  17.7893
    17.9783  17.9784  18.1013  18.1014  18.1402  18.1403  18.2082  18.2084
    18.4260  18.4262  18.4567  18.4567  19.1435

          k =-0.5000-0.5000 0.1667 ( 10292 PWs)   bands (ev):

   -70.8236 -70.8236 -70.8236 -70.8236 -70.8172 -70.8172 -70.8172 -70.8172
   -70.7183 -70.7183 -70.7183 -70.7183 -53.6677 -53.6674 -53.6670 -53.6667
   -36.9482 -36.9482 -36.9482 -36.9482 -36.9253 -36.9253 -36.9253 -36.9253
   -36.9146 -36.9146 -36.9146 -36.9146 -36.8933 -36.8933 -36.8933 -36.8933
   -36.8344 -36.8344 -36.8344 -36.8344 -36.8152 -36.8152 -36.8152 -36.8152
   -36.7398 -36.7397 -36.7397 -36.7397 -36.6853 -36.6853 -36.6853 -36.6853
   -36.6380 -36.6380 -36.6380 -36.6380 -25.0405 -25.0402 -25.0398 -25.0395
   -24.9944 -24.9944 -24.9941 -24.9941 -24.9929 -24.9929 -24.9926 -24.9926
    11.5439  11.5439  11.5439  11.5439  13.3437  13.3437  13.3438  13.3438
    13.4943  13.4943  13.4943  13.4943  13.8213  13.8213  13.8213  13.8213
    13.8855  13.8855  13.8855  13.8855  14.2271  14.2271  14.2271  14.2271
    14.3692  14.3692  14.3692  14.3693  14.5915  14.5915  14.5915  14.5915
    14.7171  14.7171  14.7171  14.7171  14.8582  14.8582  14.8582  14.8582
    15.1417  15.1417  15.1417  15.1417  15.3977  15.3977  15.3977  15.3977
    16.1085  16.1085  16.1085  16.1085  16.1675  16.1675  16.1675  16.1675
    16.2400  16.2400  16.2400  16.2400  16.5104  16.5104  16.5104  16.5104
    17.1548  17.1548  17.1548  17.1549  17.8332  17.8334  17.8335  17.8336
    17.9435  17.9436  17.9436  17.9437  18.1562  18.1563  18.1564  18.1566
    18.4182  18.4183  18.4185  18.4186  19.5941

          k =-0.5000 0.3333 0.3333 ( 10252 PWs)   bands (ev):

   -70.8244 -70.8244 -70.8212 -70.8212 -70.8187 -70.8187 -70.8170 -70.8170
   -70.7191 -70.7190 -70.7175 -70.7175 -53.6677 -53.6674 -53.6670 -53.6667
   -36.9470 -36.9470 -36.9387 -36.9387 -36.9360 -36.9360 -36.9213 -36.9213
   -36.9075 -36.9075 -36.9074 -36.9073 -36.9058 -36.9058 -36.8721 -36.8721
   -36.8688 -36.8688 -36.8364 -36.8364 -36.8219 -36.8219 -36.8144 -36.8144
   -36.7335 -36.7335 -36.7238 -36.7237 -36.6914 -36.6913 -36.6741 -36.6741
   -36.6482 -36.6482 -36.6389 -36.6389 -25.0405 -25.0402 -25.0394 -25.0391
   -24.9950 -24.9947 -24.9944 -24.9941 -24.9929 -24.9926 -24.9923 -24.9920
    11.3687  11.3687  12.3658  12.3658  12.6012  12.6012  13.3664  13.3664
    13.6296  13.6296  13.6520  13.6520  13.6725  13.6725  13.8024  13.8024
    13.9276  13.9276  14.0998  14.0998  14.3236  14.3237  14.3399  14.3399
    14.3705  14.3705  14.3889  14.3889  14.5122  14.5122  14.5129  14.5129
    14.5494  14.5494  14.6091  14.6091  14.8542  14.8543  14.9294  14.9294
    14.9438  14.9438  14.9626  14.9626  14.9728  14.9728  15.3441  15.3441
    16.0728  16.0728  16.1379  16.1379  16.1464  16.1464  16.2267  16.2267
    16.3219  16.3219  16.3356  16.3356  16.4937  16.4938  16.8592  16.8592
    16.9034  16.9034  17.3719  17.3719  17.6952  17.6953  17.8641  17.8642
    17.9061  17.9061  18.1428  18.1429  18.1745  18.1747  18.2532  18.2533
    18.3289  18.3291  18.6540  18.6541  18.7183

          k =-0.5000-0.5000 0.3333 ( 10252 PWs)   bands (ev):

   -70.8227 -70.8227 -70.8227 -70.8227 -70.8180 -70.8180 -70.8180 -70.8180
   -70.7183 -70.7183 -70.7182 -70.7182 -53.6677 -53.6674 -53.6670 -53.6667
   -36.9416 -36.9416 -36.9416 -36.9416 -36.9284 -36.9284 -36.9284 -36.9284
   -36.9080 -36.9080 -36.9080 -36.9080 -36.8907 -36.8907 -36.8907 -36.8907
   -36.8527 -36.8527 -36.8527 -36.8527 -36.8195 -36.8195 -36.8195 -36.8195
   -36.7278 -36.7278 -36.7277 -36.7277 -36.6795 -36.6795 -36.6795 -36.6795
   -36.6453 -36.6453 -36.6453 -36.6453 -25.0403 -25.0400 -25.0396 -25.0393
   -24.9949 -24.9949 -24.9946 -24.9946 -24.9925 -24.9925 -24.9922 -24.9922
    11.8836  11.8836  11.8836  11.8836  12.9662  12.9662  12.9662  12.9662
    13.7037  13.7037  13.7037  13.7037  13.9027  13.9027  13.9027  13.9027
    14.0697  14.0697  14.0697  14.0697  14.2061  14.2061  14.2061  14.2061
    14.3896  14.3896  14.3896  14.3896  14.4661  14.4661  14.4661  14.4661
    14.4859  14.4859  14.4859  14.4859  14.7962  14.7962  14.7962  14.7962
    14.8857  14.8857  14.8858  14.8858  15.0451  15.0451  15.0451  15.0451
    16.1259  16.1259  16.1260  16.1260  16.1887  16.1887  16.1888  16.1888
    16.4223  16.4223  16.4223  16.4223  16.6142  16.6142  16.6142  16.6142
    17.1442  17.1442  17.1442  17.1442  17.8489  17.8490  17.8492  17.8493
    18.0496  18.0496  18.0498  18.0498  18.2074  18.2076  18.2078  18.2080
    18.4017  18.4017  18.4017  18.4018  19.0573

 ------ SPIN DOWN ----------


          k = 0.0000 0.0000 0.0000 ( 10395 PWs)   bands (ev):

   -68.2564 -68.2466 -68.2466 -68.2465 -68.2427 -68.2427 -68.2427 -68.2388
   -67.9520 -67.9482 -67.9482 -67.9473 -55.1015 -55.1003 -55.0889 -55.0880
   -34.4781 -34.4754 -34.4631 -34.4631 -34.4447 -34.4447 -34.4202 -34.4202
   -34.4158 -34.4108 -34.3690 -34.3685 -34.3597 -34.3426 -34.3426 -34.3361
   -34.3084 -34.3084 -34.3035 -34.2870 -34.2479 -34.2479 -34.2258 -34.2209
   -34.1055 -34.1055 -34.1003 -34.1003 -34.0470 -34.0470 -34.0049 -34.0049
   -33.9882 -33.9317 -33.9097 -33.8990 -26.5078 -26.5078 -26.4973 -26.4973
   -26.4940 -26.4940 -26.4883 -26.4883 -26.3285 -26.3159 -26.1937 -26.1901
     9.2551  13.0343  13.1699  13.3190  13.3331  13.3331  13.3445  13.3838
    13.3923  13.3923  13.4562  13.4568  13.7642  14.0166  14.3400  14.9206
    14.9596  14.9816  14.9816  15.3402  15.3402  15.5269  15.5269  15.5400
    15.5400  15.5505  15.6892  15.7837  15.7975  16.2459  16.3885  16.5142
    16.5142  16.5413  16.6249  16.7244  16.7244  16.7766  16.7766  17.1077
    17.1077  17.1649  17.1858  17.1858  17.1974  17.1974  17.2398  17.3837
    17.8163  17.8163  17.8447  17.8447  17.8503  17.8670  17.9566  17.9795
    17.9973  18.0035  18.1045  18.1076  18.1076  18.1938  18.2242  18.2725
    18.5893  18.5974  18.5974  18.6466  18.8487  18.9168  18.9447  19.0042
    19.0042  19.0221  19.0431  19.0546  19.0664  19.2457  19.2672  19.2677
    19.2677  19.2818  19.4008  19.5923  19.6071

          k = 0.0000 0.0000 0.1667 ( 10299 PWs)   bands (ev):

   -68.2558 -68.2473 -68.2462 -68.2462 -68.2427 -68.2427 -68.2421 -68.2388
   -67.9517 -67.9480 -67.9479 -67.9474 -55.1014 -55.1004 -55.0889 -55.0880
   -34.4754 -34.4739 -34.4629 -34.4591 -34.4468 -34.4420 -34.4183 -34.4169
   -34.4164 -34.4127 -34.3729 -34.3644 -34.3617 -34.3405 -34.3376 -34.3343
   -34.3103 -34.3079 -34.3036 -34.2937 -34.2585 -34.2461 -34.2400 -34.2227
   -34.0966 -34.0960 -34.0959 -34.0929 -34.0500 -34.0498 -34.0105 -34.0093
   -33.9798 -33.9300 -33.9110 -33.9034 -26.5073 -26.5071 -26.4979 -26.4978
   -26.4935 -26.4934 -26.4886 -26.4884 -26.3276 -26.3164 -26.1934 -26.1902
     9.3952  12.2988  13.2385  13.2467  13.3748  13.3782  13.4206  13.4270
    13.4861  13.4873  13.5225  13.8189  13.9751  14.0680  14.3844  14.8589
    14.9337  14.9787  15.0074  15.3521  15.4012  15.4048  15.4969  15.5057
    15.5927  15.6270  15.6397  15.7895  15.8035  16.0718  16.1232  16.3881
    16.5498  16.5511  16.6098  16.6221  16.7730  16.8197  16.8797  16.8804
    16.9225  17.0771  17.2533  17.2701  17.3087  17.3187  17.3499  17.3824
    17.3882  17.4351  17.4674  17.4774  17.5396  17.5603  17.7434  18.0397
    18.1519  18.1564  18.1669  18.2271  18.3290  18.3539  18.4684  18.4772
    18.5296  18.5593  18.6213  18.6473  18.8331  18.8929  18.9475  19.0066
    19.0307  19.0558  19.1172  19.1235  19.1637  19.2150  19.2211  19.2707
    19.2746  19.3869  19.4687  19.5739  19.5749

          k = 0.0000 0.0000 0.3333 ( 10323 PWs)   bands (ev):

   -68.2539 -68.2495 -68.2455 -68.2455 -68.2435 -68.2435 -68.2413 -68.2395
   -67.9509 -67.9482 -67.9480 -67.9479 -55.1014 -55.1004 -55.0889 -55.0880
   -34.4703 -34.4689 -34.4636 -34.4525 -34.4491 -34.4354 -34.4258 -34.4185
   -34.4085 -34.4065 -34.3832 -34.3768 -34.3433 -34.3348 -34.3292 -34.3233
   -34.3157 -34.3088 -34.3070 -34.3046 -34.2847 -34.2699 -34.2416 -34.2281
   -34.0853 -34.0848 -34.0749 -34.0675 -34.0588 -34.0584 -34.0259 -34.0219
   -33.9596 -33.9260 -33.9165 -33.9149 -26.5058 -26.5053 -26.5000 -26.4997
   -26.4927 -26.4924 -26.4897 -26.4895 -26.3252 -26.3188 -26.1929 -26.1908
     9.8077  11.3273  13.4149  13.4292  13.4456  13.4660  13.4865  13.5089
    13.5510  13.6149  13.7496  14.0431  14.1882  14.2682  14.5227  14.5382
    14.9384  14.9685  15.0087  15.1021  15.1356  15.4081  15.5790  15.5918
    15.7855  15.7926  15.8711  15.8886  15.8910  15.9676  16.0039  16.2045
    16.2258  16.2760  16.4763  16.5201  16.5223  16.5250  16.6218  16.6423
    16.7710  16.7953  16.8219  16.8794  16.8872  16.9466  16.9467  17.3106
    17.4215  17.5517  17.6083  17.7530  17.7838  17.8007  17.9067  17.9580
    17.9886  18.3439  18.4006  18.4727  18.4770  18.4881  18.5950  18.6053
    18.6284  18.6866  18.7307  18.7460  18.7482  18.8188  18.8220  18.8469
    18.9163  18.9625  19.0121  19.0147  19.0520  19.0594  19.3027  19.3837
    19.4282  19.4651  19.4705  19.5448  19.5451

          k = 0.0000 0.0000-0.5000 ( 10274 PWs)   bands (ev):

   -68.2515 -68.2515 -68.2446 -68.2446 -68.2446 -68.2446 -68.2401 -68.2401
   -67.9495 -67.9495 -67.9478 -67.9478 -55.1013 -55.1005 -55.0889 -55.0880
   -34.4661 -34.4661 -34.4605 -34.4605 -34.4367 -34.4367 -34.4266 -34.4266
   -34.3964 -34.3964 -34.3921 -34.3921 -34.3239 -34.3239 -34.3224 -34.3224
   -34.3158 -34.3158 -34.3059 -34.3059 -34.2999 -34.2999 -34.2350 -34.2350
   -34.0714 -34.0714 -34.0710 -34.0710 -34.0488 -34.0488 -34.0420 -34.0420
   -33.9364 -33.9364 -33.9203 -33.9203 -26.5032 -26.5028 -26.5025 -26.5021
   -26.4915 -26.4913 -26.4907 -26.4906 -26.3225 -26.3214 -26.1924 -26.1913
    10.4677  10.4678  13.4973  13.4974  13.5357  13.5358  13.5528  13.5532
    13.5880  13.5882  14.1298  14.1302  14.2837  14.2840  14.4567  14.4569
    14.7781  14.7783  15.0044  15.0048  15.2622  15.2624  15.8573  15.8577
    15.8801  15.8804  15.9996  15.9998  16.0571  16.0572  16.0902  16.0904
    16.1511  16.1512  16.1569  16.1571  16.2566  16.2567  16.3967  16.3968
    16.4646  16.4646  16.6504  16.6505  16.7960  16.7960  17.1508  17.1509
    17.6949  17.6953  17.7912  17.7916  18.0207  18.0209  18.1236  18.1237
    18.2070  18.2071  18.2624  18.2625  18.3115  18.3115  18.5623  18.5629
    18.7614  18.7615  18.8098  18.8100  18.8541  18.8544  18.8884  18.8886
    18.9961  18.9962  19.0037  19.0037  19.1177  19.1177  19.1202  19.1203
    19.1874  19.1874  19.5760  19.5762  19.6436

          k = 0.0000 0.1667 0.1667 ( 10267 PWs)   bands (ev):

   -68.2551 -68.2472 -68.2465 -68.2459 -68.2430 -68.2423 -68.2423 -68.2389
   -67.9513 -67.9479 -67.9478 -67.9476 -55.1014 -55.1004 -55.0889 -55.0880
   -34.4729 -34.4723 -34.4601 -34.4586 -34.4445 -34.4437 -34.4206 -34.4190
   -34.4147 -34.4084 -34.3801 -34.3641 -34.3558 -34.3450 -34.3325 -34.3270
   -34.3111 -34.3084 -34.3040 -34.3026 -34.2635 -34.2486 -34.2440 -34.2249
   -34.1049 -34.1001 -34.0850 -34.0710 -34.0585 -34.0468 -34.0239 -34.0050
   -33.9728 -33.9286 -33.9122 -33.9073 -26.5078 -26.5053 -26.4998 -26.4972
   -26.4938 -26.4924 -26.4895 -26.4882 -26.3268 -26.3171 -26.1931 -26.1904
     9.5337  12.3646  12.4133  13.2982  13.3278  13.4734  13.4759  13.5529
    13.5862  13.6047  13.8593  13.9365  14.0606  14.1237  14.4340  14.8351
    14.9404  14.9734  15.0012  15.4038  15.4151  15.4385  15.4492  15.5250
    15.5474  15.5672  15.6832  15.7942  15.8081  15.8456  16.0723  16.2586
    16.2904  16.5789  16.6514  16.6722  16.6985  16.7893  16.7911  16.9341
    16.9792  16.9828  17.0439  17.0770  17.0872  17.2138  17.2190  17.2502
    17.2826  17.3655  17.3805  17.4652  17.5216  17.6516  17.8644  18.0879
    18.0988  18.1146  18.3012  18.3239  18.3981  18.4275  18.4415  18.4718
    18.5526  18.6011  18.6961  18.7588  18.8108  18.8520  18.8801  18.9060
    18.9738  19.0095  19.0181  19.0414  19.0675  19.0964  19.1456  19.2800
    19.3328  19.3556  19.4573  19.6355  19.6969

          k = 0.0000 0.1667 0.3333 ( 10292 PWs)   bands (ev):

   -68.2534 -68.2488 -68.2460 -68.2453 -68.2438 -68.2431 -68.2416 -68.2397
   -67.9506 -67.9484 -67.9480 -67.9478 -55.1014 -55.1004 -55.0889 -55.0880
   -34.4683 -34.4664 -34.4607 -34.4500 -34.4497 -34.4375 -34.4276 -34.4205
   -34.4151 -34.3958 -34.3931 -34.3698 -34.3441 -34.3386 -34.3280 -34.3204
   -34.3155 -34.3088 -34.3079 -34.3051 -34.2851 -34.2607 -34.2455 -34.2308
   -34.0959 -34.0943 -34.0713 -34.0712 -34.0498 -34.0453 -34.0452 -34.0098
   -33.9558 -33.9251 -33.9186 -33.9156 -26.5073 -26.5030 -26.5023 -26.4980
   -26.4935 -26.4915 -26.4907 -26.4886 -26.3248 -26.3191 -26.1927 -26.1909
     9.9412  11.4368  12.6223  13.1503  13.5234  13.5518  13.5637  13.7267
    13.7614  13.8063  14.0383  14.0598  14.2562  14.3029  14.5791  14.5851
    14.9028  15.0406  15.0630  15.0734  15.2034  15.4475  15.5206  15.5870
    15.7181  15.7314  15.7643  15.8354  15.8420  15.8501  16.0065  16.0333
    16.1268  16.4170  16.4252  16.4384  16.4649  16.4872  16.4936  16.6318
    16.6441  16.6443  16.6507  16.7475  16.7781  16.7876  17.1148  17.4471
    17.5087  17.5798  17.6045  17.6542  17.7989  17.8794  17.8857  17.9478
    17.9919  18.2957  18.4005  18.4030  18.4140  18.4496  18.4597  18.4663
    18.6160  18.6555  18.6931  18.7568  18.7587  18.7820  18.8346  18.9006
    18.9324  18.9661  19.0114  19.0441  19.0755  19.1102  19.1579  19.1762
    19.2333  19.2625  19.3096  19.6172  19.7270

          k = 0.0000 0.1667-0.5000 ( 10284 PWs)   bands (ev):

   -68.2511 -68.2511 -68.2448 -68.2448 -68.2442 -68.2442 -68.2406 -68.2406
   -67.9494 -67.9494 -67.9479 -67.9479 -55.1013 -55.1005 -55.0889 -55.0880
   -34.4637 -34.4637 -34.4581 -34.4581 -34.4380 -34.4380 -34.4288 -34.4288
   -34.4059 -34.4059 -34.3816 -34.3816 -34.3357 -34.3357 -34.3218 -34.3218
   -34.3133 -34.3133 -34.3065 -34.3065 -34.2853 -34.2853 -34.2386 -34.2386
   -34.0849 -34.0849 -34.0709 -34.0709 -34.0585 -34.0585 -34.0237 -34.0237
   -33.9359 -33.9359 -33.9203 -33.9203 -26.5054 -26.5053 -26.5000 -26.4999
   -26.4925 -26.4925 -26.4898 -26.4897 -26.3225 -26.3215 -26.1924 -26.1913
    10.5919  10.5920  12.9128  12.9129  13.5985  13.5986  13.6969  13.6971
    13.9453  13.9455  14.1841  14.1844  14.3529  14.3531  14.4761  14.4763
    14.8526  14.8528  15.0456  15.0459  15.2633  15.2635  15.7336  15.7336
    15.7612  15.7613  15.9427  15.9428  15.9439  15.9440  16.0929  16.0929
    16.0991  16.0991  16.1449  16.1450  16.2368  16.2368  16.3049  16.3050
    16.3879  16.3879  16.6454  16.6454  16.6527  16.6527  17.3449  17.3449
    17.7182  17.7186  17.8140  17.8143  17.9806  17.9807  17.9839  17.9840
    18.1470  18.1471  18.2112  18.2112  18.2439  18.2440  18.4773  18.4780
    18.7528  18.7529  18.7647  18.7649  18.8004  18.8005  18.8409  18.8410
    18.9630  18.9630  19.0414  19.0415  19.0965  19.0965  19.1559  19.1559
    19.1746  19.1747  19.4123  19.4123  19.8689

          k = 0.0000 0.3333 0.3333 ( 10305 PWs)   bands (ev):

   -68.2521 -68.2487 -68.2468 -68.2446 -68.2444 -68.2424 -68.2424 -68.2404
   -67.9502 -67.9488 -67.9479 -67.9479 -55.1013 -55.1005 -55.0889 -55.0880
   -34.4633 -34.4600 -34.4540 -34.4508 -34.4444 -34.4421 -34.4334 -34.4262
   -34.4173 -34.4050 -34.3827 -34.3669 -34.3508 -34.3380 -34.3256 -34.3247
   -34.3167 -34.3089 -34.3064 -34.2912 -34.2866 -34.2548 -34.2503 -34.2382
   -34.1040 -34.1001 -34.0849 -34.0705 -34.0585 -34.0467 -34.0239 -34.0051
   -33.9462 -33.9250 -33.9230 -33.9176 -26.5081 -26.5053 -26.5002 -26.4975
   -26.4939 -26.4925 -26.4898 -26.4884 -26.3237 -26.3203 -26.1925 -26.1911
    10.3326  11.7276  11.7666  12.7054  13.6724  13.6756  13.7604  13.9676
    14.0112  14.0228  14.0977  14.2349  14.4288  14.4540  14.6286  14.7504
    14.8562  14.9595  15.1106  15.2274  15.2422  15.3272  15.4138  15.4367
    15.5604  15.6524  15.6760  15.7598  15.8343  15.8718  15.9465  15.9694
    16.0228  16.0508  16.1930  16.1980  16.2712  16.3427  16.3549  16.3593
    16.4393  16.5092  16.5129  16.6179  16.6954  16.6981  17.2545  17.3752
    17.5790  17.7035  17.7677  17.8167  17.8711  17.8950  17.9778  17.9919
    17.9960  18.1087  18.1916  18.1957  18.3177  18.3677  18.4278  18.4347
    18.4587  18.5889  18.6978  18.7038  18.7284  18.8258  18.8274  18.8434
    18.8543  18.9614  18.9837  19.0451  19.0532  19.1078  19.1131  19.1328
    19.3063  19.3073  19.3904  19.6682  20.0002

          k = 0.0000 0.3333-0.5000 ( 10314 PWs)   bands (ev):

   -68.2501 -68.2501 -68.2460 -68.2460 -68.2435 -68.2435 -68.2414 -68.2414
   -67.9495 -67.9495 -67.9479 -67.9479 -55.1013 -55.1005 -55.0889 -55.0880
   -34.4573 -34.4573 -34.4515 -34.4515 -34.4422 -34.4422 -34.4344 -34.4344
   -34.4137 -34.4137 -34.3717 -34.3717 -34.3491 -34.3491 -34.3203 -34.3203
   -34.3081 -34.3081 -34.3074 -34.3074 -34.2655 -34.2655 -34.2465 -34.2465
   -34.0959 -34.0959 -34.0935 -34.0935 -34.0498 -34.0498 -34.0099 -34.0099
   -33.9349 -33.9349 -33.9203 -33.9203 -26.5074 -26.5074 -26.4982 -26.4982
   -26.4936 -26.4936 -26.4889 -26.4889 -26.3226 -26.3215 -26.1924 -26.1913
    10.9526  10.9527  12.2027  12.2028  13.7283  13.7284  13.9897  13.9899
    14.1389  14.1393  14.3562  14.3564  14.5024  14.5025  14.5587  14.5590
    15.0020  15.0021  15.1471  15.1474  15.1546  15.1547  15.3928  15.3930
    15.6494  15.6494  15.6782  15.6782  15.7992  15.7993  15.8747  15.8747
    16.0108  16.0110  16.0929  16.0930  16.2252  16.2252  16.2298  16.2298
    16.4010  16.4011  16.4729  16.4730  16.6312  16.6312  17.4934  17.4934
    17.6714  17.6716  17.7035  17.7035  17.8665  17.8668  17.9797  17.9797
    18.0621  18.0623  18.2544  18.2545  18.3524  18.3526  18.4094  18.4102
    18.4758  18.4759  18.6636  18.6636  18.6825  18.6826  18.7330  18.7331
    18.9043  18.9043  19.0174  19.0174  19.0813  19.0813  19.2453  19.2453
    19.2600  19.2600  19.5887  19.5888  20.3771

          k = 0.0000-0.5000-0.5000 ( 10280 PWs)   bands (ev):

   -68.2493 -68.2493 -68.2467 -68.2467 -68.2423 -68.2423 -68.2423 -68.2423
   -67.9494 -67.9494 -67.9478 -67.9478 -55.1013 -55.1005 -55.0889 -55.0880
   -34.4506 -34.4506 -34.4476 -34.4476 -34.4442 -34.4442 -34.4411 -34.4411
   -34.4165 -34.4165 -34.3679 -34.3679 -34.3540 -34.3540 -34.3193 -34.3193
   -34.3091 -34.3091 -34.3037 -34.3037 -34.2566 -34.2566 -34.2510 -34.2510
   -34.1034 -34.1034 -34.1000 -34.0999 -34.0466 -34.0466 -34.0050 -34.0050
   -33.9343 -33.9343 -33.9202 -33.9202 -26.5082 -26.5082 -26.4975 -26.4975
   -26.4939 -26.4939 -26.4885 -26.4885 -26.3226 -26.3215 -26.1924 -26.1913
    11.4792  11.4794  11.5477  11.5477  13.7932  13.7932  14.1872  14.1877
    14.2604  14.2606  14.4512  14.4512  14.5432  14.5433  14.7238  14.7242
    14.9543  14.9543  15.0470  15.0470  15.1494  15.1497  15.2265  15.2269
    15.5026  15.5026  15.6673  15.6673  15.7387  15.7387  15.8287  15.8288
    15.9350  15.9352  15.9929  15.9929  16.1244  16.1245  16.1847  16.1847
    16.3915  16.3915  16.6141  16.6141  16.6384  16.6384  17.2277  17.2277
    17.6224  17.6225  17.8978  17.8982  17.9139  17.9139  17.9242  17.9242
    18.0863  18.0865  18.2340  18.2340  18.3661  18.3661  18.4083  18.4092
    18.4592  18.4595  18.5851  18.5851  18.6035  18.6035  18.6402  18.6402
    18.8900  18.8900  18.9665  18.9665  19.0779  19.0779  19.2833  19.2833
    19.3227  19.3227  19.6522  19.6522  20.8635

          k = 0.1667 0.1667 0.1667 ( 10269 PWs)   bands (ev):

   -68.2545 -68.2469 -68.2466 -68.2463 -68.2427 -68.2427 -68.2427 -68.2390
   -67.9511 -67.9481 -67.9478 -67.9476 -55.1006 -55.0996 -55.0897 -55.0888
   -34.4729 -34.4723 -34.4588 -34.4576 -34.4454 -34.4446 -34.4203 -34.4156
   -34.4123 -34.4037 -34.3774 -34.3605 -34.3505 -34.3404 -34.3396 -34.3252
   -34.3212 -34.3177 -34.3060 -34.2980 -34.2672 -34.2588 -34.2436 -34.2263
   -34.0992 -34.0900 -34.0811 -34.0707 -34.0597 -34.0496 -34.0280 -34.0096
   -33.9680 -33.9266 -33.9158 -33.9083 -26.5065 -26.5043 -26.4993 -26.4969
   -26.4940 -26.4930 -26.4906 -26.4894 -26.3176 -26.3089 -26.2016 -26.1995
     9.6709  12.4490  12.4863  12.5105  13.3922  13.4022  13.4945  13.6844
    13.6965  13.9486  13.9718  14.1050  14.1523  14.1855  14.4913  14.7481
    14.9934  15.0057  15.0519  15.3629  15.3672  15.3748  15.3855  15.4795
    15.6000  15.6007  15.6013  15.6695  15.8349  15.8719  15.9537  16.1575
    16.2882  16.4140  16.5554  16.6162  16.6499  16.7704  16.8296  16.8538
    16.8623  16.8834  16.8881  16.9514  16.9996  17.0571  17.0589  17.1029
    17.2915  17.4114  17.4919  17.5579  17.6191  17.6441  18.0245  18.0546
    18.1233  18.1448  18.2248  18.3122  18.3657  18.4778  18.4988  18.5418
    18.5504  18.5836  18.6092  18.7075  18.8175  18.8286  18.8846  18.9053
    18.9985  19.0006  19.0089  19.0743  19.1131  19.1253  19.1408  19.2113
    19.3440  19.3672  19.3704  19.4205  19.6900

          k = 0.1667 0.1667 0.3333 ( 10295 PWs)   bands (ev):

   -68.2529 -68.2485 -68.2458 -68.2457 -68.2435 -68.2435 -68.2419 -68.2399
   -67.9504 -67.9483 -67.9480 -67.9480 -55.1005 -55.0996 -55.0897 -55.0889
   -34.4681 -34.4666 -34.4599 -34.4507 -34.4489 -34.4383 -34.4272 -34.4212
   -34.4092 -34.3923 -34.3895 -34.3666 -34.3435 -34.3339 -34.3336 -34.3317
   -34.3176 -34.3141 -34.3061 -34.2982 -34.2853 -34.2597 -34.2537 -34.2340
   -34.0907 -34.0876 -34.0708 -34.0699 -34.0523 -34.0480 -34.0477 -34.0143
   -33.9523 -33.9239 -33.9185 -33.9177 -26.5061 -26.5023 -26.5015 -26.4977
   -26.4938 -26.4923 -26.4915 -26.4899 -26.3159 -26.3107 -26.2014 -26.1998
    10.0739  11.5474  12.7203  12.7275  13.2608  13.2768  13.7450  13.8568
    13.9219  14.1122  14.1628  14.1653  14.3113  14.3727  14.5733  14.6393
    14.9129  15.0518  15.0791  15.1413  15.1765  15.4275  15.4765  15.4837
    15.6602  15.6832  15.7431  15.7435  15.7876  15.8988  15.9063  15.9727
    16.2143  16.2143  16.3022  16.3227  16.3435  16.3677  16.4518  16.5071
    16.6171  16.6530  16.6562  16.6622  16.6653  16.7056  17.2311  17.2360
    17.5580  17.6385  17.6394  17.8272  17.8434  17.9367  17.9567  17.9944
    18.0077  18.0937  18.3002  18.3714  18.3835  18.3960  18.4282  18.5380
    18.5973  18.6164  18.7735  18.7829  18.8074  18.8204  18.8413  18.8892
    18.9588  18.9624  19.0081  19.0087  19.0106  19.1041  19.1495  19.1785
    19.2678  19.3322  19.3946  19.4107  19.4424

          k = 0.1667 0.1667-0.5000 ( 10278 PWs)   bands (ev):

   -68.2506 -68.2506 -68.2447 -68.2447 -68.2446 -68.2446 -68.2408 -68.2408
   -67.9493 -67.9493 -67.9480 -67.9480 -55.1005 -55.0996 -55.0897 -55.0889
   -34.4633 -34.4633 -34.4584 -34.4584 -34.4375 -34.4375 -34.4295 -34.4295
   -34.4011 -34.4011 -34.3785 -34.3785 -34.3410 -34.3410 -34.3215 -34.3215
   -34.3126 -34.3126 -34.3103 -34.3103 -34.2803 -34.2803 -34.2441 -34.2441
   -34.0802 -34.0802 -34.0710 -34.0709 -34.0599 -34.0599 -34.0276 -34.0276
   -33.9341 -33.9341 -33.9205 -33.9205 -26.5044 -26.5043 -26.4995 -26.4995
   -26.4930 -26.4930 -26.4908 -26.4907 -26.3138 -26.3128 -26.2011 -26.2000
    10.7163  10.7164  13.0200  13.0201  13.0294  13.0295  14.0388  14.0391
    14.0778  14.0779  14.1990  14.1991  14.4076  14.4079  14.5215  14.5216
    14.8856  14.8858  15.0671  15.0674  15.2977  15.2979  15.6600  15.6601
    15.6717  15.6719  15.8282  15.8282  15.9222  15.9222  16.0245  16.0246
    16.0431  16.0432  16.0451  16.0452  16.1109  16.1110  16.3075  16.3076
    16.4077  16.4077  16.5728  16.5728  16.6249  16.6249  17.4264  17.4265
    17.6556  17.6557  17.8009  17.8013  17.8126  17.8129  18.1111  18.1112
    18.1295  18.1295  18.2317  18.2318  18.3341  18.3342  18.4465  18.4471
    18.7124  18.7125  18.7677  18.7678  18.8129  18.8130  18.9012  18.9013
    18.9325  18.9325  19.0571  19.0571  19.0616  19.0616  19.1645  19.1645
    19.2623  19.2624  19.3026  19.3026  19.3674

          k = 0.1667 0.3333 0.3333 ( 10297 PWs)   bands (ev):

   -68.2515 -68.2483 -68.2465 -68.2450 -68.2444 -68.2428 -68.2427 -68.2406
   -67.9500 -67.9487 -67.9480 -67.9479 -55.1005 -55.0996 -55.0897 -55.0889
   -34.4630 -34.4602 -34.4531 -34.4504 -34.4450 -34.4428 -34.4330 -34.4269
   -34.4109 -34.4000 -34.3799 -34.3638 -34.3460 -34.3405 -34.3311 -34.3216
   -34.3179 -34.3149 -34.3140 -34.2887 -34.2819 -34.2607 -34.2571 -34.2436
   -34.0984 -34.0900 -34.0800 -34.0704 -34.0602 -34.0495 -34.0278 -34.0096
   -33.9439 -33.9246 -33.9228 -33.9192 -26.5068 -26.5043 -26.4996 -26.4972
   -26.4941 -26.4931 -26.4908 -26.4897 -26.3149 -26.3118 -26.2013 -26.2000
    10.4622  11.8471  11.8737  12.8227  12.9870  13.4900  13.7026  14.0607
    14.1512  14.2185  14.3407  14.3446  14.4728  14.4908  14.6504  14.8128
    14.8805  14.9843  15.1344  15.1730  15.1960  15.3520  15.3737  15.4747
    15.5214  15.5877  15.6964  15.7486  15.7930  15.8012  15.8718  15.9020
    15.9912  16.0469  16.1028  16.1140  16.1827  16.2105  16.2161  16.2392
    16.3678  16.4498  16.4898  16.5045  16.5696  16.7140  16.9985  17.4547
    17.6441  17.7475  17.7766  17.8574  17.8844  17.9285  17.9812  18.0448
    18.1227  18.2237  18.2898  18.2939  18.3488  18.4234  18.4272  18.4763
    18.5602  18.5676  18.7142  18.7401  18.7660  18.7968  18.8403  18.8520
    18.9655  18.9831  18.9845  19.0120  19.0412  19.0636  19.0788  19.1010
    19.1700  19.2800  19.2877  19.4329  19.4895

          k = 0.1667 0.3333-0.5000 ( 10270 PWs)   bands (ev):

   -68.2496 -68.2496 -68.2456 -68.2456 -68.2438 -68.2438 -68.2416 -68.2416
   -67.9493 -67.9493 -67.9479 -67.9479 -55.1005 -55.0997 -55.0897 -55.0889
   -34.4568 -34.4568 -34.4518 -34.4518 -34.4417 -34.4417 -34.4350 -34.4350
   -34.4077 -34.4077 -34.3689 -34.3689 -34.3460 -34.3460 -34.3240 -34.3240
   -34.3158 -34.3158 -34.3042 -34.3042 -34.2656 -34.2656 -34.2549 -34.2549
   -34.0899 -34.0899 -34.0873 -34.0873 -34.0523 -34.0523 -34.0143 -34.0143
   -33.9337 -33.9337 -33.9211 -33.9211 -26.5061 -26.5061 -26.4979 -26.4979
   -26.4938 -26.4938 -26.4901 -26.4900 -26.3138 -26.3128 -26.2011 -26.2001
    11.0763  11.0764  12.3191  12.3191  13.3086  13.3087  14.0201  14.0203
    14.2360  14.2365  14.4186  14.4186  14.5969  14.5972  14.6337  14.6339
    15.0610  15.0610  15.1344  15.1347  15.2192  15.2193  15.3337  15.3340
    15.5574  15.5575  15.7119  15.7119  15.8040  15.8041  15.8455  15.8456
    15.9089  15.9091  16.0171  16.0172  16.1180  16.1180  16.1521  16.1522
    16.2723  16.2723  16.4306  16.4306  16.5865  16.5865  17.1687  17.1687
    17.7429  17.7430  17.8989  17.8992  17.9087  17.9091  18.1322  18.1322
    18.2214  18.2214  18.2500  18.2501  18.3541  18.3543  18.4240  18.4247
    18.6646  18.6647  18.6694  18.6694  18.7153  18.7154  18.7483  18.7484
    18.9044  18.9044  19.0025  19.0025  19.0419  19.0419  19.1358  19.1359
    19.2273  19.2273  19.4408  19.4408  19.6370

          k = 0.1667-0.5000-0.5000 ( 10292 PWs)   bands (ev):

   -68.2488 -68.2488 -68.2465 -68.2465 -68.2428 -68.2428 -68.2426 -68.2426
   -67.9494 -67.9494 -67.9479 -67.9479 -55.1005 -55.0997 -55.0897 -55.0889
   -34.4500 -34.4500 -34.4474 -34.4474 -34.4445 -34.4445 -34.4417 -34.4417
   -34.4102 -34.4102 -34.3650 -34.3650 -34.3491 -34.3491 -34.3231 -34.3231
   -34.3180 -34.3180 -34.2999 -34.2999 -34.2616 -34.2616 -34.2591 -34.2591
   -34.0979 -34.0979 -34.0899 -34.0899 -34.0494 -34.0494 -34.0095 -34.0095
   -33.9336 -33.9336 -33.9215 -33.9215 -26.5069 -26.5069 -26.4973 -26.4973
   -26.4941 -26.4941 -26.4898 -26.4898 -26.3139 -26.3128 -26.2012 -26.2001
    11.6069  11.6071  11.6625  11.6625  13.5675  13.5675  13.8626  13.8628
    14.2844  14.2848  14.5963  14.5963  14.7489  14.7492  14.7908  14.7910
    14.9889  14.9889  15.1151  15.1154  15.1330  15.1330  15.2364  15.2367
    15.4610  15.4610  15.6819  15.6819  15.7427  15.7427  15.8287  15.8289
    15.8687  15.8688  15.8927  15.8927  16.0246  16.0248  16.1971  16.1971
    16.2336  16.2336  16.3533  16.3533  16.6464  16.6464  16.9125  16.9125
    17.8651  17.8652  17.9506  17.9509  17.9619  17.9619  18.1295  18.1297
    18.2443  18.2443  18.3651  18.3651  18.4075  18.4075  18.4151  18.4159
    18.4441  18.4444  18.6118  18.6118  18.6551  18.6551  18.6794  18.6794
    18.8712  18.8712  18.9480  18.9480  19.0225  19.0225  19.1911  19.1911
    19.2504  19.2504  19.4972  19.4972  20.1366

          k = 0.3333 0.3333 0.3333 ( 10273 PWs)   bands (ev):

   -68.2502 -68.2471 -68.2464 -68.2457 -68.2438 -68.2435 -68.2434 -68.2413
   -67.9496 -67.9486 -67.9483 -67.9480 -55.0982 -55.0974 -55.0920 -55.0911
   -34.4624 -34.4607 -34.4508 -34.4494 -34.4463 -34.4448 -34.4317 -34.4282
   -34.3933 -34.3866 -34.3721 -34.3550 -34.3490 -34.3474 -34.3404 -34.3319
   -34.3274 -34.3120 -34.3090 -34.2843 -34.2832 -34.2776 -34.2626 -34.2558
   -34.0852 -34.0699 -34.0675 -34.0674 -34.0641 -34.0575 -34.0383 -34.0227
   -33.9381 -33.9241 -33.9236 -33.9224 -26.5032 -26.5016 -26.4982 -26.4965
   -26.4947 -26.4945 -26.4936 -26.4932 -26.2908 -26.2883 -26.2251 -26.2240
    10.8406  12.1775  12.1828  12.1866  13.1006  13.1570  13.2339  14.1508
    14.3132  14.3616  14.5525  14.5984  14.6258  14.6387  14.7164  14.9571
    14.9593  14.9624  15.1687  15.1741  15.1792  15.1945  15.4171  15.5106
    15.5152  15.5448  15.6107  15.6366  15.6661  15.6960  15.7240  15.7542
    15.8540  15.8554  15.8956  15.9037  16.1085  16.1256  16.1408  16.1919
    16.2232  16.3537  16.3693  16.4237  16.4595  16.4879  16.6204  17.0919
    17.7740  17.9478  17.9604  18.0172  18.0665  18.1054  18.1661  18.1830
    18.2005  18.2068  18.3260  18.3559  18.4203  18.4618  18.5120  18.5428
    18.5845  18.6349  18.7745  18.8125  18.8347  18.8512  18.8706  18.8741
    18.8792  18.8872  18.9524  18.9527  18.9811  18.9963  19.0023  19.0606
    19.1402  19.1696  19.1910  19.1922  19.5339

          k = 0.3333 0.3333-0.5000 ( 10252 PWs)   bands (ev):

   -68.2483 -68.2483 -68.2450 -68.2450 -68.2448 -68.2448 -68.2424 -68.2424
   -67.9490 -67.9490 -67.9482 -67.9482 -55.0982 -55.0974 -55.0920 -55.0911
   -34.4557 -34.4557 -34.4528 -34.4528 -34.4404 -34.4404 -34.4365 -34.4365
   -34.3914 -34.3914 -34.3610 -34.3610 -34.3464 -34.3464 -34.3377 -34.3377
   -34.3204 -34.3204 -34.2987 -34.2987 -34.2719 -34.2719 -34.2688 -34.2688
   -34.0809 -34.0809 -34.0679 -34.0679 -34.0591 -34.0591 -34.0269 -34.0269
   -33.9308 -33.9308 -33.9235 -33.9235 -26.5028 -26.5028 -26.4970 -26.4969
   -26.4947 -26.4947 -26.4934 -26.4933 -26.2901 -26.2890 -26.2250 -26.2240
    11.4343  11.4344  12.6507  12.6507  12.6507  12.6508  13.6602  13.6604
    14.4990  14.4994  14.6310  14.6311  14.6939  14.6942  14.8651  14.8653
    15.1555  15.1557  15.1843  15.1843  15.2057  15.2060  15.3145  15.3146
    15.4166  15.4167  15.6599  15.6601  15.7258  15.7260  15.7285  15.7287
    15.7933  15.7934  15.8184  15.8185  15.9477  15.9477  16.1271  16.1272
    16.2144  16.2144  16.3192  16.3192  16.3676  16.3676  16.7039  16.7039
    18.0096  18.0098  18.0352  18.0355  18.1121  18.1123  18.2657  18.2659
    18.3212  18.3215  18.4050  18.4054  18.4102  18.4103  18.4798  18.4799
    18.6438  18.6439  18.7771  18.7771  18.8163  18.8163  18.8525  18.8525
    18.8641  18.8642  18.9832  18.9833  18.9865  18.9865  19.0920  19.0920
    19.1227  19.1228  19.1737  19.1737  19.1820

          k = 0.3333-0.5000-0.5000 ( 10252 PWs)   bands (ev):

   -68.2476 -68.2476 -68.2457 -68.2457 -68.2440 -68.2440 -68.2433 -68.2433
   -67.9491 -67.9491 -67.9481 -67.9481 -55.0982 -55.0974 -55.0920 -55.0911
   -34.4484 -34.4484 -34.4469 -34.4469 -34.4452 -34.4452 -34.4434 -34.4434
   -34.3926 -34.3926 -34.3567 -34.3567 -34.3402 -34.3402 -34.3345 -34.3345
   -34.3327 -34.3327 -34.2900 -34.2900 -34.2855 -34.2855 -34.2665 -34.2665
   -34.0849 -34.0849 -34.0673 -34.0673 -34.0574 -34.0574 -34.0228 -34.0228
   -33.9313 -33.9313 -33.9245 -33.9245 -26.5033 -26.5033 -26.4967 -26.4967
   -26.4948 -26.4948 -26.4932 -26.4932 -26.2900 -26.2889 -26.2251 -26.2240
    11.9761  11.9763  11.9930  11.9930  13.0670  13.0670  13.2150  13.2152
    14.5542  14.5547  14.8191  14.8195  14.8983  14.8983  15.0283  15.0287
    15.0637  15.0637  15.0846  15.0846  15.2038  15.2038  15.3552  15.3552
    15.3659  15.3659  15.5879  15.5880  15.7117  15.7117  15.7469  15.7469
    15.7591  15.7591  15.8576  15.8576  15.8861  15.8862  15.9734  15.9734
    16.0484  16.0484  16.2503  16.2504  16.3466  16.3466  16.4533  16.4534
    18.0934  18.0937  18.1243  18.1248  18.3216  18.3216  18.3243  18.3244
    18.3882  18.3885  18.3886  18.3893  18.4206  18.4206  18.6517  18.6517
    18.6978  18.6978  18.7578  18.7578  18.7629  18.7629  18.7937  18.7937
    18.8033  18.8033  18.8404  18.8404  18.8629  18.8630  18.9606  18.9606
    19.1421  19.1421  19.1694  19.1695  19.5875

          k =-0.5000-0.5000-0.5000 ( 10144 PWs)   bands (ev):

   -68.2456 -68.2456 -68.2456 -68.2456 -68.2443 -68.2443 -68.2443 -68.2443
   -67.9484 -67.9484 -67.9483 -67.9483 -55.0952 -55.0950 -55.0944 -55.0941
   -34.4459 -34.4459 -34.4459 -34.4459 -34.4458 -34.4458 -34.4458 -34.4458
   -34.3674 -34.3674 -34.3674 -34.3674 -34.3450 -34.3450 -34.3450 -34.3450
   -34.3118 -34.3118 -34.3118 -34.3118 -34.2775 -34.2775 -34.2775 -34.2775
   -34.0698 -34.0698 -34.0698 -34.0698 -34.0430 -34.0430 -34.0430 -34.0430
   -33.9281 -33.9281 -33.9281 -33.9281 -26.4983 -26.4983 -26.4981 -26.4981
   -26.4956 -26.4956 -26.4954 -26.4954 -26.2576 -26.2573 -26.2566 -26.2562
    12.4922  12.4922  12.4922  12.4922  12.5412  12.5412  12.5413  12.5414
    14.9200  14.9201  14.9203  14.9204  14.9210  14.9211  14.9213  14.9215
    15.2178  15.2178  15.2180  15.2180  15.2818  15.2818  15.2819  15.2819
    15.3218  15.3220  15.3220  15.3221  15.7144  15.7144  15.7144  15.7144
    15.7375  15.7375  15.7375  15.7375  16.0495  16.0495  16.0495  16.0495
    16.0577  16.0577  16.0577  16.0577  16.1120  16.1120  16.1120  16.1120
    18.2668  18.2669  18.2671  18.2672  18.2843  18.2844  18.2848  18.2850
    18.5891  18.5891  18.5892  18.5892  18.6187  18.6188  18.6189  18.6189
    18.6394  18.6394  18.6394  18.6394  18.8593  18.8593  18.8593  18.8593
    18.8738  18.8739  18.8739  18.8739  18.9681  18.9681  18.9681  18.9681
    19.0876  19.0876  19.0876  19.0876  19.1561

          k = 0.1667 0.0000 0.0000 ( 10299 PWs)   bands (ev):

   -68.2558 -68.2473 -68.2462 -68.2462 -68.2427 -68.2427 -68.2421 -68.2388
   -67.9516 -67.9482 -67.9480 -67.9471 -55.1006 -55.0995 -55.0897 -55.0888
   -34.4776 -34.4755 -34.4615 -34.4615 -34.4458 -34.4458 -34.4153 -34.4136
   -34.4136 -34.4110 -34.3670 -34.3631 -34.3556 -34.3382 -34.3380 -34.3380
   -34.3177 -34.3177 -34.3071 -34.2928 -34.2580 -34.2580 -34.2253 -34.2211
   -34.0997 -34.0997 -34.0903 -34.0903 -34.0497 -34.0497 -34.0095 -34.0095
   -33.9828 -33.9290 -33.9149 -33.9008 -26.5064 -26.5064 -26.4969 -26.4969
   -26.4942 -26.4942 -26.4894 -26.4894 -26.3192 -26.3075 -26.2020 -26.1993
     9.3952  12.3077  13.0901  13.3858  13.3858  13.4191  13.4256  13.4256
    13.4382  13.4562  13.5600  13.7924  14.0166  14.0845  14.3973  14.8010
    15.0009  15.0009  15.0194  15.3133  15.3133  15.4125  15.4918  15.5821
    15.5821  15.6026  15.6303  15.6303  15.8472  16.1022  16.2029  16.2029
    16.3419  16.6688  16.7598  16.7598  16.8545  16.8714  16.8714  16.9503
    16.9503  17.1245  17.2197  17.2197  17.2232  17.3216  17.3423  17.4128
    17.4128  17.4579  17.4579  17.4990  17.5087  17.5087  17.5906  17.9987
    18.1322  18.2255  18.2484  18.2786  18.3209  18.3209  18.3660  18.4527
    18.5403  18.5403  18.6091  18.6149  18.8518  18.9732  19.0137  19.0164
    19.0251  19.0634  19.1431  19.1700  19.1700  19.2207  19.2478  19.2478
    19.3214  19.3322  19.3974  19.4429  19.5841

          k = 0.3333 0.0000 0.0000 ( 10323 PWs)   bands (ev):

   -68.2539 -68.2494 -68.2455 -68.2455 -68.2435 -68.2435 -68.2413 -68.2395
   -67.9510 -67.9490 -67.9479 -67.9471 -55.0983 -55.0973 -55.0920 -55.0911
   -34.4772 -34.4759 -34.4578 -34.4578 -34.4488 -34.4488 -34.4144 -34.4120
   -34.3957 -34.3957 -34.3614 -34.3490 -34.3454 -34.3442 -34.3411 -34.3411
   -34.3251 -34.3251 -34.3172 -34.3085 -34.2808 -34.2808 -34.2244 -34.2220
   -34.0860 -34.0860 -34.0678 -34.0678 -34.0580 -34.0580 -34.0227 -34.0227
   -33.9685 -33.9290 -33.9223 -33.9061 -26.5028 -26.5028 -26.4962 -26.4962
   -26.4949 -26.4949 -26.4930 -26.4930 -26.2942 -26.2853 -26.2251 -26.2240
     9.8077  11.3284  13.2253  13.4369  13.4949  13.4949  13.5010  13.5010
    13.6572  13.7016  13.8434  13.8502  14.2843  14.3283  14.4858  14.5511
    15.0230  15.0590  15.0590  15.0822  15.1927  15.2413  15.2413  15.5121
    15.7321  15.7321  15.7904  15.8893  15.8893  15.9634  15.9634  16.0332
    16.3237  16.3525  16.5738  16.5738  16.6668  16.6668  16.7085  16.7785
    16.7785  16.7981  16.8486  16.8486  16.9298  16.9924  16.9924  17.2767
    17.3394  17.5518  17.6507  17.6507  17.6662  17.8551  17.8551  17.9113
    18.0653  18.3163  18.3269  18.3603  18.3603  18.4686  18.5199  18.5897
    18.6871  18.7088  18.7088  18.7882  18.8021  18.8021  18.8641  18.9210
    18.9495  19.0331  19.0534  19.0553  19.0857  19.1339  19.3030  19.3570
    19.3570  19.4224  19.4792  19.4935  19.5449

          k =-0.5000 0.0000 0.0000 ( 10274 PWs)   bands (ev):

   -68.2515 -68.2515 -68.2446 -68.2446 -68.2446 -68.2446 -68.2401 -68.2401
   -67.9501 -67.9500 -67.9473 -67.9473 -55.0952 -55.0950 -55.0944 -55.0941
   -34.4767 -34.4767 -34.4530 -34.4530 -34.4530 -34.4530 -34.4133 -34.4133
   -34.3697 -34.3697 -34.3697 -34.3697 -34.3527 -34.3527 -34.3310 -34.3310
   -34.3292 -34.3292 -34.3050 -34.3050 -34.3050 -34.3050 -34.2233 -34.2233
   -34.0708 -34.0708 -34.0708 -34.0708 -34.0431 -34.0431 -34.0431 -34.0431
   -33.9484 -33.9484 -33.9139 -33.9139 -26.4982 -26.4982 -26.4980 -26.4980
   -26.4954 -26.4954 -26.4952 -26.4952 -26.2594 -26.2591 -26.2551 -26.2548
    10.4678  10.4678  13.3617  13.3617  13.5477  13.5477  13.5477  13.5477
    13.8409  13.8409  14.0810  14.0811  14.1936  14.1937  14.6046  14.6047
    14.7694  14.7694  15.1470  15.1470  15.1471  15.1471  15.4619  15.4620
    15.7203  15.7205  15.8882  15.8882  15.8883  15.8883  16.2858  16.2858
    16.2858  16.2858  16.3285  16.3285  16.4223  16.4223  16.4223  16.4223
    16.5007  16.5007  16.8300  16.8300  16.8300  16.8300  17.0052  17.0053
    17.7562  17.7563  17.7650  17.7651  18.0339  18.0340  18.0572  18.0572
    18.0573  18.0573  18.3243  18.3243  18.3243  18.3243  18.4137  18.4139
    18.7833  18.7833  18.8307  18.8308  18.8829  18.8830  18.8942  18.8943
    19.0442  19.0442  19.0788  19.0788  19.0788  19.0788  19.1701  19.1701
    19.1763  19.1763  19.5282  19.5283  19.6475

          k = 0.1667 0.1667 0.0000 ( 10267 PWs)   bands (ev):

   -68.2551 -68.2468 -68.2468 -68.2459 -68.2430 -68.2423 -68.2423 -68.2389
   -67.9513 -67.9481 -67.9479 -67.9473 -55.1006 -55.0995 -55.0897 -55.0888
   -34.4753 -34.4740 -34.4617 -34.4578 -34.4477 -34.4430 -34.4179 -34.4133
   -34.4113 -34.4100 -34.3709 -34.3604 -34.3565 -34.3429 -34.3339 -34.3302
   -34.3218 -34.3173 -34.3068 -34.2947 -34.2655 -34.2552 -34.2378 -34.2235
   -34.0930 -34.0888 -34.0888 -34.0869 -34.0527 -34.0520 -34.0153 -34.0134
   -33.9746 -33.9276 -33.9153 -33.9048 -26.5059 -26.5058 -26.4976 -26.4974
   -26.4937 -26.4937 -26.4898 -26.4897 -26.3184 -26.3082 -26.2017 -26.1993
     9.5338  12.3863  12.3959  13.3144  13.3320  13.4361  13.4684  13.5189
    13.5922  13.5933  13.8712  14.0395  14.0586  14.1330  14.4413  14.7592
    14.9769  15.0121  15.0340  15.3679  15.3748  15.3804  15.4338  15.4844
    15.5445  15.5972  15.6404  15.6706  15.8715  15.9399  16.0768  16.2130
    16.3126  16.5754  16.5964  16.7101  16.7370  16.8482  16.8889  16.8942
    16.9244  17.0333  17.1357  17.1406  17.1765  17.1861  17.2203  17.2408
    17.2696  17.2943  17.4362  17.4529  17.4809  17.5196  17.8547  18.0020
    18.0153  18.1927  18.3286  18.3430  18.3497  18.4795  18.4921  18.5222
    18.5522  18.5597  18.6031  18.6717  18.8376  18.8989  18.9239  18.9414
    18.9948  19.0000  19.0438  19.0685  19.1101  19.1155  19.1773  19.2015
    19.3202  19.3796  19.4292  19.5650  19.6023

          k = 0.1667 0.3333 0.0000 ( 10292 PWs)   bands (ev):

   -68.2534 -68.2487 -68.2461 -68.2453 -68.2438 -68.2431 -68.2416 -68.2397
   -67.9506 -67.9481 -67.9480 -67.9480 -55.1005 -55.0996 -55.0897 -55.0889
   -34.4701 -34.4690 -34.4628 -34.4532 -34.4481 -34.4364 -34.4252 -34.4191
   -34.4045 -34.4008 -34.3812 -34.3725 -34.3437 -34.3384 -34.3310 -34.3238
   -34.3205 -34.3169 -34.3045 -34.3008 -34.2860 -34.2644 -34.2484 -34.2302
   -34.0829 -34.0787 -34.0755 -34.0662 -34.0610 -34.0586 -34.0309 -34.0250
   -33.9556 -33.9243 -33.9170 -33.9163 -26.5046 -26.5041 -26.4995 -26.4992
   -26.4932 -26.4930 -26.4907 -26.4905 -26.3163 -26.3103 -26.2014 -26.1997
     9.9414  11.4371  12.6308  13.1731  13.5046  13.5378  13.5379  13.6616
    13.7802  13.8334  14.0961  14.1113  14.2478  14.3366  14.5282  14.5735
    14.9193  14.9865  15.0524  15.1147  15.1876  15.4387  15.5209  15.5507
    15.5644  15.7796  15.7894  15.8057  15.8463  15.9279  15.9921  16.0955
    16.1380  16.3353  16.3494  16.3993  16.4516  16.4599  16.6055  16.6707
    16.6718  16.7089  16.7488  16.7879  16.8008  16.8100  17.0748  17.3360
    17.4616  17.5787  17.6223  17.7667  17.7701  17.8275  17.9119  17.9187
    18.0273  18.2698  18.3268  18.3333  18.3850  18.4089  18.5274  18.5680
    18.6221  18.6329  18.6401  18.7617  18.8202  18.8343  18.8630  18.8913
    18.9766  18.9783  18.9887  19.0291  19.0387  19.1095  19.1429  19.1541
    19.2246  19.3214  19.3862  19.4893  19.6891

          k = 0.3333 0.0000 0.1667 ( 10292 PWs)   bands (ev):

   -68.2534 -68.2487 -68.2461 -68.2453 -68.2438 -68.2431 -68.2416 -68.2397
   -67.9507 -67.9488 -67.9478 -67.9474 -55.0983 -55.0973 -55.0920 -55.0911
   -34.4750 -34.4743 -34.4585 -34.4544 -34.4504 -34.4460 -34.4170 -34.4142
   -34.3955 -34.3928 -34.3653 -34.3501 -34.3489 -34.3457 -34.3422 -34.3403
   -34.3276 -34.3192 -34.3114 -34.3049 -34.2826 -34.2760 -34.2336 -34.2259
   -34.0837 -34.0791 -34.0708 -34.0666 -34.0604 -34.0582 -34.0290 -34.0256
   -33.9613 -33.9270 -33.9218 -33.9086 -26.5026 -26.5024 -26.4968 -26.4967
   -26.4946 -26.4946 -26.4931 -26.4931 -26.2935 -26.2858 -26.2250 -26.2240
     9.9413  11.4381  12.6189  13.1631  13.4896  13.5601  13.5922  13.6550
    13.7305  13.8838  14.0161  14.1684  14.3236  14.3778  14.4873  14.5921
    14.9728  15.0576  15.0601  15.1929  15.2119  15.2798  15.2970  15.3481
    15.6647  15.6918  15.7531  15.7627  15.8549  15.9382  15.9917  16.0678
    16.1255  16.2140  16.5311  16.5556  16.6068  16.6115  16.6253  16.6522
    16.6611  16.6698  16.7160  16.7454  16.8203  16.8648  17.0739  17.4898
    17.5194  17.5828  17.6153  17.6500  17.6840  17.7542  17.8119  17.8907
    18.1255  18.2423  18.2718  18.3396  18.3696  18.3731  18.4731  18.5027
    18.6576  18.6632  18.6750  18.7728  18.8249  18.8556  18.8982  18.9748
    19.0027  19.0116  19.0134  19.0378  19.0424  19.0442  19.1836  19.1855
    19.2157  19.2606  19.2793  19.4806  19.6990

          k = 0.1667-0.5000 0.0000 ( 10284 PWs)   bands (ev):

   -68.2511 -68.2511 -68.2449 -68.2449 -68.2442 -68.2442 -68.2406 -68.2406
   -67.9494 -67.9494 -67.9480 -67.9480 -55.1005 -55.0996 -55.0897 -55.0889
   -34.4657 -34.4657 -34.4609 -34.4609 -34.4361 -34.4361 -34.4275 -34.4275
   -34.3936 -34.3936 -34.3873 -34.3873 -34.3395 -34.3395 -34.3173 -34.3173
   -34.3128 -34.3128 -34.3100 -34.3100 -34.2905 -34.2905 -34.2393 -34.2393
   -34.0723 -34.0723 -34.0682 -34.0682 -34.0527 -34.0527 -34.0433 -34.0433
   -33.9342 -33.9342 -33.9202 -33.9202 -26.5025 -26.5021 -26.5017 -26.5014
   -26.4923 -26.4921 -26.4916 -26.4914 -26.3138 -26.3128 -26.2011 -26.2000
    10.5922  10.5923  12.9254  12.9255  13.5834  13.5835  13.6599  13.6603
    14.0401  14.0401  14.1512  14.1515  14.3458  14.3461  14.4856  14.4858
    14.8039  14.8041  15.0324  15.0327  15.2943  15.2945  15.7206  15.7209
    15.8057  15.8059  15.8356  15.8359  16.0109  16.0109  16.0696  16.0697
    16.1052  16.1053  16.1246  16.1247  16.1411  16.1412  16.4108  16.4109
    16.4575  16.4575  16.5829  16.5829  16.7662  16.7663  17.2709  17.2710
    17.7565  17.7569  17.7664  17.7668  17.9271  17.9271  18.1034  18.1035
    18.1585  18.1586  18.1992  18.1992  18.2068  18.2069  18.4891  18.4898
    18.6162  18.6162  18.8390  18.8392  18.8434  18.8435  18.8459  18.8459
    18.9296  18.9297  19.0324  19.0324  19.0778  19.0778  19.2078  19.2078
    19.2706  19.2707  19.3131  19.3131  19.8389

          k =-0.5000 0.0000 0.1667 ( 10284 PWs)   bands (ev):

   -68.2510 -68.2510 -68.2449 -68.2449 -68.2442 -68.2442 -68.2406 -68.2406
   -67.9498 -67.9497 -67.9476 -67.9476 -55.0952 -55.0950 -55.0944 -55.0941
   -34.4747 -34.4747 -34.4543 -34.4543 -34.4501 -34.4501 -34.4156 -34.4156
   -34.3721 -34.3721 -34.3678 -34.3678 -34.3571 -34.3571 -34.3364 -34.3364
   -34.3229 -34.3229 -34.3023 -34.3023 -34.2981 -34.2981 -34.2293 -34.2293
   -34.0716 -34.0716 -34.0678 -34.0678 -34.0489 -34.0489 -34.0443 -34.0443
   -33.9437 -33.9437 -33.9147 -33.9147 -26.4981 -26.4980 -26.4978 -26.4977
   -26.4957 -26.4957 -26.4955 -26.4955 -26.2593 -26.2589 -26.2552 -26.2549
    10.5921  10.5922  12.9120  12.9120  13.6303  13.6303  13.6313  13.6313
    14.1035  14.1035  14.1694  14.1694  14.2450  14.2451  14.6261  14.6262
    14.7961  14.7962  15.1657  15.1658  15.2059  15.2060  15.4309  15.4310
    15.5485  15.5486  15.8512  15.8512  15.8789  15.8789  16.1187  16.1188
    16.1986  16.1986  16.2460  16.2460  16.3607  16.3607  16.4368  16.4368
    16.5595  16.5595  16.5746  16.5746  16.7709  16.7709  17.2605  17.2605
    17.7408  17.7409  17.8496  17.8497  17.9890  17.9891  18.0226  18.0226
    18.0677  18.0678  18.0835  18.0836  18.2069  18.2069  18.3876  18.3878
    18.7258  18.7258  18.7690  18.7690  18.8977  18.8977  18.9965  18.9965
    19.0223  19.0224  19.0306  19.0306  19.0927  19.0928  19.1383  19.1383
    19.1446  19.1446  19.2971  19.2971  19.8568

          k = 0.3333 0.3333 0.0000 ( 10305 PWs)   bands (ev):

   -68.2520 -68.2477 -68.2477 -68.2447 -68.2444 -68.2424 -68.2424 -68.2405
   -67.9500 -67.9485 -67.9481 -67.9481 -55.0982 -55.0974 -55.0920 -55.0911
   -34.4699 -34.4692 -34.4607 -34.4552 -34.4457 -34.4388 -34.4240 -34.4205
   -34.3928 -34.3852 -34.3752 -34.3611 -34.3550 -34.3532 -34.3380 -34.3313
   -34.3255 -34.3094 -34.3007 -34.2979 -34.2907 -34.2646 -34.2547 -34.2363
   -34.0756 -34.0747 -34.0666 -34.0642 -34.0636 -34.0592 -34.0442 -34.0340
   -33.9456 -33.9235 -33.9209 -33.9165 -26.5016 -26.5013 -26.4982 -26.4979
   -26.4947 -26.4945 -26.4935 -26.4933 -26.2919 -26.2873 -26.2251 -26.2240
    10.3330  11.7481  11.7493  12.7134  13.7073  13.7200  13.7921  13.8418
    13.9481  13.9643  14.2905  14.4186  14.4198  14.4292  14.4967  14.7012
    14.8958  15.0552  15.0715  15.1133  15.1722  15.3737  15.3745  15.4540
    15.4951  15.5369  15.5991  15.8219  15.8523  15.8608  15.8805  15.9049
    15.9302  16.1379  16.1951  16.2488  16.2653  16.2739  16.4410  16.4427
    16.5125  16.5479  16.6047  16.6648  16.7429  17.0434  17.0897  17.3044
    17.6912  17.7228  17.7335  17.7654  17.7993  17.8710  17.9344  17.9623
    18.0013  18.1246  18.1832  18.2019  18.2178  18.2960  18.3242  18.4190
    18.4399  18.5161  18.7987  18.8131  18.8449  18.8513  18.8520  18.9116
    18.9144  19.0038  19.0110  19.0370  19.0383  19.0482  19.1017  19.1765
    19.2163  19.2212  19.3801  19.5205  19.9886

          k = 0.3333-0.5000 0.0000 ( 10314 PWs)   bands (ev):

   -68.2497 -68.2497 -68.2463 -68.2463 -68.2435 -68.2435 -68.2414 -68.2414
   -67.9491 -67.9491 -67.9483 -67.9483 -55.0982 -55.0974 -55.0920 -55.0911
   -34.4648 -34.4648 -34.4620 -34.4620 -34.4343 -34.4343 -34.4295 -34.4295
   -34.3857 -34.3857 -34.3739 -34.3739 -34.3568 -34.3568 -34.3350 -34.3350
   -34.3062 -34.3062 -34.3022 -34.3022 -34.2782 -34.2782 -34.2503 -34.2503
   -34.0729 -34.0729 -34.0615 -34.0615 -34.0614 -34.0614 -34.0472 -34.0472
   -33.9294 -33.9294 -33.9212 -33.9212 -26.5004 -26.5000 -26.4997 -26.4993
   -26.4946 -26.4942 -26.4939 -26.4935 -26.2902 -26.2891 -26.2250 -26.2240
    10.9537  10.9538  12.2060  12.2061  13.8083  13.8084  13.9392  13.9395
    14.1688  14.1689  14.2816  14.2817  14.5200  14.5203  14.6009  14.6010
    14.8545  14.8548  15.1059  15.1061  15.2923  15.2924  15.4590  15.4592
    15.5294  15.5294  15.6748  15.6750  15.8632  15.8633  15.8656  15.8656
    15.9191  15.9192  15.9641  15.9642  16.0965  16.0965  16.4156  16.4157
    16.4942  16.4942  16.6544  16.6544  16.6799  16.6799  17.4234  17.4234
    17.6556  17.6557  17.7040  17.7042  17.9180  17.9184  17.9811  17.9811
    18.1108  18.1109  18.1677  18.1679  18.2936  18.2936  18.3034  18.3034
    18.3379  18.3385  18.7074  18.7075  18.8577  18.8578  18.8600  18.8601
    18.9798  18.9799  19.0061  19.0061  19.0124  19.0124  19.1393  19.1393
    19.3562  19.3562  19.4170  19.4170  20.3694

          k =-0.5000 0.0000 0.3333 ( 10314 PWs)   bands (ev):

   -68.2497 -68.2497 -68.2463 -68.2463 -68.2435 -68.2435 -68.2414 -68.2414
   -67.9494 -67.9494 -67.9480 -67.9480 -55.0952 -55.0950 -55.0944 -55.0941
   -34.4697 -34.4697 -34.4579 -34.4579 -34.4422 -34.4422 -34.4223 -34.4223
   -34.3749 -34.3749 -34.3659 -34.3659 -34.3627 -34.3627 -34.3457 -34.3457
   -34.3107 -34.3107 -34.2988 -34.2988 -34.2830 -34.2830 -34.2449 -34.2449
   -34.0726 -34.0726 -34.0610 -34.0610 -34.0606 -34.0606 -34.0478 -34.0478
   -33.9336 -33.9336 -33.9180 -33.9179 -26.4979 -26.4977 -26.4976 -26.4974
   -26.4964 -26.4962 -26.4961 -26.4959 -26.2585 -26.2582 -26.2561 -26.2557
    10.9537  10.9538  12.2047  12.2047  13.8411  13.8411  13.9069  13.9070
    14.1329  14.1329  14.3284  14.3284  14.5064  14.5064  14.7032  14.7033
    14.8339  14.8340  15.1980  15.1981  15.2420  15.2422  15.3346  15.3347
    15.3731  15.3732  15.7490  15.7490  15.7951  15.7951  15.8065  15.8065
    15.9708  15.9708  16.0079  16.0079  16.3024  16.3024  16.3122  16.3122
    16.5572  16.5572  16.6491  16.6491  16.6549  16.6549  17.4721  17.4721
    17.6566  17.6566  17.7112  17.7112  17.9361  17.9361  18.0056  18.0057
    18.0490  18.0491  18.1052  18.1052  18.1492  18.1492  18.2916  18.2917
    18.5029  18.5029  18.6611  18.6611  18.9014  18.9014  18.9551  18.9552
    18.9806  18.9806  19.0011  19.0011  19.0070  19.0070  19.0626  19.0626
    19.3352  19.3352  19.4255  19.4255  20.3618

          k =-0.5000-0.5000 0.0000 ( 10280 PWs)   bands (ev):

   -68.2480 -68.2480 -68.2480 -68.2480 -68.2424 -68.2424 -68.2424 -68.2424
   -67.9486 -67.9486 -67.9486 -67.9486 -55.0952 -55.0950 -55.0944 -55.0941
   -34.4634 -34.4634 -34.4634 -34.4634 -34.4319 -34.4319 -34.4319 -34.4319
   -34.3728 -34.3728 -34.3728 -34.3728 -34.3550 -34.3550 -34.3550 -34.3550
   -34.3012 -34.3012 -34.3012 -34.3012 -34.2643 -34.2643 -34.2643 -34.2643
   -34.0696 -34.0696 -34.0696 -34.0695 -34.0536 -34.0536 -34.0536 -34.0536
   -33.9242 -33.9242 -33.9242 -33.9242 -26.4975 -26.4973 -26.4972 -26.4970
   -26.4968 -26.4966 -26.4965 -26.4963 -26.2577 -26.2574 -26.2567 -26.2563
    11.5147  11.5147  11.5148  11.5148  14.0573  14.0573  14.0573  14.0574
    14.2207  14.2208  14.2209  14.2210  14.7173  14.7174  14.7174  14.7174
    14.9419  14.9420  14.9424  14.9425  15.2345  15.2345  15.2345  15.2345
    15.5873  15.5874  15.5875  15.5877  15.7142  15.7142  15.7142  15.7142
    15.8580  15.8580  15.8580  15.8580  16.2265  16.2265  16.2265  16.2266
    16.5721  16.5721  16.5722  16.5722  17.0363  17.0363  17.0363  17.0363
    17.7587  17.7588  17.7588  17.7589  17.9407  17.9407  17.9407  17.9407
    18.1348  18.1349  18.1352  18.1354  18.1622  18.1623  18.1624  18.1625
    18.5089  18.5089  18.5089  18.5089  18.9080  18.9080  18.9081  18.9081
    18.9911  18.9911  18.9911  18.9911  18.9995  18.9996  18.9996  18.9996
    19.4507  19.4507  19.4507  19.4507  20.9509

          k = 0.3333 0.1667 0.1667 ( 10295 PWs)   bands (ev):

   -68.2528 -68.2484 -68.2460 -68.2456 -68.2436 -68.2435 -68.2419 -68.2399
   -67.9505 -67.9488 -67.9479 -67.9476 -55.0983 -55.0973 -55.0920 -55.0911
   -34.4728 -34.4724 -34.4555 -34.4549 -34.4480 -34.4474 -34.4193 -34.4165
   -34.3948 -34.3905 -34.3704 -34.3508 -34.3497 -34.3474 -34.3408 -34.3364
   -34.3273 -34.3239 -34.3029 -34.3022 -34.2819 -34.2770 -34.2408 -34.2303
   -34.0858 -34.0702 -34.0694 -34.0676 -34.0627 -34.0578 -34.0392 -34.0227
   -33.9560 -33.9260 -33.9216 -33.9111 -26.5030 -26.5015 -26.4980 -26.4963
   -26.4947 -26.4945 -26.4934 -26.4931 -26.2929 -26.2863 -26.2250 -26.2239
    10.0740  11.5486  12.6761  12.7690  13.2227  13.3444  13.6919  13.8519
    13.9559  14.0246  14.1472  14.3483  14.3660  14.4242  14.5065  14.6400
    14.9648  15.0316  15.1401  15.1871  15.1962  15.2340  15.2974  15.3652
    15.6673  15.6825  15.7097  15.7222  15.8006  15.8209  15.9637  16.0425
    16.0504  16.1098  16.4310  16.4356  16.4654  16.5097  16.5107  16.5495
    16.5656  16.5906  16.6772  16.6866  16.7038  16.7478  17.2145  17.2616
    17.6294  17.6522  17.7140  17.7316  17.7454  17.8515  17.9086  17.9479
    18.1133  18.1760  18.1956  18.2336  18.3204  18.4148  18.4792  18.5110
    18.5139  18.6159  18.8062  18.8427  18.8845  18.8860  18.8994  18.9614
    18.9643  18.9766  19.0091  19.0230  19.0571  19.1056  19.1417  19.1719
    19.1916  19.2600  19.3116  19.3164  19.4783

          k =-0.5000 0.1667 0.1667 ( 10278 PWs)   bands (ev):

   -68.2505 -68.2505 -68.2449 -68.2449 -68.2445 -68.2445 -68.2408 -68.2408
   -67.9497 -67.9496 -67.9476 -67.9476 -55.0952 -55.0950 -55.0944 -55.0941
   -34.4727 -34.4727 -34.4514 -34.4514 -34.4513 -34.4513 -34.4179 -34.4179
   -34.3706 -34.3706 -34.3690 -34.3690 -34.3603 -34.3603 -34.3369 -34.3369
   -34.3182 -34.3182 -34.3067 -34.3067 -34.2900 -34.2900 -34.2357 -34.2357
   -34.0706 -34.0706 -34.0664 -34.0664 -34.0548 -34.0548 -34.0431 -34.0431
   -33.9404 -33.9404 -33.9158 -33.9158 -26.4982 -26.4980 -26.4977 -26.4975
   -26.4962 -26.4959 -26.4955 -26.4953 -26.2590 -26.2586 -26.2555 -26.2552
    10.7164  10.7164  12.9679  12.9679  13.0885  13.0885  13.9882  13.9882
    14.0975  14.0976  14.3036  14.3037  14.3516  14.3516  14.6481  14.6482
    14.8278  14.8278  15.1975  15.1976  15.2330  15.2331  15.3575  15.3576
    15.5259  15.5260  15.7653  15.7654  15.8805  15.8806  15.9847  15.9847
    16.0988  16.0988  16.1231  16.1231  16.3317  16.3317  16.4423  16.4423
    16.4815  16.4815  16.5111  16.5111  16.6575  16.6575  17.4292  17.4292
    17.6678  17.6678  17.7990  17.7991  17.9196  17.9197  17.9762  17.9763
    18.0307  18.0307  18.1812  18.1813  18.3555  18.3557  18.3715  18.3715
    18.7469  18.7470  18.8158  18.8158  18.8775  18.8775  18.8972  18.8972
    19.0215  19.0216  19.0811  19.0811  19.1131  19.1131  19.1207  19.1207
    19.1868  19.1868  19.2565  19.2565  19.3117

          k = 0.3333 0.3333 0.1667 ( 10297 PWs)   bands (ev):

   -68.2514 -68.2475 -68.2474 -68.2450 -68.2445 -68.2428 -68.2427 -68.2406
   -67.9499 -67.9485 -67.9483 -67.9480 -55.0982 -55.0974 -55.0920 -55.0911
   -34.4678 -34.4669 -34.4578 -34.4525 -34.4467 -34.4406 -34.4260 -34.4226
   -34.3931 -34.3817 -34.3797 -34.3572 -34.3525 -34.3519 -34.3392 -34.3318
   -34.3218 -34.3182 -34.3022 -34.2894 -34.2889 -34.2702 -34.2574 -34.2419
   -34.0818 -34.0717 -34.0668 -34.0649 -34.0585 -34.0552 -34.0533 -34.0267
   -33.9435 -33.9238 -33.9214 -33.9184 -26.5027 -26.5002 -26.4995 -26.4969
   -26.4947 -26.4944 -26.4937 -26.4932 -26.2915 -26.2876 -26.2251 -26.2240
    10.4625  11.8611  11.8622  12.8288  12.9855  13.5709  13.5989  14.1108
    14.1158  14.2393  14.3850  14.4014  14.4695  14.5226  14.5856  14.7726
    14.9150  15.0651  15.0720  15.1019  15.1834  15.2614  15.3811  15.5046
    15.5227  15.5471  15.6164  15.7516  15.7746  15.7852  15.8352  15.8417
    15.9204  16.0420  16.0698  16.1501  16.1825  16.2311  16.3359  16.4065
    16.4233  16.4784  16.4798  16.5764  16.6134  16.8526  16.8534  17.4393
    17.6455  17.7969  17.8205  17.8377  17.8887  17.9450  17.9852  18.0334
    18.1155  18.1219  18.1825  18.2529  18.3003  18.3319  18.4406  18.4713
    18.4891  18.6200  18.7844  18.8109  18.8355  18.8902  18.8942  18.9000
    18.9318  18.9666  18.9715  19.0199  19.0601  19.0755  19.0879  19.1450
    19.1647  19.2145  19.2501  19.3503  19.3624

          k = 0.3333-0.5000 0.1667 ( 10270 PWs)   bands (ev):

   -68.2493 -68.2493 -68.2459 -68.2459 -68.2438 -68.2438 -68.2416 -68.2416
   -67.9490 -67.9490 -67.9482 -67.9482 -55.0982 -55.0974 -55.0920 -55.0911
   -34.4622 -34.4622 -34.4594 -34.4594 -34.4358 -34.4358 -34.4313 -34.4313
   -34.3881 -34.3881 -34.3691 -34.3691 -34.3540 -34.3540 -34.3359 -34.3359
   -34.3082 -34.3082 -34.3043 -34.3043 -34.2743 -34.2743 -34.2567 -34.2567
   -34.0707 -34.0707 -34.0707 -34.0707 -34.0611 -34.0611 -34.0377 -34.0377
   -33.9298 -33.9298 -33.9219 -33.9219 -26.5015 -26.5015 -26.4981 -26.4981
   -26.4946 -26.4944 -26.4936 -26.4934 -26.2901 -26.2890 -26.2250 -26.2239
    11.0771  11.0772  12.3219  12.3220  13.3161  13.3162  14.0287  14.0288
    14.2707  14.2710  14.3837  14.3838  14.5669  14.5673  14.6828  14.6830
    14.9463  14.9465  15.1229  15.1231  15.2977  15.2979  15.4387  15.4387
    15.4549  15.4551  15.6644  15.6646  15.8124  15.8125  15.8300  15.8301
    15.8747  15.8749  15.9147  15.9148  16.0253  16.0253  16.3747  16.3747
    16.3848  16.3848  16.4984  16.4984  16.5544  16.5544  17.1512  17.1512
    17.7541  17.7541  17.8477  17.8479  17.9681  17.9685  18.1365  18.1366
    18.2097  18.2099  18.2261  18.2262  18.3458  18.3462  18.3512  18.3512
    18.4767  18.4768  18.7275  18.7275  18.8479  18.8479  18.8547  18.8548
    18.9533  18.9534  18.9832  18.9832  19.0246  19.0246  19.1235  19.1235
    19.2537  19.2537  19.2935  19.2935  19.6494

          k =-0.5000 0.1667 0.3333 ( 10270 PWs)   bands (ev):

   -68.2493 -68.2493 -68.2460 -68.2460 -68.2438 -68.2438 -68.2416 -68.2416
   -67.9492 -67.9492 -67.9481 -67.9481 -55.0952 -55.0950 -55.0944 -55.0941
   -34.4673 -34.4673 -34.4551 -34.4551 -34.4436 -34.4436 -34.4243 -34.4243
   -34.3720 -34.3720 -34.3664 -34.3664 -34.3635 -34.3635 -34.3437 -34.3437
   -34.3086 -34.3086 -34.3040 -34.3040 -34.2807 -34.2807 -34.2510 -34.2510
   -34.0711 -34.0711 -34.0636 -34.0636 -34.0590 -34.0590 -34.0452 -34.0452
   -33.9330 -33.9329 -33.9192 -33.9192 -26.4981 -26.4979 -26.4974 -26.4972
   -26.4967 -26.4964 -26.4958 -26.4955 -26.2583 -26.2580 -26.2561 -26.2558
    11.0772  11.0772  12.3207  12.3208  13.3241  13.3241  14.0062  14.0062
    14.2434  14.2434  14.4254  14.4255  14.6487  14.6487  14.7228  14.7229
    14.8934  14.8935  15.1667  15.1668  15.2235  15.2236  15.3532  15.3533
    15.4028  15.4029  15.7080  15.7080  15.7337  15.7337  15.7450  15.7450
    15.9284  15.9284  15.9320  15.9320  16.2443  16.2443  16.2773  16.2773
    16.4557  16.4557  16.5026  16.5026  16.5292  16.5292  17.1607  17.1607
    17.7813  17.7813  17.8699  17.8700  18.0317  18.0318  18.0557  18.0558
    18.1261  18.1261  18.2384  18.2384  18.2567  18.2567  18.3107  18.3108
    18.6318  18.6318  18.6678  18.6678  18.8951  18.8951  18.9486  18.9486
    18.9713  18.9713  18.9802  18.9802  19.0235  19.0235  19.0426  19.0426
    19.2162  19.2162  19.2880  19.2880  19.6497

          k =-0.5000-0.5000 0.1667 ( 10292 PWs)   bands (ev):

   -68.2477 -68.2477 -68.2477 -68.2477 -68.2427 -68.2427 -68.2427 -68.2427
   -67.9487 -67.9487 -67.9486 -67.9486 -55.0952 -55.0950 -55.0944 -55.0941
   -34.4609 -34.4609 -34.4609 -34.4609 -34.4336 -34.4336 -34.4336 -34.4336
   -34.3710 -34.3710 -34.3710 -34.3710 -34.3542 -34.3542 -34.3542 -34.3542
   -34.3023 -34.3023 -34.3023 -34.3023 -34.2682 -34.2682 -34.2682 -34.2682
   -34.0696 -34.0696 -34.0696 -34.0696 -34.0510 -34.0510 -34.0510 -34.0510
   -33.9251 -33.9251 -33.9251 -33.9251 -26.4979 -26.4978 -26.4977 -26.4976
   -26.4964 -26.4963 -26.4961 -26.4960 -26.2577 -26.2574 -26.2567 -26.2564
    11.6358  11.6358  11.6359  11.6359  13.7105  13.7105  13.7106  13.7106
    14.4351  14.4351  14.4353  14.4353  14.8269  14.8269  14.8269  14.8270
    14.9492  14.9493  14.9497  14.9498  15.2531  15.2531  15.2532  15.2532
    15.5253  15.5254  15.5256  15.5257  15.7141  15.7142  15.7142  15.7142
    15.8131  15.8131  15.8131  15.8131  16.1801  16.1801  16.1801  16.1801
    16.4557  16.4557  16.4558  16.4558  16.7578  16.7578  16.7579  16.7579
    17.9843  17.9844  17.9845  17.9845  18.0877  18.0877  18.0878  18.0878
    18.1752  18.1753  18.1756  18.1757  18.2215  18.2215  18.2216  18.2216
    18.5507  18.5507  18.5507  18.5507  18.9026  18.9026  18.9026  18.9026
    18.9607  18.9607  18.9607  18.9608  18.9924  18.9924  18.9924  18.9924
    19.3102  19.3102  19.3103  19.3103  20.1808

          k =-0.5000 0.3333 0.3333 ( 10252 PWs)   bands (ev):

   -68.2481 -68.2481 -68.2454 -68.2454 -68.2445 -68.2445 -68.2424 -68.2424
   -67.9489 -67.9489 -67.9483 -67.9482 -55.0952 -55.0950 -55.0944 -55.0941
   -34.4615 -34.4615 -34.4479 -34.4479 -34.4477 -34.4477 -34.4300 -34.4300
   -34.3680 -34.3680 -34.3676 -34.3676 -34.3608 -34.3608 -34.3420 -34.3420
   -34.3102 -34.3102 -34.3054 -34.3054 -34.2783 -34.2783 -34.2647 -34.2647
   -34.0702 -34.0702 -34.0678 -34.0678 -34.0525 -34.0525 -34.0430 -34.0429
   -33.9308 -33.9308 -33.9227 -33.9227 -26.4984 -26.4981 -26.4979 -26.4976
   -26.4963 -26.4961 -26.4956 -26.4954 -26.2579 -26.2576 -26.2564 -26.2561
    11.4346  11.4346  12.6212  12.6212  12.6856  12.6857  13.6489  13.6489
    14.5250  14.5251  14.6212  14.6212  14.7822  14.7823  14.9112  14.9112
    15.0433  15.0433  15.0542  15.0543  15.2804  15.2805  15.3185  15.3186
    15.4625  15.4625  15.5442  15.5443  15.6693  15.6694  15.6733  15.6734
    15.7879  15.7880  15.8280  15.8280  16.1347  16.1348  16.1835  16.1835
    16.2733  16.2733  16.3038  16.3038  16.3214  16.3214  16.6788  16.6788
    18.1043  18.1043  18.1078  18.1078  18.1107  18.1108  18.1618  18.1619
    18.2517  18.2517  18.2871  18.2873  18.3956  18.3956  18.4939  18.4939
    18.6758  18.6758  18.8436  18.8436  18.8787  18.8787  18.9306  18.9306
    18.9441  18.9441  18.9460  18.9460  18.9665  18.9665  19.0192  19.0192
    19.0394  19.0394  19.1588  19.1588  19.1827

          k =-0.5000-0.5000 0.3333 ( 10252 PWs)   bands (ev):

   -68.2467 -68.2467 -68.2467 -68.2467 -68.2435 -68.2435 -68.2435 -68.2435
   -67.9486 -67.9486 -67.9486 -67.9486 -55.0952 -55.0950 -55.0944 -55.0941
   -34.4542 -34.4542 -34.4542 -34.4542 -34.4385 -34.4385 -34.4385 -34.4385
   -34.3683 -34.3683 -34.3683 -34.3683 -34.3497 -34.3497 -34.3497 -34.3497
   -34.3071 -34.3071 -34.3071 -34.3071 -34.2750 -34.2750 -34.2750 -34.2750
   -34.0698 -34.0698 -34.0698 -34.0698 -34.0456 -34.0456 -34.0456 -34.0456
   -33.9271 -33.9271 -33.9271 -33.9271 -26.4983 -26.4983 -26.4981 -26.4980
   -26.4959 -26.4958 -26.4956 -26.4956 -26.2578 -26.2574 -26.2567 -26.2564
    11.9851  11.9851  11.9852  11.9852  13.1385  13.1385  13.1386  13.1386
    14.7105  14.7106  14.7108  14.7108  14.9174  14.9175  14.9177  14.9178
    15.0964  15.0965  15.0966  15.0966  15.2892  15.2892  15.2892  15.2892
    15.4281  15.4281  15.4283  15.4284  15.6763  15.6763  15.6763  15.6763
    15.7442  15.7442  15.7442  15.7442  16.0929  16.0929  16.0929  16.0929
    16.2267  16.2267  16.2267  16.2267  16.3252  16.3253  16.3253  16.3253
    18.2073  18.2074  18.2077  18.2078  18.2215  18.2216  18.2219  18.2221
    18.3856  18.3856  18.3856  18.3856  18.4532  18.4533  18.4534  18.4534
    18.7143  18.7143  18.7143  18.7143  18.8571  18.8571  18.8571  18.8571
    18.8921  18.8921  18.8922  18.8922  18.9533  18.9533  18.9533  18.9533
    19.0422  19.0422  19.0422  19.0422  19.6016

     the Fermi energy is    17.6491 ev

!    total energy              =   -4943.87644060 Ry
     total all-electron energy =    -38953.565552 Ry
     estimated scf accuracy    <          5.0E-09 Ry
     smearing contrib. (-TS)   =      -0.00800776 Ry
     internal energy E=F+TS    =   -4943.86843284 Ry

     The total energy is F=E-TS. E is the sum of the following terms:
     one-electron contribution =   -1632.06977670 Ry
     hartree contribution      =     960.21151646 Ry
     xc contribution           =    -421.49737902 Ry
     ewald contribution        =   -2560.04877961 Ry
     one-center paw contrib.   =   -1290.46401397 Ry

     total magnetization       =    20.65 Bohr mag/cell
     absolute magnetization    =    34.21 Bohr mag/cell

     convergence has been achieved in  52 iterations


     Computing stress (Cartesian axis) and pressure


     negative rho (up, down):  0.000E+00 1.372E-03
          total   stress  (Ry/bohr**3)                   (kbar)     P=     -102.05
  -0.00060240   0.00000000   0.00000000          -88.62        0.00        0.00
   0.00000000  -0.00073935   0.00000000            0.00     -108.76        0.00
   0.00000000   0.00000000  -0.00073935            0.00        0.00     -108.76


     Writing all to output data dir ./tmp/fecr_fe12cr04_h0.00.save/ :
     XML data file, charge density, pseudopotentials, collected wavefunctions
 
     init_run     :     21.86s CPU     16.46s WALL (       1 calls)
     electrons    :   1918.26s CPU   1600.22s WALL (       1 calls)
     stress       :     22.85s CPU     22.62s WALL (       1 calls)

     Called by init_run:
     wfcinit      :      6.26s CPU      7.10s WALL (       1 calls)
     potinit      :     14.92s CPU      8.59s WALL (       1 calls)
     hinit0       :      0.44s CPU      0.44s WALL (       1 calls)

     Called by electrons:
     c_bands      :   1069.70s CPU   1070.58s WALL (      52 calls)
     sum_band     :     95.16s CPU     94.97s WALL (      52 calls)
     v_of_rho     :      1.09s CPU      1.09s WALL (      53 calls)
     newd         :      4.17s CPU      4.19s WALL (      53 calls)
                                        4.19s GPU  (      53 calls)
     PAW_pot      :    759.04s CPU    433.93s WALL (      53 calls)
     mix_rho      :      2.03s CPU      2.21s WALL (      52 calls)

     Called by c_bands:
     init_us_2    :      6.25s CPU      6.06s WALL (    8480 calls)
     cegterg      :   1007.59s CPU   1008.60s WALL (    4160 calls)

     Called by *egterg:
     cdiaghg      :    272.27s CPU    273.63s WALL (   21597 calls)
                                      273.53s GPU  (   21597 calls)
     h_psi        :    335.11s CPU    335.97s WALL (   21677 calls)
                                      335.68s GPU  (   21677 calls)
     s_psi        :     12.67s CPU     12.76s WALL (   21677 calls)
     g_psi        :      0.08s CPU      1.85s WALL (   17437 calls)
                                        1.78s GPU  (   17437 calls)

     Called by h_psi:
     h_psi:calbec :      0.69s CPU     63.63s WALL (   21677 calls)
                                       63.55s GPU  (   21677 calls)
     vloc_psi     :    185.86s CPU    186.08s WALL (   21677 calls)
                                      185.99s GPU  (   21677 calls)
     add_vuspsi   :     12.22s CPU     84.59s WALL (   21677 calls)
                                       84.50s GPU  (   21677 calls)

     General routines
     calbec       :      0.85s CPU      0.91s WALL (   25917 calls)
     fft          :      1.05s CPU      1.26s WALL (    1344 calls)
                                        0.24s GPU  (    1238 calls)
     ffts         :      0.15s CPU      0.16s WALL (     210 calls)
                                        0.01s GPU  (     104 calls)
     fftw         :      3.88s CPU    187.18s WALL (  248428 calls)
                                      186.39s GPU  (  248428 calls)
     interpolate  :      1.28s CPU      1.26s WALL (     106 calls)
 
     Parallel routines
 
     PWSCF        :  32m44.42s CPU  27m20.78s WALL

 
   This run was terminated on:  21:40:30  12May2026            

=------------------------------------------------------------------------------=
   JOB DONE.
=------------------------------------------------------------------------------=
Warning: ieee_divide_by_zero is signaling
Warning: ieee_inexact is signaling
FORTRAN STOP
