--------------------------------------------------------------------------
WARNING: Open MPI tried to bind a process but failed.  This is a
warning only; your job will continue, though performance may
be degraded.

  Local host:        b1c76c1b6516
  Application name:  /workspace/q-e-qe-7.3.1/bin/pw.x
  Error message:     failed to bind memory
  Location:          ../../../../../orte/mca/rtc/hwloc/rtc_hwloc.c:447

--------------------------------------------------------------------------

     Program PWSCF v.7.3.1 starts on 11May2026 at 23: 9:11 

     This program is part of the open-source Quantum ESPRESSO suite
     for quantum simulation of materials; please cite
         "P. Giannozzi et al., J. Phys.:Condens. Matter 21 395502 (2009);
         "P. Giannozzi et al., J. Phys.:Condens. Matter 29 465901 (2017);
         "P. Giannozzi et al., J. Chem. Phys. 152 154105 (2020);
          URL http://www.quantum-espresso.org", 
     in publications or presentations arising from this work. More details at
     http://www.quantum-espresso.org/quote

     Parallel version (MPI & OpenMP), running on       8 processor cores
     Number of MPI processes:                 1
     Threads/MPI process:                     8

     MPI processes distributed on     1 nodes
     139388 MiB available memory on the printing compute node when the environment starts
 
     Reading input from inputs/fecr_fe16cr00_h-0.01.in

     Current dimensions of program PWSCF are:
     Max number of different atomic species (ntypx) = 10
     Max number of k-points (npk) =  40000
     Max angular momentum in pseudopotentials (lmaxx) =  4
     file Fe.pbe-spn-kjpaw_psl.1.0.0.UPF: wavefunction(s)  3P 3D renormalized
     Found identity + (  0.2500  0.2500  0.2500) symmetry
     This is a supercell, fractional translations are disabled
     Message from routine setup:
     using ibrav=0 with symmetry is DISCOURAGED, use correct ibrav instead
 
     Subspace diagonalization in iterative solution of the eigenvalue problem:
     a serial algorithm will be used

 
     G-vector sticks info
     --------------------
     sticks:   dense  smooth     PW     G-vecs:    dense   smooth      PW
     Sum        4257    2129    601               209425    74125   11123
 
     Using Slab Decomposition
 


     bravais-lattice index     =            0
     lattice parameter (alat)  =      10.5671  a.u.
     unit-cell volume          =    1179.9715 (a.u.)^3
     number of atoms/cell      =           16
     number of atomic types    =            1
     number of electrons       =       256.00
     number of Kohn-Sham states=          154
     kinetic-energy cutoff     =      60.0000  Ry
     charge density cutoff     =     480.0000  Ry
     scf convergence threshold =      1.0E-08
     mixing beta               =       0.3000
     number of iterations used =            8  plain     mixing
     Exchange-correlation= SLA  PW   PBX  PBC
                           (   1   4   3   4   0   0   0)

     GPU acceleration is ACTIVE.  1 visible GPUs per MPI rank


     celldm(1)=  10.567133  celldm(2)=   0.000000  celldm(3)=   0.000000
     celldm(4)=   0.000000  celldm(5)=   0.000000  celldm(6)=   0.000000

     crystal axes: (cart. coord. in units of alat)
               a(1) = (   1.000000   0.000000   0.000000 )  
               a(2) = (   0.000000   1.000000   0.000000 )  
               a(3) = (   0.000000   0.000000   1.000000 )  

     reciprocal axes: (cart. coord. in units 2 pi/alat)
               b(1) = (  1.000000  0.000000  0.000000 )  
               b(2) = (  0.000000  1.000000  0.000000 )  
               b(3) = (  0.000000  0.000000  1.000000 )  


     PseudoPot. # 1 for Fe read from file:
     ./pseudo/Fe.pbe-spn-kjpaw_psl.1.0.0.UPF
     MD5 check sum: fc81f059e5c5069939230b1155715ae8
     Pseudo is Projector augmented-wave + core cor, Zval = 16.0
     Generated using &quot;atomic&quot; code by A. Dal Corso  v.6.3
     Shape of augmentation charge: PSQ
     Using radial grid of 1191 points,  6 beta functions with: 
                l(1) =   0
                l(2) =   0
                l(3) =   1
                l(4) =   1
                l(5) =   2
                l(6) =   2
     Q(r) pseudized with 0 coefficients 


     atomic species   valence    mass     pseudopotential
     Fe               16.00    55.84500     Fe( 1.00)

     Starting magnetic structure 
     atomic species   magnetization
     Fe              0.500

     48 Sym. Ops., with inversion, found



   Cartesian axes

     site n.     atom                  positions (alat units)
         1        Fe     tau(   1) = (   0.0000000   0.0000000   0.0000000  )
         2        Fe     tau(   2) = (   0.2500000   0.2500000   0.2500000  )
         3        Fe     tau(   3) = (   0.0000000   0.0000000   0.5000000  )
         4        Fe     tau(   4) = (   0.2500000   0.2500000   0.7500000  )
         5        Fe     tau(   5) = (   0.0000000   0.5000000   0.0000000  )
         6        Fe     tau(   6) = (   0.2500000   0.7500000   0.2500000  )
         7        Fe     tau(   7) = (   0.0000000   0.5000000   0.5000000  )
         8        Fe     tau(   8) = (   0.2500000   0.7500000   0.7500000  )
         9        Fe     tau(   9) = (   0.5000000   0.0000000   0.0000000  )
        10        Fe     tau(  10) = (   0.7500000   0.2500000   0.2500000  )
        11        Fe     tau(  11) = (   0.5000000   0.0000000   0.5000000  )
        12        Fe     tau(  12) = (   0.7500000   0.2500000   0.7500000  )
        13        Fe     tau(  13) = (   0.5000000   0.5000000   0.0000000  )
        14        Fe     tau(  14) = (   0.7500000   0.7500000   0.2500000  )
        15        Fe     tau(  15) = (   0.5000000   0.5000000   0.5000000  )
        16        Fe     tau(  16) = (   0.7500000   0.7500000   0.7500000  )

     number of k points=    20  Marzari-Vanderbilt smearing, width (Ry)=  0.0200
                       cart. coord. in units 2pi/alat
        k(    1) = (   0.0000000   0.0000000   0.0000000), wk =   0.0046296
        k(    2) = (   0.0000000   0.0000000   0.1666667), wk =   0.0277778
        k(    3) = (   0.0000000   0.0000000   0.3333333), wk =   0.0277778
        k(    4) = (   0.0000000   0.0000000  -0.5000000), wk =   0.0138889
        k(    5) = (   0.0000000   0.1666667   0.1666667), wk =   0.0555556
        k(    6) = (   0.0000000   0.1666667   0.3333333), wk =   0.1111111
        k(    7) = (   0.0000000   0.1666667  -0.5000000), wk =   0.0555556
        k(    8) = (   0.0000000   0.3333333   0.3333333), wk =   0.0555556
        k(    9) = (   0.0000000   0.3333333  -0.5000000), wk =   0.0555556
        k(   10) = (   0.0000000  -0.5000000  -0.5000000), wk =   0.0138889
        k(   11) = (   0.1666667   0.1666667   0.1666667), wk =   0.0370370
        k(   12) = (   0.1666667   0.1666667   0.3333333), wk =   0.1111111
        k(   13) = (   0.1666667   0.1666667  -0.5000000), wk =   0.0555556
        k(   14) = (   0.1666667   0.3333333   0.3333333), wk =   0.1111111
        k(   15) = (   0.1666667   0.3333333  -0.5000000), wk =   0.1111111
        k(   16) = (   0.1666667  -0.5000000  -0.5000000), wk =   0.0277778
        k(   17) = (   0.3333333   0.3333333   0.3333333), wk =   0.0370370
        k(   18) = (   0.3333333   0.3333333  -0.5000000), wk =   0.0555556
        k(   19) = (   0.3333333  -0.5000000  -0.5000000), wk =   0.0277778
        k(   20) = (  -0.5000000  -0.5000000  -0.5000000), wk =   0.0046296

     Dense  grid:   209425 G-vectors     FFT dimensions: (  75,  75,  75)

     Smooth grid:    74125 G-vectors     FFT dimensions: (  54,  54,  54)

     Estimated max dynamical RAM per process >       1.74 GB

     Check: negative core charge=   -0.000003
     Generating pointlists ...
     new r_m :   0.1786 (alat units)  1.8875 (a.u.) for type    1

     Initial potential from superposition of free atoms

     starting charge     255.9930, renormalised to     256.0000
     Starting wfcs are  160 randomized atomic wfcs
     Checking if some PAW data can be deallocated... 

     total cpu time spent up to now is       12.8 secs

     Self-consistent Calculation

     iteration #  1     ecut=    60.00 Ry     beta= 0.30
     Davidson diagonalization with overlap
     ethr =  1.00E-02,  avg # of iterations =  3.5

     total cpu time spent up to now is       32.3 secs

     total energy              =   -5263.94865515 Ry
     estimated scf accuracy    <       9.64100494 Ry

     total magnetization       =    51.15 Bohr mag/cell
     absolute magnetization    =    52.34 Bohr mag/cell

     iteration #  2     ecut=    60.00 Ry     beta= 0.30
     Davidson diagonalization with overlap
     ethr =  3.77E-03,  avg # of iterations =  1.4

     negative rho (up, down):  0.000E+00 3.228E-03

     total cpu time spent up to now is       48.5 secs

     total energy              =   -5267.36449656 Ry
     estimated scf accuracy    <       5.05106662 Ry

     total magnetization       =    49.52 Bohr mag/cell
     absolute magnetization    =    51.03 Bohr mag/cell

     iteration #  3     ecut=    60.00 Ry     beta= 0.30
     Davidson diagonalization with overlap
     ethr =  1.97E-03,  avg # of iterations =  1.7

     negative rho (up, down):  0.000E+00 3.231E-03

     total cpu time spent up to now is       65.4 secs

     total energy              =   -5267.96238438 Ry
     estimated scf accuracy    <       1.55072540 Ry

     total magnetization       =    39.18 Bohr mag/cell
     absolute magnetization    =    42.14 Bohr mag/cell

     iteration #  4     ecut=    60.00 Ry     beta= 0.30
     Davidson diagonalization with overlap
     ethr =  6.06E-04,  avg # of iterations =  1.8

     negative rho (up, down):  0.000E+00 3.472E-03

     total cpu time spent up to now is       82.0 secs

     total energy              =   -5268.02321536 Ry
     estimated scf accuracy    <       0.19949199 Ry

     total magnetization       =    39.14 Bohr mag/cell
     absolute magnetization    =    41.80 Bohr mag/cell

     iteration #  5     ecut=    60.00 Ry     beta= 0.30
     Davidson diagonalization with overlap
     ethr =  7.79E-05,  avg # of iterations =  2.9

     negative rho (up, down):  0.000E+00 2.675E-03

     total cpu time spent up to now is       99.8 secs

     total energy              =   -5268.05064458 Ry
     estimated scf accuracy    <       0.36900856 Ry

     total magnetization       =    40.06 Bohr mag/cell
     absolute magnetization    =    42.51 Bohr mag/cell

     iteration #  6     ecut=    60.00 Ry     beta= 0.30
     Davidson diagonalization with overlap
     ethr =  7.79E-05,  avg # of iterations =  1.9

     negative rho (up, down):  0.000E+00 2.478E-03

     total cpu time spent up to now is      117.3 secs

     total energy              =   -5268.08050318 Ry
     estimated scf accuracy    <       0.30873918 Ry

     total magnetization       =    36.89 Bohr mag/cell
     absolute magnetization    =    39.47 Bohr mag/cell

     iteration #  7     ecut=    60.00 Ry     beta= 0.30
     Davidson diagonalization with overlap
     ethr =  7.79E-05,  avg # of iterations =  1.1

     negative rho (up, down):  0.000E+00 1.655E-03

     total cpu time spent up to now is      133.6 secs

     total energy              =   -5268.11630676 Ry
     estimated scf accuracy    <       0.08186381 Ry

     total magnetization       =    36.20 Bohr mag/cell
     absolute magnetization    =    38.70 Bohr mag/cell

     iteration #  8     ecut=    60.00 Ry     beta= 0.30
     Davidson diagonalization with overlap
     ethr =  3.20E-05,  avg # of iterations =  2.8

     negative rho (up, down):  0.000E+00 6.010E-04

     total cpu time spent up to now is      151.4 secs

     total energy              =   -5268.12104720 Ry
     estimated scf accuracy    <       0.09622426 Ry

     total magnetization       =    35.02 Bohr mag/cell
     absolute magnetization    =    37.35 Bohr mag/cell

     iteration #  9     ecut=    60.00 Ry     beta= 0.30
     Davidson diagonalization with overlap
     ethr =  3.20E-05,  avg # of iterations =  2.6

     negative rho (up, down):  0.000E+00 2.738E-04

     total cpu time spent up to now is      169.3 secs

     total energy              =   -5268.13903797 Ry
     estimated scf accuracy    <       0.02135803 Ry

     total magnetization       =    33.51 Bohr mag/cell
     absolute magnetization    =    35.62 Bohr mag/cell

     iteration # 10     ecut=    60.00 Ry     beta= 0.30
     Davidson diagonalization with overlap
     ethr =  8.34E-06,  avg # of iterations =  3.1

     negative rho (up, down):  0.000E+00 1.728E-04

     total cpu time spent up to now is      187.6 secs

     total energy              =   -5268.14079970 Ry
     estimated scf accuracy    <       0.03223089 Ry

     total magnetization       =    34.02 Bohr mag/cell
     absolute magnetization    =    35.96 Bohr mag/cell

     iteration # 11     ecut=    60.00 Ry     beta= 0.30
     Davidson diagonalization with overlap
     ethr =  8.34E-06,  avg # of iterations =  1.5

     negative rho (up, down):  0.000E+00 1.398E-04

     total cpu time spent up to now is      204.1 secs

     total energy              =   -5268.14303603 Ry
     estimated scf accuracy    <       0.00672792 Ry

     total magnetization       =    33.96 Bohr mag/cell
     absolute magnetization    =    35.87 Bohr mag/cell

     iteration # 12     ecut=    60.00 Ry     beta= 0.30
     Davidson diagonalization with overlap
     ethr =  2.63E-06,  avg # of iterations =  3.0

     negative rho (up, down):  0.000E+00 1.262E-04

     total cpu time spent up to now is      222.2 secs

     total energy              =   -5268.14378379 Ry
     estimated scf accuracy    <       0.00113833 Ry

     total magnetization       =    33.85 Bohr mag/cell
     absolute magnetization    =    35.71 Bohr mag/cell

     iteration # 13     ecut=    60.00 Ry     beta= 0.30
     Davidson diagonalization with overlap
     ethr =  4.45E-07,  avg # of iterations =  4.9

     negative rho (up, down):  0.000E+00 1.209E-04

     total cpu time spent up to now is      242.9 secs

     total energy              =   -5268.14437444 Ry
     estimated scf accuracy    <       0.00011372 Ry

     total magnetization       =    33.61 Bohr mag/cell
     absolute magnetization    =    35.39 Bohr mag/cell

     iteration # 14     ecut=    60.00 Ry     beta= 0.30
     Davidson diagonalization with overlap
     ethr =  4.44E-08,  avg # of iterations =  4.9

     negative rho (up, down):  0.000E+00 1.197E-04

     total cpu time spent up to now is      265.6 secs

     total energy              =   -5268.14450652 Ry
     estimated scf accuracy    <       0.00003379 Ry

     total magnetization       =    33.56 Bohr mag/cell
     absolute magnetization    =    35.26 Bohr mag/cell

     iteration # 15     ecut=    60.00 Ry     beta= 0.30
     Davidson diagonalization with overlap
     ethr =  1.32E-08,  avg # of iterations =  2.7

     negative rho (up, down):  0.000E+00 1.199E-04

     total cpu time spent up to now is      284.0 secs

     total energy              =   -5268.14451675 Ry
     estimated scf accuracy    <       0.00001437 Ry

     total magnetization       =    33.56 Bohr mag/cell
     absolute magnetization    =    35.24 Bohr mag/cell

     iteration # 16     ecut=    60.00 Ry     beta= 0.30
     Davidson diagonalization with overlap
     ethr =  5.61E-09,  avg # of iterations =  1.6

     negative rho (up, down):  0.000E+00 1.213E-04

     total cpu time spent up to now is      300.9 secs

     total energy              =   -5268.14452032 Ry
     estimated scf accuracy    <       0.00000978 Ry

     total magnetization       =    33.55 Bohr mag/cell
     absolute magnetization    =    35.23 Bohr mag/cell

     iteration # 17     ecut=    60.00 Ry     beta= 0.30
     Davidson diagonalization with overlap
     ethr =  3.82E-09,  avg # of iterations =  2.1

     negative rho (up, down):  0.000E+00 1.209E-04

     total cpu time spent up to now is      318.6 secs

     total energy              =   -5268.14452284 Ry
     estimated scf accuracy    <       0.00000158 Ry

     total magnetization       =    33.56 Bohr mag/cell
     absolute magnetization    =    35.23 Bohr mag/cell

     iteration # 18     ecut=    60.00 Ry     beta= 0.30
     Davidson diagonalization with overlap
     ethr =  6.19E-10,  avg # of iterations =  4.7

     negative rho (up, down):  0.000E+00 1.209E-04

     total cpu time spent up to now is      339.2 secs

     total energy              =   -5268.14452340 Ry
     estimated scf accuracy    <       0.00000154 Ry

     total magnetization       =    33.56 Bohr mag/cell
     absolute magnetization    =    35.23 Bohr mag/cell

     iteration # 19     ecut=    60.00 Ry     beta= 0.30
     Davidson diagonalization with overlap
     ethr =  6.03E-10,  avg # of iterations =  2.4

     negative rho (up, down):  0.000E+00 1.204E-04

     total cpu time spent up to now is      357.2 secs

     total energy              =   -5268.14452374 Ry
     estimated scf accuracy    <       0.00000445 Ry

     total magnetization       =    33.56 Bohr mag/cell
     absolute magnetization    =    35.23 Bohr mag/cell

     iteration # 20     ecut=    60.00 Ry     beta= 0.30
     Davidson diagonalization with overlap
     ethr =  6.03E-10,  avg # of iterations =  2.3

     negative rho (up, down):  0.000E+00 1.199E-04

     total cpu time spent up to now is      374.8 secs

     total energy              =   -5268.14452414 Ry
     estimated scf accuracy    <       0.00000158 Ry

     total magnetization       =    33.56 Bohr mag/cell
     absolute magnetization    =    35.23 Bohr mag/cell

     iteration # 21     ecut=    60.00 Ry     beta= 0.30
     Davidson diagonalization with overlap
     ethr =  6.03E-10,  avg # of iterations =  2.2

     negative rho (up, down):  0.000E+00 1.197E-04

     total cpu time spent up to now is      392.4 secs

     total energy              =   -5268.14452417 Ry
     estimated scf accuracy    <       0.00000194 Ry

     total magnetization       =    33.56 Bohr mag/cell
     absolute magnetization    =    35.23 Bohr mag/cell

     iteration # 22     ecut=    60.00 Ry     beta= 0.30
     Davidson diagonalization with overlap
     ethr =  6.03E-10,  avg # of iterations =  1.4

     negative rho (up, down):  0.000E+00 1.196E-04

     total cpu time spent up to now is      409.1 secs

     total energy              =   -5268.14452451 Ry
     estimated scf accuracy    <       0.00000033 Ry

     total magnetization       =    33.56 Bohr mag/cell
     absolute magnetization    =    35.23 Bohr mag/cell

     iteration # 23     ecut=    60.00 Ry     beta= 0.30
     Davidson diagonalization with overlap
     ethr =  1.28E-10,  avg # of iterations =  2.1

     negative rho (up, down):  0.000E+00 1.195E-04

     total cpu time spent up to now is      427.1 secs

     total energy              =   -5268.14452460 Ry
     estimated scf accuracy    <       0.00000003 Ry

     total magnetization       =    33.56 Bohr mag/cell
     absolute magnetization    =    35.23 Bohr mag/cell

     iteration # 24     ecut=    60.00 Ry     beta= 0.30
     Davidson diagonalization with overlap
     ethr =  1.33E-11,  avg # of iterations =  4.8

     negative rho (up, down):  0.000E+00 1.194E-04

     total cpu time spent up to now is      448.6 secs

     total energy              =   -5268.14452463 Ry
     estimated scf accuracy    <       0.00000002 Ry

     total magnetization       =    33.56 Bohr mag/cell
     absolute magnetization    =    35.23 Bohr mag/cell

     iteration # 25     ecut=    60.00 Ry     beta= 0.30
     Davidson diagonalization with overlap
     ethr =  6.11E-12,  avg # of iterations =  2.9

     negative rho (up, down):  0.000E+00 1.195E-04
 
     Magnetic moment per site  (integrated on atomic sphere of radius R)
     atom   1 (R=0.179)  charge= 14.3597  magn=  2.1372
     atom   2 (R=0.179)  charge= 14.3595  magn=  2.1375
     atom   3 (R=0.179)  charge= 14.3593  magn=  2.1374
     atom   4 (R=0.179)  charge= 14.3595  magn=  2.1375
     atom   5 (R=0.179)  charge= 14.3593  magn=  2.1374
     atom   6 (R=0.179)  charge= 14.3595  magn=  2.1375
     atom   7 (R=0.179)  charge= 14.3595  magn=  2.1375
     atom   8 (R=0.179)  charge= 14.3595  magn=  2.1375
     atom   9 (R=0.179)  charge= 14.3593  magn=  2.1374
     atom  10 (R=0.179)  charge= 14.3595  magn=  2.1375
     atom  11 (R=0.179)  charge= 14.3595  magn=  2.1375
     atom  12 (R=0.179)  charge= 14.3595  magn=  2.1375
     atom  13 (R=0.179)  charge= 14.3595  magn=  2.1375
     atom  14 (R=0.179)  charge= 14.3595  magn=  2.1375
     atom  15 (R=0.179)  charge= 14.3592  magn=  2.1376
     atom  16 (R=0.179)  charge= 14.3595  magn=  2.1375

     total cpu time spent up to now is      467.6 secs

     End of self-consistent calculation

 ------ SPIN UP ------------


          k = 0.0000 0.0000 0.0000 (  9171 PWs)   bands (ev):

   -68.9408 -68.8536 -68.8536 -68.8536 -68.8535 -68.8535 -68.8535 -68.8468
   -68.8468 -68.8468 -68.8468 -68.8468 -68.8468 -68.8401 -68.8401 -68.7789
   -35.1663 -35.1663 -35.1663 -35.1663 -35.1663 -35.1663 -35.0324 -35.0324
   -35.0324 -34.9393 -34.9393 -34.9393 -34.9392 -34.9392 -34.9392 -34.9251
   -34.9251 -34.9251 -34.9250 -34.9250 -34.9250 -34.8585 -34.8585 -34.8585
   -34.8585 -34.8585 -34.8585 -34.8585 -34.8585 -34.8585 -34.8585 -34.8585
   -34.8585 -34.8514 -34.8514 -34.8514 -34.8514 -34.8514 -34.8514 -34.6948
   -34.6948 -34.6948 -34.6944 -34.6944 -34.6944 -34.6944 -34.6944 -34.6944
    10.4293  14.0259  14.0259  14.0259  14.0259  14.0259  14.0259  14.0793
    14.0793  14.3228  14.3228  14.3228  14.3228  14.3228  14.3229  15.6765
    15.6765  15.6765  15.6766  15.6766  15.6766  15.8317  15.8317  15.8317
    15.8317  15.8317  15.8317  16.0528  16.0528  16.0528  16.0528  16.0529
    16.0529  16.8418  16.8418  16.8418  17.3061  17.3061  17.3061  17.3061
    17.3061  17.3061  17.3061  17.3061  17.3061  17.3062  17.3062  17.3062
    18.1036  18.1036  18.1036  18.1037  18.1037  18.1037  18.1142  18.1142
    18.1988  18.1988  18.1988  18.1988  18.1988  18.1988  18.3231  18.3231
    18.3231  18.3231  18.3232  18.3232  18.3620  18.3620  18.3620  18.3620
    19.4363  19.4363  19.4363  19.4807  19.4807  19.4807  19.4807  19.4807
    19.4807  19.6367  19.6367  19.6367  19.6367  19.6367  19.6367  19.7283
    19.7283  19.7283

          k = 0.0000 0.0000 0.1667 (  9266 PWs)   bands (ev):

   -68.9373 -68.8749 -68.8531 -68.8531 -68.8531 -68.8531 -68.8475 -68.8475
   -68.8474 -68.8474 -68.8465 -68.8465 -68.8409 -68.8408 -68.8330 -68.7813
   -35.1580 -35.1580 -35.1565 -35.1565 -35.1565 -35.1565 -35.0319 -35.0264
   -35.0264 -34.9867 -34.9867 -34.9778 -34.9730 -34.9729 -34.9729 -34.9729
   -34.9206 -34.9206 -34.9025 -34.9025 -34.8911 -34.8646 -34.8646 -34.8580
   -34.8580 -34.8580 -34.8580 -34.8567 -34.8566 -34.8522 -34.8522 -34.8521
   -34.8521 -34.8291 -34.8291 -34.8291 -34.8291 -34.8149 -34.8149 -34.7053
   -34.7021 -34.7021 -34.7004 -34.7004 -34.7004 -34.7004 -34.7000 -34.7000
    10.5791  13.5375  14.0713  14.0713  14.0713  14.0713  14.1303  14.1303
    14.1443  14.1476  14.3676  14.3676  14.3676  14.3676  14.7321  15.5299
    15.6619  15.6619  15.6647  15.6647  15.6888  15.6889  15.7424  15.7424
    15.7424  15.7424  16.0143  16.0143  16.0144  16.0144  16.1193  16.1193
    16.5823  16.8401  16.8401  16.8837  17.0521  17.0521  17.0521  17.0522
    17.0766  17.0766  17.4245  17.4245  17.4246  17.4246  17.6309  17.6309
    17.7703  17.9189  17.9189  17.9190  17.9190  18.0440  18.1419  18.1780
    18.1780  18.1781  18.1781  18.2121  18.2121  18.3257  18.3257  18.3559
    18.3559  18.3574  18.3575  18.3575  18.3575  18.3594  18.3594  18.4418
    18.6842  18.6842  18.8606  19.3041  19.3041  19.3898  19.5220  19.5220
    19.5221  19.5221  19.6628  19.6629  19.6629  19.6629  19.7619  19.7619
    19.7619  19.7619

          k = 0.0000 0.0000 0.3333 (  9242 PWs)   bands (ev):

   -68.9282 -68.8955 -68.8519 -68.8519 -68.8518 -68.8518 -68.8486 -68.8486
   -68.8486 -68.8486 -68.8453 -68.8452 -68.8421 -68.8420 -68.8145 -68.7882
   -35.1334 -35.1334 -35.1273 -35.1273 -35.1273 -35.1273 -35.0445 -35.0445
   -35.0288 -35.0288 -35.0288 -35.0288 -35.0284 -35.0088 -35.0088 -35.0044
   -34.9441 -34.9441 -34.9071 -34.9071 -34.8702 -34.8702 -34.8568 -34.8567
   -34.8567 -34.8567 -34.8534 -34.8534 -34.8533 -34.8533 -34.8368 -34.8087
   -34.8087 -34.7847 -34.7847 -34.7847 -34.7847 -34.7750 -34.7750 -34.7365
   -34.7247 -34.7247 -34.7180 -34.7180 -34.7180 -34.7180 -34.7159 -34.7159
    11.0167  12.5937  14.1938  14.1938  14.1938  14.1938  14.3326  14.3358
    14.4164  14.4164  14.4164  14.4164  14.4255  14.4255  14.7604  15.0497
    15.3193  15.3193  15.5953  15.5953  15.6266  15.6266  15.9352  15.9352
    15.9352  15.9352  16.0824  16.0824  16.0824  16.0825  16.5431  16.5431
    16.6306  16.6306  16.6306  16.6306  16.8418  16.8418  16.9356  16.9356
    17.0068  17.0798  17.1746  17.1746  17.1746  17.1747  17.4639  17.6690
    17.6691  17.6691  17.6691  17.8259  17.8259  17.8376  18.0412  18.0412
    18.0751  18.0751  18.0751  18.0751  18.2219  18.2477  18.2477  18.3328
    18.3328  18.3333  18.3333  18.3522  18.3523  18.5404  18.7612  18.7784
    18.7784  18.7784  18.7784  18.9579  18.9579  19.2537  19.4712  19.4712
    19.4712  19.4713  19.6339  19.6339  19.6340  19.6340  19.8434  19.8434
    19.8434  19.8434

          k = 0.0000 0.0000-0.5000 (  9242 PWs)   bands (ev):

   -68.9137 -68.9136 -68.8503 -68.8503 -68.8503 -68.8503 -68.8503 -68.8503
   -68.8502 -68.8502 -68.8437 -68.8437 -68.8437 -68.8436 -68.7993 -68.7992
   -35.0946 -35.0946 -35.0946 -35.0946 -35.0831 -35.0831 -35.0831 -35.0831
   -35.0831 -35.0831 -35.0830 -35.0830 -35.0203 -35.0203 -34.9804 -34.9804
   -34.9804 -34.9804 -34.8889 -34.8889 -34.8889 -34.8888 -34.8551 -34.8551
   -34.8551 -34.8551 -34.8551 -34.8551 -34.8550 -34.8550 -34.7823 -34.7823
   -34.7610 -34.7610 -34.7610 -34.7610 -34.7465 -34.7465 -34.7465 -34.7464
   -34.7464 -34.7464 -34.7464 -34.7464 -34.7413 -34.7413 -34.7412 -34.7412
    11.7110  11.7111  14.3422  14.3422  14.3422  14.3422  14.3422  14.3422
    14.3422  14.3422  14.5732  14.5733  14.6434  14.6435  14.8542  14.8542
    14.8542  14.8543  15.5938  15.5938  15.5938  15.5938  16.2402  16.2402
    16.2403  16.2403  16.2403  16.2403  16.2403  16.2404  16.4871  16.4871
    16.4871  16.4871  16.4871  16.4871  16.4871  16.4872  16.8654  16.8654
    16.8654  16.8654  17.1113  17.1113  17.1113  17.1113  17.2041  17.2042
    17.5085  17.5086  17.9033  17.9034  17.9034  17.9034  17.9034  17.9034
    17.9034  17.9034  18.2934  18.2934  18.2934  18.2935  18.3424  18.3425
    18.3425  18.3427  18.3504  18.3505  18.5046  18.5046  18.5046  18.5046
    19.0386  19.0388  19.1675  19.1675  19.1676  19.1676  19.1676  19.1676
    19.1676  19.1677  19.7704  19.7704  19.7704  19.7704  19.7705  19.7705
    19.7705  19.7705

          k = 0.0000 0.1667 0.1667 (  9251 PWs)   bands (ev):

   -68.9342 -68.8738 -68.8738 -68.8532 -68.8526 -68.8525 -68.8470 -68.8470
   -68.8469 -68.8469 -68.8425 -68.8414 -68.8413 -68.8333 -68.8333 -68.7836
   -35.1577 -35.1487 -35.1487 -35.1487 -35.1487 -35.1353 -35.0415 -35.0206
   -35.0103 -35.0093 -35.0093 -35.0070 -35.0070 -34.9921 -34.9921 -34.9256
   -34.9256 -34.9209 -34.9209 -34.9006 -34.9006 -34.8723 -34.8723 -34.8639
   -34.8629 -34.8628 -34.8575 -34.8575 -34.8575 -34.8575 -34.8412 -34.8400
   -34.8400 -34.8161 -34.8161 -34.8086 -34.8086 -34.7876 -34.7876 -34.7266
   -34.7176 -34.7069 -34.7069 -34.7069 -34.7069 -34.7049 -34.6946 -34.6945
    10.7266  13.6127  13.6127  14.0139  14.1762  14.1762  14.1762  14.1762
    14.1956  14.2067  14.2167  14.4240  14.4240  14.7716  14.7716  15.5202
    15.5202  15.5367  15.5367  15.7225  15.7225  15.7225  15.7225  15.7491
    15.7938  15.7938  15.8659  15.9531  15.9531  16.1265  16.1265  16.4560
    16.4560  16.7577  16.8316  16.8391  16.8392  16.9551  16.9551  17.0056
    17.2946  17.2946  17.3619  17.3619  17.3953  17.4649  17.4649  17.6473
    17.6473  17.8330  17.8330  17.8330  17.8330  18.0235  18.0235  18.0341
    18.0539  18.0814  18.1211  18.1853  18.1853  18.1853  18.1853  18.3015
    18.3485  18.3486  18.3605  18.3605  18.4980  18.4980  18.6884  18.6885
    18.7302  18.8502  18.8502  18.9071  18.9071  18.9071  18.9072  19.0743
    19.1723  19.4556  19.4951  19.6103  19.6104  19.7084  20.7050  20.7050
    20.7340  20.7340

          k = 0.0000 0.1667 0.3333 (  9254 PWs)   bands (ev):

   -68.9253 -68.8938 -68.8705 -68.8596 -68.8514 -68.8514 -68.8482 -68.8481
   -68.8458 -68.8458 -68.8426 -68.8425 -68.8385 -68.8341 -68.8155 -68.7900
   -35.1394 -35.1264 -35.1264 -35.1218 -35.1218 -35.0967 -35.0594 -35.0489
   -35.0489 -35.0469 -35.0348 -35.0348 -35.0330 -35.0032 -34.9848 -34.9844
   -34.9409 -34.9143 -34.9102 -34.9101 -34.8949 -34.8756 -34.8722 -34.8721
   -34.8714 -34.8645 -34.8644 -34.8598 -34.8597 -34.8319 -34.8251 -34.8192
   -34.7972 -34.7972 -34.7776 -34.7749 -34.7749 -34.7655 -34.7506 -34.7489
   -34.7449 -34.7263 -34.7263 -34.7211 -34.7211 -34.7204 -34.7015 -34.7006
    11.1580  12.7012  13.7872  13.9916  14.2995  14.2995  14.3826  14.3846
    14.4112  14.4712  14.4712  14.5019  14.5020  14.7661  14.8099  15.0863
    15.3033  15.3034  15.6650  15.6650  15.6749  15.6749  15.6952  15.8821
    15.8919  15.8919  15.9511  15.9511  16.1140  16.4101  16.4277  16.4277
    16.4624  16.6584  16.6584  16.6945  16.7184  16.7299  16.7540  16.8135
    16.9059  17.1048  17.1048  17.1917  17.3493  17.4050  17.4604  17.4604
    17.6520  17.6780  17.6780  17.7014  17.7078  17.7588  17.8757  17.9204
    17.9766  18.0841  18.0842  18.1672  18.1884  18.2178  18.2178  18.3199
    18.3200  18.3675  18.3675  18.4480  18.5012  18.5013  18.5136  18.6594
    18.6768  18.7336  18.7336  18.8175  18.8312  18.9919  18.9970  18.9970
    19.0781  19.2215  19.4063  19.6225  19.8591  19.8592  20.5140  20.5140
    20.9769  21.2900

          k = 0.0000 0.1667-0.5000 (  9252 PWs)   bands (ev):

   -68.9114 -68.9114 -68.8655 -68.8654 -68.8498 -68.8498 -68.8498 -68.8497
   -68.8442 -68.8442 -68.8442 -68.8442 -68.8358 -68.8358 -68.8009 -68.8009
   -35.1051 -35.1051 -35.0918 -35.0918 -35.0917 -35.0917 -35.0816 -35.0816
   -35.0816 -35.0816 -35.0449 -35.0449 -35.0445 -35.0445 -34.9761 -34.9761
   -34.9524 -34.9523 -34.8917 -34.8917 -34.8917 -34.8916 -34.8864 -34.8863
   -34.8626 -34.8626 -34.8626 -34.8625 -34.8245 -34.8245 -34.8155 -34.8155
   -34.7813 -34.7812 -34.7573 -34.7573 -34.7573 -34.7573 -34.7451 -34.7450
   -34.7442 -34.7442 -34.7442 -34.7442 -34.7210 -34.7209 -34.7188 -34.7188
    11.8397  11.8398  13.9350  13.9350  14.4457  14.4457  14.4457  14.4457
    14.6029  14.6029  14.6257  14.6257  14.7030  14.7030  14.8921  14.8921
    14.8921  14.8922  15.6337  15.6338  15.6338  15.6338  16.0735  16.0736
    16.0736  16.0736  16.1278  16.1279  16.1387  16.1387  16.4705  16.4705
    16.5499  16.5499  16.5499  16.5500  16.6761  16.6761  16.7083  16.7083
    16.7950  16.7950  16.9136  16.9136  16.9136  16.9136  17.4270  17.4271
    17.6108  17.6109  17.7961  17.7962  17.9111  17.9111  17.9111  17.9112
    17.9647  17.9647  18.2142  18.2143  18.2708  18.2708  18.2708  18.2709
    18.3201  18.3202  18.3935  18.3936  18.3936  18.3937  18.3961  18.3961
    18.7571  18.7572  18.8631  18.8632  18.9161  18.9161  18.9162  18.9162
    19.2409  19.2411  19.4065  19.4065  20.1953  20.1954  20.1954  20.1954
    21.2577  21.2578

          k = 0.0000 0.3333 0.3333 (  9260 PWs)   bands (ev):

   -68.9172 -68.8885 -68.8885 -68.8704 -68.8503 -68.8502 -68.8471 -68.8471
   -68.8470 -68.8470 -68.8438 -68.8437 -68.8300 -68.8183 -68.8183 -68.7959
   -35.1331 -35.1066 -35.1066 -35.1066 -35.1066 -35.0747 -35.0747 -35.0661
   -35.0633 -35.0633 -35.0528 -35.0528 -35.0502 -34.9876 -34.9488 -34.9312
   -34.9312 -34.9306 -34.9306 -34.9087 -34.9087 -34.8972 -34.8763 -34.8763
   -34.8762 -34.8762 -34.8752 -34.8752 -34.8673 -34.8673 -34.8144 -34.8126
   -34.7848 -34.7848 -34.7799 -34.7731 -34.7731 -34.7569 -34.7569 -34.7339
   -34.7315 -34.7315 -34.7315 -34.7315 -34.7200 -34.7200 -34.6946 -34.6944
    11.5691  12.9942  12.9942  13.7325  14.5161  14.5721  14.5920  14.5920
    14.5920  14.5920  14.6277  14.6787  14.6787  14.8265  14.8265  15.2413
    15.2413  15.3056  15.3056  15.7244  15.7244  15.7910  15.7910  15.7913
    15.7913  15.7913  15.7913  15.9511  16.2445  16.3148  16.3148  16.3985
    16.3985  16.4118  16.5327  16.5771  16.5771  16.6071  16.6071  16.7525
    16.8707  16.8708  16.8708  16.8708  17.1396  17.2801  17.2801  17.4699
    17.6787  17.6787  17.7865  17.7865  17.7947  17.8468  17.8468  17.9173
    18.1093  18.1093  18.1151  18.1246  18.1246  18.1246  18.1246  18.1449
    18.2161  18.2485  18.2731  18.2731  18.4064  18.4064  18.4357  18.4357
    18.5144  18.6355  18.6356  18.6356  18.6356  18.6910  18.6910  18.8959
    19.3200  19.3201  19.5084  19.6544  20.3489  20.3490  21.4481  21.4481
    21.4481  21.4481

          k = 0.0000 0.3333-0.5000 (  9272 PWs)   bands (ev):

   -68.9046 -68.9045 -68.8804 -68.8804 -68.8486 -68.8486 -68.8486 -68.8485
   -68.8455 -68.8455 -68.8455 -68.8454 -68.8232 -68.8231 -68.8055 -68.8055
   -35.1102 -35.1101 -35.0850 -35.0850 -35.0850 -35.0850 -35.0793 -35.0793
   -35.0792 -35.0792 -35.0763 -35.0763 -34.9928 -34.9927 -34.9631 -34.9631
   -34.9163 -34.9162 -34.9093 -34.9093 -34.8955 -34.8955 -34.8955 -34.8954
   -34.8787 -34.8787 -34.8787 -34.8786 -34.8717 -34.8716 -34.8215 -34.8214
   -34.7967 -34.7966 -34.7559 -34.7558 -34.7495 -34.7495 -34.7494 -34.7494
   -34.7415 -34.7415 -34.7414 -34.7414 -34.7013 -34.7013 -34.7009 -34.7008
    12.2085  12.2086  13.3801  13.3801  14.6953  14.6953  14.7157  14.7157
    14.7157  14.7157  14.7320  14.7320  14.9411  14.9411  14.9785  14.9785
    14.9786  14.9786  15.7074  15.7074  15.7074  15.7074  15.7287  15.7287
    15.8298  15.8298  15.8298  15.8298  16.1302  16.1303  16.4274  16.4274
    16.5109  16.5109  16.5110  16.5110  16.5372  16.5372  16.5372  16.5373
    16.6913  16.6913  16.7269  16.7270  16.8111  16.8112  17.7302  17.7302
    17.7657  17.7657  17.7792  17.7793  17.8083  17.8083  17.9524  17.9525
    17.9687  17.9688  17.9688  17.9688  18.1428  18.1428  18.1985  18.1985
    18.1986  18.1986  18.2415  18.2415  18.3207  18.3208  18.4753  18.4754
    18.4754  18.4755  18.5172  18.5173  18.6757  18.6757  18.6758  18.6758
    19.4735  19.4736  19.5530  19.5530  20.9103  20.9103  20.9104  20.9104
    22.4387  22.4388

          k = 0.0000-0.5000-0.5000 (  9300 PWs)   bands (ev):

   -68.8940 -68.8939 -68.8939 -68.8939 -68.8471 -68.8471 -68.8471 -68.8471
   -68.8471 -68.8470 -68.8470 -68.8469 -68.8130 -68.8130 -68.8130 -68.8129
   -35.0997 -35.0996 -35.0996 -35.0996 -35.0798 -35.0798 -35.0798 -35.0798
   -35.0798 -35.0798 -35.0797 -35.0797 -34.9425 -34.9425 -34.9425 -34.9424
   -34.9333 -34.9332 -34.9332 -34.9332 -34.8921 -34.8920 -34.8920 -34.8920
   -34.8920 -34.8920 -34.8920 -34.8919 -34.8648 -34.8648 -34.8648 -34.8647
   -34.7734 -34.7734 -34.7734 -34.7733 -34.7431 -34.7431 -34.7431 -34.7431
   -34.7430 -34.7430 -34.7430 -34.7430 -34.6946 -34.6945 -34.6945 -34.6945
    12.7586  12.7586  12.7586  12.7587  14.7472  14.7472  14.7472  14.7472
    14.9728  14.9728  14.9728  14.9728  14.9729  14.9729  14.9729  14.9729
    15.3078  15.3078  15.3078  15.3078  15.7068  15.7068  15.7068  15.7068
    15.7068  15.7068  15.7068  15.7069  16.2361  16.2362  16.2362  16.2362
    16.4031  16.4031  16.4031  16.4031  16.4031  16.4031  16.4031  16.4031
    16.6660  16.6660  16.6660  16.6660  17.2426  17.2427  17.2427  17.2427
    17.8919  17.8919  17.8919  17.8919  17.9508  17.9509  17.9509  17.9510
    18.0841  18.0841  18.0842  18.0842  18.0842  18.0842  18.0842  18.0843
    18.1500  18.1501  18.1501  18.1501  18.1893  18.1894  18.1894  18.1895
    18.5528  18.5529  18.5529  18.5529  18.5529  18.5529  18.5529  18.5531
    19.5810  19.5811  19.5811  19.5812  21.6800  21.6800  21.6801  21.6801
    21.6802  21.6802

          k = 0.1667 0.1667 0.1667 (  9273 PWs)   bands (ev):

   -68.9314 -68.8726 -68.8726 -68.8726 -68.8527 -68.8527 -68.8527 -68.8431
   -68.8422 -68.8422 -68.8422 -68.8403 -68.8336 -68.8336 -68.8335 -68.7856
   -35.1494 -35.1494 -35.1494 -35.1296 -35.1296 -35.1296 -35.0353 -35.0353
   -35.0323 -35.0255 -35.0255 -35.0255 -34.9896 -34.9812 -34.9812 -34.9471
   -34.9471 -34.9471 -34.9082 -34.9082 -34.9082 -34.8717 -34.8717 -34.8717
   -34.8612 -34.8612 -34.8482 -34.8482 -34.8481 -34.8450 -34.8450 -34.8449
   -34.8183 -34.8183 -34.8183 -34.8100 -34.7719 -34.7719 -34.7719 -34.7467
   -34.7211 -34.7211 -34.7211 -34.7020 -34.7020 -34.7020 -34.7003 -34.7003
    10.8718  13.6944  13.6944  13.6944  14.1255  14.1255  14.1255  14.2768
    14.2768  14.2960  14.2960  14.2960  14.8294  14.8294  14.8294  15.3904
    15.5211  15.5211  15.5211  15.6642  15.6642  15.7312  15.7312  15.7312
    15.8325  15.8325  15.8325  16.0240  16.0240  16.0312  16.3274  16.3274
    16.3274  16.7457  16.7457  16.7806  16.7806  16.7807  17.1298  17.1577
    17.1577  17.1577  17.3252  17.3252  17.3252  17.3609  17.3609  17.3609
    17.7247  17.7247  17.7247  17.9711  17.9711  17.9711  18.0667  18.0667
    18.0865  18.0865  18.0865  18.2191  18.2191  18.2191  18.2836  18.2836
    18.2836  18.3048  18.3048  18.3048  18.3411  18.3411  18.3643  18.3643
    18.7725  18.7826  18.7826  18.7827  18.8672  18.8672  18.8672  19.2781
    19.2782  19.2782  19.3236  19.3236  20.1576  20.1576  20.1576  20.8475
    20.8475  20.8475

          k = 0.1667 0.1667 0.3333 (  9243 PWs)   bands (ev):

   -68.9226 -68.8919 -68.8694 -68.8694 -68.8586 -68.8586 -68.8510 -68.8457
   -68.8416 -68.8402 -68.8385 -68.8384 -68.8343 -68.8343 -68.8164 -68.7919
   -35.1322 -35.1322 -35.1254 -35.1130 -35.0939 -35.0939 -35.0617 -35.0617
   -35.0599 -35.0475 -35.0448 -35.0379 -35.0170 -34.9941 -34.9941 -34.9598
   -34.9525 -34.9509 -34.9078 -34.9078 -34.8941 -34.8928 -34.8879 -34.8861
   -34.8861 -34.8691 -34.8544 -34.8347 -34.8347 -34.8221 -34.8220 -34.8099
   -34.8099 -34.8064 -34.7873 -34.7786 -34.7773 -34.7445 -34.7445 -34.7435
   -34.7435 -34.7402 -34.7322 -34.7243 -34.7165 -34.7067 -34.7067 -34.7024
    11.2982  12.8115  13.8856  13.8856  14.1094  14.1094  14.4421  14.4531
    14.4659  14.4838  14.4838  14.5750  14.8612  14.8612  14.8833  15.1002
    15.2594  15.4017  15.6212  15.6280  15.6280  15.6866  15.7549  15.7867
    15.8543  15.8544  16.0390  16.0390  16.2018  16.2018  16.2369  16.3508
    16.5435  16.5435  16.5596  16.6501  16.6541  16.7130  16.7234  16.7234
    16.8010  16.8010  17.0985  17.2309  17.2309  17.3426  17.3492  17.4521
    17.4543  17.6427  17.6427  17.7970  17.7970  17.9110  17.9192  17.9741
    17.9741  18.0976  18.1366  18.1367  18.1575  18.1681  18.2162  18.3077
    18.3133  18.3288  18.3336  18.3341  18.4076  18.4619  18.4619  18.4898
    18.4898  18.4937  18.7888  18.9810  18.9896  18.9896  19.0016  19.0017
    19.0492  19.3421  19.3421  19.3571  19.7222  19.7222  21.1604  21.1959
    21.1959  21.7361

          k = 0.1667 0.1667-0.5000 (  9268 PWs)   bands (ev):

   -68.9091 -68.9091 -68.8645 -68.8645 -68.8645 -68.8645 -68.8486 -68.8486
   -68.8408 -68.8408 -68.8360 -68.8360 -68.8359 -68.8359 -68.8023 -68.8022
   -35.1010 -35.1010 -35.1009 -35.1009 -35.0884 -35.0884 -35.0872 -35.0871
   -35.0516 -35.0515 -35.0466 -35.0466 -35.0465 -35.0465 -34.9881 -34.9881
   -34.9256 -34.9256 -34.9217 -34.9217 -34.8992 -34.8992 -34.8992 -34.8992
   -34.8650 -34.8649 -34.8386 -34.8385 -34.8272 -34.8272 -34.8271 -34.8271
   -34.7738 -34.7738 -34.7737 -34.7737 -34.7599 -34.7598 -34.7517 -34.7517
   -34.7428 -34.7428 -34.7212 -34.7212 -34.7212 -34.7212 -34.7163 -34.7162
    11.9688  11.9689  14.0502  14.0502  14.0502  14.0502  14.7040  14.7040
    14.7040  14.7040  14.7078  14.7078  14.7342  14.7343  14.9047  14.9048
    14.9549  14.9549  15.6392  15.6393  15.6978  15.6978  16.0100  16.0100
    16.0100  16.0100  16.0590  16.0590  16.0590  16.0590  16.4708  16.4708
    16.4708  16.4708  16.6118  16.6118  16.6278  16.6278  16.6278  16.6278
    16.6609  16.6609  16.7207  16.7207  16.7383  16.7384  17.6164  17.6164
    17.6821  17.6822  17.8615  17.8615  17.8731  17.8731  17.8731  17.8731
    17.9343  17.9343  17.9344  17.9344  18.2601  18.2601  18.2624  18.2624
    18.2942  18.2942  18.3239  18.3240  18.5213  18.5214  18.5389  18.5389
    18.5446  18.5447  18.5447  18.5447  19.2211  19.2211  19.2212  19.2212
    19.2539  19.2540  19.3204  19.3204  19.3204  19.3204  21.5738  21.5738
    21.5739  21.5739

          k = 0.1667 0.3333 0.3333 (  9273 PWs)   bands (ev):

   -68.9148 -68.8869 -68.8869 -68.8693 -68.8664 -68.8564 -68.8564 -68.8495
   -68.8390 -68.8384 -68.8384 -68.8349 -68.8303 -68.8192 -68.8191 -68.7976
   -35.1253 -35.1114 -35.1114 -35.0868 -35.0868 -35.0736 -35.0736 -35.0715
   -35.0688 -35.0594 -35.0514 -35.0469 -35.0193 -35.0100 -34.9658 -34.9488
   -34.9488 -34.9430 -34.9430 -34.9245 -34.9236 -34.9124 -34.9124 -34.9119
   -34.8522 -34.8477 -34.8477 -34.8416 -34.8416 -34.8324 -34.8275 -34.8129
   -34.7875 -34.7837 -34.7833 -34.7833 -34.7730 -34.7611 -34.7432 -34.7432
   -34.7358 -34.7272 -34.7250 -34.7250 -34.7207 -34.7207 -34.7017 -34.7006
    11.7060  13.1116  13.1116  13.8603  14.1309  14.4423  14.4423  14.5942
    14.6707  14.6730  14.7556  14.7556  14.9291  14.9291  15.0521  15.2569
    15.2920  15.2920  15.3384  15.5345  15.6886  15.7856  15.7856  15.8173
    15.8746  15.8746  15.9256  16.0064  16.0387  16.2272  16.2470  16.2882
    16.3293  16.3294  16.4409  16.5034  16.5034  16.5054  16.5907  16.6092
    16.6092  16.6279  16.7923  16.7923  16.9100  17.0220  17.0220  17.6376
    17.7022  17.7022  17.7591  17.8481  17.9032  17.9461  17.9519  18.0467
    18.0467  18.0936  18.1028  18.1028  18.1199  18.1322  18.1322  18.2514
    18.2607  18.2835  18.2835  18.3241  18.3331  18.3707  18.3707  18.4652
    18.4678  18.4678  18.4928  18.7895  18.9116  18.9144  18.9144  19.2240
    19.2244  19.2245  19.3746  19.4335  19.4508  20.5396  20.5396  21.7007
    22.3340  22.6554

          k = 0.1667 0.3333-0.5000 (  9258 PWs)   bands (ev):

   -68.9025 -68.9024 -68.8790 -68.8790 -68.8618 -68.8618 -68.8533 -68.8532
   -68.8385 -68.8384 -68.8362 -68.8362 -68.8238 -68.8237 -68.8067 -68.8067
   -35.1038 -35.1038 -35.0904 -35.0903 -35.0799 -35.0798 -35.0777 -35.0777
   -35.0715 -35.0715 -35.0531 -35.0531 -34.9987 -34.9986 -34.9841 -34.9841
   -34.9436 -34.9435 -34.9339 -34.9338 -34.9248 -34.9248 -34.8869 -34.8869
   -34.8864 -34.8863 -34.8482 -34.8481 -34.8334 -34.8334 -34.8083 -34.8083
   -34.7955 -34.7954 -34.7604 -34.7603 -34.7537 -34.7537 -34.7510 -34.7509
   -34.7486 -34.7485 -34.7287 -34.7287 -34.7065 -34.7064 -34.7056 -34.7056
    12.3387  12.3388  13.5065  13.5065  14.3630  14.3630  14.7844  14.7844
    14.8330  14.8330  14.9186  14.9186  14.9681  14.9681  14.9740  14.9740
    15.0963  15.0964  15.7142  15.7142  15.7163  15.7163  15.7483  15.7483
    15.7598  15.7598  15.9099  15.9100  16.0939  16.0939  16.3252  16.3252
    16.3930  16.3930  16.4058  16.4058  16.4136  16.4137  16.4138  16.4139
    16.5541  16.5542  16.5682  16.5682  16.6212  16.6213  17.3844  17.3844
    17.8388  17.8389  17.9335  17.9335  17.9450  17.9450  17.9613  17.9613
    17.9735  17.9736  18.0379  18.0379  18.1901  18.1902  18.2270  18.2270
    18.2394  18.2394  18.3010  18.3011  18.3456  18.3457  18.4090  18.4090
    18.4478  18.4479  18.6164  18.6165  18.7907  18.7907  18.9139  18.9140
    19.3557  19.3558  19.3938  19.3938  19.9723  19.9723  21.4211  21.4213
    22.2652  22.2653

          k = 0.1667-0.5000-0.5000 (  9268 PWs)   bands (ev):

   -68.8921 -68.8921 -68.8921 -68.8920 -68.8579 -68.8579 -68.8579 -68.8579
   -68.8370 -68.8370 -68.8370 -68.8369 -68.8139 -68.8139 -68.8139 -68.8138
   -35.0923 -35.0923 -35.0923 -35.0923 -35.0803 -35.0803 -35.0803 -35.0802
   -35.0643 -35.0643 -35.0643 -35.0643 -34.9636 -34.9636 -34.9636 -34.9635
   -34.9448 -34.9447 -34.9447 -34.9447 -34.9433 -34.9433 -34.9433 -34.9432
   -34.8464 -34.8464 -34.8464 -34.8463 -34.8400 -34.8400 -34.8400 -34.8399
   -34.7695 -34.7695 -34.7695 -34.7694 -34.7510 -34.7510 -34.7510 -34.7509
   -34.7411 -34.7410 -34.7410 -34.7410 -34.7011 -34.7011 -34.7011 -34.7010
    12.8890  12.8890  12.8890  12.8890  14.7396  14.7396  14.7396  14.7396
    14.8421  14.8421  14.8421  14.8421  15.2097  15.2097  15.2097  15.2098
    15.3282  15.3282  15.3282  15.3282  15.6307  15.6307  15.6307  15.6307
    15.7904  15.7904  15.7904  15.7904  16.2016  16.2016  16.2016  16.2016
    16.2047  16.2048  16.2048  16.2048  16.3238  16.3238  16.3238  16.3239
    16.5144  16.5144  16.5144  16.5144  16.9468  16.9469  16.9469  16.9469
    17.9642  17.9642  17.9642  17.9643  18.0721  18.0722  18.0722  18.0723
    18.1389  18.1389  18.1389  18.1389  18.1769  18.1770  18.1770  18.1771
    18.1848  18.1848  18.1848  18.1849  18.3673  18.3674  18.3674  18.3674
    18.3935  18.3936  18.3936  18.3937  18.7104  18.7105  18.7105  18.7106
    19.4335  19.4336  19.4336  19.4336  20.6814  20.6815  20.6815  20.6816
    23.0541  23.0543

          k = 0.3333 0.3333 0.3333 (  9285 PWs)   bands (ev):

   -68.9076 -68.8821 -68.8821 -68.8821 -68.8661 -68.8661 -68.8661 -68.8557
   -68.8353 -68.8311 -68.8311 -68.8311 -68.8215 -68.8215 -68.8215 -68.8024
   -35.1025 -35.1025 -35.1025 -35.0745 -35.0745 -35.0745 -35.0665 -35.0546
   -35.0546 -35.0546 -35.0399 -35.0399 -35.0196 -35.0196 -34.9745 -34.9745
   -34.9744 -34.9694 -34.9694 -34.9694 -34.9453 -34.9453 -34.9453 -34.8873
   -34.8734 -34.8152 -34.8152 -34.8152 -34.8127 -34.8127 -34.8127 -34.8006
   -34.8006 -34.7835 -34.7835 -34.7835 -34.7610 -34.7610 -34.7610 -34.7538
   -34.7226 -34.7226 -34.7226 -34.7218 -34.7218 -34.7218 -34.7182 -34.7182
    12.1024  13.4348  13.4348  13.4348  14.2266  14.2266  14.2266  14.8044
    14.8044  14.9439  14.9439  14.9439  15.1989  15.1989  15.1989  15.2621
    15.2622  15.2622  15.3458  15.3569  15.7113  15.7113  15.8590  15.8590
    15.8590  15.9458  15.9458  16.0249  16.0249  16.0249  16.1719  16.1719
    16.1719  16.1781  16.1781  16.1781  16.3074  16.3074  16.3074  16.4294
    16.4294  16.4519  16.4519  16.4520  16.6240  16.6240  16.6240  17.3421
    17.8293  17.8293  17.8293  17.9746  18.0481  18.0481  18.1190  18.1190
    18.1190  18.1263  18.1263  18.1263  18.2362  18.2363  18.2363  18.2575
    18.2575  18.2575  18.2615  18.2615  18.3335  18.3335  18.3335  18.4507
    18.4507  18.8265  18.8265  18.8265  19.0371  19.0371  19.0500  19.0500
    19.0500  19.0787  19.0787  19.0788  19.8828  19.8828  19.8828  21.4328
    23.4513  23.4513

          k = 0.3333 0.3333-0.5000 (  9266 PWs)   bands (ev):

   -68.8964 -68.8963 -68.8750 -68.8750 -68.8750 -68.8750 -68.8613 -68.8613
   -68.8326 -68.8326 -68.8254 -68.8254 -68.8254 -68.8254 -68.8105 -68.8105
   -35.0861 -35.0861 -35.0861 -35.0861 -35.0663 -35.0662 -35.0629 -35.0629
   -35.0602 -35.0601 -35.0148 -35.0148 -35.0148 -35.0148 -35.0092 -35.0091
   -34.9840 -34.9839 -34.9678 -34.9678 -34.9678 -34.9678 -34.9237 -34.9237
   -34.8502 -34.8501 -34.8091 -34.8090 -34.7927 -34.7927 -34.7926 -34.7926
   -34.7852 -34.7852 -34.7851 -34.7851 -34.7562 -34.7561 -34.7536 -34.7535
   -34.7465 -34.7464 -34.7223 -34.7223 -34.7223 -34.7223 -34.7158 -34.7157
    12.7104  12.7105  13.8627  13.8627  13.8627  13.8627  14.7744  14.7744
    15.0084  15.0084  15.0631  15.0631  15.1175  15.1175  15.1175  15.1175
    15.2915  15.2915  15.6623  15.6623  15.6623  15.6623  15.7772  15.7772
    15.7999  15.7999  16.0021  16.0021  16.0022  16.0022  16.0057  16.0058
    16.0744  16.0745  16.2461  16.2461  16.2461  16.2461  16.2842  16.2842
    16.2842  16.2842  16.3030  16.3031  16.3175  16.3175  16.8915  16.8915
    17.9416  17.9417  17.9994  17.9994  17.9994  17.9994  18.1843  18.1843
    18.1854  18.1855  18.2115  18.2115  18.2115  18.2116  18.2618  18.2619
    18.2828  18.2828  18.2829  18.2829  18.3312  18.3313  18.3682  18.3683
    18.6223  18.6223  18.6904  18.6904  19.0591  19.0591  19.0591  19.0591
    19.1318  19.1318  19.3327  19.3327  19.3327  19.3327  20.6328  20.6329
    23.9516  23.9517

          k = 0.3333-0.5000-0.5000 (  9312 PWs)   bands (ev):

   -68.8870 -68.8869 -68.8869 -68.8869 -68.8690 -68.8690 -68.8690 -68.8689
   -68.8284 -68.8283 -68.8283 -68.8283 -68.8168 -68.8167 -68.8167 -68.8167
   -35.0712 -35.0712 -35.0712 -35.0711 -35.0655 -35.0654 -35.0654 -35.0654
   -35.0374 -35.0373 -35.0373 -35.0373 -35.0014 -35.0014 -35.0014 -35.0013
   -34.9945 -34.9945 -34.9945 -34.9944 -34.9693 -34.9693 -34.9693 -34.9692
   -34.8155 -34.8155 -34.8155 -34.8154 -34.7923 -34.7922 -34.7922 -34.7922
   -34.7658 -34.7658 -34.7658 -34.7657 -34.7609 -34.7608 -34.7608 -34.7608
   -34.7443 -34.7443 -34.7443 -34.7442 -34.7205 -34.7205 -34.7205 -34.7205
    13.2600  13.2600  13.2600  13.2600  14.3594  14.3594  14.3594  14.3595
    15.1071  15.1071  15.1071  15.1072  15.3846  15.3846  15.3846  15.3846
    15.4917  15.4918  15.4918  15.4918  15.5502  15.5502  15.5502  15.5502
    15.8915  15.8916  15.8916  15.8916  15.9829  15.9829  15.9829  15.9829
    16.0301  16.0301  16.0301  16.0302  16.1205  16.1206  16.1206  16.1206
    16.2285  16.2285  16.2285  16.2285  16.4688  16.4688  16.4688  16.4689
    18.0327  18.0328  18.0328  18.0329  18.1013  18.1013  18.1013  18.1014
    18.1690  18.1690  18.1690  18.1691  18.2616  18.2617  18.2617  18.2618
    18.3817  18.3818  18.3818  18.3818  18.4739  18.4740  18.4740  18.4740
    18.7772  18.7772  18.7772  18.7773  18.8247  18.8247  18.8247  18.8247
    19.0859  19.0860  19.0860  19.0860  19.9570  19.9571  19.9571  19.9571
    24.7537  24.7539

          k =-0.5000-0.5000-0.5000 (  9328 PWs)   bands (ev):

   -68.8791 -68.8791 -68.8791 -68.8791 -68.8790 -68.8790 -68.8790 -68.8790
   -68.8215 -68.8215 -68.8215 -68.8215 -68.8215 -68.8215 -68.8215 -68.8214
   -35.0377 -35.0377 -35.0376 -35.0376 -35.0376 -35.0376 -35.0376 -35.0376
   -35.0376 -35.0376 -35.0376 -35.0376 -35.0376 -35.0376 -35.0375 -35.0375
   -35.0034 -35.0034 -35.0034 -35.0034 -35.0033 -35.0033 -35.0033 -35.0033
   -34.7875 -34.7875 -34.7875 -34.7875 -34.7874 -34.7874 -34.7874 -34.7874
   -34.7516 -34.7516 -34.7516 -34.7516 -34.7516 -34.7516 -34.7516 -34.7516
   -34.7516 -34.7516 -34.7516 -34.7515 -34.7515 -34.7515 -34.7515 -34.7515
    13.8016  13.8016  13.8016  13.8016  13.8016  13.8016  13.8016  13.8017
    15.4641  15.4641  15.4641  15.4641  15.4641  15.4641  15.4641  15.4641
    15.4642  15.4642  15.4642  15.4642  15.4642  15.4642  15.4642  15.4642
    16.0074  16.0074  16.0074  16.0074  16.0074  16.0075  16.0075  16.0075
    16.0075  16.0075  16.0075  16.0075  16.0075  16.0075  16.0075  16.0075
    16.0356  16.0356  16.0356  16.0356  16.0356  16.0356  16.0356  16.0357
    18.1395  18.1395  18.1395  18.1395  18.1395  18.1396  18.1396  18.1396
    18.1396  18.1396  18.1396  18.1396  18.1396  18.1396  18.1397  18.1397
    18.6997  18.6997  18.6998  18.6998  18.6998  18.6998  18.6998  18.6998
    18.6998  18.6998  18.6998  18.6999  18.6999  18.6999  18.6999  18.6999
    19.3626  19.3626  19.3626  19.3626  19.3627  19.3627  19.3627  19.3627
    26.5202  26.5204

 ------ SPIN DOWN ----------


          k = 0.0000 0.0000 0.0000 (  9171 PWs)   bands (ev):

   -66.4072 -66.3125 -66.3125 -66.3125 -66.3125 -66.3124 -66.3124 -66.3047
   -66.3046 -66.3046 -66.3046 -66.3046 -66.3046 -66.2969 -66.2969 -66.2321
   -32.7226 -32.7226 -32.7226 -32.7225 -32.7225 -32.7225 -32.5723 -32.5723
   -32.5723 -32.4734 -32.4734 -32.4734 -32.4734 -32.4734 -32.4734 -32.4565
   -32.4565 -32.4565 -32.4565 -32.4565 -32.4565 -32.3816 -32.3816 -32.3816
   -32.3816 -32.3816 -32.3816 -32.3816 -32.3816 -32.3816 -32.3815 -32.3815
   -32.3815 -32.3734 -32.3734 -32.3734 -32.3734 -32.3734 -32.3734 -32.2027
   -32.2027 -32.2027 -32.2026 -32.2026 -32.2026 -32.2026 -32.2026 -32.2026
    10.5911  14.9065  14.9065  14.9065  14.9065  14.9065  14.9065  15.2408
    15.2408  15.2408  15.2408  15.2408  15.2408  15.8599  15.8599  17.1239
    17.1239  17.1239  17.1239  17.1239  17.1239  17.2712  17.2712  17.2712
    17.2712  17.2712  17.2712  18.2320  18.2320  18.2320  18.2320  18.2320
    18.2321  18.6317  18.6317  18.6317  19.0335  19.0335  19.0335  19.0335
    19.0335  19.0335  19.0336  19.0336  19.0336  19.0336  19.0336  19.0336
    19.7466  19.7466  19.7466  19.7466  19.7466  19.7466  20.0186  20.0186
    20.0186  20.0186  20.0186  20.0186  20.6812  20.6812  20.6812  20.6812
    20.6812  20.6812  20.8422  20.8422  21.1184  21.1184  21.1184  21.1184
    21.1184  21.1184  21.1698  21.1698  21.1698  21.1698  21.4997  21.4997
    21.4997  21.8232  21.8232  21.8232  21.8235  21.8235  21.8235  21.8235
    21.8235  21.8235

          k = 0.0000 0.0000 0.1667 (  9266 PWs)   bands (ev):

   -66.4033 -66.3355 -66.3120 -66.3120 -66.3120 -66.3119 -66.3056 -66.3056
   -66.3056 -66.3055 -66.3044 -66.3044 -66.2980 -66.2980 -66.2903 -66.2347
   -32.7135 -32.7135 -32.7118 -32.7118 -32.7118 -32.7118 -32.5720 -32.5657
   -32.5657 -32.5244 -32.5244 -32.5154 -32.5099 -32.5099 -32.5099 -32.5099
   -32.4515 -32.4515 -32.4298 -32.4298 -32.4204 -32.3900 -32.3900 -32.3810
   -32.3810 -32.3810 -32.3810 -32.3793 -32.3793 -32.3742 -32.3742 -32.3742
   -32.3742 -32.3499 -32.3499 -32.3499 -32.3498 -32.3339 -32.3339 -32.2143
   -32.2111 -32.2111 -32.2093 -32.2093 -32.2093 -32.2092 -32.2083 -32.2083
    10.7417  13.8690  14.9773  14.9773  14.9773  14.9773  15.2611  15.2611
    15.2611  15.2611  15.3509  15.3509  15.7158  15.9158  15.9362  16.9785
    16.9785  17.0270  17.0270  17.2440  17.2440  17.3403  17.3403  17.3431
    17.3431  17.3431  17.3431  17.5919  18.0768  18.0768  18.0768  18.0769
    18.6247  18.6247  18.6775  18.7684  18.7684  18.7684  18.7684  18.8015
    18.8015  18.8893  19.2727  19.2727  19.2727  19.2727  19.3084  19.3084
    19.3084  19.3084  19.3779  19.3779  19.3945  19.3945  19.6508  20.2869
    20.2869  20.2869  20.2869  20.3928  20.6173  20.6173  20.6173  20.6173
    20.7083  20.7083  20.7511  20.8766  21.1218  21.1218  21.1284  21.1284
    21.1663  21.1663  21.3290  21.3290  21.3948  21.3948  21.3948  21.3948
    21.4477  21.4933  21.7487  21.7488  21.7488  21.7488  21.8345  21.8345
    21.8345  21.8346

          k = 0.0000 0.0000 0.3333 (  9242 PWs)   bands (ev):

   -66.3935 -66.3580 -66.3106 -66.3106 -66.3106 -66.3105 -66.3069 -66.3069
   -66.3069 -66.3069 -66.3029 -66.3029 -66.2993 -66.2993 -66.2702 -66.2420
   -32.6863 -32.6863 -32.6796 -32.6796 -32.6796 -32.6796 -32.5882 -32.5882
   -32.5712 -32.5712 -32.5712 -32.5711 -32.5687 -32.5463 -32.5463 -32.5439
   -32.4754 -32.4754 -32.4362 -32.4362 -32.3946 -32.3945 -32.3795 -32.3795
   -32.3795 -32.3795 -32.3756 -32.3756 -32.3756 -32.3756 -32.3604 -32.3283
   -32.3283 -32.3015 -32.3015 -32.3015 -32.3015 -32.2903 -32.2903 -32.2491
   -32.2359 -32.2359 -32.2285 -32.2285 -32.2285 -32.2285 -32.2257 -32.2257
    11.1838  12.8153  15.1405  15.1405  15.1405  15.1405  15.2960  15.2960
    15.2960  15.2960  15.6620  15.6620  16.0536  16.1267  16.1618  16.5977
    16.5977  17.0117  17.0259  17.0259  17.1732  17.1732  17.5536  17.5536
    17.5536  17.5536  17.6888  17.6888  17.9323  17.9323  17.9323  17.9323
    18.3126  18.3127  18.3127  18.3127  18.5962  18.5962  18.5962  18.5962
    18.6123  18.6123  18.6705  18.6705  18.7638  18.7638  18.8123  19.3137
    19.5154  19.7011  19.7011  19.7011  19.7011  19.8292  19.8292  20.4243
    20.4243  20.4243  20.4243  20.4843  20.7472  20.7509  20.7509  20.7509
    20.7509  20.7851  20.7851  20.8973  20.8973  20.9732  21.0244  21.0244
    21.1312  21.1312  21.1569  21.1569  21.2847  21.2957  21.5310  21.5310
    21.5310  21.5311  21.7118  21.7118  21.7118  21.7118  21.8551  21.8551
    21.8551  21.8551

          k = 0.0000 0.0000-0.5000 (  9242 PWs)   bands (ev):

   -66.3776 -66.3775 -66.3089 -66.3088 -66.3088 -66.3088 -66.3088 -66.3088
   -66.3087 -66.3087 -66.3013 -66.3013 -66.3013 -66.3012 -66.2539 -66.2539
   -32.6435 -32.6435 -32.6435 -32.6435 -32.6309 -32.6309 -32.6309 -32.6308
   -32.6308 -32.6308 -32.6308 -32.6308 -32.5606 -32.5605 -32.5153 -32.5153
   -32.5152 -32.5152 -32.4156 -32.4156 -32.4156 -32.4156 -32.3777 -32.3777
   -32.3776 -32.3776 -32.3776 -32.3776 -32.3776 -32.3776 -32.3001 -32.3001
   -32.2759 -32.2759 -32.2759 -32.2759 -32.2597 -32.2597 -32.2597 -32.2596
   -32.2596 -32.2596 -32.2596 -32.2596 -32.2534 -32.2534 -32.2533 -32.2533
    11.8919  11.8919  15.2725  15.2725  15.2725  15.2725  15.2725  15.2725
    15.2725  15.2725  16.1125  16.1125  16.1125  16.1125  16.1785  16.1785
    16.5263  16.5263  17.0877  17.0877  17.0877  17.0877  17.8867  17.8868
    17.8868  17.8868  17.8868  17.8868  17.8868  17.8868  18.0826  18.0826
    18.0826  18.0827  18.0827  18.0827  18.0827  18.0827  18.1698  18.1698
    18.1698  18.1698  18.6174  18.6174  18.6175  18.6175  19.0284  19.0285
    20.0615  20.0616  20.1091  20.1091  20.1091  20.1091  20.1091  20.1091
    20.1091  20.1091  20.3578  20.3578  20.3578  20.3578  20.8982  20.8983
    20.8983  20.8984  21.0560  21.0561  21.1147  21.1148  21.1440  21.1440
    21.1440  21.1441  21.1875  21.1875  21.1875  21.1875  21.1876  21.1876
    21.1876  21.1876  21.8414  21.8414  21.8414  21.8414  21.8414  21.8414
    21.8415  21.8415

          k = 0.0000 0.1667 0.1667 (  9251 PWs)   bands (ev):

   -66.3999 -66.3344 -66.3344 -66.3117 -66.3113 -66.3113 -66.3050 -66.3050
   -66.3050 -66.3049 -66.3002 -66.2986 -66.2986 -66.2906 -66.2905 -66.2372
   -32.7129 -32.7032 -32.7032 -32.7032 -32.7032 -32.6886 -32.5825 -32.5593
   -32.5495 -32.5494 -32.5483 -32.5468 -32.5468 -32.5308 -32.5308 -32.4579
   -32.4578 -32.4518 -32.4518 -32.4277 -32.4276 -32.3972 -32.3972 -32.3871
   -32.3865 -32.3865 -32.3803 -32.3803 -32.3803 -32.3802 -32.3627 -32.3627
   -32.3622 -32.3352 -32.3352 -32.3274 -32.3274 -32.3045 -32.3045 -32.2378
   -32.2281 -32.2163 -32.2163 -32.2163 -32.2163 -32.2137 -32.2027 -32.2024
    10.8904  13.9646  13.9646  15.0529  15.0529  15.0776  15.3721  15.3721
    15.3721  15.3721  15.4549  15.7730  15.7730  15.9858  15.9966  16.8672
    16.8672  17.1261  17.1261  17.3108  17.3108  17.3108  17.3108  17.3195
    17.3195  17.3547  17.4738  17.5445  17.5445  17.9392  17.9392  18.4442
    18.4442  18.5318  18.5528  18.5529  18.6114  18.6476  18.6476  18.8089
    18.9212  19.0636  19.0636  19.0636  19.0636  19.0964  19.0964  19.1031
    19.3252  19.3252  19.3971  19.3971  19.4658  19.4658  19.9184  19.9184
    20.4522  20.4859  20.4859  20.6441  20.6441  20.6441  20.6441  20.6535
    20.6542  20.6543  20.7343  20.8495  21.0559  21.0876  21.1014  21.1014
    21.1466  21.1466  21.1601  21.2279  21.2280  21.2280  21.2280  21.4744
    21.4745  21.5210  21.5581  21.8012  21.8645  21.8645  22.1353  22.2864
    22.2864  22.2865

          k = 0.0000 0.1667 0.3333 (  9254 PWs)   bands (ev):

   -66.3904 -66.3561 -66.3308 -66.3187 -66.3101 -66.3100 -66.3064 -66.3064
   -66.3037 -66.3037 -66.3000 -66.2999 -66.2960 -66.2914 -66.2714 -66.2438
   -32.6927 -32.6786 -32.6786 -32.6736 -32.6736 -32.6461 -32.6044 -32.5930
   -32.5930 -32.5889 -32.5777 -32.5777 -32.5748 -32.5402 -32.5228 -32.5199
   -32.4719 -32.4432 -32.4397 -32.4397 -32.4213 -32.4000 -32.3981 -32.3968
   -32.3968 -32.3883 -32.3883 -32.3828 -32.3828 -32.3522 -32.3458 -32.3385
   -32.3156 -32.3156 -32.2931 -32.2906 -32.2906 -32.2809 -32.2639 -32.2622
   -32.2580 -32.2377 -32.2377 -32.2319 -32.2319 -32.2305 -32.2100 -32.2094
    11.3272  12.9332  14.2226  14.8560  15.2302  15.2302  15.4075  15.4075
    15.6656  15.6846  15.6846  15.8688  16.1285  16.1903  16.2099  16.5940
    16.5940  17.0150  17.0812  17.0812  17.2279  17.2279  17.4993  17.4993
    17.5039  17.5314  17.5854  17.5854  17.7413  17.7738  17.7738  18.1437
    18.2057  18.3028  18.3028  18.3161  18.4412  18.4517  18.4585  18.4585
    18.5367  18.5493  18.5493  18.5647  18.5808  18.6028  19.0103  19.5305
    19.5719  19.6790  19.7013  19.7578  19.7578  19.7916  19.8101  20.2122
    20.3843  20.4522  20.4522  20.5201  20.5309  20.5813  20.7288  20.7288
    20.7405  20.8512  20.8512  20.9298  20.9933  20.9947  20.9948  21.0867
    21.1350  21.1351  21.1488  21.1488  21.1745  21.2489  21.2549  21.2879
    21.2879  21.4158  21.4631  21.7037  21.9531  21.9532  22.2157  22.2157
    22.7070  22.7075

          k = 0.0000 0.1667-0.5000 (  9252 PWs)   bands (ev):

   -66.3752 -66.3751 -66.3253 -66.3252 -66.3082 -66.3082 -66.3082 -66.3081
   -66.3020 -66.3019 -66.3019 -66.3019 -66.2931 -66.2930 -66.2557 -66.2556
   -32.6548 -32.6547 -32.6403 -32.6403 -32.6403 -32.6403 -32.6292 -32.6292
   -32.6292 -32.6291 -32.5886 -32.5886 -32.5873 -32.5873 -32.5105 -32.5104
   -32.4849 -32.4849 -32.4189 -32.4189 -32.4189 -32.4189 -32.4119 -32.4118
   -32.3861 -32.3861 -32.3861 -32.3860 -32.3442 -32.3441 -32.3363 -32.3363
   -32.2978 -32.2978 -32.2717 -32.2717 -32.2717 -32.2717 -32.2575 -32.2575
   -32.2571 -32.2571 -32.2571 -32.2571 -32.2314 -32.2314 -32.2293 -32.2292
    12.0252  12.0253  14.5562  14.5562  15.3780  15.3780  15.3780  15.3780
    15.8382  15.8383  16.1335  16.1335  16.1335  16.1335  16.2512  16.2512
    16.5581  16.5581  17.1320  17.1320  17.1320  17.1320  17.7235  17.7235
    17.7236  17.7236  17.7759  17.7759  17.7852  17.7853  18.0217  18.0217
    18.0217  18.0217  18.0853  18.0853  18.0853  18.0853  18.1284  18.1284
    18.2232  18.2232  18.4150  18.4150  18.5537  18.5537  19.2656  19.2656
    19.9428  19.9428  20.0438  20.0438  20.1436  20.1436  20.1436  20.1436
    20.1506  20.1507  20.2347  20.2347  20.2385  20.2385  20.8466  20.8467
    20.8561  20.8561  20.8562  20.8562  21.0777  21.0778  21.1320  21.1321
    21.1321  21.1321  21.1513  21.1514  21.1514  21.1514  21.2741  21.2742
    21.3133  21.3134  21.4580  21.4580  22.0867  22.0868  22.0868  22.0868
    22.8426  22.8426

          k = 0.0000 0.3333 0.3333 (  9260 PWs)   bands (ev):

   -66.3815 -66.3503 -66.3503 -66.3305 -66.3088 -66.3088 -66.3052 -66.3052
   -66.3052 -66.3051 -66.3014 -66.3013 -66.2868 -66.2742 -66.2742 -66.2502
   -32.6854 -32.6567 -32.6567 -32.6567 -32.6567 -32.6207 -32.6207 -32.6102
   -32.6088 -32.6088 -32.5974 -32.5974 -32.5950 -32.5231 -32.4811 -32.4632
   -32.4632 -32.4611 -32.4611 -32.4381 -32.4381 -32.4237 -32.4015 -32.4015
   -32.4015 -32.4015 -32.4004 -32.4004 -32.3920 -32.3920 -32.3349 -32.3311
   -32.3009 -32.3009 -32.2964 -32.2890 -32.2890 -32.2707 -32.2707 -32.2453
   -32.2432 -32.2432 -32.2432 -32.2432 -32.2305 -32.2305 -32.2026 -32.2025
    11.7474  13.2692  13.2692  14.3298  15.4522  15.4522  15.7181  15.7181
    15.7181  15.7181  15.9838  16.2904  16.2904  16.3041  16.3636  16.4927
    16.4927  17.0919  17.0919  17.1610  17.1610  17.3658  17.3658  17.3658
    17.3658  17.5077  17.5077  17.5506  17.5506  17.5876  17.8590  18.0610
    18.0902  18.0903  18.1262  18.1262  18.1262  18.1262  18.1355  18.1355
    18.2660  18.3396  18.3396  18.3596  18.5056  19.0077  19.0077  19.3131
    19.7451  19.7451  19.9677  19.9779  19.9779  20.0114  20.0114  20.0527
    20.0527  20.0537  20.3708  20.5359  20.5483  20.5539  20.5539  20.5539
    20.5539  20.8771  20.8829  20.8829  20.8841  21.0132  21.0149  21.0149
    21.1138  21.1138  21.1600  21.1600  21.1600  21.1601  21.1709  21.1709
    21.3609  21.3610  21.5795  21.7412  22.2389  22.2389  22.9957  22.9957
    22.9957  22.9957

          k = 0.0000 0.3333-0.5000 (  9272 PWs)   bands (ev):

   -66.3678 -66.3678 -66.3415 -66.3414 -66.3069 -66.3069 -66.3069 -66.3068
   -66.3034 -66.3034 -66.3034 -66.3033 -66.2795 -66.2794 -66.2605 -66.2605
   -32.6598 -32.6598 -32.6328 -32.6328 -32.6328 -32.6327 -32.6265 -32.6265
   -32.6265 -32.6264 -32.6219 -32.6218 -32.5317 -32.5317 -32.4962 -32.4961
   -32.4447 -32.4446 -32.4379 -32.4379 -32.4232 -32.4232 -32.4232 -32.4232
   -32.4044 -32.4043 -32.4043 -32.4043 -32.3982 -32.3981 -32.3419 -32.3418
   -32.3138 -32.3137 -32.2693 -32.2692 -32.2629 -32.2629 -32.2629 -32.2629
   -32.2539 -32.2539 -32.2539 -32.2539 -32.2099 -32.2099 -32.2096 -32.2096
    12.4134  12.4135  13.7663  13.7664  15.6595  15.6595  15.6596  15.6596
    16.1436  16.1436  16.1436  16.1436  16.2220  16.2220  16.3951  16.3951
    16.6853  16.6853  17.2249  17.2249  17.2249  17.2249  17.3930  17.3930
    17.4629  17.4629  17.4629  17.4629  17.7562  17.7562  17.7562  17.7562
    17.7910  17.7911  17.9520  17.9520  17.9520  17.9520  18.1376  18.1376
    18.2595  18.2595  18.4219  18.4219  18.4946  18.4947  19.5054  19.5054
    19.6503  19.6503  19.7940  19.7940  19.9857  19.9857  20.2821  20.2821
    20.2822  20.2822  20.3437  20.3437  20.3772  20.3772  20.4626  20.4627
    20.7153  20.7153  20.7153  20.7154  20.9848  20.9848  21.0591  21.0592
    21.1184  21.1185  21.1185  21.1185  21.1201  21.1201  21.1201  21.1201
    21.5377  21.5377  21.6261  21.6262  22.6300  22.6300  22.6300  22.6301
    23.8691  23.8691

          k = 0.0000-0.5000-0.5000 (  9300 PWs)   bands (ev):

   -66.3563 -66.3562 -66.3562 -66.3562 -66.3053 -66.3052 -66.3052 -66.3052
   -66.3052 -66.3051 -66.3051 -66.3051 -66.2685 -66.2685 -66.2685 -66.2684
   -32.6478 -32.6478 -32.6478 -32.6477 -32.6270 -32.6269 -32.6269 -32.6269
   -32.6269 -32.6269 -32.6269 -32.6269 -32.4736 -32.4735 -32.4735 -32.4735
   -32.4661 -32.4661 -32.4661 -32.4661 -32.4194 -32.4194 -32.4193 -32.4193
   -32.4193 -32.4193 -32.4193 -32.4192 -32.3893 -32.3893 -32.3893 -32.3892
   -32.2884 -32.2883 -32.2883 -32.2883 -32.2557 -32.2557 -32.2557 -32.2557
   -32.2557 -32.2557 -32.2556 -32.2556 -32.2026 -32.2026 -32.2026 -32.2025
    13.0174  13.0175  13.0175  13.0175  15.9864  15.9864  15.9864  15.9864
    15.9864  15.9864  15.9864  15.9865  16.4073  16.4073  16.4073  16.4073
    16.9915  16.9915  16.9915  16.9915  17.2877  17.2877  17.2877  17.2877
    17.2877  17.2877  17.2877  17.2877  17.7577  17.7577  17.7577  17.7577
    17.7577  17.7578  17.7578  17.7578  17.9187  17.9187  17.9187  17.9187
    18.3110  18.3110  18.3110  18.3110  18.9660  18.9660  18.9660  18.9661
    19.7967  19.7967  19.7967  19.7967  20.0576  20.0576  20.0576  20.0576
    20.4663  20.4663  20.4663  20.4663  20.5004  20.5005  20.5005  20.5005
    20.5005  20.5005  20.5005  20.5006  20.9335  20.9336  20.9336  20.9336
    21.1137  21.1138  21.1138  21.1138  21.1138  21.1138  21.1138  21.1139
    21.6600  21.6600  21.6600  21.6601  23.2635  23.2636  23.2636  23.2636
    23.2636  23.2636

          k = 0.1667 0.1667 0.1667 (  9273 PWs)   bands (ev):

   -66.3970 -66.3330 -66.3330 -66.3330 -66.3112 -66.3112 -66.3112 -66.3005
   -66.3000 -66.2999 -66.2999 -66.2976 -66.2909 -66.2909 -66.2909 -66.2391
   -32.7038 -32.7038 -32.7038 -32.6823 -32.6823 -32.6823 -32.5757 -32.5757
   -32.5746 -32.5671 -32.5671 -32.5671 -32.5253 -32.5183 -32.5183 -32.4814
   -32.4814 -32.4814 -32.4362 -32.4362 -32.4362 -32.3959 -32.3959 -32.3959
   -32.3861 -32.3861 -32.3707 -32.3707 -32.3707 -32.3665 -32.3665 -32.3665
   -32.3377 -32.3377 -32.3377 -32.3296 -32.2872 -32.2872 -32.2872 -32.2600
   -32.2319 -32.2319 -32.2319 -32.2110 -32.2110 -32.2110 -32.2086 -32.2086
    11.0371  14.0631  14.0631  14.0631  15.1958  15.1958  15.1958  15.5603
    15.5603  15.5603  15.8377  15.8377  15.8377  16.0557  16.0557  16.7610
    17.0555  17.0555  17.0677  17.3042  17.3042  17.3249  17.3249  17.3249
    17.4280  17.4280  17.4280  17.4903  17.4903  17.4903  18.2355  18.2355
    18.2355  18.4561  18.4561  18.4561  18.5157  18.5157  18.7717  18.7717
    18.7717  18.8445  18.8445  18.8445  18.8904  18.8904  18.8904  18.9413
    19.4946  19.4946  19.4946  19.5754  19.5754  19.5755  20.1439  20.1439
    20.1439  20.4995  20.4995  20.4995  20.6734  20.6734  20.6734  20.6828
    20.7751  20.7751  20.7912  20.7913  20.7913  21.0903  21.0903  21.0907
    21.0907  21.0907  21.1101  21.1101  21.3534  21.3534  21.4480  21.4480
    21.4480  21.4621  21.4621  21.4622  21.9177  21.9178  21.9178  22.6355
    22.6355  22.6355

          k = 0.1667 0.1667 0.3333 (  9243 PWs)   bands (ev):

   -66.3874 -66.3540 -66.3296 -66.3296 -66.3177 -66.3176 -66.3094 -66.3034
   -66.2992 -66.2975 -66.2959 -66.2959 -66.2916 -66.2916 -66.2723 -66.2457
   -32.6848 -32.6847 -32.6773 -32.6639 -32.6429 -32.6429 -32.6069 -32.6069
   -32.6051 -32.5895 -32.5878 -32.5808 -32.5556 -32.5330 -32.5330 -32.4928
   -32.4864 -32.4831 -32.4359 -32.4359 -32.4230 -32.4196 -32.4142 -32.4118
   -32.4118 -32.3945 -32.3773 -32.3554 -32.3554 -32.3418 -32.3418 -32.3289
   -32.3289 -32.3257 -32.3049 -32.2950 -32.2929 -32.2573 -32.2573 -32.2564
   -32.2564 -32.2525 -32.2440 -32.2355 -32.2263 -32.2161 -32.2161 -32.2110
    11.4694  13.0523  14.3287  14.3287  14.9778  14.9778  15.5322  15.7687
    15.7687  15.8532  15.9542  15.9542  16.2008  16.2612  16.2624  16.5870
    16.6092  17.0130  17.0737  17.1770  17.2468  17.3146  17.3712  17.4510
    17.4510  17.4656  17.4656  17.5937  17.6549  17.6549  17.9724  17.9724
    18.1795  18.1795  18.2441  18.2441  18.3241  18.3489  18.3588  18.3787
    18.3787  18.3997  18.4060  18.4739  18.4915  18.4915  19.1760  19.1986
    19.7871  19.7871  19.7904  19.8306  19.8754  19.8754  19.9422  20.1576
    20.2806  20.2806  20.5495  20.5495  20.5589  20.5764  20.5764  20.6250
    20.7488  20.8868  20.9345  20.9597  21.0024  21.0666  21.0708  21.0708
    21.0875  21.0986  21.1072  21.1072  21.1120  21.2094  21.2289  21.3992
    21.4287  21.4288  21.4810  21.4810  21.5968  21.5968  22.7122  22.8867
    22.8867  23.1397

          k = 0.1667 0.1667-0.5000 (  9268 PWs)   bands (ev):

   -66.3728 -66.3727 -66.3242 -66.3241 -66.3241 -66.3241 -66.3068 -66.3068
   -66.2983 -66.2983 -66.2934 -66.2933 -66.2933 -66.2933 -66.2570 -66.2570
   -32.6502 -32.6502 -32.6502 -32.6501 -32.6366 -32.6366 -32.6352 -32.6352
   -32.5945 -32.5945 -32.5908 -32.5908 -32.5908 -32.5907 -32.5239 -32.5238
   -32.4554 -32.4554 -32.4520 -32.4520 -32.4263 -32.4263 -32.4263 -32.4263
   -32.3895 -32.3895 -32.3616 -32.3616 -32.3473 -32.3473 -32.3472 -32.3472
   -32.2894 -32.2894 -32.2894 -32.2894 -32.2747 -32.2746 -32.2654 -32.2654
   -32.2552 -32.2551 -32.2319 -32.2318 -32.2318 -32.2318 -32.2262 -32.2262
    12.1584  12.1585  14.6725  14.6725  14.6726  14.6726  15.9389  15.9389
    15.9389  15.9389  16.0295  16.0296  16.2563  16.2563  16.3282  16.3282
    16.5887  16.5887  17.1502  17.1502  17.1964  17.1964  17.6481  17.6481
    17.6481  17.6481  17.7074  17.7074  17.7074  17.7074  17.8022  17.8023
    17.9777  17.9778  18.1032  18.1032  18.1032  18.1032  18.1042  18.1042
    18.1042  18.1042  18.3352  18.3353  18.4208  18.4208  19.4617  19.4617
    19.6301  19.6301  20.0327  20.0327  20.0328  20.0328  20.2256  20.2256
    20.2618  20.2618  20.2618  20.2618  20.4226  20.4226  20.7918  20.7918
    20.8683  20.8684  20.9782  20.9782  20.9782  20.9782  21.0446  21.0447
    21.1072  21.1072  21.1136  21.1137  21.2866  21.2867  21.3313  21.3313
    21.3314  21.3314  21.4116  21.4116  21.4116  21.4116  23.1300  23.1300
    23.1300  23.1300

          k = 0.1667 0.3333 0.3333 (  9273 PWs)   bands (ev):

   -66.3789 -66.3485 -66.3485 -66.3293 -66.3262 -66.3153 -66.3153 -66.3076
   -66.2963 -66.2959 -66.2958 -66.2922 -66.2871 -66.2753 -66.2752 -66.2520
   -32.6768 -32.6617 -32.6617 -32.6350 -32.6350 -32.6195 -32.6194 -32.6177
   -32.6149 -32.6028 -32.5961 -32.5906 -32.5607 -32.5481 -32.5010 -32.4809
   -32.4809 -32.4768 -32.4767 -32.4541 -32.4536 -32.4413 -32.4412 -32.4402
   -32.3759 -32.3702 -32.3702 -32.3634 -32.3634 -32.3547 -32.3481 -32.3316
   -32.3049 -32.2999 -32.2994 -32.2994 -32.2886 -32.2756 -32.2559 -32.2559
   -32.2477 -32.2381 -32.2362 -32.2362 -32.2312 -32.2312 -32.2105 -32.2091
    11.8861  13.3909  13.3909  14.4565  14.6179  15.3238  15.3238  16.0508
    16.0508  16.0846  16.1416  16.3449  16.3774  16.3851  16.3851  16.4143
    16.6173  17.0732  17.0732  17.1589  17.2383  17.2785  17.3188  17.3666
    17.3666  17.4560  17.4560  17.5523  17.5570  17.7343  17.8207  17.9268
    17.9746  17.9746  17.9918  18.0330  18.0331  18.0409  18.0409  18.1844
    18.1939  18.1939  18.2345  18.2368  18.3728  18.7292  18.7292  19.4836
    19.6010  19.9698  19.9698  20.0129  20.0909  20.0990  20.1145  20.1146
    20.2203  20.2203  20.4549  20.4549  20.5745  20.5847  20.6362  20.6362
    20.7209  20.8365  20.8581  20.9184  20.9263  21.0129  21.0420  21.0842
    21.0846  21.0910  21.0910  21.1295  21.1554  21.1555  21.2171  21.2171
    21.2723  21.2723  21.4184  21.5169  21.5531  22.2524  22.2524  23.3052
    23.8112  23.9904

          k = 0.1667 0.3333-0.5000 (  9258 PWs)   bands (ev):

   -66.3654 -66.3654 -66.3400 -66.3399 -66.3212 -66.3212 -66.3118 -66.3118
   -66.2959 -66.2958 -66.2935 -66.2935 -66.2801 -66.2800 -66.2618 -66.2617
   -32.6528 -32.6528 -32.6384 -32.6384 -32.6270 -32.6269 -32.6248 -32.6247
   -32.6166 -32.6166 -32.5978 -32.5978 -32.5381 -32.5381 -32.5196 -32.5196
   -32.4761 -32.4761 -32.4644 -32.4644 -32.4550 -32.4550 -32.4148 -32.4148
   -32.4125 -32.4124 -32.3712 -32.3712 -32.3546 -32.3545 -32.3271 -32.3271
   -32.3126 -32.3126 -32.2745 -32.2745 -32.2677 -32.2677 -32.2641 -32.2640
   -32.2617 -32.2617 -32.2401 -32.2400 -32.2157 -32.2157 -32.2146 -32.2146
    12.5459  12.5460  13.8916  13.8917  14.9965  14.9965  15.8289  15.8289
    16.2018  16.2019  16.3248  16.3248  16.4106  16.4106  16.4853  16.4853
    16.7105  16.7105  17.2473  17.2473  17.2691  17.2691  17.3673  17.3673
    17.3843  17.3843  17.5432  17.5432  17.5609  17.5609  17.7485  17.7486
    17.7709  17.7709  17.8410  17.8411  17.9774  17.9774  18.0971  18.0971
    18.1099  18.1099  18.2783  18.2783  18.2909  18.2909  19.0937  19.0937
    19.8367  19.8367  19.9795  19.9795  20.2460  20.2461  20.3125  20.3125
    20.3902  20.3903  20.3968  20.3969  20.4106  20.4106  20.6690  20.6691
    20.6764  20.6764  20.7781  20.7781  20.9613  20.9613  21.0586  21.0587
    21.0787  21.0788  21.0814  21.0815  21.0861  21.0861  21.1548  21.1548
    21.4037  21.4037  21.4719  21.4720  21.8203  21.8203  23.0201  23.0201
    23.7516  23.7516

          k = 0.1667-0.5000-0.5000 (  9268 PWs)   bands (ev):

   -66.3542 -66.3541 -66.3541 -66.3541 -66.3170 -66.3170 -66.3170 -66.3169
   -66.2943 -66.2942 -66.2942 -66.2942 -66.2695 -66.2694 -66.2694 -66.2694
   -32.6398 -32.6398 -32.6397 -32.6397 -32.6273 -32.6272 -32.6272 -32.6272
   -32.6100 -32.6100 -32.6100 -32.6100 -32.4971 -32.4971 -32.4971 -32.4970
   -32.4773 -32.4773 -32.4773 -32.4773 -32.4770 -32.4770 -32.4770 -32.4770
   -32.3687 -32.3687 -32.3687 -32.3687 -32.3622 -32.3622 -32.3622 -32.3621
   -32.2843 -32.2842 -32.2842 -32.2842 -32.2642 -32.2642 -32.2642 -32.2642
   -32.2536 -32.2536 -32.2536 -32.2536 -32.2097 -32.2097 -32.2097 -32.2097
    13.1476  13.1477  13.1477  13.1478  15.4397  15.4398  15.4398  15.4398
    16.4490  16.4491  16.4491  16.4491  16.5059  16.5059  16.5059  16.5059
    17.0087  17.0087  17.0087  17.0087  17.2256  17.2256  17.2256  17.2256
    17.3753  17.3753  17.3753  17.3753  17.5977  17.5977  17.5977  17.5977
    17.7974  17.7974  17.7974  17.7974  17.8805  17.8805  17.8805  17.8805
    18.1663  18.1663  18.1663  18.1663  18.6252  18.6252  18.6252  18.6252
    20.0855  20.0855  20.0855  20.0855  20.2529  20.2529  20.2529  20.2529
    20.4804  20.4804  20.4804  20.4805  20.5091  20.5092  20.5092  20.5092
    20.5896  20.5896  20.5896  20.5897  20.9201  20.9202  20.9202  20.9202
    21.0747  21.0747  21.0747  21.0747  21.0923  21.0924  21.0924  21.0924
    21.5001  21.5001  21.5001  21.5002  22.4060  22.4060  22.4060  22.4060
    24.4424  24.4424

          k = 0.3333 0.3333 0.3333 (  9285 PWs)   bands (ev):

   -66.3710 -66.3434 -66.3433 -66.3433 -66.3259 -66.3258 -66.3258 -66.3146
   -66.2924 -66.2880 -66.2880 -66.2880 -66.2778 -66.2777 -66.2777 -66.2572
   -32.6517 -32.6517 -32.6517 -32.6205 -32.6205 -32.6205 -32.6124 -32.5995
   -32.5995 -32.5995 -32.5813 -32.5813 -32.5603 -32.5603 -32.5112 -32.5112
   -32.5112 -32.5038 -32.5038 -32.5038 -32.4776 -32.4775 -32.4775 -32.4133
   -32.3997 -32.3344 -32.3344 -32.3344 -32.3318 -32.3317 -32.3317 -32.3192
   -32.3192 -32.2999 -32.2999 -32.2999 -32.2751 -32.2751 -32.2751 -32.2675
   -32.2336 -32.2336 -32.2335 -32.2324 -32.2323 -32.2323 -32.2284 -32.2284
    12.2918  13.7377  13.7377  13.7377  14.8192  14.8192  14.8192  15.9468
    16.3598  16.3598  16.3598  16.5601  16.5601  16.6034  16.6034  16.6034
    16.7714  17.0497  17.0497  17.0497  17.2250  17.2250  17.3788  17.3788
    17.4582  17.4582  17.4582  17.6285  17.6285  17.6285  17.7111  17.7111
    17.7111  17.8125  17.8126  17.8126  17.8873  17.8873  17.8873  17.9232
    17.9232  17.9232  18.1481  18.1481  18.2878  18.2878  18.2878  19.0095
    19.8313  20.2279  20.2279  20.2279  20.3083  20.3083  20.3083  20.3635
    20.3635  20.3635  20.6443  20.6443  20.6444  20.6677  20.6677  20.6677
    20.7175  20.7175  20.8841  20.8841  20.9673  20.9673  21.0091  21.0091
    21.0091  21.0320  21.0320  21.1165  21.1165  21.1165  21.1595  21.1595
    21.1595  21.2341  21.2341  21.2341  21.6884  21.6884  21.6884  23.0541
    24.7562  24.7562

          k = 0.3333 0.3333-0.5000 (  9266 PWs)   bands (ev):

   -66.3588 -66.3588 -66.3357 -66.3356 -66.3356 -66.3356 -66.3206 -66.3205
   -66.2896 -66.2895 -66.2819 -66.2818 -66.2818 -66.2818 -66.2659 -66.2658
   -32.6333 -32.6333 -32.6333 -32.6333 -32.6117 -32.6116 -32.6072 -32.6072
   -32.6054 -32.6054 -32.5557 -32.5557 -32.5557 -32.5556 -32.5476 -32.5475
   -32.5206 -32.5206 -32.5023 -32.5023 -32.5023 -32.5022 -32.4553 -32.4552
   -32.3727 -32.3726 -32.3282 -32.3282 -32.3099 -32.3099 -32.3099 -32.3099
   -32.3016 -32.3015 -32.3015 -32.3015 -32.2704 -32.2704 -32.2670 -32.2670
   -32.2593 -32.2593 -32.2331 -32.2331 -32.2331 -32.2331 -32.2257 -32.2257
    12.9299  12.9300  14.2493  14.2493  14.2494  14.2494  15.3589  15.3590
    16.6065  16.6065  16.6065  16.6065  16.6992  16.6992  16.7163  16.7163
    16.7825  16.7825  17.2773  17.2773  17.2773  17.2773  17.3363  17.3363
    17.3487  17.3487  17.4487  17.4487  17.5509  17.5509  17.6382  17.6382
    17.6383  17.6383  17.8015  17.8015  17.8015  17.8015  17.9106  17.9106
    17.9106  17.9106  17.9798  17.9799  18.0263  18.0263  18.5198  18.5198
    20.2337  20.2338  20.3156  20.3156  20.3156  20.3156  20.5319  20.5320
    20.5339  20.5339  20.5340  20.5340  20.5927  20.5927  20.6505  20.6506
    20.8110  20.8111  20.8992  20.8993  20.9857  20.9857  20.9858  20.9858
    20.9954  20.9954  20.9999  20.9999  21.1683  21.1684  21.1830  21.1831
    21.1831  21.1831  21.2119  21.2120  21.2120  21.2120  22.3565  22.3565
    25.1939  25.1939

          k = 0.3333-0.5000-0.5000 (  9312 PWs)   bands (ev):

   -66.3487 -66.3486 -66.3486 -66.3486 -66.3292 -66.3291 -66.3291 -66.3291
   -66.2850 -66.2849 -66.2849 -66.2849 -66.2726 -66.2725 -66.2725 -66.2725
   -32.6165 -32.6165 -32.6165 -32.6164 -32.6106 -32.6106 -32.6106 -32.6105
   -32.5804 -32.5803 -32.5803 -32.5803 -32.5392 -32.5392 -32.5392 -32.5391
   -32.5321 -32.5321 -32.5321 -32.5320 -32.5055 -32.5055 -32.5055 -32.5055
   -32.3347 -32.3346 -32.3346 -32.3346 -32.3097 -32.3097 -32.3097 -32.3097
   -32.2803 -32.2802 -32.2802 -32.2802 -32.2751 -32.2750 -32.2750 -32.2750
   -32.2573 -32.2572 -32.2572 -32.2572 -32.2311 -32.2311 -32.2311 -32.2310
    13.5233  13.5234  13.5234  13.5234  14.7785  14.7785  14.7785  14.7786
    16.7771  16.7771  16.7771  16.7771  16.9020  16.9020  16.9020  16.9020
    17.0543  17.0543  17.0543  17.0543  17.1718  17.1718  17.1718  17.1718
    17.4954  17.4954  17.4954  17.4954  17.5311  17.5311  17.5311  17.5311
    17.6034  17.6034  17.6034  17.6034  17.7774  17.7774  17.7774  17.7774
    17.8813  17.8813  17.8813  17.8813  18.0584  18.0584  18.0584  18.0584
    20.4987  20.4987  20.4987  20.4987  20.5755  20.5755  20.5755  20.5756
    20.6294  20.6295  20.6295  20.6295  20.6927  20.6928  20.6928  20.6928
    20.7017  20.7018  20.7018  20.7018  20.8777  20.8778  20.8778  20.8778
    20.9794  20.9795  20.9795  20.9796  20.9879  20.9879  20.9879  20.9879
    21.1513  21.1513  21.1513  21.1514  21.7609  21.7609  21.7609  21.7609
    25.9509  25.9509

          k =-0.5000-0.5000-0.5000 (  9328 PWs)   bands (ev):

   -66.3403 -66.3402 -66.3402 -66.3402 -66.3401 -66.3401 -66.3401 -66.3401
   -66.2777 -66.2775 -66.2775 -66.2775 -66.2775 -66.2775 -66.2775 -66.2775
   -32.5796 -32.5796 -32.5796 -32.5795 -32.5795 -32.5795 -32.5795 -32.5795
   -32.5795 -32.5795 -32.5795 -32.5795 -32.5795 -32.5795 -32.5795 -32.5795
   -32.5430 -32.5430 -32.5430 -32.5430 -32.5429 -32.5429 -32.5429 -32.5429
   -32.3040 -32.3040 -32.3040 -32.3039 -32.3039 -32.3039 -32.3039 -32.3039
   -32.2653 -32.2653 -32.2653 -32.2652 -32.2652 -32.2652 -32.2652 -32.2652
   -32.2651 -32.2651 -32.2651 -32.2651 -32.2651 -32.2651 -32.2651 -32.2651
    14.0967  14.0967  14.0967  14.0967  14.0968  14.0968  14.0968  14.0969
    17.1136  17.1136  17.1136  17.1136  17.1136  17.1136  17.1136  17.1136
    17.1136  17.1136  17.1136  17.1136  17.1136  17.1137  17.1137  17.1137
    17.5371  17.5371  17.5371  17.5371  17.5371  17.5371  17.5371  17.5371
    17.6379  17.6379  17.6379  17.6379  17.6379  17.6379  17.6379  17.6379
    17.6379  17.6379  17.6379  17.6380  17.6380  17.6380  17.6380  17.6380
    20.8035  20.8035  20.8036  20.8036  20.8036  20.8036  20.8036  20.8036
    20.8036  20.8036  20.8036  20.8036  20.8036  20.8036  20.8037  20.8037
    20.8082  20.8082  20.8082  20.8082  20.8082  20.8082  20.8082  20.8082
    20.8083  20.8083  20.8083  20.8083  20.8083  20.8083  20.8083  20.8083
    21.2089  21.2089  21.2089  21.2089  21.2089  21.2089  21.2089  21.2090
    27.5876  27.5876

     the Fermi energy is    19.2276 ev

!    total energy              =   -5268.14452464 Ry
     total all-electron energy =    -40728.889054 Ry
     estimated scf accuracy    <          6.9E-09 Ry
     smearing contrib. (-TS)   =       0.00493986 Ry
     internal energy E=F+TS    =   -5268.14946450 Ry

     The total energy is F=E-TS. E is the sum of the following terms:
     one-electron contribution =   -1696.24553937 Ry
     hartree contribution      =    1018.36883742 Ry
     xc contribution           =    -444.35929204 Ry
     ewald contribution        =   -2821.25721790 Ry
     one-center paw contrib.   =   -1324.65625262 Ry

     total magnetization       =    33.56 Bohr mag/cell
     absolute magnetization    =    35.23 Bohr mag/cell

     convergence has been achieved in  25 iterations


     Computing stress (Cartesian axis) and pressure


     negative rho (up, down):  0.000E+00 1.195E-04
          total   stress  (Ry/bohr**3)                   (kbar)     P=       67.42
   0.00045832   0.00000000   0.00000000           67.42        0.00        0.00
   0.00000000   0.00045832   0.00000000            0.00       67.42        0.00
   0.00000000   0.00000000   0.00045832            0.00        0.00       67.42


     Writing all to output data dir ./tmp/fecr_fe16cr00_h-0.01.save/ :
     XML data file, charge density, pseudopotentials, collected wavefunctions
 
     init_run     :     18.41s CPU     12.57s WALL (       1 calls)
     electrons    :    616.56s CPU    454.87s WALL (       1 calls)
     stress       :     10.79s CPU     10.72s WALL (       1 calls)

     Called by init_run:
     wfcinit      :      3.00s CPU      3.41s WALL (       1 calls)
     potinit      :     14.98s CPU      8.64s WALL (       1 calls)
     hinit0       :      0.26s CPU      0.27s WALL (       1 calls)

     Called by electrons:
     c_bands      :    216.07s CPU    216.22s WALL (      25 calls)
     sum_band     :     22.32s CPU     22.27s WALL (      25 calls)
     v_of_rho     :      0.48s CPU      0.51s WALL (      26 calls)
     newd         :      0.99s CPU      1.00s WALL (      26 calls)
                                        1.00s GPU  (      26 calls)
     PAW_pot      :    390.14s CPU    221.99s WALL (      26 calls)
     mix_rho      :      0.77s CPU      0.82s WALL (      25 calls)

     Called by c_bands:
     init_us_2    :      1.41s CPU      1.37s WALL (    2080 calls)
     cegterg      :    202.99s CPU    203.17s WALL (    1000 calls)

     Called by *egterg:
     cdiaghg      :     49.06s CPU     49.26s WALL (    3649 calls)
                                       49.24s GPU  (    3649 calls)
     h_psi        :     75.50s CPU     75.65s WALL (    3689 calls)
                                       75.59s GPU  (    3689 calls)
     s_psi        :      2.22s CPU      2.24s WALL (    3689 calls)
     g_psi        :      0.01s CPU      0.38s WALL (    2649 calls)
                                        0.37s GPU  (    2649 calls)

     Called by h_psi:
     h_psi:calbec :      0.15s CPU     13.36s WALL (    3689 calls)
                                       13.35s GPU  (    3689 calls)
     vloc_psi     :     44.67s CPU     44.72s WALL (    3689 calls)
                                       44.71s GPU  (    3689 calls)
     add_vuspsi   :      2.13s CPU     17.25s WALL (    3689 calls)
                                       17.23s GPU  (    3689 calls)

     General routines
     calbec       :      0.20s CPU      0.22s WALL (    4729 calls)
     fft          :      0.25s CPU      0.39s WALL (     669 calls)
                                        0.16s GPU  (     617 calls)
     ffts         :      0.08s CPU      0.08s WALL (     102 calls)
                                        0.00s GPU  (      50 calls)
     fftw         :      0.91s CPU     45.68s WALL (   56700 calls)
                                       45.51s GPU  (   56700 calls)
     interpolate  :      0.34s CPU      0.34s WALL (      52 calls)
 
     Parallel routines
 
     PWSCF        :  10m46.49s CPU   7m58.90s WALL

 
   This run was terminated on:  23:17:10  11May2026            

=------------------------------------------------------------------------------=
   JOB DONE.
=------------------------------------------------------------------------------=
Warning: ieee_divide_by_zero is signaling
Warning: ieee_inexact is signaling
FORTRAN STOP
