--------------------------------------------------------------------------
WARNING: Open MPI tried to bind a process but failed.  This is a
warning only; your job will continue, though performance may
be degraded.

  Local host:        4b82db919bf5
  Application name:  /root/q-e-qe-7.3.1/bin/pw.x
  Error message:     failed to bind memory
  Location:          ../../../../../orte/mca/rtc/hwloc/rtc_hwloc.c:447

--------------------------------------------------------------------------

     Program PWSCF v.7.3.1 starts on 24May2026 at 18:40: 1 

     This program is part of the open-source Quantum ESPRESSO suite
     for quantum simulation of materials; please cite
         "P. Giannozzi et al., J. Phys.:Condens. Matter 21 395502 (2009);
         "P. Giannozzi et al., J. Phys.:Condens. Matter 29 465901 (2017);
         "P. Giannozzi et al., J. Chem. Phys. 152 154105 (2020);
          URL http://www.quantum-espresso.org", 
     in publications or presentations arising from this work. More details at
     http://www.quantum-espresso.org/quote

     Parallel version (MPI & OpenMP), running on       8 processor cores
     Number of MPI processes:                 1
     Threads/MPI process:                     8

     MPI processes distributed on     1 nodes
     147384 MiB available memory on the printing compute node when the environment starts
 
     Reading input from inputs/fecr_fe01cr15_s0.00.in

     Current dimensions of program PWSCF are:
     Max number of different atomic species (ntypx) = 10
     Max number of k-points (npk) =  40000
     Max angular momentum in pseudopotentials (lmaxx) =  4
     file Fe.pbe-spn-kjpaw_psl.1.0.0.UPF: wavefunction(s)  3P 3D renormalized
     file Cr.pbe-spn-kjpaw_psl.1.0.0.UPF: wavefunction(s)  3S 3P 3D renormalized
     file Cr.pbe-spn-kjpaw_psl.1.0.0.UPF: wavefunction(s)  3S 3P 3D renormalized
     Message from routine setup:
     using ibrav=0 with symmetry is DISCOURAGED, use correct ibrav instead
 
     Subspace diagonalization in iterative solution of the eigenvalue problem:
     a serial algorithm will be used

 
     G-vector sticks info
     --------------------
     sticks:   dense  smooth     PW     G-vecs:    dense   smooth      PW
     Sum        4445    2225    633               222943    78949   11837
 
     Using Slab Decomposition
 


     bravais-lattice index     =            0
     lattice parameter (alat)  =      10.7909  a.u.
     unit-cell volume          =    1256.5310 (a.u.)^3
     number of atoms/cell      =           16
     number of atomic types    =            3
     number of electrons       =       226.00
     number of Kohn-Sham states=          136
     kinetic-energy cutoff     =      60.0000  Ry
     charge density cutoff     =     480.0000  Ry
     scf convergence threshold =      1.0E-05
     mixing beta               =       0.1000
     number of iterations used =           16  local-TF  mixing
     Exchange-correlation= SLA  PW   PBX  PBC
                           (   1   4   3   4   0   0   0)

     GPU acceleration is ACTIVE.  1 visible GPUs per MPI rank


     celldm(1)=  10.790902  celldm(2)=   0.000000  celldm(3)=   0.000000
     celldm(4)=   0.000000  celldm(5)=   0.000000  celldm(6)=   0.000000

     crystal axes: (cart. coord. in units of alat)
               a(1) = (   1.000000   0.000000   0.000000 )  
               a(2) = (   0.000000   1.000000   0.000000 )  
               a(3) = (   0.000000   0.000000   1.000000 )  

     reciprocal axes: (cart. coord. in units 2 pi/alat)
               b(1) = (  1.000000  0.000000  0.000000 )  
               b(2) = (  0.000000  1.000000  0.000000 )  
               b(3) = (  0.000000  0.000000  1.000000 )  


     PseudoPot. # 1 for Fe read from file:
     ./pseudo/Fe.pbe-spn-kjpaw_psl.1.0.0.UPF
     MD5 check sum: fc81f059e5c5069939230b1155715ae8
     Pseudo is Projector augmented-wave + core cor, Zval = 16.0
     Generated using &quot;atomic&quot; code by A. Dal Corso  v.6.3
     Shape of augmentation charge: PSQ
     Using radial grid of 1191 points,  6 beta functions with: 
                l(1) =   0
                l(2) =   0
                l(3) =   1
                l(4) =   1
                l(5) =   2
                l(6) =   2
     Q(r) pseudized with 0 coefficients 


     PseudoPot. # 2 for Cr read from file:
     ./pseudo/Cr.pbe-spn-kjpaw_psl.1.0.0.UPF
     MD5 check sum: 198f1a2427a48552563eee314eba32ba
     Pseudo is Projector augmented-wave + core cor, Zval = 14.0
     Generated using &quot;atomic&quot; code by A. Dal Corso  v.6.3
     Shape of augmentation charge: PSQ
     Using radial grid of 1183 points,  6 beta functions with: 
                l(1) =   0
                l(2) =   0
                l(3) =   1
                l(4) =   1
                l(5) =   2
                l(6) =   2
     Q(r) pseudized with 0 coefficients 


     PseudoPot. # 3 for Cr read from file:
     ./pseudo/Cr.pbe-spn-kjpaw_psl.1.0.0.UPF
     MD5 check sum: 198f1a2427a48552563eee314eba32ba
     Pseudo is Projector augmented-wave + core cor, Zval = 14.0
     Generated using &quot;atomic&quot; code by A. Dal Corso  v.6.3
     Shape of augmentation charge: PSQ
     Using radial grid of 1183 points,  6 beta functions with: 
                l(1) =   0
                l(2) =   0
                l(3) =   1
                l(4) =   1
                l(5) =   2
                l(6) =   2
     Q(r) pseudized with 0 coefficients 


     atomic species   valence    mass     pseudopotential
     Fe               16.00    55.84500     Fe( 1.00)
     CrA              14.00    51.99600     Cr( 1.00)
     CrB              14.00    51.99600     Cr( 1.00)

     Starting magnetic structure 
     atomic species   magnetization
     Fe              0.500
     CrA             0.500
     CrB            -0.500

     48 Sym. Ops., with inversion, found (42 have fractional translation)



   Cartesian axes

     site n.     atom                  positions (alat units)
         1        CrA    tau(   1) = (   0.0000000   0.0000000   0.0000000  )
         2        CrB    tau(   2) = (   0.2500000   0.2500000   0.2500000  )
         3        CrA    tau(   3) = (   0.0000000   0.0000000   0.5000000  )
         4        CrB    tau(   4) = (   0.2500000   0.2500000   0.7500000  )
         5        CrA    tau(   5) = (   0.0000000   0.5000000   0.0000000  )
         6        CrB    tau(   6) = (   0.2500000   0.7500000   0.2500000  )
         7        CrA    tau(   7) = (   0.0000000   0.5000000   0.5000000  )
         8        CrB    tau(   8) = (   0.2500000   0.7500000   0.7500000  )
         9        CrA    tau(   9) = (   0.5000000   0.0000000   0.0000000  )
        10        CrB    tau(  10) = (   0.7500000   0.2500000   0.2500000  )
        11        CrA    tau(  11) = (   0.5000000   0.0000000   0.5000000  )
        12        CrB    tau(  12) = (   0.7500000   0.2500000   0.7500000  )
        13        CrA    tau(  13) = (   0.5000000   0.5000000   0.0000000  )
        14        CrB    tau(  14) = (   0.7500000   0.7500000   0.2500000  )
        15        CrA    tau(  15) = (   0.5000000   0.5000000   0.5000000  )
        16        Fe     tau(  16) = (   0.7500000   0.7500000   0.7500000  )

     number of k points=    20  Marzari-Vanderbilt smearing, width (Ry)=  0.0200
                       cart. coord. in units 2pi/alat
        k(    1) = (   0.0000000   0.0000000   0.0000000), wk =   0.0046296
        k(    2) = (   0.0000000   0.0000000   0.1666667), wk =   0.0277778
        k(    3) = (   0.0000000   0.0000000   0.3333333), wk =   0.0277778
        k(    4) = (   0.0000000   0.0000000  -0.5000000), wk =   0.0138889
        k(    5) = (   0.0000000   0.1666667   0.1666667), wk =   0.0555556
        k(    6) = (   0.0000000   0.1666667   0.3333333), wk =   0.1111111
        k(    7) = (   0.0000000   0.1666667  -0.5000000), wk =   0.0555556
        k(    8) = (   0.0000000   0.3333333   0.3333333), wk =   0.0555556
        k(    9) = (   0.0000000   0.3333333  -0.5000000), wk =   0.0555556
        k(   10) = (   0.0000000  -0.5000000  -0.5000000), wk =   0.0138889
        k(   11) = (   0.1666667   0.1666667   0.1666667), wk =   0.0370370
        k(   12) = (   0.1666667   0.1666667   0.3333333), wk =   0.1111111
        k(   13) = (   0.1666667   0.1666667  -0.5000000), wk =   0.0555556
        k(   14) = (   0.1666667   0.3333333   0.3333333), wk =   0.1111111
        k(   15) = (   0.1666667   0.3333333  -0.5000000), wk =   0.1111111
        k(   16) = (   0.1666667  -0.5000000  -0.5000000), wk =   0.0277778
        k(   17) = (   0.3333333   0.3333333   0.3333333), wk =   0.0370370
        k(   18) = (   0.3333333   0.3333333  -0.5000000), wk =   0.0555556
        k(   19) = (   0.3333333  -0.5000000  -0.5000000), wk =   0.0277778
        k(   20) = (  -0.5000000  -0.5000000  -0.5000000), wk =   0.0046296

     Dense  grid:   222943 G-vectors     FFT dimensions: (  80,  80,  80)

     Smooth grid:    78949 G-vectors     FFT dimensions: (  54,  54,  54)

     Estimated max dynamical RAM per process >       1.87 GB

     Check: negative core charge=   -0.000003
     Generating pointlists ...
     new r_m :   0.1786 (alat units)  1.9274 (a.u.) for type    1
     new r_m :   0.1786 (alat units)  1.9274 (a.u.) for type    2
     new r_m :   0.1786 (alat units)  1.9274 (a.u.) for type    3

     Initial potential from superposition of free atoms

     starting charge     225.9880, renormalised to     226.0000
     Starting wfcs are  160 randomized atomic wfcs
     Checking if some PAW data can be deallocated... 

     total cpu time spent up to now is       21.4 secs

     Self-consistent Calculation

     iteration #  1     ecut=    60.00 Ry     beta= 0.10
     Davidson diagonalization with overlap
     ethr =  1.00E-02,  avg # of iterations =  3.7

     total cpu time spent up to now is       45.3 secs

     total energy              =   -4048.20438796 Ry
     estimated scf accuracy    <       5.71771208 Ry

     total magnetization       =     7.87 Bohr mag/cell
     absolute magnetization    =    55.29 Bohr mag/cell

     iteration #  2     ecut=    60.00 Ry     beta= 0.10
     Davidson diagonalization with overlap
     ethr =  2.53E-03,  avg # of iterations =  1.7

     negative rho (up, down):  0.000E+00 2.956E-04

     total cpu time spent up to now is       68.3 secs

     total energy              =   -4050.84682711 Ry
     estimated scf accuracy    <       4.80447832 Ry

     total magnetization       =     7.86 Bohr mag/cell
     absolute magnetization    =    54.04 Bohr mag/cell

     iteration #  3     ecut=    60.00 Ry     beta= 0.10
     Davidson diagonalization with overlap
     ethr =  2.13E-03,  avg # of iterations =  3.3

     negative rho (up, down):  0.000E+00 2.623E-04

     total cpu time spent up to now is       92.2 secs

     total energy              =   -4051.36647089 Ry
     estimated scf accuracy    <       4.25519519 Ry

     total magnetization       =     3.52 Bohr mag/cell
     absolute magnetization    =    43.47 Bohr mag/cell

     iteration #  4     ecut=    60.00 Ry     beta= 0.10
     Davidson diagonalization with overlap
     ethr =  1.88E-03,  avg # of iterations =  1.5

     negative rho (up, down):  0.000E+00 2.390E-04

     total cpu time spent up to now is      115.3 secs

     total energy              =   -4051.37436864 Ry
     estimated scf accuracy    <       4.19079403 Ry

     total magnetization       =     3.67 Bohr mag/cell
     absolute magnetization    =    43.42 Bohr mag/cell

     iteration #  5     ecut=    60.00 Ry     beta= 0.10
     Davidson diagonalization with overlap
     ethr =  1.85E-03,  avg # of iterations =  1.0

     negative rho (up, down):  0.000E+00 6.519E-05

     total cpu time spent up to now is      136.9 secs

     total energy              =   -4051.41213633 Ry
     estimated scf accuracy    <       3.85394970 Ry

     total magnetization       =     3.83 Bohr mag/cell
     absolute magnetization    =    43.14 Bohr mag/cell

     iteration #  6     ecut=    60.00 Ry     beta= 0.10
     Davidson diagonalization with overlap
     ethr =  1.71E-03,  avg # of iterations =  3.1

     negative rho (up, down):  0.000E+00 2.544E-04

     total cpu time spent up to now is      160.4 secs

     total energy              =   -4051.99660352 Ry
     estimated scf accuracy    <       1.12998527 Ry

     total magnetization       =     5.67 Bohr mag/cell
     absolute magnetization    =    43.21 Bohr mag/cell

     iteration #  7     ecut=    60.00 Ry     beta= 0.10
     Davidson diagonalization with overlap
     ethr =  5.00E-04,  avg # of iterations =  5.3

     negative rho (up, down):  0.000E+00 2.511E-04

     total cpu time spent up to now is      185.5 secs

     total energy              =   -4052.34472739 Ry
     estimated scf accuracy    <       0.46969625 Ry

     total magnetization       =     2.26 Bohr mag/cell
     absolute magnetization    =    31.61 Bohr mag/cell

     iteration #  8     ecut=    60.00 Ry     beta= 0.10
     Davidson diagonalization with overlap
     ethr =  2.08E-04,  avg # of iterations =  2.6

     negative rho (up, down):  0.000E+00 1.810E-04

     total cpu time spent up to now is      208.0 secs

     total energy              =   -4052.28504236 Ry
     estimated scf accuracy    <       0.52885296 Ry

     total magnetization       =     2.25 Bohr mag/cell
     absolute magnetization    =    31.47 Bohr mag/cell

     iteration #  9     ecut=    60.00 Ry     beta= 0.10
     Davidson diagonalization with overlap
     ethr =  2.08E-04,  avg # of iterations =  1.3

     negative rho (up, down):  0.000E+00 1.289E-04

     total cpu time spent up to now is      229.6 secs

     total energy              =   -4052.31075592 Ry
     estimated scf accuracy    <       0.54048028 Ry

     total magnetization       =     2.57 Bohr mag/cell
     absolute magnetization    =    32.71 Bohr mag/cell

     iteration # 10     ecut=    60.00 Ry     beta= 0.10
     Davidson diagonalization with overlap
     ethr =  2.08E-04,  avg # of iterations =  3.4

     negative rho (up, down):  0.000E+00 1.299E-04

     total cpu time spent up to now is      253.3 secs

     total energy              =   -4052.38418694 Ry
     estimated scf accuracy    <       0.14140225 Ry

     total magnetization       =     2.38 Bohr mag/cell
     absolute magnetization    =    30.98 Bohr mag/cell

     iteration # 11     ecut=    60.00 Ry     beta= 0.10
     Davidson diagonalization with overlap
     ethr =  6.26E-05,  avg # of iterations =  4.5

     negative rho (up, down):  0.000E+00 1.250E-04

     total cpu time spent up to now is      277.0 secs

     total energy              =   -4052.39665922 Ry
     estimated scf accuracy    <       0.12577727 Ry

     total magnetization       =     2.26 Bohr mag/cell
     absolute magnetization    =    29.92 Bohr mag/cell

     iteration # 12     ecut=    60.00 Ry     beta= 0.10
     Davidson diagonalization with overlap
     ethr =  5.57E-05,  avg # of iterations =  1.3

     total cpu time spent up to now is      299.7 secs

     total energy              =   -4052.43574414 Ry
     estimated scf accuracy    <       0.10541677 Ry

     total magnetization       =     2.22 Bohr mag/cell
     absolute magnetization    =    29.69 Bohr mag/cell

     iteration # 13     ecut=    60.00 Ry     beta= 0.10
     Davidson diagonalization with overlap
     ethr =  4.66E-05,  avg # of iterations =  8.1

     total cpu time spent up to now is      326.0 secs

     total energy              =   -4052.45750182 Ry
     estimated scf accuracy    <       0.16441070 Ry

     total magnetization       =     2.10 Bohr mag/cell
     absolute magnetization    =    27.21 Bohr mag/cell

     iteration # 14     ecut=    60.00 Ry     beta= 0.10
     Davidson diagonalization with overlap
     ethr =  4.66E-05,  avg # of iterations =  2.8

     total cpu time spent up to now is      349.6 secs

     total energy              =   -4052.47470433 Ry
     estimated scf accuracy    <       0.05433515 Ry

     total magnetization       =     1.91 Bohr mag/cell
     absolute magnetization    =    26.35 Bohr mag/cell

     iteration # 15     ecut=    60.00 Ry     beta= 0.10
     Davidson diagonalization with overlap
     ethr =  2.40E-05,  avg # of iterations =  7.3

     total cpu time spent up to now is      375.2 secs

     total energy              =   -4052.49236369 Ry
     estimated scf accuracy    <       0.22730554 Ry

     total magnetization       =     1.61 Bohr mag/cell
     absolute magnetization    =    24.52 Bohr mag/cell

     iteration # 16     ecut=    60.00 Ry     beta= 0.10
     Davidson diagonalization with overlap
     ethr =  2.40E-05,  avg # of iterations =  1.1

     total cpu time spent up to now is      397.0 secs

     total energy              =   -4052.48739334 Ry
     estimated scf accuracy    <       0.21820877 Ry

     total magnetization       =     1.61 Bohr mag/cell
     absolute magnetization    =    24.42 Bohr mag/cell

     iteration # 17     ecut=    60.00 Ry     beta= 0.10
     Davidson diagonalization with overlap
     ethr =  2.40E-05,  avg # of iterations =  5.0

     total cpu time spent up to now is      422.2 secs

     total energy              =   -4052.50130617 Ry
     estimated scf accuracy    <       0.03690606 Ry

     total magnetization       =     1.62 Bohr mag/cell
     absolute magnetization    =    22.56 Bohr mag/cell

     iteration # 18     ecut=    60.00 Ry     beta= 0.10
     Davidson diagonalization with overlap
     ethr =  1.63E-05,  avg # of iterations =  1.4

     total cpu time spent up to now is      444.8 secs

     total energy              =   -4052.50262930 Ry
     estimated scf accuracy    <       0.02064325 Ry

     total magnetization       =     1.68 Bohr mag/cell
     absolute magnetization    =    22.57 Bohr mag/cell

     iteration # 19     ecut=    60.00 Ry     beta= 0.10
     Davidson diagonalization with overlap
     ethr =  9.13E-06,  avg # of iterations =  4.3

     total cpu time spent up to now is      469.5 secs

     total energy              =   -4052.50594183 Ry
     estimated scf accuracy    <       0.01334819 Ry

     total magnetization       =     1.59 Bohr mag/cell
     absolute magnetization    =    21.99 Bohr mag/cell

     iteration # 20     ecut=    60.00 Ry     beta= 0.10
     Davidson diagonalization with overlap
     ethr =  5.91E-06,  avg # of iterations =  2.8

     total cpu time spent up to now is      493.1 secs

     total energy              =   -4052.50717188 Ry
     estimated scf accuracy    <       0.00856576 Ry

     total magnetization       =     1.58 Bohr mag/cell
     absolute magnetization    =    21.66 Bohr mag/cell

     iteration # 21     ecut=    60.00 Ry     beta= 0.10
     Davidson diagonalization with overlap
     c_bands:  2 eigenvalues not converged
     c_bands:  1 eigenvalues not converged
     ethr =  3.79E-06,  avg # of iterations =  6.2

     total cpu time spent up to now is      518.8 secs

     total energy              =   -4052.50809393 Ry
     estimated scf accuracy    <       0.00462102 Ry

     total magnetization       =     1.59 Bohr mag/cell
     absolute magnetization    =    21.37 Bohr mag/cell

     iteration # 22     ecut=    60.00 Ry     beta= 0.10
     Davidson diagonalization with overlap
     ethr =  2.04E-06,  avg # of iterations =  8.5

     total cpu time spent up to now is      546.8 secs

     total energy              =   -4052.51104384 Ry
     estimated scf accuracy    <       0.00185732 Ry

     total magnetization       =     1.50 Bohr mag/cell
     absolute magnetization    =    20.07 Bohr mag/cell

     iteration # 23     ecut=    60.00 Ry     beta= 0.10
     Davidson diagonalization with overlap
     ethr =  8.22E-07,  avg # of iterations =  3.1

     total cpu time spent up to now is      569.6 secs

     total energy              =   -4052.51187022 Ry
     estimated scf accuracy    <       0.00441834 Ry

     total magnetization       =     1.51 Bohr mag/cell
     absolute magnetization    =    20.25 Bohr mag/cell

     iteration # 24     ecut=    60.00 Ry     beta= 0.10
     Davidson diagonalization with overlap
     ethr =  8.22E-07,  avg # of iterations =  1.8

     total cpu time spent up to now is      591.9 secs

     total energy              =   -4052.51267569 Ry
     estimated scf accuracy    <       0.00617031 Ry

     total magnetization       =     1.49 Bohr mag/cell
     absolute magnetization    =    20.10 Bohr mag/cell

     iteration # 25     ecut=    60.00 Ry     beta= 0.10
     Davidson diagonalization with overlap
     ethr =  8.22E-07,  avg # of iterations =  4.6

     total cpu time spent up to now is      616.3 secs

     total energy              =   -4052.51280044 Ry
     estimated scf accuracy    <       0.00824106 Ry

     total magnetization       =     1.49 Bohr mag/cell
     absolute magnetization    =    19.78 Bohr mag/cell

     iteration # 26     ecut=    60.00 Ry     beta= 0.10
     Davidson diagonalization with overlap
     c_bands:  2 eigenvalues not converged
     ethr =  8.22E-07,  avg # of iterations =  7.4

     total cpu time spent up to now is      642.4 secs

     total energy              =   -4052.51436455 Ry
     estimated scf accuracy    <       0.00049895 Ry

     total magnetization       =     1.47 Bohr mag/cell
     absolute magnetization    =    18.94 Bohr mag/cell

     iteration # 27     ecut=    60.00 Ry     beta= 0.10
     Davidson diagonalization with overlap
     ethr =  2.21E-07,  avg # of iterations =  3.2

     total cpu time spent up to now is      665.8 secs

     total energy              =   -4052.51432506 Ry
     estimated scf accuracy    <       0.00054117 Ry

     total magnetization       =     1.48 Bohr mag/cell
     absolute magnetization    =    18.93 Bohr mag/cell

     iteration # 28     ecut=    60.00 Ry     beta= 0.10
     Davidson diagonalization with overlap
     ethr =  2.21E-07,  avg # of iterations =  1.1

     total cpu time spent up to now is      688.4 secs

     total energy              =   -4052.51445475 Ry
     estimated scf accuracy    <       0.00055204 Ry

     total magnetization       =     1.47 Bohr mag/cell
     absolute magnetization    =    18.94 Bohr mag/cell

     iteration # 29     ecut=    60.00 Ry     beta= 0.10
     Davidson diagonalization with overlap
     ethr =  2.21E-07,  avg # of iterations =  1.1

     total cpu time spent up to now is      710.6 secs

     total energy              =   -4052.51428267 Ry
     estimated scf accuracy    <       0.00063550 Ry

     total magnetization       =     1.47 Bohr mag/cell
     absolute magnetization    =    18.87 Bohr mag/cell

     iteration # 30     ecut=    60.00 Ry     beta= 0.10
     Davidson diagonalization with overlap
     ethr =  2.21E-07,  avg # of iterations =  2.0

     total cpu time spent up to now is      733.3 secs

     total energy              =   -4052.51446429 Ry
     estimated scf accuracy    <       0.00049673 Ry

     total magnetization       =     1.49 Bohr mag/cell
     absolute magnetization    =    18.91 Bohr mag/cell

     iteration # 31     ecut=    60.00 Ry     beta= 0.10
     Davidson diagonalization with overlap
     ethr =  2.20E-07,  avg # of iterations =  3.0

     total cpu time spent up to now is      756.4 secs

     total energy              =   -4052.51464373 Ry
     estimated scf accuracy    <       0.00093110 Ry

     total magnetization       =     1.50 Bohr mag/cell
     absolute magnetization    =    18.82 Bohr mag/cell

     iteration # 32     ecut=    60.00 Ry     beta= 0.10
     Davidson diagonalization with overlap
     ethr =  2.20E-07,  avg # of iterations =  6.8

     total cpu time spent up to now is      783.0 secs

     total energy              =   -4052.51501468 Ry
     estimated scf accuracy    <       0.00141595 Ry

     total magnetization       =     1.48 Bohr mag/cell
     absolute magnetization    =    18.23 Bohr mag/cell

     iteration # 33     ecut=    60.00 Ry     beta= 0.10
     Davidson diagonalization with overlap
     ethr =  2.20E-07,  avg # of iterations =  2.1

     total cpu time spent up to now is      804.8 secs

     total energy              =   -4052.51508327 Ry
     estimated scf accuracy    <       0.00118149 Ry

     total magnetization       =     1.48 Bohr mag/cell
     absolute magnetization    =    18.36 Bohr mag/cell

     iteration # 34     ecut=    60.00 Ry     beta= 0.10
     Davidson diagonalization with overlap
     ethr =  2.20E-07,  avg # of iterations =  1.0

     total cpu time spent up to now is      827.1 secs

     total energy              =   -4052.51509121 Ry
     estimated scf accuracy    <       0.00093170 Ry

     total magnetization       =     1.48 Bohr mag/cell
     absolute magnetization    =    18.34 Bohr mag/cell

     iteration # 35     ecut=    60.00 Ry     beta= 0.10
     Davidson diagonalization with overlap
     ethr =  2.20E-07,  avg # of iterations =  1.0

     total cpu time spent up to now is      848.7 secs

     total energy              =   -4052.51509285 Ry
     estimated scf accuracy    <       0.00143224 Ry

     total magnetization       =     1.48 Bohr mag/cell
     absolute magnetization    =    18.37 Bohr mag/cell

     iteration # 36     ecut=    60.00 Ry     beta= 0.10
     Davidson diagonalization with overlap
     ethr =  2.20E-07,  avg # of iterations =  1.0

     total cpu time spent up to now is      870.9 secs

     total energy              =   -4052.51505947 Ry
     estimated scf accuracy    <       0.00136480 Ry

     total magnetization       =     1.48 Bohr mag/cell
     absolute magnetization    =    18.37 Bohr mag/cell

     iteration # 37     ecut=    60.00 Ry     beta= 0.10
     Davidson diagonalization with overlap
     c_bands:  2 eigenvalues not converged
     ethr =  2.20E-07,  avg # of iterations =  6.3

     total cpu time spent up to now is      896.7 secs

     total energy              =   -4052.51564009 Ry
     estimated scf accuracy    <       0.00009119 Ry

     total magnetization       =     1.45 Bohr mag/cell
     absolute magnetization    =    17.80 Bohr mag/cell

     iteration # 38     ecut=    60.00 Ry     beta= 0.10
     Davidson diagonalization with overlap
     ethr =  4.03E-08,  avg # of iterations =  5.6

     total cpu time spent up to now is      922.0 secs

     total energy              =   -4052.51565041 Ry
     estimated scf accuracy    <       0.00015070 Ry

     total magnetization       =     1.45 Bohr mag/cell
     absolute magnetization    =    17.56 Bohr mag/cell

     iteration # 39     ecut=    60.00 Ry     beta= 0.10
     Davidson diagonalization with overlap
     ethr =  4.03E-08,  avg # of iterations =  6.3

     total cpu time spent up to now is      948.1 secs

     total energy              =   -4052.51591077 Ry
     estimated scf accuracy    <       0.00002474 Ry

     total magnetization       =     1.44 Bohr mag/cell
     absolute magnetization    =    17.15 Bohr mag/cell

     iteration # 40     ecut=    60.00 Ry     beta= 0.10
     Davidson diagonalization with overlap
     ethr =  1.09E-08,  avg # of iterations =  5.4

     total cpu time spent up to now is      974.3 secs

     total energy              =   -4052.51594349 Ry
     estimated scf accuracy    <       0.00001775 Ry

     total magnetization       =     1.43 Bohr mag/cell
     absolute magnetization    =    17.01 Bohr mag/cell

     iteration # 41     ecut=    60.00 Ry     beta= 0.10
     Davidson diagonalization with overlap
     ethr =  7.86E-09,  avg # of iterations =  2.0

     total cpu time spent up to now is      997.8 secs

     total energy              =   -4052.51595145 Ry
     estimated scf accuracy    <       0.00001084 Ry

     total magnetization       =     1.44 Bohr mag/cell
     absolute magnetization    =    17.00 Bohr mag/cell

     iteration # 42     ecut=    60.00 Ry     beta= 0.10
     Davidson diagonalization with overlap
     ethr =  4.80E-09,  avg # of iterations =  5.4

     total cpu time spent up to now is     1022.5 secs

     total energy              =   -4052.51595651 Ry
     estimated scf accuracy    <       0.00001708 Ry

     total magnetization       =     1.44 Bohr mag/cell
     absolute magnetization    =    16.95 Bohr mag/cell

     iteration # 43     ecut=    60.00 Ry     beta= 0.10
     Davidson diagonalization with overlap
     ethr =  4.80E-09,  avg # of iterations =  1.1

     total cpu time spent up to now is     1044.4 secs

     total energy              =   -4052.51595993 Ry
     estimated scf accuracy    <       0.00001373 Ry

     total magnetization       =     1.44 Bohr mag/cell
     absolute magnetization    =    16.94 Bohr mag/cell

     iteration # 44     ecut=    60.00 Ry     beta= 0.10
     Davidson diagonalization with overlap
     ethr =  4.80E-09,  avg # of iterations =  1.8
 
     Magnetic moment per site  (integrated on atomic sphere of radius R)
     atom   1 (R=0.179)  charge= 12.2213  magn=  1.0186
     atom   2 (R=0.179)  charge= 12.2337  magn= -1.0042
     atom   3 (R=0.179)  charge= 12.2213  magn=  1.0186
     atom   4 (R=0.179)  charge= 12.2306  magn= -1.0358
     atom   5 (R=0.179)  charge= 12.2213  magn=  1.0186
     atom   6 (R=0.179)  charge= 12.2306  magn= -1.0358
     atom   7 (R=0.179)  charge= 12.2213  magn=  1.0186
     atom   8 (R=0.179)  charge= 12.2271  magn= -1.0024
     atom   9 (R=0.179)  charge= 12.2213  magn=  1.0186
     atom  10 (R=0.179)  charge= 12.2306  magn= -1.0358
     atom  11 (R=0.179)  charge= 12.2213  magn=  1.0186
     atom  12 (R=0.179)  charge= 12.2271  magn= -1.0024
     atom  13 (R=0.179)  charge= 12.2213  magn=  1.0186
     atom  14 (R=0.179)  charge= 12.2271  magn= -1.0024
     atom  15 (R=0.179)  charge= 12.2213  magn=  1.0186
     atom  16 (R=0.179)  charge= 14.5158  magn=  0.3750

     total cpu time spent up to now is     1066.9 secs

     End of self-consistent calculation

 ------ SPIN UP ------------


          k = 0.0000 0.0000 0.0000 (  9795 PWs)   bands (ev):

   -68.0326 -52.9302 -52.8932 -52.8932 -52.8932 -52.8769 -52.8769 -52.8769
   -52.8613 -51.7770 -51.7770 -51.7664 -51.7618 -51.7554 -51.7554 -51.7406
   -34.0930 -34.0930 -34.0930 -24.4617 -24.4617 -24.4617 -24.4317 -24.4317
   -24.4317 -24.3392 -24.3224 -24.3224 -24.2979 -24.2979 -24.2979 -24.2352
   -24.2352 -24.2352 -24.1592 -24.1592 -24.1592 -24.1492 -24.1491 -24.1491
   -24.1491 -24.1333 -24.1333 -23.2195 -23.2195 -23.2195 -23.1718 -23.1718
   -23.1718 -23.0575 -23.0575 -23.0575 -23.0520 -23.0520 -23.0520 -23.0421
   -23.0421 -23.0421 -23.0367 -23.0367 -23.0367 -22.9880 -22.9880 -22.9880
    11.3529  14.6785  14.7737  14.7737  14.9392  14.9392  14.9392  14.9858
    14.9858  15.1713  15.1713  15.1713  15.3048  15.4250  15.4250  16.6490
    16.6490  16.6490  16.7267  16.7267  16.7267  16.8631  16.8631  16.8631
    17.2074  17.2074  17.2074  17.2651  17.2651  17.2651  17.5077  17.5077
    17.9217  18.2859  18.2859  18.2859  18.4612  18.4612  18.4612  18.4635
    18.4635  18.4635  19.0297  19.0297  19.0297  19.4760  19.4760  19.4760
    19.4830  19.4830  19.5334  19.6942  19.6942  20.2620  20.2620  20.2620
    20.2841  20.2841  20.2841  20.4219  20.4219  20.4219  20.4220  20.4220
    20.4220  20.4818  20.4818  20.5102  20.5102  20.5102  20.5827  20.5827

          k = 0.0000 0.0000 0.1667 (  9851 PWs)   bands (ev):

   -68.0327 -52.9278 -52.8957 -52.8921 -52.8921 -52.8780 -52.8780 -52.8759
   -52.8624 -51.7762 -51.7761 -51.7666 -51.7619 -51.7563 -51.7550 -51.7415
   -34.0931 -34.0931 -34.0930 -24.4525 -24.4481 -24.4481 -24.4267 -24.4197
   -24.4197 -24.3411 -24.3318 -24.3201 -24.3089 -24.3089 -24.2881 -24.2416
   -24.2304 -24.2304 -24.1767 -24.1767 -24.1591 -24.1591 -24.1581 -24.1551
   -24.1481 -24.1395 -24.1345 -23.2051 -23.2051 -23.2046 -23.1640 -23.1632
   -23.1632 -23.0632 -23.0632 -23.0582 -23.0566 -23.0566 -23.0519 -23.0448
   -23.0439 -23.0439 -23.0421 -23.0368 -23.0368 -23.0030 -22.9918 -22.9918
    11.5045  14.4375  14.7803  14.8342  14.8724  14.9882  14.9882  15.0619
    15.0681  15.0722  15.2274  15.2274  15.3759  15.4438  15.7446  16.5064
    16.6174  16.6174  16.7284  16.7497  16.7497  16.7850  16.9039  16.9039
    16.9494  17.1013  17.1781  17.1781  17.3702  17.4136  17.4136  17.6217
    18.1181  18.2306  18.2306  18.3024  18.3134  18.3134  18.4125  18.4125
    18.6342  18.6889  18.7502  18.7854  19.1795  19.1795  19.3260  19.4130
    19.4251  19.4251  19.6145  19.6145  19.6759  19.8471  19.8829  19.8875
    19.8875  20.0421  20.1851  20.2985  20.2985  20.3784  20.4260  20.4779
    20.4849  20.4925  20.5767  20.6421  20.6495  20.6495  20.6536  21.1231

          k = 0.0000 0.0000 0.3333 (  9838 PWs)   bands (ev):

   -68.0327 -52.9212 -52.9025 -52.8891 -52.8891 -52.8810 -52.8810 -52.8730
   -52.8652 -51.7741 -51.7740 -51.7678 -51.7618 -51.7583 -51.7537 -51.7437
   -34.0931 -34.0931 -34.0929 -24.4269 -24.4167 -24.4167 -24.4134 -24.3814
   -24.3814 -24.3572 -24.3533 -24.3349 -24.3349 -24.3054 -24.2586 -24.2582
   -24.2371 -24.2371 -24.2132 -24.2132 -24.1803 -24.1749 -24.1749 -24.1551
   -24.1463 -24.1451 -24.1374 -23.1682 -23.1682 -23.1634 -23.1418 -23.1404
   -23.1404 -23.0833 -23.0833 -23.0791 -23.0791 -23.0710 -23.0564 -23.0519
   -23.0425 -23.0425 -23.0407 -23.0407 -23.0322 -23.0322 -23.0021 -23.0021
    11.9464  13.5196  14.9401  14.9990  15.1172  15.1172  15.1665  15.2783
    15.3029  15.3076  15.3076  15.3864  15.4253  15.4336  15.7935  16.1334
    16.1569  16.5525  16.6014  16.6014  16.7221  16.7221  17.0877  17.0947
    17.0947  17.2034  17.2587  17.2587  17.3271  17.6595  17.7577  17.7577
    17.8958  17.8958  17.9895  18.1494  18.2574  18.2574  18.3515  18.3515
    18.4696  18.4696  18.5102  18.5174  18.5506  18.8862  19.0267  19.0764
    19.0764  19.2386  19.2832  19.5457  19.5457  19.7744  19.9595  19.9595
    19.9679  20.1560  20.2070  20.2109  20.2109  20.4316  20.4367  20.4663
    20.4944  20.6312  20.7402  20.8547  20.8729  20.9324  20.9324  20.9659

          k = 0.0000 0.0000-0.5000 (  9890 PWs)   bands (ev):

   -68.0327 -52.9135 -52.9102 -52.8851 -52.8851 -52.8851 -52.8851 -52.8692
   -52.8691 -51.7729 -51.7719 -51.7695 -51.7617 -51.7596 -51.7526 -51.7452
   -34.0931 -34.0931 -34.0930 -24.4034 -24.3923 -24.3917 -24.3878 -24.3878
   -24.3701 -24.3701 -24.3637 -24.3225 -24.3225 -24.2950 -24.2950 -24.2884
   -24.2755 -24.2195 -24.2190 -24.2013 -24.2013 -24.1895 -24.1895 -24.1512
   -24.1510 -24.1414 -24.1413 -23.1264 -23.1264 -23.1235 -23.1225 -23.1225
   -23.1173 -23.1173 -23.1150 -23.1030 -23.0974 -23.0974 -23.0787 -23.0557
   -23.0522 -23.0430 -23.0403 -23.0403 -23.0241 -23.0241 -23.0112 -23.0112
    12.5886  12.6981  15.0839  15.1688  15.2590  15.2590  15.2639  15.2639
    15.2852  15.2937  15.5054  15.6161  15.6244  15.6525  15.6839  15.7141
    15.9239  16.0202  16.6127  16.6127  16.6885  16.6885  17.3363  17.3703
    17.3703  17.4938  17.4938  17.5169  17.6101  17.6123  17.6226  17.6817
    17.6817  17.6933  17.6933  18.0250  18.0930  18.1092  18.1430  18.1430
    18.3316  18.3316  18.4257  18.4257  18.4423  18.4423  18.6705  18.7342
    18.7971  19.5229  19.6496  19.7136  19.7136  19.7704  19.9070  19.9116
    20.0582  20.0582  20.2122  20.3290  20.4074  20.4074  20.4512  20.4516
    20.4993  20.6317  20.6317  20.8018  20.8221  20.8740  20.8991  20.9588

          k = 0.0000 0.1667 0.1667 (  9853 PWs)   bands (ev):

   -68.0327 -52.9255 -52.8948 -52.8943 -52.8910 -52.8792 -52.8770 -52.8770
   -52.8634 -51.7754 -51.7754 -51.7668 -51.7619 -51.7564 -51.7553 -51.7425
   -34.0931 -34.0931 -34.0930 -24.4451 -24.4380 -24.4340 -24.4160 -24.4107
   -24.4094 -24.3436 -24.3314 -24.3269 -24.3163 -24.3068 -24.2888 -24.2488
   -24.2261 -24.2260 -24.1846 -24.1820 -24.1767 -24.1670 -24.1593 -24.1574
   -24.1560 -24.1458 -24.1381 -23.1954 -23.1937 -23.1926 -23.1574 -23.1555
   -23.1510 -23.0709 -23.0688 -23.0680 -23.0639 -23.0582 -23.0568 -23.0427
   -23.0419 -23.0406 -23.0399 -23.0392 -23.0366 -23.0182 -22.9954 -22.9929
    11.6535  14.4620  14.5632  14.8224  14.9101  14.9475  15.0703  15.1172
    15.1176  15.1424  15.1559  15.2960  15.4506  15.7666  15.7922  16.4102
    16.5749  16.6374  16.7116  16.7484  16.7823  16.7865  16.8350  16.9045
    16.9383  17.0411  17.1273  17.2216  17.2722  17.3441  17.4621  17.8226
    17.9250  18.1098  18.1814  18.2162  18.2261  18.2996  18.4300  18.5632
    18.6065  18.6497  18.8334  18.8939  18.9329  18.9833  19.1914  19.2237
    19.2459  19.3679  19.3894  19.4316  19.5445  19.6829  19.8382  19.8598
    19.8733  19.9841  20.1316  20.2734  20.3555  20.4157  20.4740  20.4912
    20.4915  20.5721  20.5836  20.7078  20.7622  20.7835  20.8417  20.8658

          k = 0.0000 0.1667 0.3333 (  9856 PWs)   bands (ev):

   -68.0327 -52.9191 -52.9011 -52.8913 -52.8881 -52.8824 -52.8799 -52.8741
   -52.8663 -51.7736 -51.7734 -51.7680 -51.7616 -51.7580 -51.7542 -51.7447
   -34.0931 -34.0931 -34.0930 -24.4220 -24.4170 -24.4021 -24.3997 -24.3749
   -24.3717 -24.3600 -24.3524 -24.3357 -24.3264 -24.3115 -24.2666 -24.2633
   -24.2374 -24.2329 -24.2135 -24.2098 -24.1881 -24.1829 -24.1734 -24.1651
   -24.1552 -24.1530 -24.1426 -23.1693 -23.1640 -23.1609 -23.1362 -23.1362
   -23.1246 -23.0965 -23.0900 -23.0871 -23.0821 -23.0676 -23.0628 -23.0541
   -23.0479 -23.0394 -23.0384 -23.0348 -23.0321 -23.0299 -23.0046 -23.0015
    12.0873  13.6210  14.6655  14.8403  15.0824  15.2324  15.2466  15.2690
    15.3574  15.3899  15.4088  15.4824  15.4825  15.7514  15.8496  16.1363
    16.2005  16.4655  16.6267  16.7466  16.7515  16.8192  16.8970  17.0359
    17.0414  17.1122  17.1629  17.2533  17.3277  17.6036  17.6553  17.7596
    17.7922  18.0066  18.0104  18.0778  18.1044  18.1258  18.1518  18.2314
    18.3187  18.3555  18.4773  18.6968  18.7017  18.7494  18.7663  18.9407
    19.0763  19.2244  19.3557  19.4639  19.5345  19.8050  19.8780  19.9203
    19.9405  20.0468  20.1121  20.2846  20.2858  20.4448  20.4604  20.4886
    20.5451  20.5684  20.6622  20.6800  20.7817  20.8368  20.8770  20.9012

          k = 0.0000 0.1667-0.5000 (  9882 PWs)   bands (ev):

   -68.0327 -52.9116 -52.9086 -52.8870 -52.8867 -52.8840 -52.8840 -52.8702
   -52.8702 -51.7724 -51.7717 -51.7695 -51.7615 -51.7590 -51.7531 -51.7463
   -34.0931 -34.0931 -34.0930 -24.3989 -24.3908 -24.3889 -24.3870 -24.3756
   -24.3677 -24.3629 -24.3585 -24.3189 -24.3093 -24.3016 -24.2915 -24.2846
   -24.2816 -24.2235 -24.2226 -24.2051 -24.1977 -24.1977 -24.1870 -24.1617
   -24.1603 -24.1481 -24.1477 -23.1368 -23.1326 -23.1284 -23.1249 -23.1214
   -23.1200 -23.1170 -23.1117 -23.1023 -23.0967 -23.0856 -23.0798 -23.0581
   -23.0575 -23.0385 -23.0382 -23.0330 -23.0244 -23.0206 -23.0130 -23.0113
    12.7134  12.8251  14.7501  14.8509  15.2333  15.3855  15.3869  15.3902
    15.4758  15.5785  15.5813  15.6760  15.6828  15.7209  15.7298  15.7894
    15.9622  16.0559  16.6500  16.6791  16.7006  16.7587  17.1839  17.2209
    17.2353  17.3284  17.3771  17.4068  17.4181  17.4646  17.6897  17.7183
    17.7895  17.8050  17.8255  17.8853  18.0033  18.0915  18.1174  18.1229
    18.1589  18.1739  18.1810  18.2190  18.2714  18.3075  18.8711  18.9064
    18.9709  19.3926  19.6061  19.6652  19.7688  19.8102  19.9271  19.9309
    19.9555  20.0382  20.1549  20.2323  20.3203  20.3432  20.4211  20.4750
    20.4866  20.5132  20.5182  20.7292  20.8294  20.8320  20.8565  20.9019

          k = 0.0000 0.3333 0.3333 (  9867 PWs)   bands (ev):

   -68.0327 -52.9133 -52.8978 -52.8965 -52.8864 -52.8851 -52.8771 -52.8771
   -52.8692 -51.7724 -51.7720 -51.7687 -51.7613 -51.7570 -51.7549 -51.7471
   -34.0931 -34.0930 -34.0929 -24.4074 -24.4053 -24.3800 -24.3741 -24.3651
   -24.3591 -24.3559 -24.3404 -24.3403 -24.3137 -24.3108 -24.2859 -24.2628
   -24.2497 -24.2285 -24.2215 -24.2148 -24.2015 -24.1914 -24.1909 -24.1827
   -24.1682 -24.1641 -24.1498 -23.1603 -23.1569 -23.1423 -23.1258 -23.1257
   -23.1168 -23.1076 -23.0998 -23.0997 -23.0946 -23.0895 -23.0709 -23.0532
   -23.0427 -23.0348 -23.0333 -23.0310 -23.0308 -23.0250 -23.0116 -23.0053
    12.4946  13.8504  13.9435  14.5863  15.3411  15.4146  15.4582  15.5479
    15.6015  15.6124  15.6243  15.6300  15.6467  15.8256  15.8931  16.0800
    16.3887  16.3906  16.4864  16.6583  16.8406  16.8597  16.9017  16.9588
    17.0107  17.0358  17.1021  17.1929  17.2578  17.5572  17.5621  17.6108
    17.7561  17.7631  17.8309  17.9026  17.9277  17.9740  18.0042  18.0225
    18.0714  18.0843  18.2391  18.3536  18.3960  18.6601  18.7358  18.9755
    19.0441  19.1502  19.5063  19.5616  19.6510  19.8556  19.8587  19.9115
    20.0160  20.0171  20.0853  20.2734  20.2984  20.3319  20.3650  20.4598
    20.4705  20.5336  20.5404  20.5537  20.6858  20.7212  20.7431  20.7891

          k = 0.0000 0.3333-0.5000 (  9862 PWs)   bands (ev):

   -68.0327 -52.9065 -52.9041 -52.8922 -52.8912 -52.8811 -52.8811 -52.8731
   -52.8731 -51.7715 -51.7712 -51.7695 -51.7613 -51.7569 -51.7540 -51.7490
   -34.0931 -34.0930 -34.0929 -24.3931 -24.3897 -24.3811 -24.3796 -24.3606
   -24.3579 -24.3448 -24.3297 -24.3134 -24.3113 -24.3079 -24.2821 -24.2779
   -24.2679 -24.2317 -24.2301 -24.2186 -24.2183 -24.1947 -24.1946 -24.1875
   -24.1781 -24.1598 -24.1561 -23.1429 -23.1383 -23.1355 -23.1339 -23.1215
   -23.1193 -23.1182 -23.1168 -23.1116 -23.0952 -23.0782 -23.0776 -23.0535
   -23.0489 -23.0327 -23.0284 -23.0284 -23.0250 -23.0191 -23.0181 -23.0127
    13.0665  13.1857  14.2076  14.3098  15.4781  15.5954  15.6396  15.7125
    15.7197  15.7486  15.7531  15.7650  15.7783  15.8303  15.9601  16.0512
    16.0786  16.1307  16.6504  16.7276  16.8386  16.8718  16.9283  16.9669
    16.9949  17.0239  17.0295  17.1256  17.3630  17.3871  17.5591  17.5882
    17.6220  17.6390  17.6518  17.7773  17.7788  17.8497  18.0237  18.0332
    18.0514  18.0773  18.0867  18.1003  18.1665  18.1931  19.0403  19.0448
    19.0474  19.2087  19.4884  19.5910  19.6479  19.8431  19.9403  20.0009
    20.1021  20.1289  20.1521  20.1597  20.1905  20.2029  20.3379  20.3627
    20.3892  20.5715  20.5955  20.6313  20.6372  20.6682  20.7179  20.7232

          k = 0.0000-0.5000-0.5000 (  9844 PWs)   bands (ev):

   -68.0327 -52.8994 -52.8994 -52.8994 -52.8960 -52.8772 -52.8771 -52.8771
   -52.8771 -51.7710 -51.7710 -51.7694 -51.7612 -51.7546 -51.7546 -51.7516
   -34.0932 -34.0929 -34.0929 -24.3906 -24.3897 -24.3760 -24.3760 -24.3503
   -24.3503 -24.3243 -24.3243 -24.3201 -24.3101 -24.3101 -24.2733 -24.2513
   -24.2507 -24.2386 -24.2386 -24.2321 -24.2321 -24.2211 -24.2209 -24.1745
   -24.1738 -24.1738 -24.1621 -23.1458 -23.1386 -23.1340 -23.1303 -23.1303
   -23.1271 -23.1182 -23.1181 -23.1181 -23.0945 -23.0758 -23.0758 -23.0459
   -23.0423 -23.0256 -23.0256 -23.0255 -23.0246 -23.0246 -23.0203 -23.0166
    13.5017  13.7040  13.7040  13.7278  15.5898  15.7074  15.7920  15.8091
    15.8091  15.8530  15.8530  15.8572  16.0145  16.0145  16.0685  16.1089
    16.1794  16.5070  16.5070  16.5304  16.7226  16.7842  16.7842  16.8115
    16.8958  16.8958  17.0280  17.0476  17.3308  17.4076  17.4076  17.4306
    17.4742  17.4930  17.4930  17.5741  17.5789  17.7839  17.9555  17.9555
    18.0103  18.0147  18.0166  18.0166  18.6063  18.6063  18.6844  18.7029
    19.1116  19.1609  19.4550  19.6756  19.6756  19.8616  19.8616  19.9971
    20.1423  20.2359  20.2359  20.3055  20.3065  20.3179  20.3179  20.3303
    20.3393  20.4162  20.4174  20.4174  20.5513  20.6577  20.6577  20.6911

          k = 0.1667 0.1667 0.1667 (  9861 PWs)   bands (ev):

   -68.0327 -52.9232 -52.8936 -52.8936 -52.8929 -52.8782 -52.8782 -52.8781
   -52.8645 -51.7747 -51.7747 -51.7670 -51.7617 -51.7560 -51.7560 -51.7434
   -34.0931 -34.0931 -34.0931 -24.4368 -24.4257 -24.4257 -24.4047 -24.4009
   -24.4009 -24.3409 -24.3345 -24.3345 -24.3169 -24.2993 -24.2993 -24.2436
   -24.2436 -24.2135 -24.1866 -24.1850 -24.1850 -24.1714 -24.1714 -24.1656
   -24.1628 -24.1477 -24.1477 -23.1852 -23.1844 -23.1844 -23.1508 -23.1508
   -23.1389 -23.0826 -23.0826 -23.0708 -23.0594 -23.0594 -23.0566 -23.0468
   -23.0435 -23.0435 -23.0405 -23.0348 -23.0348 -23.0288 -22.9971 -22.9971
    11.8003  14.5011  14.6404  14.6404  14.9237  14.9556  14.9556  15.1848
    15.1848  15.1964  15.2376  15.2376  15.8272  15.8409  15.8409  16.3408
    16.6183  16.6183  16.6916  16.6916  16.7753  16.8119  16.8119  16.8963
    16.9252  17.0249  17.0249  17.2450  17.3151  17.3151  17.6345  17.6345
    17.7676  18.0268  18.1549  18.1549  18.1745  18.1745  18.5673  18.5673
    18.5735  18.6282  18.6282  18.7001  18.8832  18.9510  18.9510  19.0959
    19.1043  19.2207  19.2207  19.4285  19.4285  19.7744  19.8082  19.8082
    20.0113  20.1325  20.1325  20.3067  20.3387  20.3387  20.4956  20.4956
    20.5085  20.5085  20.5507  20.7036  20.7036  20.7467  20.7789  21.0028

          k = 0.1667 0.1667 0.3333 (  9885 PWs)   bands (ev):

   -68.0327 -52.9170 -52.8997 -52.8903 -52.8899 -52.8814 -52.8813 -52.8753
   -52.8674 -51.7730 -51.7730 -51.7681 -51.7613 -51.7577 -51.7547 -51.7456
   -34.0931 -34.0931 -34.0930 -24.4148 -24.4054 -24.4018 -24.3838 -24.3717
   -24.3613 -24.3556 -24.3538 -24.3333 -24.3242 -24.3140 -24.2720 -24.2646
   -24.2381 -24.2335 -24.2213 -24.2022 -24.1890 -24.1855 -24.1851 -24.1728
   -24.1660 -24.1601 -24.1528 -23.1636 -23.1604 -23.1564 -23.1333 -23.1306
   -23.1156 -23.1053 -23.1010 -23.0899 -23.0761 -23.0656 -23.0619 -23.0579
   -23.0529 -23.0453 -23.0401 -23.0351 -23.0297 -23.0262 -23.0082 -23.0035
    12.2271  13.7262  14.7246  14.8139  14.9569  14.9788  15.2689  15.3693
    15.3916  15.4555  15.4601  15.5483  15.8438  15.8657  15.9284  16.1516
    16.2200  16.4973  16.6400  16.7508  16.7844  16.8307  16.8778  16.8813
    17.0178  17.0442  17.2037  17.2725  17.4311  17.4784  17.4826  17.6327
    17.7934  17.9108  17.9340  18.0071  18.0197  18.0519  18.0587  18.1409
    18.1973  18.2150  18.3825  18.4553  18.5787  18.5826  18.8499  18.8948
    18.9394  19.1734  19.4802  19.4989  19.6276  19.8533  19.8891  19.9233
    19.9901  20.0166  20.1690  20.2644  20.3277  20.4072  20.4658  20.4757
    20.4944  20.5714  20.6337  20.6361  20.6884  20.7622  20.8207  20.9330

          k = 0.1667 0.1667-0.5000 (  9914 PWs)   bands (ev):

   -68.0328 -52.9098 -52.9069 -52.8859 -52.8859 -52.8859 -52.8854 -52.8714
   -52.8713 -51.7720 -51.7714 -51.7695 -51.7611 -51.7587 -51.7535 -51.7472
   -34.0931 -34.0931 -34.0930 -24.3916 -24.3862 -24.3848 -24.3763 -24.3749
   -24.3591 -24.3577 -24.3559 -24.3081 -24.3076 -24.3055 -24.2885 -24.2837
   -24.2823 -24.2281 -24.2264 -24.2135 -24.2004 -24.1956 -24.1924 -24.1687
   -24.1657 -24.1597 -24.1597 -23.1382 -23.1346 -23.1285 -23.1265 -23.1236
   -23.1231 -23.1107 -23.1043 -23.1011 -23.1002 -23.0796 -23.0740 -23.0644
   -23.0583 -23.0421 -23.0408 -23.0294 -23.0252 -23.0188 -23.0188 -23.0102
    12.8391  12.9531  14.8235  14.9281  14.9702  14.9748  15.5670  15.6078
    15.6496  15.6865  15.7003  15.7485  15.7686  15.7695  15.8003  15.8263
    16.0049  16.0973  16.6686  16.7414  16.7453  16.7808  17.0847  17.1813
    17.2174  17.2340  17.2666  17.3389  17.3591  17.3609  17.6834  17.6835
    17.7257  17.7372  17.7936  17.8427  17.9393  17.9752  18.0109  18.0208
    18.0423  18.0439  18.0460  18.0718  18.0889  18.1263  18.9585  19.0043
    19.0374  19.3091  19.5223  19.7000  19.7194  19.8698  19.8855  19.9447
    19.9915  20.0527  20.0998  20.1042  20.3437  20.3647  20.3776  20.4635
    20.5392  20.5956  20.6505  20.6935  20.7868  20.7941  20.8227  20.8681

          k = 0.1667 0.3333 0.3333 (  9877 PWs)   bands (ev):

   -68.0327 -52.9114 -52.8964 -52.8952 -52.8870 -52.8852 -52.8784 -52.8784
   -52.8703 -51.7719 -51.7717 -51.7687 -51.7608 -51.7570 -51.7553 -51.7480
   -34.0931 -34.0930 -34.0930 -24.3956 -24.3938 -24.3761 -24.3662 -24.3532
   -24.3531 -24.3497 -24.3399 -24.3374 -24.3120 -24.3100 -24.2830 -24.2691
   -24.2474 -24.2343 -24.2225 -24.2219 -24.1996 -24.1975 -24.1943 -24.1876
   -24.1820 -24.1800 -24.1636 -23.1511 -23.1503 -23.1383 -23.1226 -23.1211
   -23.1163 -23.1157 -23.1041 -23.0970 -23.0842 -23.0793 -23.0694 -23.0559
   -23.0463 -23.0459 -23.0413 -23.0394 -23.0253 -23.0240 -23.0156 -23.0104
    12.6309  13.9654  14.0607  14.7198  15.0210  15.3000  15.3307  15.5504
    15.6562  15.6629  15.7300  15.7482  15.9370  16.0104  16.0573  16.1306
    16.3747  16.4550  16.4694  16.6712  16.7291  16.8588  16.8935  16.9930
    16.9953  17.0879  17.1039  17.1779  17.2596  17.4568  17.5019  17.5349
    17.6135  17.6753  17.7099  17.7931  17.8404  17.8413  17.8749  17.9377
    17.9393  17.9880  18.0568  18.1324  18.1806  18.3996  18.4488  19.0180
    19.1002  19.1508  19.6207  19.6654  19.7365  19.7810  19.9587  20.0288
    20.1008  20.1181  20.2236  20.2354  20.3366  20.3434  20.4360  20.4731
    20.4977  20.5300  20.5403  20.6091  20.6798  20.7623  20.7822  20.8422

          k = 0.1667 0.3333-0.5000 (  9832 PWs)   bands (ev):

   -68.0327 -52.9048 -52.9026 -52.8910 -52.8900 -52.8828 -52.8826 -52.8744
   -52.8743 -51.7711 -51.7709 -51.7694 -51.7606 -51.7571 -51.7544 -51.7498
   -34.0930 -34.0929 -34.0929 -24.3808 -24.3782 -24.3708 -24.3702 -24.3529
   -24.3523 -24.3409 -24.3271 -24.3102 -24.3056 -24.3026 -24.2839 -24.2799
   -24.2663 -24.2374 -24.2350 -24.2266 -24.2204 -24.2003 -24.1997 -24.1950
   -24.1894 -24.1747 -24.1713 -23.1375 -23.1328 -23.1315 -23.1296 -23.1219
   -23.1195 -23.1097 -23.1087 -23.1022 -23.0941 -23.0778 -23.0763 -23.0565
   -23.0537 -23.0408 -23.0379 -23.0293 -23.0283 -23.0255 -23.0208 -23.0153
    13.1944  13.3159  14.3362  14.4406  15.2035  15.2991  15.6775  15.7602
    15.8226  15.8728  15.8775  15.8829  15.8982  15.9874  16.0265  16.1078
    16.1233  16.1983  16.6700  16.7542  16.8550  16.8557  16.9377  16.9531
    16.9718  17.0001  17.0582  17.1536  17.3040  17.3407  17.4185  17.4454
    17.5422  17.5578  17.5623  17.7080  17.7270  17.7290  17.8522  17.8534
    17.8841  17.9061  17.9081  17.9309  17.9817  17.9859  18.7720  18.7828
    19.1199  19.2156  19.5901  19.6943  19.7650  20.0064  20.0555  20.0739
    20.1686  20.1693  20.1858  20.1868  20.3313  20.3413  20.3888  20.4310
    20.5142  20.5567  20.6306  20.6777  20.6989  20.7041  20.7234  20.7287

          k = 0.1667-0.5000-0.5000 (  9844 PWs)   bands (ev):

   -68.0327 -52.8979 -52.8979 -52.8979 -52.8948 -52.8786 -52.8786 -52.8786
   -52.8783 -51.7706 -51.7706 -51.7694 -51.7606 -51.7549 -51.7549 -51.7522
   -34.0930 -34.0929 -34.0929 -24.3769 -24.3764 -24.3642 -24.3642 -24.3421
   -24.3421 -24.3204 -24.3204 -24.3148 -24.3037 -24.3037 -24.2774 -24.2552
   -24.2473 -24.2451 -24.2451 -24.2363 -24.2363 -24.2309 -24.2306 -24.1893
   -24.1864 -24.1864 -24.1782 -23.1391 -23.1314 -23.1262 -23.1229 -23.1229
   -23.1191 -23.1132 -23.1131 -23.1131 -23.0943 -23.0753 -23.0753 -23.0510
   -23.0475 -23.0323 -23.0323 -23.0316 -23.0300 -23.0300 -23.0267 -23.0232
    13.6301  13.8368  13.8368  13.8601  15.5167  15.6647  15.6647  15.6933
    15.7295  15.9152  15.9304  15.9304  16.1930  16.2164  16.2164  16.2258
    16.2829  16.5282  16.5282  16.5525  16.7200  16.7690  16.7690  16.8016
    16.9232  16.9232  17.0540  17.0691  17.2082  17.2255  17.2901  17.2901
    17.4425  17.4479  17.4479  17.5313  17.5340  17.6437  17.7872  17.7872
    17.8452  17.8452  17.8453  17.8496  18.2988  18.2988  18.3397  18.3510
    19.1927  19.2030  19.7062  19.7837  19.7837  20.1354  20.1354  20.2029
    20.2224  20.2977  20.2977  20.3579  20.3588  20.4312  20.4312  20.4605
    20.4662  20.4662  20.5239  20.5333  20.5621  20.6415  20.6444  20.6445

          k = 0.3333 0.3333 0.3333 (  9871 PWs)   bands (ev):

   -68.0327 -52.9064 -52.8926 -52.8926 -52.8912 -52.8823 -52.8823 -52.8817
   -52.8735 -51.7709 -51.7709 -51.7690 -51.7597 -51.7564 -51.7564 -51.7501
   -34.0930 -34.0930 -34.0930 -24.3712 -24.3628 -24.3628 -24.3463 -24.3418
   -24.3418 -24.3391 -24.3234 -24.3234 -24.3089 -24.2962 -24.2962 -24.2646
   -24.2646 -24.2388 -24.2262 -24.2262 -24.2144 -24.2134 -24.2134 -24.2044
   -24.2012 -24.1997 -24.1997 -23.1361 -23.1278 -23.1278 -23.1181 -23.1181
   -23.1114 -23.1112 -23.1112 -23.0920 -23.0691 -23.0691 -23.0663 -23.0660
   -23.0568 -23.0568 -23.0565 -23.0481 -23.0281 -23.0281 -23.0233 -23.0233
    13.0222  14.2387  14.3791  14.3791  15.0609  15.1346  15.1346  15.8012
    15.8012  15.9557  15.9618  15.9618  16.1512  16.2302  16.2302  16.2928
    16.4007  16.4007  16.4622  16.5298  16.7514  16.7514  16.9237  16.9237
    17.0627  17.1819  17.1819  17.1841  17.2387  17.2387  17.4045  17.4245
    17.4245  17.4495  17.4495  17.4886  17.5577  17.6295  17.6295  17.6667
    17.7326  17.7326  17.7736  17.7736  17.9535  17.9535  18.0054  18.7131
    19.1927  19.1927  19.6961  19.8610  19.8610  20.0185  20.1648  20.1648
    20.2137  20.3269  20.3269  20.3544  20.4512  20.4512  20.4830  20.5298
    20.5298  20.6030  20.6030  20.7110  20.7344  20.7447  20.7447  20.8743

          k = 0.3333 0.3333-0.5000 (  9848 PWs)   bands (ev):

   -68.0327 -52.9002 -52.8985 -52.8875 -52.8875 -52.8875 -52.8860 -52.8779
   -52.8776 -51.7703 -51.7702 -51.7694 -51.7593 -51.7570 -51.7553 -51.7519
   -34.0930 -34.0929 -34.0929 -24.3529 -24.3508 -24.3504 -24.3441 -24.3402
   -24.3271 -24.3256 -24.3232 -24.3037 -24.2992 -24.2852 -24.2843 -24.2843
   -24.2647 -24.2513 -24.2477 -24.2464 -24.2265 -24.2178 -24.2154 -24.2128
   -24.2127 -24.2093 -24.2091 -23.1267 -23.1207 -23.1186 -23.1174 -23.1173
   -23.1124 -23.0951 -23.0942 -23.0923 -23.0922 -23.0744 -23.0707 -23.0695
   -23.0625 -23.0518 -23.0509 -23.0398 -23.0392 -23.0377 -23.0302 -23.0268
    13.5553  13.6850  14.6354  14.7718  14.7998  14.8122  15.6310  15.7164
    15.9298  16.0181  16.1490  16.1916  16.2021  16.2021  16.2024  16.2108
    16.3211  16.3874  16.6474  16.8245  16.8389  16.8654  16.9130  16.9152
    16.9198  16.9294  17.0724  17.1140  17.1689  17.2719  17.2795  17.3010
    17.3312  17.3492  17.4163  17.4513  17.4811  17.4814  17.5801  17.5820
    17.5977  17.6148  17.6323  17.6390  17.6596  17.6635  18.2349  18.2448
    19.2215  19.2402  19.8171  19.8802  19.9478  20.2568  20.2693  20.2976
    20.3021  20.3574  20.4083  20.4338  20.4447  20.4921  20.4956  20.4985
    20.5318  20.6413  20.6500  20.7008  20.7155  20.7235  20.7306  20.7547

          k = 0.3333-0.5000-0.5000 (  9872 PWs)   bands (ev):

   -68.0327 -52.8938 -52.8938 -52.8938 -52.8915 -52.8827 -52.8827 -52.8827
   -52.8816 -51.7698 -51.7698 -51.7694 -51.7588 -51.7557 -51.7557 -51.7540
   -34.0929 -34.0929 -34.0929 -24.3414 -24.3371 -24.3317 -24.3317 -24.3200
   -24.3200 -24.3100 -24.3100 -24.3002 -24.2884 -24.2884 -24.2835 -24.2684
   -24.2604 -24.2604 -24.2560 -24.2558 -24.2509 -24.2509 -24.2424 -24.2287
   -24.2209 -24.2175 -24.2175 -23.1235 -23.1133 -23.1054 -23.1052 -23.1052
   -23.0997 -23.0985 -23.0985 -23.0973 -23.0928 -23.0731 -23.0731 -23.0647
   -23.0609 -23.0500 -23.0500 -23.0484 -23.0453 -23.0453 -23.0443 -23.0419
    13.9894  14.2119  14.2119  14.2343  15.1398  15.2933  15.2933  15.3227
    16.0006  16.2224  16.2314  16.2546  16.2546  16.5201  16.5329  16.5329
    16.5966  16.5966  16.6120  16.6144  16.7077  16.7280  16.7280  16.7611
    16.9691  16.9691  17.0284  17.0591  17.1388  17.1441  17.1463  17.1463
    17.1915  17.3465  17.3488  17.3488  17.3986  17.3986  17.4172  17.4177
    17.5020  17.5102  17.5178  17.5178  17.7445  17.7445  17.7684  17.7746
    19.2574  19.2681  19.9685  19.9685  19.9717  20.3804  20.3804  20.4020
    20.4725  20.5059  20.5281  20.5281  20.5577  20.6169  20.6175  20.6175
    20.6216  20.6275  20.6275  20.6279  20.6556  20.6923  20.6923  20.7052

          k =-0.5000-0.5000-0.5000 (  9952 PWs)   bands (ev):

   -68.0328 -52.8883 -52.8883 -52.8883 -52.8883 -52.8883 -52.8883 -52.8883
   -52.8848 -51.7694 -51.7694 -51.7694 -51.7567 -51.7561 -51.7561 -51.7561
   -34.0930 -34.0930 -34.0930 -24.3021 -24.3021 -24.3021 -24.2893 -24.2893
   -24.2889 -24.2889 -24.2889 -24.2887 -24.2887 -24.2882 -24.2882 -24.2882
   -24.2835 -24.2820 -24.2763 -24.2763 -24.2763 -24.2679 -24.2679 -24.2679
   -24.2375 -24.2375 -24.2375 -23.1139 -23.0946 -23.0946 -23.0946 -23.0936
   -23.0871 -23.0871 -23.0785 -23.0785 -23.0785 -23.0707 -23.0707 -23.0707
   -23.0672 -23.0672 -23.0666 -23.0666 -23.0666 -23.0614 -23.0614 -23.0614
    14.3783  14.7308  14.7308  14.7308  14.7702  14.7702  14.7702  14.7771
    16.2386  16.2386  16.6195  16.6195  16.6195  16.6433  16.6433  16.6433
    16.6863  16.6863  16.6942  16.6942  16.6942  16.6979  16.6979  16.6979
    16.9022  16.9022  16.9022  17.2290  17.2593  17.2593  17.2593  17.2628
    17.2628  17.2658  17.2658  17.2658  17.2673  17.2673  17.2673  17.2717
    17.2738  17.2738  17.2738  17.2765  17.2765  17.2798  17.2798  17.2798
    19.2901  19.2901  20.0626  20.0626  20.0626  20.5532  20.5532  20.5532
    20.5537  20.5537  20.5537  20.5624  20.5624  20.5646  20.5646  20.5646
    20.6599  20.6599  20.6599  20.8845  20.8845  20.9530  20.9530  20.9530

 ------ SPIN DOWN ----------


          k = 0.0000 0.0000 0.0000 (  9795 PWs)   bands (ev):

   -67.5814 -52.9095 -52.8802 -52.8802 -52.8509 -52.8509 -52.8506 -52.8389
   -51.7894 -51.7894 -51.7894 -51.7806 -51.7724 -51.7724 -51.7724 -51.7563
   -33.6554 -33.6554 -33.6554 -24.4438 -24.4438 -24.4438 -24.4135 -24.4135
   -24.4135 -24.2909 -24.2909 -24.2909 -24.2522 -24.2522 -24.2522 -24.1949
   -24.1949 -24.1949 -24.1260 -24.1260 -24.1260 -24.1229 -24.1229 -24.1229
   -23.2574 -23.2433 -23.2433 -23.2155 -23.2155 -23.2155 -23.1028 -23.1028
   -23.1028 -23.0700 -23.0700 -23.0700 -23.0614 -23.0614 -23.0614 -23.0581
   -23.0535 -23.0535 -23.0535 -23.0447 -23.0447 -22.9965 -22.9965 -22.9965
    11.3722  14.8333  14.8472  14.8472  14.8472  14.9795  14.9795  15.0779
    15.0779  15.1146  15.2715  15.2715  15.4291  15.4291  15.4291  16.6788
    16.6788  16.6788  16.8493  16.8493  16.8493  16.8698  16.8698  16.8698
    17.2162  17.2556  17.2556  17.3378  17.3378  17.3378  17.9281  17.9281
    17.9281  18.2627  18.2627  18.2627  18.4239  18.4239  18.4239  18.4697
    18.4697  18.4697  19.4148  19.4148  19.4148  19.4433  19.4433  19.4433
    19.4842  19.4842  19.4842  20.1887  20.1887  20.2976  20.2976  20.2976
    20.3857  20.4173  20.4173  20.4173  20.4314  20.4314  20.4533  20.4713
    20.4713  20.5445  20.5445  20.6078  20.6078  20.6078  20.6164  20.6430

          k = 0.0000 0.0000 0.1667 (  9851 PWs)   bands (ev):

   -67.5815 -52.9074 -52.8814 -52.8796 -52.8515 -52.8511 -52.8508 -52.8396
   -51.7888 -51.7883 -51.7883 -51.7811 -51.7736 -51.7736 -51.7713 -51.7574
   -33.6555 -33.6555 -33.6555 -24.4339 -24.4339 -24.4253 -24.4081 -24.4081
   -24.3996 -24.3006 -24.3006 -24.2866 -24.2587 -24.2587 -24.2502 -24.2079
   -24.1931 -24.1931 -24.1512 -24.1360 -24.1294 -24.1294 -24.1239 -24.1239
   -23.2465 -23.2267 -23.2265 -23.2061 -23.2061 -23.2053 -23.1103 -23.1071
   -23.1071 -23.0689 -23.0677 -23.0677 -23.0646 -23.0635 -23.0604 -23.0580
   -23.0580 -23.0579 -23.0579 -23.0508 -23.0460 -23.0128 -23.0006 -23.0006
    11.5240  14.4722  14.9074  14.9074  14.9208  14.9591  15.0348  15.0870
    15.1491  15.1729  15.2195  15.3323  15.4551  15.4551  15.8085  16.5454
    16.6617  16.6617  16.8233  16.8336  16.8336  16.9204  16.9447  16.9447
    16.9449  17.1286  17.2037  17.2358  17.4876  17.4876  17.7052  17.7052
    18.1666  18.2782  18.2782  18.2943  18.3759  18.4069  18.4069  18.4114
    18.7327  18.7327  18.8177  18.8177  19.2845  19.3616  19.4712  19.5597
    19.5816  19.6241  19.6241  19.7463  19.7463  19.9187  19.9187  20.1321
    20.1321  20.1838  20.3224  20.3569  20.4154  20.4357  20.4703  20.4818
    20.5266  20.5266  20.5800  20.6290  20.7587  20.8087  20.8213  21.0463

          k = 0.0000 0.0000 0.3333 (  9838 PWs)   bands (ev):

   -67.5815 -52.9017 -52.8852 -52.8784 -52.8528 -52.8515 -52.8509 -52.8411
   -51.7875 -51.7852 -51.7852 -51.7823 -51.7767 -51.7767 -51.7684 -51.7603
   -33.6555 -33.6555 -33.6553 -24.4065 -24.4065 -24.3953 -24.3953 -24.3737
   -24.3611 -24.3283 -24.3283 -24.2812 -24.2723 -24.2723 -24.2485 -24.2311
   -24.2158 -24.1874 -24.1874 -24.1673 -24.1383 -24.1383 -24.1247 -24.1247
   -23.2201 -23.1851 -23.1818 -23.1818 -23.1808 -23.1744 -23.1299 -23.1190
   -23.1190 -23.0923 -23.0922 -23.0713 -23.0713 -23.0657 -23.0626 -23.0626
   -23.0579 -23.0572 -23.0569 -23.0491 -23.0457 -23.0457 -23.0124 -23.0124
    11.9669  13.5423  15.0574  15.0724  15.0724  15.1745  15.2723  15.2815
    15.3393  15.3720  15.4445  15.4445  15.4490  15.4767  15.8771  16.1881
    16.2536  16.6237  16.6593  16.6593  16.7723  16.7723  17.1266  17.1630
    17.1913  17.1913  17.2806  17.3026  17.6613  17.6613  17.8368  17.8816
    17.8816  17.9098  18.0996  18.0996  18.2842  18.2842  18.3614  18.3614
    18.4439  18.5045  18.5262  18.8433  18.8433  19.0200  19.0271  19.1543
    19.1543  19.3396  19.3396  19.7889  19.7912  20.0395  20.0395  20.0732
    20.1962  20.2364  20.2637  20.2637  20.3566  20.3868  20.4671  20.4969
    20.6831  20.7322  20.7981  20.7981  21.0185  21.0441  21.1310  21.1697

          k = 0.0000 0.0000-0.5000 (  9890 PWs)   bands (ev):

   -67.5816 -52.8966 -52.8895 -52.8777 -52.8534 -52.8514 -52.8510 -52.8419
   -51.7865 -51.7832 -51.7809 -51.7809 -51.7809 -51.7809 -51.7644 -51.7644
   -33.6555 -33.6555 -33.6553 -24.3887 -24.3887 -24.3679 -24.3679 -24.3669
   -24.3669 -24.3127 -24.3080 -24.3059 -24.2882 -24.2800 -24.2800 -24.2680
   -24.2103 -24.1974 -24.1831 -24.1831 -24.1441 -24.1441 -24.1251 -24.1251
   -23.2011 -23.1626 -23.1626 -23.1460 -23.1365 -23.1348 -23.1333 -23.1330
   -23.1318 -23.1318 -23.1196 -23.1183 -23.0766 -23.0766 -23.0627 -23.0627
   -23.0617 -23.0615 -23.0533 -23.0533 -23.0308 -23.0308 -23.0267 -23.0267
    12.6305  12.6975  15.1588  15.2644  15.2644  15.2847  15.2938  15.3147
    15.3147  15.3772  15.6266  15.6987  15.7030  15.7087  15.7348  15.8183
    15.9979  16.0365  16.6966  16.6966  16.7083  16.7083  17.3924  17.4933
    17.5079  17.5109  17.5631  17.5631  17.6155  17.6155  17.6646  17.7072
    17.7248  17.7392  18.0624  18.0624  18.0805  18.0805  18.2524  18.2524
    18.3403  18.3403  18.4392  18.4392  18.4751  18.4751  18.6896  18.8002
    19.5964  19.6460  19.8005  19.8005  19.9051  19.9051  19.9625  20.0371
    20.0445  20.0812  20.3663  20.3725  20.4646  20.5063  20.5683  20.5683
    20.6303  20.6303  20.8196  20.8595  20.8721  20.9441  21.2657  21.3257

          k = 0.0000 0.1667 0.1667 (  9853 PWs)   bands (ev):

   -67.5815 -52.9053 -52.8814 -52.8799 -52.8519 -52.8513 -52.8512 -52.8403
   -51.7881 -51.7875 -51.7871 -51.7814 -51.7746 -51.7725 -51.7725 -51.7585
   -33.6555 -33.6555 -33.6554 -24.4251 -24.4236 -24.4119 -24.4035 -24.3948
   -24.3911 -24.3090 -24.2977 -24.2962 -24.2634 -24.2592 -24.2521 -24.2119
   -24.1993 -24.1907 -24.1582 -24.1449 -24.1394 -24.1348 -24.1313 -24.1261
   -23.2370 -23.2138 -23.2131 -23.2060 -23.1970 -23.1867 -23.1156 -23.1130
   -23.1100 -23.0768 -23.0741 -23.0705 -23.0682 -23.0651 -23.0616 -23.0586
   -23.0583 -23.0554 -23.0523 -23.0488 -23.0484 -23.0303 -23.0045 -23.0018
    11.6732  14.5069  14.5849  14.8809  15.0153  15.0223  15.0526  15.1419
    15.1598  15.2311  15.2584  15.3417  15.4957  15.8328  15.8565  16.4556
    16.6272  16.6762  16.8171  16.8333  16.8987  16.8991  16.9013  16.9263
    16.9517  17.0840  17.1683  17.2734  17.3085  17.5074  17.5559  17.9555
    18.0028  18.1151  18.1777  18.2509  18.2740  18.3035  18.5187  18.5354
    18.8083  18.8611  18.9146  18.9242  18.9570  18.9841  19.2252  19.2542
    19.4465  19.5116  19.5303  19.6207  19.6622  19.6856  20.0040  20.0254
    20.2215  20.3033  20.3168  20.3834  20.4048  20.4559  20.4727  20.5220
    20.5375  20.5530  20.5682  20.7739  20.7871  20.8576  20.9010  20.9857

          k = 0.0000 0.1667 0.3333 (  9856 PWs)   bands (ev):

   -67.5815 -52.8998 -52.8846 -52.8789 -52.8532 -52.8518 -52.8514 -52.8418
   -51.7870 -51.7849 -51.7840 -51.7823 -51.7773 -51.7756 -51.7695 -51.7614
   -33.6555 -33.6555 -33.6553 -24.4009 -24.3997 -24.3931 -24.3845 -24.3619
   -24.3525 -24.3330 -24.3240 -24.2947 -24.2735 -24.2693 -24.2439 -24.2383
   -24.2135 -24.1946 -24.1843 -24.1682 -24.1514 -24.1390 -24.1385 -24.1282
   -23.2137 -23.1874 -23.1819 -23.1769 -23.1735 -23.1572 -23.1335 -23.1249
   -23.1209 -23.0995 -23.0921 -23.0839 -23.0793 -23.0727 -23.0656 -23.0598
   -23.0590 -23.0538 -23.0510 -23.0460 -23.0442 -23.0435 -23.0151 -23.0115
    12.1081  13.6446  14.7035  14.8790  15.1815  15.2417  15.3293  15.3359
    15.4044  15.4575  15.4829  15.5209  15.5314  15.8226  15.9313  16.1900
    16.2949  16.5250  16.6775  16.8205  16.8362  16.8652  16.9896  17.0770
    17.1137  17.1406  17.1950  17.3627  17.3760  17.6628  17.7824  17.8297
    17.8456  18.0320  18.0422  18.0944  18.1485  18.1639  18.1944  18.2824
    18.3331  18.3662  18.7044  18.7152  18.7273  18.7893  18.9160  19.0195
    19.2523  19.3877  19.4152  19.8098  19.8238  19.9777  19.9910  20.0357
    20.1315  20.2386  20.2915  20.3241  20.3636  20.4483  20.4816  20.5596
    20.5797  20.6355  20.6635  20.7610  20.8653  20.9459  21.0101  21.0205

          k = 0.0000 0.1667-0.5000 (  9882 PWs)   bands (ev):

   -67.5815 -52.8949 -52.8885 -52.8782 -52.8540 -52.8519 -52.8515 -52.8426
   -51.7862 -51.7831 -51.7811 -51.7811 -51.7798 -51.7798 -51.7655 -51.7655
   -33.6555 -33.6555 -33.6553 -24.3878 -24.3805 -24.3672 -24.3663 -24.3625
   -24.3580 -24.3118 -24.3098 -24.3015 -24.2835 -24.2795 -24.2791 -24.2569
   -24.2205 -24.2016 -24.1859 -24.1796 -24.1543 -24.1448 -24.1392 -24.1288
   -23.1957 -23.1642 -23.1631 -23.1504 -23.1487 -23.1380 -23.1364 -23.1318
   -23.1266 -23.1258 -23.1254 -23.1061 -23.0889 -23.0865 -23.0692 -23.0598
   -23.0587 -23.0557 -23.0496 -23.0435 -23.0308 -23.0285 -23.0285 -23.0265
    12.7558  12.8249  14.8035  14.8696  15.3672  15.3764  15.4147  15.4166
    15.6069  15.6107  15.6874  15.7498  15.7679  15.7772  15.7842  15.8863
    16.0394  16.0719  16.7240  16.7378  16.7627  16.7809  17.2690  17.3205
    17.3769  17.4079  17.4086  17.4129  17.4596  17.5034  17.7138  17.7788
    17.7911  17.8071  18.0662  18.0821  18.0837  18.0878  18.1117  18.1342
    18.1754  18.1848  18.2270  18.2616  18.2993  18.3355  18.8910  18.9426
    19.7044  19.7067  19.7723  19.7943  19.8553  19.9373  20.0246  20.0696
    20.0791  20.1075  20.3319  20.3472  20.3580  20.4249  20.4350  20.4861
    20.4862  20.5327  20.7781  20.8168  20.8288  20.8844  21.0107  21.0181

          k = 0.0000 0.3333 0.3333 (  9867 PWs)   bands (ev):

   -67.5815 -52.8950 -52.8840 -52.8803 -52.8548 -52.8522 -52.8520 -52.8434
   -51.7860 -51.7839 -51.7824 -51.7810 -51.7792 -51.7726 -51.7726 -51.7644
   -33.6556 -33.6554 -33.6553 -24.3885 -24.3858 -24.3821 -24.3540 -24.3463
   -24.3459 -24.3203 -24.3193 -24.3113 -24.2759 -24.2716 -24.2528 -24.2349
   -24.2188 -24.2092 -24.1789 -24.1764 -24.1727 -24.1690 -24.1418 -24.1359
   -23.1968 -23.1787 -23.1687 -23.1681 -23.1548 -23.1429 -23.1404 -23.1387
   -23.1170 -23.1146 -23.1137 -23.1039 -23.1033 -23.0800 -23.0565 -23.0562
   -23.0515 -23.0495 -23.0495 -23.0472 -23.0387 -23.0375 -23.0231 -23.0150
    12.5169  13.8939  13.9491  14.6187  15.4665  15.4924  15.5251  15.5652
    15.6494  15.6583  15.6612  15.6681  15.7389  15.9136  15.9753  16.1313
    16.4446  16.5186  16.5663  16.6978  16.9281  16.9365  17.0019  17.0343
    17.0502  17.0722  17.1466  17.2035  17.2763  17.6399  17.6691  17.7561
    17.7748  17.8026  17.8249  17.9360  17.9636  18.0074  18.0413  18.0470
    18.0761  18.1846  18.3625  18.3732  18.4289  18.6285  18.7441  18.9419
    19.5554  19.6334  19.6860  19.8503  19.9066  19.9323  19.9646  20.1608
    20.2323  20.2458  20.2588  20.2985  20.3420  20.3490  20.4367  20.4391
    20.4695  20.4823  20.5739  20.5975  20.6894  20.7198  20.7663  20.7839

          k = 0.0000 0.3333-0.5000 (  9862 PWs)   bands (ev):

   -67.5815 -52.8905 -52.8865 -52.8804 -52.8557 -52.8522 -52.8522 -52.8443
   -51.7857 -51.7826 -51.7817 -51.7815 -51.7768 -51.7768 -51.7685 -51.7685
   -33.6555 -33.6553 -33.6553 -24.3860 -24.3657 -24.3654 -24.3631 -24.3505
   -24.3328 -24.3142 -24.3124 -24.3018 -24.2771 -24.2664 -24.2583 -24.2432
   -24.2358 -24.2104 -24.1988 -24.1811 -24.1749 -24.1704 -24.1462 -24.1385
   -23.1816 -23.1664 -23.1575 -23.1547 -23.1539 -23.1452 -23.1406 -23.1405
   -23.1324 -23.1312 -23.1214 -23.1158 -23.1078 -23.0782 -23.0562 -23.0550
   -23.0525 -23.0498 -23.0453 -23.0418 -23.0340 -23.0334 -23.0254 -23.0251
    13.1115  13.1868  14.2484  14.3202  15.6259  15.6634  15.6799  15.7539
    15.7658  15.7722  15.7804  15.8565  15.8706  15.9106  16.0763  16.1286
    16.1329  16.1592  16.7675  16.7825  16.9299  16.9606  16.9943  17.0103
    17.0172  17.0458  17.1207  17.1794  17.4171  17.4198  17.5650  17.6308
    17.6512  17.6559  17.7870  17.8021  17.9740  17.9979  18.0539  18.0612
    18.0627  18.0716  18.0804  18.1087  18.1897  18.1931  18.9694  18.9798
    19.6797  19.7345  19.9375  19.9388  20.0555  20.0944  20.1036  20.1046
    20.1160  20.1172  20.1493  20.1787  20.1990  20.2036  20.3271  20.4213
    20.4893  20.6166  20.6267  20.6542  20.6691  20.7006  20.7075  20.7190

          k = 0.0000-0.5000-0.5000 (  9844 PWs)   bands (ev):

   -67.5815 -52.8853 -52.8853 -52.8845 -52.8568 -52.8523 -52.8523 -52.8452
   -51.7853 -51.7820 -51.7820 -51.7820 -51.7727 -51.7726 -51.7726 -51.7726
   -33.6556 -33.6553 -33.6553 -24.3849 -24.3649 -24.3649 -24.3515 -24.3438
   -24.3155 -24.3155 -24.3155 -24.3042 -24.2762 -24.2504 -24.2504 -24.2326
   -24.2264 -24.2129 -24.2105 -24.2067 -24.2067 -24.1624 -24.1471 -24.1471
   -23.1657 -23.1657 -23.1589 -23.1580 -23.1464 -23.1464 -23.1453 -23.1453
   -23.1366 -23.1365 -23.1314 -23.1311 -23.1083 -23.0603 -23.0498 -23.0498
   -23.0494 -23.0494 -23.0416 -23.0416 -23.0411 -23.0410 -23.0248 -23.0245
    13.5820  13.7059  13.7059  13.7346  15.8126  15.8126  15.8200  15.8368
    15.8624  15.8721  15.8889  15.8889  16.1003  16.1015  16.1015  16.1016
    16.5113  16.5113  16.5306  16.6225  16.8006  16.8006  16.8171  16.8252
    16.9948  16.9948  17.0345  17.1289  17.3386  17.4273  17.4273  17.4399
    17.5264  17.5264  17.5871  17.5922  17.8798  17.9352  17.9632  17.9632
    17.9802  18.0201  18.0201  18.0254  18.5778  18.5778  18.6922  18.6922
    19.7350  19.8337  19.8595  19.8595  20.1135  20.1557  20.2146  20.2296
    20.2296  20.2585  20.2585  20.2979  20.2979  20.3076  20.3173  20.3230
    20.3611  20.3611  20.4037  20.4113  20.5057  20.5787  20.6541  20.6574

          k = 0.1667 0.1667 0.1667 (  9861 PWs)   bands (ev):

   -67.5815 -52.9033 -52.8808 -52.8808 -52.8520 -52.8520 -52.8517 -52.8410
   -51.7874 -51.7865 -51.7865 -51.7817 -51.7735 -51.7735 -51.7735 -51.7596
   -33.6555 -33.6555 -33.6555 -24.4185 -24.4078 -24.4078 -24.3871 -24.3867
   -24.3867 -24.3076 -24.3038 -24.3038 -24.2608 -24.2597 -24.2597 -24.2095
   -24.2095 -24.1910 -24.1566 -24.1566 -24.1427 -24.1417 -24.1377 -24.1377
   -23.2279 -23.2028 -23.2028 -23.1966 -23.1966 -23.1718 -23.1184 -23.1175
   -23.1175 -23.0784 -23.0784 -23.0716 -23.0716 -23.0710 -23.0657 -23.0587
   -23.0570 -23.0520 -23.0520 -23.0474 -23.0474 -23.0441 -23.0063 -23.0063
    11.8203  14.5524  14.6640  14.6640  14.9846  15.0186  15.0186  15.1786
    15.2482  15.2482  15.3325  15.3325  15.8588  15.9203  15.9203  16.3893
    16.6731  16.6731  16.7779  16.8154  16.8154  16.9133  16.9133  16.9329
    17.0200  17.0454  17.0454  17.2789  17.3867  17.3867  17.7468  17.7468
    17.7845  18.0604  18.1771  18.1771  18.2080  18.2080  18.6188  18.6188
    18.6562  18.6790  18.8280  18.8280  18.8843  19.0637  19.0637  19.1051
    19.1445  19.2453  19.2453  19.7445  19.7445  19.7866  20.1993  20.1993
    20.2510  20.2834  20.2834  20.3095  20.4092  20.4092  20.4985  20.4985
    20.5005  20.5368  20.5368  20.7332  20.7332  20.7947  20.9463  21.0495

          k = 0.1667 0.1667 0.3333 (  9885 PWs)   bands (ev):

   -67.5815 -52.8981 -52.8838 -52.8793 -52.8535 -52.8524 -52.8520 -52.8425
   -51.7864 -51.7841 -51.7838 -51.7823 -51.7763 -51.7763 -51.7706 -51.7625
   -33.6555 -33.6555 -33.6554 -24.3949 -24.3904 -24.3857 -24.3772 -24.3516
   -24.3489 -24.3299 -24.3237 -24.3012 -24.2751 -24.2657 -24.2467 -24.2391
   -24.2134 -24.1974 -24.1904 -24.1685 -24.1541 -24.1528 -24.1424 -24.1417
   -23.2068 -23.1819 -23.1795 -23.1722 -23.1695 -23.1485 -23.1371 -23.1263
   -23.1262 -23.0998 -23.0885 -23.0851 -23.0800 -23.0768 -23.0763 -23.0683
   -23.0566 -23.0564 -23.0506 -23.0486 -23.0417 -23.0376 -23.0186 -23.0136
    12.2483  13.7506  14.7671  14.8448  14.9964  15.0267  15.3456  15.4168
    15.4627  15.5267  15.5400  15.6018  15.8869  15.9497  16.0119  16.2036
    16.3112  16.5593  16.6948  16.8462  16.8887  16.8919  16.9228  16.9542
    17.0594  17.0777  17.2780  17.2935  17.5134  17.5515  17.5536  17.6910
    17.8682  17.9303  17.9542  18.0398  18.0751  18.1225  18.1402  18.1553
    18.2166  18.2340  18.5063  18.5222  18.5811  18.6261  18.8459  18.8542
    19.4057  19.4772  19.5077  19.8810  19.8887  20.0232  20.0953  20.1130
    20.1195  20.1987  20.2971  20.3602  20.3640  20.4558  20.4708  20.4735
    20.5906  20.6302  20.6437  20.6609  20.6934  20.8531  20.8779  20.9918

          k = 0.1667 0.1667-0.5000 (  9914 PWs)   bands (ev):

   -67.5816 -52.8933 -52.8876 -52.8785 -52.8543 -52.8525 -52.8520 -52.8434
   -51.7859 -51.7828 -51.7802 -51.7800 -51.7800 -51.7800 -51.7666 -51.7665
   -33.6555 -33.6555 -33.6554 -24.3804 -24.3767 -24.3602 -24.3599 -24.3575
   -24.3558 -24.3098 -24.3073 -24.3032 -24.2856 -24.2736 -24.2686 -24.2572
   -24.2246 -24.2066 -24.1952 -24.1788 -24.1591 -24.1534 -24.1438 -24.1431
   -23.1909 -23.1652 -23.1616 -23.1538 -23.1496 -23.1382 -23.1345 -23.1286
   -23.1285 -23.1251 -23.1224 -23.1013 -23.0852 -23.0817 -23.0808 -23.0749
   -23.0582 -23.0503 -23.0481 -23.0419 -23.0351 -23.0338 -23.0255 -23.0252
    12.8818  12.9532  14.8782  14.9854  14.9895  14.9946  15.6614  15.7171
    15.7264  15.7432  15.7852  15.7935  15.8141  15.8222  15.8538  15.9411
    16.0852  16.1136  16.7519  16.7672  16.8118  16.8349  17.2350  17.2824
    17.2870  17.2953  17.3438  17.3465  17.3661  17.4000  17.7096  17.7537
    17.7677  17.7916  17.9402  17.9836  18.0072  18.0135  18.0362  18.0383
    18.0515  18.0597  18.0781  18.0945  18.1200  18.1283  18.9535  18.9723
    19.7993  19.8100  19.8239  19.8802  19.8865  19.9017  20.0510  20.0541
    20.0764  20.0788  20.1039  20.1288  20.3574  20.4759  20.4759  20.5603
    20.6233  20.6793  20.7395  20.7879  20.7912  20.8514  20.9035  20.9104

          k = 0.1667 0.3333 0.3333 (  9877 PWs)   bands (ev):

   -67.5815 -52.8935 -52.8831 -52.8804 -52.8548 -52.8530 -52.8529 -52.8441
   -51.7854 -51.7831 -51.7822 -51.7810 -51.7782 -51.7734 -51.7733 -51.7654
   -33.6555 -33.6554 -33.6554 -24.3778 -24.3759 -24.3730 -24.3485 -24.3412
   -24.3384 -24.3203 -24.3151 -24.3104 -24.2771 -24.2660 -24.2520 -24.2415
   -24.2211 -24.2093 -24.1921 -24.1840 -24.1748 -24.1708 -24.1577 -24.1496
   -23.1893 -23.1735 -23.1677 -23.1604 -23.1513 -23.1435 -23.1402 -23.1371
   -23.1197 -23.1084 -23.1048 -23.1023 -23.0964 -23.0821 -23.0665 -23.0623
   -23.0585 -23.0555 -23.0545 -23.0502 -23.0378 -23.0338 -23.0270 -23.0204
    12.6536  14.0093  14.0670  14.7534  15.0589  15.3509  15.3862  15.6609
    15.6887  15.7692  15.7732  15.8153  16.0359  16.0502  16.1413  16.1795
    16.4930  16.5216  16.5419  16.7245  16.7894  16.9512  16.9652  17.0552
    17.0987  17.1034  17.1584  17.1734  17.2998  17.5565  17.6169  17.6354
    17.6640  17.6923  17.7148  17.8419  17.8704  17.9018  17.9020  17.9345
    17.9937  18.0509  18.1159  18.1700  18.1800  18.4054  18.4612  18.9541
    19.7029  19.7286  19.7890  19.9851  20.0367  20.0576  20.0727  20.1181
    20.2240  20.2492  20.2730  20.3595  20.4045  20.4118  20.4236  20.4435
    20.4927  20.5169  20.5435  20.7081  20.7204  20.7759  20.7891  20.9257

          k = 0.1667 0.3333-0.5000 (  9832 PWs)   bands (ev):

   -67.5815 -52.8891 -52.8855 -52.8801 -52.8557 -52.8532 -52.8530 -52.8451
   -51.7851 -51.7822 -51.7809 -51.7806 -51.7773 -51.7772 -51.7694 -51.7694
   -33.6554 -33.6553 -33.6553 -24.3746 -24.3575 -24.3545 -24.3534 -24.3439
   -24.3296 -24.3098 -24.3079 -24.3003 -24.2736 -24.2650 -24.2563 -24.2473
   -24.2381 -24.2177 -24.2070 -24.1863 -24.1845 -24.1768 -24.1596 -24.1539
   -23.1775 -23.1659 -23.1539 -23.1511 -23.1509 -23.1386 -23.1358 -23.1357
   -23.1288 -23.1245 -23.1154 -23.1090 -23.1041 -23.0822 -23.0655 -23.0649
   -23.0570 -23.0514 -23.0493 -23.0442 -23.0395 -23.0391 -23.0288 -23.0272
    13.2399  13.3173  14.3778  14.4512  15.2634  15.3201  15.8501  15.8532
    15.8763  15.8800  15.8985  15.9328  16.0269  16.0624  16.1076  16.1718
    16.2051  16.2239  16.8043  16.8214  16.9334  16.9588  16.9838  16.9844
    16.9946  17.0330  17.1636  17.1955  17.3743  17.3752  17.4830  17.4931
    17.5418  17.5833  17.7369  17.7539  17.8081  17.8445  17.8622  17.8798
    17.8890  17.8930  17.9244  17.9555  17.9972  18.0004  18.7470  18.7499
    19.8815  19.9269  20.0070  20.0073  20.0718  20.1040  20.1267  20.1308
    20.1478  20.1793  20.1967  20.2222  20.3509  20.4411  20.4825  20.5146
    20.5481  20.6364  20.6486  20.6696  20.6951  20.7029  20.7515  20.7708

          k = 0.1667-0.5000-0.5000 (  9844 PWs)   bands (ev):

   -67.5815 -52.8844 -52.8844 -52.8837 -52.8568 -52.8533 -52.8533 -52.8461
   -51.7845 -51.7814 -51.7814 -51.7814 -51.7734 -51.7733 -51.7733 -51.7733
   -33.6554 -33.6553 -33.6553 -24.3723 -24.3518 -24.3518 -24.3440 -24.3355
   -24.3110 -24.3084 -24.3084 -24.2999 -24.2760 -24.2499 -24.2499 -24.2367
   -24.2301 -24.2227 -24.2196 -24.2142 -24.2142 -24.1769 -24.1622 -24.1622
   -23.1641 -23.1641 -23.1573 -23.1509 -23.1395 -23.1395 -23.1356 -23.1356
   -23.1285 -23.1283 -23.1265 -23.1262 -23.1096 -23.0655 -23.0563 -23.0563
   -23.0544 -23.0544 -23.0470 -23.0470 -23.0467 -23.0467 -23.0314 -23.0311
    13.7109  13.8391  13.8391  13.8669  15.6171  15.6934  15.7046  15.7046
    15.9300  15.9300  15.9362  16.0213  16.2850  16.2898  16.2988  16.2988
    16.5335  16.5335  16.5529  16.6392  16.7881  16.7881  16.8064  16.8336
    17.0222  17.0222  17.0613  17.1413  17.2334  17.3087  17.3087  17.3132
    17.4861  17.4861  17.5439  17.5504  17.7331  17.7854  17.7905  17.7905
    17.8065  17.8567  17.8567  17.8725  18.2993  18.2993  18.3538  18.3599
    20.0058  20.0857  20.0857  20.1166  20.1678  20.1981  20.2837  20.2837
    20.2939  20.3501  20.3501  20.3670  20.3670  20.3677  20.4492  20.4561
    20.4932  20.5079  20.5079  20.5086  20.5627  20.5785  20.6447  20.6447

          k = 0.3333 0.3333 0.3333 (  9871 PWs)   bands (ev):

   -67.5815 -52.8895 -52.8812 -52.8812 -52.8548 -52.8548 -52.8544 -52.8459
   -51.7841 -51.7812 -51.7810 -51.7810 -51.7757 -51.7754 -51.7754 -51.7681
   -33.6554 -33.6554 -33.6554 -24.3547 -24.3547 -24.3523 -24.3325 -24.3252
   -24.3252 -24.3192 -24.3027 -24.3027 -24.2690 -24.2690 -24.2624 -24.2369
   -24.2369 -24.2119 -24.2040 -24.2040 -24.1920 -24.1876 -24.1876 -24.1751
   -23.1710 -23.1654 -23.1654 -23.1401 -23.1401 -23.1381 -23.1349 -23.1349
   -23.1175 -23.1142 -23.0965 -23.0965 -23.0858 -23.0792 -23.0792 -23.0741
   -23.0695 -23.0672 -23.0672 -23.0537 -23.0388 -23.0388 -23.0342 -23.0342
    13.0466  14.2977  14.3885  14.3885  15.0998  15.1681  15.1681  15.9342
    15.9342  15.9597  16.0356  16.0356  16.1928  16.3145  16.3593  16.3593
    16.4627  16.5052  16.5052  16.5847  16.8029  16.8029  17.0448  17.0448
    17.0734  17.2214  17.2562  17.2562  17.2910  17.2910  17.4652  17.4652
    17.5055  17.5471  17.5471  17.5551  17.5655  17.6391  17.6391  17.6662
    17.7428  17.7428  17.7984  17.7984  17.9918  17.9918  17.9974  18.6828
    19.9473  19.9473  20.0174  20.0870  20.2344  20.2344  20.2404  20.2910
    20.2910  20.3739  20.3926  20.3926  20.4335  20.4656  20.4656  20.5346
    20.5346  20.6835  20.6835  20.7298  20.7298  20.7444  20.7541  20.9404

          k = 0.3333 0.3333-0.5000 (  9848 PWs)   bands (ev):

   -67.5815 -52.8857 -52.8834 -52.8801 -52.8559 -52.8551 -52.8547 -52.8469
   -51.7836 -51.7811 -51.7789 -51.7783 -51.7782 -51.7782 -51.7719 -51.7718
   -33.6554 -33.6553 -33.6553 -24.3481 -24.3432 -24.3282 -24.3270 -24.3218
   -24.3218 -24.3009 -24.2987 -24.2944 -24.2657 -24.2604 -24.2571 -24.2501
   -24.2443 -24.2349 -24.2275 -24.2064 -24.2032 -24.1948 -24.1903 -24.1902
   -23.1664 -23.1620 -23.1527 -23.1396 -23.1353 -23.1284 -23.1263 -23.1258
   -23.1172 -23.1143 -23.1068 -23.0988 -23.0898 -23.0865 -23.0830 -23.0806
   -23.0652 -23.0634 -23.0583 -23.0550 -23.0497 -23.0496 -23.0406 -23.0376
    13.6039  13.6873  14.6969  14.7939  14.8091  14.8247  15.6976  15.7244
    16.1581  16.1772  16.1986  16.2094  16.2286  16.2400  16.2637  16.3333
    16.4064  16.4222  16.8961  16.9050  16.9098  16.9103  16.9277  16.9305
    16.9358  16.9750  17.2249  17.2493  17.2710  17.2829  17.3037  17.3147
    17.4171  17.4256  17.4323  17.5014  17.5016  17.5018  17.5834  17.5935
    17.6347  17.6470  17.6521  17.6633  17.6651  17.6883  18.2429  18.2456
    20.1566  20.1847  20.1893  20.1921  20.2699  20.2712  20.2879  20.3314
    20.3335  20.3663  20.4081  20.4515  20.4534  20.5022  20.5792  20.6012
    20.6376  20.6673  20.6732  20.7026  20.7099  20.7267  20.7384  20.7556

          k = 0.3333-0.5000-0.5000 (  9872 PWs)   bands (ev):

   -67.5815 -52.8822 -52.8822 -52.8819 -52.8568 -52.8555 -52.8555 -52.8478
   -51.7825 -51.7797 -51.7797 -51.7797 -51.7755 -51.7750 -51.7750 -51.7750
   -33.6553 -33.6553 -33.6553 -24.3388 -24.3253 -24.3158 -24.3158 -24.3133
   -24.3002 -24.2898 -24.2894 -24.2894 -24.2741 -24.2497 -24.2497 -24.2481
   -24.2481 -24.2415 -24.2408 -24.2340 -24.2340 -24.2134 -24.2021 -24.2021
   -23.1572 -23.1572 -23.1540 -23.1330 -23.1212 -23.1212 -23.1173 -23.1142
   -23.1142 -23.1128 -23.1080 -23.1063 -23.1061 -23.0790 -23.0718 -23.0718
   -23.0674 -23.0674 -23.0632 -23.0629 -23.0616 -23.0616 -23.0503 -23.0501
    14.0750  14.2157  14.2157  14.2403  15.2030  15.3149  15.3149  15.3191
    16.2556  16.2556  16.2592  16.3269  16.5916  16.5916  16.6129  16.6317
    16.6391  16.6391  16.6409  16.6789  16.7441  16.7441  16.7642  16.8400
    17.0891  17.1043  17.1043  17.1477  17.1578  17.1578  17.1607  17.1953
    17.3583  17.3583  17.3815  17.4012  17.4119  17.4119  17.4295  17.4413
    17.4928  17.5325  17.5325  17.5572  17.7671  17.7671  17.7738  17.7777
    20.2475  20.2855  20.2995  20.3559  20.3559  20.4445  20.4445  20.4736
    20.4789  20.4789  20.5516  20.5616  20.5702  20.6144  20.6144  20.6172
    20.6256  20.6271  20.6389  20.6479  20.6479  20.7068  20.7128  20.7128

          k =-0.5000-0.5000-0.5000 (  9952 PWs)   bands (ev):

   -67.5816 -52.8809 -52.8809 -52.8809 -52.8568 -52.8568 -52.8568 -52.8488
   -51.7807 -51.7774 -51.7774 -51.7774 -51.7773 -51.7773 -51.7773 -51.7773
   -33.6554 -33.6554 -33.6554 -24.3108 -24.3108 -24.2894 -24.2851 -24.2851
   -24.2780 -24.2780 -24.2780 -24.2637 -24.2633 -24.2633 -24.2633 -24.2594
   -24.2594 -24.2594 -24.2577 -24.2577 -24.2577 -24.2355 -24.2355 -24.2355
   -23.1521 -23.1521 -23.1521 -23.1176 -23.1176 -23.1050 -23.1050 -23.1050
   -23.0960 -23.0960 -23.0960 -23.0859 -23.0859 -23.0859 -23.0792 -23.0792
   -23.0777 -23.0777 -23.0772 -23.0772 -23.0772 -23.0761 -23.0761 -23.0761
    14.5109  14.7386  14.7386  14.7386  14.7728  14.7798  14.7798  14.7798
    16.6502  16.6502  16.6502  16.6754  16.6754  16.6754  16.6891  16.6891
    16.6891  16.6950  16.6950  16.7045  16.7045  16.7045  16.8345  16.8345
    17.1521  17.1521  17.1521  17.1945  17.2599  17.2599  17.2599  17.2626
    17.2649  17.2649  17.2649  17.2766  17.2766  17.2766  17.2778  17.2778
    17.2778  17.2882  17.2882  17.2940  17.2940  17.2940  17.3178  17.3178
    20.3262  20.3262  20.4975  20.4975  20.4975  20.5535  20.5535  20.5535
    20.5581  20.5581  20.5581  20.5663  20.5663  20.5699  20.5699  20.5699
    20.7145  20.7145  20.7145  20.9399  20.9399  20.9420  20.9420  20.9420

     the Fermi energy is    19.3149 ev

!    total energy              =   -4052.51596028 Ry
     total all-electron energy =    -34071.802672 Ry
     estimated scf accuracy    <       0.00000968 Ry
     smearing contrib. (-TS)   =       0.00379532 Ry
     internal energy E=F+TS    =   -4052.51975560 Ry

     The total energy is F=E-TS. E is the sum of the following terms:
     one-electron contribution =    -954.86867935 Ry
     hartree contribution      =     615.10375700 Ry
     xc contribution           =    -362.21669975 Ry
     ewald contribution        =   -2154.05682674 Ry
     one-center paw contrib.   =   -1196.48130677 Ry

     total magnetization       =     1.43 Bohr mag/cell
     absolute magnetization    =    16.93 Bohr mag/cell

     convergence has been achieved in  44 iterations


     Computing stress (Cartesian axis) and pressure

          total   stress  (Ry/bohr**3)                   (kbar)     P=       -0.09
  -0.00000059   0.00000000   0.00000000           -0.09        0.00        0.00
   0.00000000  -0.00000059   0.00000000            0.00       -0.09        0.00
   0.00000000   0.00000000  -0.00000059            0.00        0.00       -0.09


     Writing all to output data dir ./tmp/fecr_fe01cr15_s0.00.save/ :
     XML data file, charge density, pseudopotentials, collected wavefunctions
 
     init_run     :     31.83s CPU     20.75s WALL (       1 calls)
     electrons    :   1590.46s CPU   1045.44s WALL (       1 calls)
     stress       :      6.20s CPU      6.06s WALL (       1 calls)

     Called by init_run:
     wfcinit      :      1.89s CPU      2.38s WALL (       1 calls)
     potinit      :     28.90s CPU     17.24s WALL (       1 calls)
     hinit0       :      0.79s CPU      0.78s WALL (       1 calls)

     Called by electrons:
     c_bands      :    231.78s CPU    232.31s WALL (      44 calls)
     sum_band     :     29.60s CPU     29.66s WALL (      44 calls)
     v_of_rho     :      2.43s CPU      2.06s WALL (      45 calls)
     newd         :      2.27s CPU      2.28s WALL (      45 calls)
                                        2.28s GPU  (      45 calls)
     PAW_pot      :   1348.28s CPU    791.29s WALL (      45 calls)
     mix_rho      :      2.86s CPU      2.92s WALL (      44 calls)

     Called by c_bands:
     init_us_2    :      2.25s CPU      2.15s WALL (    3600 calls)
     cegterg      :    205.61s CPU    206.20s WALL (    1761 calls)

     Called by *egterg:
     cdiaghg      :     67.17s CPU     67.68s WALL (    7889 calls)
                                       67.64s GPU  (    7889 calls)
     h_psi        :     67.04s CPU     67.39s WALL (    7929 calls)
                                       67.32s GPU  (    7929 calls)
     s_psi        :      4.00s CPU      4.05s WALL (    7929 calls)
     g_psi        :      0.03s CPU      0.35s WALL (    6128 calls)
                                        0.33s GPU  (    6128 calls)

     Called by h_psi:
     h_psi:calbec :      0.32s CPU     14.58s WALL (    7929 calls)
                                       14.55s GPU  (    7929 calls)
     vloc_psi     :     34.55s CPU     34.53s WALL (    7929 calls)
                                       34.51s GPU  (    7929 calls)
     add_vuspsi   :      3.91s CPU     17.81s WALL (    7929 calls)
                                       17.78s GPU  (    7929 calls)

     General routines
     calbec       :      0.41s CPU      0.44s WALL (    9729 calls)
     fft          :      1.11s CPU      1.21s WALL (    1144 calls)
                                        0.12s GPU  (    1054 calls)
     ffts         :      0.18s CPU      0.21s WALL (    1055 calls)
                                        0.05s GPU  (     965 calls)
     fftw         :      2.00s CPU     32.85s WALL (   93600 calls)
                                       32.63s GPU  (   93600 calls)
     interpolate  :      1.33s CPU      1.34s WALL (      90 calls)
 
     Parallel routines
 
     PWSCF        :  27m10.58s CPU  17m54.57s WALL

 
   This run was terminated on:  18:57:55  24May2026            

=------------------------------------------------------------------------------=
   JOB DONE.
=------------------------------------------------------------------------------=
Warning: ieee_invalid is signaling
Warning: ieee_divide_by_zero is signaling
Warning: ieee_inexact is signaling
FORTRAN STOP
