--------------------------------------------------------------------------
WARNING: Open MPI tried to bind a process but failed.  This is a
warning only; your job will continue, though performance may
be degraded.

  Local host:        b1c76c1b6516
  Application name:  /workspace/q-e-qe-7.3.1/bin/pw.x
  Error message:     failed to bind memory
  Location:          ../../../../../orte/mca/rtc/hwloc/rtc_hwloc.c:447

--------------------------------------------------------------------------

     Program PWSCF v.7.3.1 starts on 12May2026 at  1: 1:17 

     This program is part of the open-source Quantum ESPRESSO suite
     for quantum simulation of materials; please cite
         "P. Giannozzi et al., J. Phys.:Condens. Matter 21 395502 (2009);
         "P. Giannozzi et al., J. Phys.:Condens. Matter 29 465901 (2017);
         "P. Giannozzi et al., J. Chem. Phys. 152 154105 (2020);
          URL http://www.quantum-espresso.org", 
     in publications or presentations arising from this work. More details at
     http://www.quantum-espresso.org/quote

     Parallel version (MPI & OpenMP), running on       8 processor cores
     Number of MPI processes:                 1
     Threads/MPI process:                     8

     MPI processes distributed on     1 nodes
     122251 MiB available memory on the printing compute node when the environment starts
 
     Reading input from inputs/fecr_fe14cr02_vcr.in

     Current dimensions of program PWSCF are:
     Max number of different atomic species (ntypx) = 10
     Max number of k-points (npk) =  40000
     Max angular momentum in pseudopotentials (lmaxx) =  4
     file Fe.pbe-spn-kjpaw_psl.1.0.0.UPF: wavefunction(s)  3P 3D renormalized
     file Cr.pbe-spn-kjpaw_psl.1.0.0.UPF: wavefunction(s)  3S 3P 3D renormalized
     Found identity + ( -0.5000 -0.5000 -0.5000) symmetry
     This is a supercell, fractional translations are disabled
     Message from routine setup:
     using ibrav=0 with symmetry is DISCOURAGED, use correct ibrav instead
 
     Subspace diagonalization in iterative solution of the eigenvalue problem:
     a serial algorithm will be used

 
     G-vector sticks info
     --------------------
     sticks:   dense  smooth     PW     G-vecs:    dense   smooth      PW
     Sum        4373    2185    613               216199    76405   11513
 
     Using Slab Decomposition
 


     bravais-lattice index     =            0
     lattice parameter (alat)  =      10.6742  a.u.
     unit-cell volume          =    1216.1987 (a.u.)^3
     number of atoms/cell      =           16
     number of atomic types    =            2
     number of electrons       =       252.00
     number of Kohn-Sham states=          151
     kinetic-energy cutoff     =      60.0000  Ry
     charge density cutoff     =     480.0000  Ry
     scf convergence threshold =      1.0E-08
     mixing beta               =       0.3000
     number of iterations used =            8  plain     mixing
     energy convergence thresh.=      1.0E-04
     force convergence thresh. =      1.0E-04
     press convergence thresh. =      5.0E-01
     Exchange-correlation= SLA  PW   PBX  PBC
                           (   1   4   3   4   0   0   0)
     nstep                     =           50


     GPU acceleration is ACTIVE.  1 visible GPUs per MPI rank


     celldm(1)=  10.674188  celldm(2)=   0.000000  celldm(3)=   0.000000
     celldm(4)=   0.000000  celldm(5)=   0.000000  celldm(6)=   0.000000

     crystal axes: (cart. coord. in units of alat)
               a(1) = (   1.000000   0.000000   0.000000 )  
               a(2) = (   0.000000   1.000000   0.000000 )  
               a(3) = (   0.000000   0.000000   1.000000 )  

     reciprocal axes: (cart. coord. in units 2 pi/alat)
               b(1) = (  1.000000  0.000000  0.000000 )  
               b(2) = (  0.000000  1.000000  0.000000 )  
               b(3) = (  0.000000  0.000000  1.000000 )  


     PseudoPot. # 1 for Fe read from file:
     ./pseudo/Fe.pbe-spn-kjpaw_psl.1.0.0.UPF
     MD5 check sum: fc81f059e5c5069939230b1155715ae8
     Pseudo is Projector augmented-wave + core cor, Zval = 16.0
     Generated using &quot;atomic&quot; code by A. Dal Corso  v.6.3
     Shape of augmentation charge: PSQ
     Using radial grid of 1191 points,  6 beta functions with: 
                l(1) =   0
                l(2) =   0
                l(3) =   1
                l(4) =   1
                l(5) =   2
                l(6) =   2
     Q(r) pseudized with 0 coefficients 


     PseudoPot. # 2 for Cr read from file:
     ./pseudo/Cr.pbe-spn-kjpaw_psl.1.0.0.UPF
     MD5 check sum: 198f1a2427a48552563eee314eba32ba
     Pseudo is Projector augmented-wave + core cor, Zval = 14.0
     Generated using &quot;atomic&quot; code by A. Dal Corso  v.6.3
     Shape of augmentation charge: PSQ
     Using radial grid of 1183 points,  6 beta functions with: 
                l(1) =   0
                l(2) =   0
                l(3) =   1
                l(4) =   1
                l(5) =   2
                l(6) =   2
     Q(r) pseudized with 0 coefficients 


     atomic species   valence    mass     pseudopotential
     Fe               16.00    55.84500     Fe( 1.00)
     Cr               14.00    51.99600     Cr( 1.00)

     Starting magnetic structure 
     atomic species   magnetization
     Fe              0.500
     Cr              0.300

     48 Sym. Ops., with inversion, found



   Cartesian axes

     site n.     atom                  positions (alat units)
         1        Cr     tau(   1) = (   0.0000000   0.0000000   0.0000000  )
         2        Fe     tau(   2) = (   0.2500000   0.2500000   0.2500000  )
         3        Fe     tau(   3) = (   0.0000000   0.0000000   0.5000000  )
         4        Fe     tau(   4) = (   0.2500000   0.2500000   0.7500000  )
         5        Fe     tau(   5) = (   0.0000000   0.5000000   0.0000000  )
         6        Fe     tau(   6) = (   0.2500000   0.7500000   0.2500000  )
         7        Fe     tau(   7) = (   0.0000000   0.5000000   0.5000000  )
         8        Fe     tau(   8) = (   0.2500000   0.7500000   0.7500000  )
         9        Fe     tau(   9) = (   0.5000000   0.0000000   0.0000000  )
        10        Fe     tau(  10) = (   0.7500000   0.2500000   0.2500000  )
        11        Fe     tau(  11) = (   0.5000000   0.0000000   0.5000000  )
        12        Fe     tau(  12) = (   0.7500000   0.2500000   0.7500000  )
        13        Fe     tau(  13) = (   0.5000000   0.5000000   0.0000000  )
        14        Fe     tau(  14) = (   0.7500000   0.7500000   0.2500000  )
        15        Cr     tau(  15) = (   0.5000000   0.5000000   0.5000000  )
        16        Fe     tau(  16) = (   0.7500000   0.7500000   0.7500000  )

     number of k points=    20  Marzari-Vanderbilt smearing, width (Ry)=  0.0200
                       cart. coord. in units 2pi/alat
        k(    1) = (   0.0000000   0.0000000   0.0000000), wk =   0.0046296
        k(    2) = (   0.0000000   0.0000000   0.1666667), wk =   0.0277778
        k(    3) = (   0.0000000   0.0000000   0.3333333), wk =   0.0277778
        k(    4) = (   0.0000000   0.0000000  -0.5000000), wk =   0.0138889
        k(    5) = (   0.0000000   0.1666667   0.1666667), wk =   0.0555556
        k(    6) = (   0.0000000   0.1666667   0.3333333), wk =   0.1111111
        k(    7) = (   0.0000000   0.1666667  -0.5000000), wk =   0.0555556
        k(    8) = (   0.0000000   0.3333333   0.3333333), wk =   0.0555556
        k(    9) = (   0.0000000   0.3333333  -0.5000000), wk =   0.0555556
        k(   10) = (   0.0000000  -0.5000000  -0.5000000), wk =   0.0138889
        k(   11) = (   0.1666667   0.1666667   0.1666667), wk =   0.0370370
        k(   12) = (   0.1666667   0.1666667   0.3333333), wk =   0.1111111
        k(   13) = (   0.1666667   0.1666667  -0.5000000), wk =   0.0555556
        k(   14) = (   0.1666667   0.3333333   0.3333333), wk =   0.1111111
        k(   15) = (   0.1666667   0.3333333  -0.5000000), wk =   0.1111111
        k(   16) = (   0.1666667  -0.5000000  -0.5000000), wk =   0.0277778
        k(   17) = (   0.3333333   0.3333333   0.3333333), wk =   0.0370370
        k(   18) = (   0.3333333   0.3333333  -0.5000000), wk =   0.0555556
        k(   19) = (   0.3333333  -0.5000000  -0.5000000), wk =   0.0277778
        k(   20) = (  -0.5000000  -0.5000000  -0.5000000), wk =   0.0046296

     Dense  grid:   216199 G-vectors     FFT dimensions: (  75,  75,  75)

     Smooth grid:    76405 G-vectors     FFT dimensions: (  54,  54,  54)

     Estimated max dynamical RAM per process >       1.86 GB

     Check: negative core charge=   -0.000002
     Generating pointlists ...
     new r_m :   0.1786 (alat units)  1.9066 (a.u.) for type    1
     new r_m :   0.1786 (alat units)  1.9066 (a.u.) for type    2

     Initial potential from superposition of free atoms

     starting charge     251.9923, renormalised to     252.0000
     Starting wfcs are  160 randomized atomic wfcs
     Checking if some PAW data can be deallocated... 

     total cpu time spent up to now is       13.4 secs

     Self-consistent Calculation

     iteration #  1     ecut=    60.00 Ry     beta= 0.30
     Davidson diagonalization with overlap
     ethr =  1.00E-02,  avg # of iterations =  3.0

     total cpu time spent up to now is       32.4 secs

     total energy              =   -5100.52209625 Ry
     estimated scf accuracy    <      11.63285184 Ry

     total magnetization       =    50.00 Bohr mag/cell
     absolute magnetization    =    51.35 Bohr mag/cell

     iteration #  2     ecut=    60.00 Ry     beta= 0.30
     Davidson diagonalization with overlap
     ethr =  4.62E-03,  avg # of iterations =  7.1

     total cpu time spent up to now is       53.7 secs

     total energy              =   -5101.88144168 Ry
     estimated scf accuracy    <      30.07621869 Ry

     total magnetization       =    38.84 Bohr mag/cell
     absolute magnetization    =    40.39 Bohr mag/cell

     iteration #  3     ecut=    60.00 Ry     beta= 0.30
     Davidson diagonalization with overlap
     ethr =  4.62E-03,  avg # of iterations =  3.0

     total cpu time spent up to now is       71.6 secs

     total energy              =   -5102.71904186 Ry
     estimated scf accuracy    <       8.57347388 Ry

     total magnetization       =    43.09 Bohr mag/cell
     absolute magnetization    =    44.28 Bohr mag/cell

     iteration #  4     ecut=    60.00 Ry     beta= 0.30
     Davidson diagonalization with overlap
     ethr =  3.40E-03,  avg # of iterations =  5.6

     negative rho (up, down):  0.000E+00 2.276E-03

     total cpu time spent up to now is       92.3 secs

     total energy              =   -5106.25117776 Ry
     estimated scf accuracy    <      10.21042895 Ry

     total magnetization       =    47.70 Bohr mag/cell
     absolute magnetization    =    48.57 Bohr mag/cell

     iteration #  5     ecut=    60.00 Ry     beta= 0.30
     Davidson diagonalization with overlap
     ethr =  3.40E-03,  avg # of iterations =  5.0

     negative rho (up, down):  0.000E+00 2.680E-03

     total cpu time spent up to now is      111.9 secs

     total energy              =   -5106.62465121 Ry
     estimated scf accuracy    <      25.77608523 Ry

     total magnetization       =    40.39 Bohr mag/cell
     absolute magnetization    =    41.76 Bohr mag/cell

     iteration #  6     ecut=    60.00 Ry     beta= 0.30
     Davidson diagonalization with overlap
     ethr =  3.40E-03,  avg # of iterations =  1.1

     negative rho (up, down):  0.000E+00 2.555E-03

     total cpu time spent up to now is      128.2 secs

     total energy              =   -5106.40815634 Ry
     estimated scf accuracy    <      19.44693396 Ry

     total magnetization       =    38.20 Bohr mag/cell
     absolute magnetization    =    39.74 Bohr mag/cell

     iteration #  7     ecut=    60.00 Ry     beta= 0.30
     Davidson diagonalization with overlap
     ethr =  3.40E-03,  avg # of iterations =  1.0

     negative rho (up, down):  0.000E+00 2.385E-03

     total cpu time spent up to now is      144.3 secs

     total energy              =   -5106.10483891 Ry
     estimated scf accuracy    <      13.09540278 Ry

     total magnetization       =    36.75 Bohr mag/cell
     absolute magnetization    =    38.41 Bohr mag/cell

     iteration #  8     ecut=    60.00 Ry     beta= 0.30
     Davidson diagonalization with overlap
     ethr =  3.40E-03,  avg # of iterations =  1.0

     negative rho (up, down):  0.000E+00 2.056E-03

     total cpu time spent up to now is      160.3 secs

     total energy              =   -5105.98194780 Ry
     estimated scf accuracy    <       6.34488996 Ry

     total magnetization       =    34.51 Bohr mag/cell
     absolute magnetization    =    36.43 Bohr mag/cell

     iteration #  9     ecut=    60.00 Ry     beta= 0.30
     Davidson diagonalization with overlap
     ethr =  2.52E-03,  avg # of iterations =  1.0

     negative rho (up, down):  0.000E+00 1.886E-03

     total cpu time spent up to now is      176.3 secs

     total energy              =   -5106.05405996 Ry
     estimated scf accuracy    <       2.16577695 Ry

     total magnetization       =    31.92 Bohr mag/cell
     absolute magnetization    =    34.13 Bohr mag/cell

     iteration # 10     ecut=    60.00 Ry     beta= 0.30
     Davidson diagonalization with overlap
     ethr =  8.59E-04,  avg # of iterations =  1.2

     negative rho (up, down):  0.000E+00 6.097E-04

     total cpu time spent up to now is      192.2 secs

     total energy              =   -5105.85350399 Ry
     estimated scf accuracy    <       2.38334072 Ry

     total magnetization       =    31.72 Bohr mag/cell
     absolute magnetization    =    33.85 Bohr mag/cell

     iteration # 11     ecut=    60.00 Ry     beta= 0.30
     Davidson diagonalization with overlap
     ethr =  8.59E-04,  avg # of iterations =  1.9

     total cpu time spent up to now is      209.2 secs

     total energy              =   -5106.01756532 Ry
     estimated scf accuracy    <       0.23451024 Ry

     total magnetization       =    28.15 Bohr mag/cell
     absolute magnetization    =    31.07 Bohr mag/cell

     iteration # 12     ecut=    60.00 Ry     beta= 0.30
     Davidson diagonalization with overlap
     ethr =  9.31E-05,  avg # of iterations =  5.2

     total cpu time spent up to now is      229.0 secs

     total energy              =   -5106.02660167 Ry
     estimated scf accuracy    <       0.52591133 Ry

     total magnetization       =    28.61 Bohr mag/cell
     absolute magnetization    =    31.43 Bohr mag/cell

     iteration # 13     ecut=    60.00 Ry     beta= 0.30
     Davidson diagonalization with overlap
     ethr =  9.31E-05,  avg # of iterations =  1.6

     total cpu time spent up to now is      245.8 secs

     total energy              =   -5106.02755270 Ry
     estimated scf accuracy    <       0.31213540 Ry

     total magnetization       =    28.38 Bohr mag/cell
     absolute magnetization    =    31.63 Bohr mag/cell

     iteration # 14     ecut=    60.00 Ry     beta= 0.30
     Davidson diagonalization with overlap
     ethr =  9.31E-05,  avg # of iterations =  1.0

     total cpu time spent up to now is      261.9 secs

     total energy              =   -5106.02445424 Ry
     estimated scf accuracy    <       0.17932980 Ry

     total magnetization       =    28.58 Bohr mag/cell
     absolute magnetization    =    31.88 Bohr mag/cell

     iteration # 15     ecut=    60.00 Ry     beta= 0.30
     Davidson diagonalization with overlap
     ethr =  7.12E-05,  avg # of iterations =  1.2

     total cpu time spent up to now is      277.8 secs

     total energy              =   -5106.02703680 Ry
     estimated scf accuracy    <       0.05448915 Ry

     total magnetization       =    28.76 Bohr mag/cell
     absolute magnetization    =    32.02 Bohr mag/cell

     iteration # 16     ecut=    60.00 Ry     beta= 0.30
     Davidson diagonalization with overlap
     ethr =  2.16E-05,  avg # of iterations =  4.0

     total cpu time spent up to now is      296.3 secs

     total energy              =   -5106.03008115 Ry
     estimated scf accuracy    <       0.01904606 Ry

     total magnetization       =    28.65 Bohr mag/cell
     absolute magnetization    =    31.97 Bohr mag/cell

     iteration # 17     ecut=    60.00 Ry     beta= 0.30
     Davidson diagonalization with overlap
     ethr =  7.56E-06,  avg # of iterations =  3.3

     total cpu time spent up to now is      314.5 secs

     total energy              =   -5106.03389336 Ry
     estimated scf accuracy    <       0.01536802 Ry

     total magnetization       =    28.55 Bohr mag/cell
     absolute magnetization    =    32.13 Bohr mag/cell

     iteration # 18     ecut=    60.00 Ry     beta= 0.30
     Davidson diagonalization with overlap
     ethr =  6.10E-06,  avg # of iterations =  5.4

     total cpu time spent up to now is      334.6 secs

     total energy              =   -5106.03975176 Ry
     estimated scf accuracy    <       0.00669842 Ry

     total magnetization       =    28.00 Bohr mag/cell
     absolute magnetization    =    32.58 Bohr mag/cell

     iteration # 19     ecut=    60.00 Ry     beta= 0.30
     Davidson diagonalization with overlap
     ethr =  2.66E-06,  avg # of iterations =  6.0

     total cpu time spent up to now is      355.5 secs

     total energy              =   -5106.04198563 Ry
     estimated scf accuracy    <       0.00218760 Ry

     total magnetization       =    27.80 Bohr mag/cell
     absolute magnetization    =    33.04 Bohr mag/cell

     iteration # 20     ecut=    60.00 Ry     beta= 0.30
     Davidson diagonalization with overlap
     ethr =  8.68E-07,  avg # of iterations =  7.4

     total cpu time spent up to now is      379.5 secs

     total energy              =   -5106.04588651 Ry
     estimated scf accuracy    <       0.00153105 Ry

     total magnetization       =    27.63 Bohr mag/cell
     absolute magnetization    =    33.89 Bohr mag/cell

     iteration # 21     ecut=    60.00 Ry     beta= 0.30
     Davidson diagonalization with overlap
     ethr =  6.08E-07,  avg # of iterations =  5.2

     total cpu time spent up to now is      399.9 secs

     total energy              =   -5106.04689189 Ry
     estimated scf accuracy    <       0.00080160 Ry

     total magnetization       =    27.52 Bohr mag/cell
     absolute magnetization    =    34.33 Bohr mag/cell

     iteration # 22     ecut=    60.00 Ry     beta= 0.30
     Davidson diagonalization with overlap
     ethr =  3.18E-07,  avg # of iterations =  5.4

     total cpu time spent up to now is      421.5 secs

     total energy              =   -5106.04800754 Ry
     estimated scf accuracy    <       0.00065472 Ry

     total magnetization       =    27.47 Bohr mag/cell
     absolute magnetization    =    34.81 Bohr mag/cell

     iteration # 23     ecut=    60.00 Ry     beta= 0.30
     Davidson diagonalization with overlap
     ethr =  2.60E-07,  avg # of iterations =  3.5

     total cpu time spent up to now is      440.1 secs

     total energy              =   -5106.04823194 Ry
     estimated scf accuracy    <       0.00020457 Ry

     total magnetization       =    27.40 Bohr mag/cell
     absolute magnetization    =    34.97 Bohr mag/cell

     iteration # 24     ecut=    60.00 Ry     beta= 0.30
     Davidson diagonalization with overlap
     ethr =  8.12E-08,  avg # of iterations =  5.0

     total cpu time spent up to now is      460.9 secs

     total energy              =   -5106.04831894 Ry
     estimated scf accuracy    <       0.00028182 Ry

     total magnetization       =    27.40 Bohr mag/cell
     absolute magnetization    =    35.07 Bohr mag/cell

     iteration # 25     ecut=    60.00 Ry     beta= 0.30
     Davidson diagonalization with overlap
     ethr =  8.12E-08,  avg # of iterations =  3.2

     total cpu time spent up to now is      479.0 secs

     total energy              =   -5106.04830555 Ry
     estimated scf accuracy    <       0.00008294 Ry

     total magnetization       =    27.37 Bohr mag/cell
     absolute magnetization    =    35.08 Bohr mag/cell

     iteration # 26     ecut=    60.00 Ry     beta= 0.30
     Davidson diagonalization with overlap
     ethr =  3.29E-08,  avg # of iterations =  5.4

     total cpu time spent up to now is      499.8 secs

     total energy              =   -5106.04837539 Ry
     estimated scf accuracy    <       0.00005310 Ry

     total magnetization       =    27.36 Bohr mag/cell
     absolute magnetization    =    35.19 Bohr mag/cell

     iteration # 27     ecut=    60.00 Ry     beta= 0.30
     Davidson diagonalization with overlap
     ethr =  2.11E-08,  avg # of iterations =  2.5

     total cpu time spent up to now is      517.5 secs

     total energy              =   -5106.04838181 Ry
     estimated scf accuracy    <       0.00004274 Ry

     total magnetization       =    27.37 Bohr mag/cell
     absolute magnetization    =    35.17 Bohr mag/cell

     iteration # 28     ecut=    60.00 Ry     beta= 0.30
     Davidson diagonalization with overlap
     ethr =  1.70E-08,  avg # of iterations =  1.9

     total cpu time spent up to now is      534.7 secs

     total energy              =   -5106.04838892 Ry
     estimated scf accuracy    <       0.00000754 Ry

     total magnetization       =    27.36 Bohr mag/cell
     absolute magnetization    =    35.19 Bohr mag/cell

     iteration # 29     ecut=    60.00 Ry     beta= 0.30
     Davidson diagonalization with overlap
     ethr =  2.99E-09,  avg # of iterations =  4.9

     total cpu time spent up to now is      556.1 secs

     total energy              =   -5106.04839329 Ry
     estimated scf accuracy    <       0.00000854 Ry

     total magnetization       =    27.36 Bohr mag/cell
     absolute magnetization    =    35.19 Bohr mag/cell

     iteration # 30     ecut=    60.00 Ry     beta= 0.30
     Davidson diagonalization with overlap
     ethr =  2.99E-09,  avg # of iterations =  3.2

     total cpu time spent up to now is      574.3 secs

     total energy              =   -5106.04839389 Ry
     estimated scf accuracy    <       0.00000191 Ry

     total magnetization       =    27.36 Bohr mag/cell
     absolute magnetization    =    35.20 Bohr mag/cell

     iteration # 31     ecut=    60.00 Ry     beta= 0.30
     Davidson diagonalization with overlap
     ethr =  7.57E-10,  avg # of iterations =  5.0

     total cpu time spent up to now is      594.9 secs

     total energy              =   -5106.04839496 Ry
     estimated scf accuracy    <       0.00000036 Ry

     total magnetization       =    27.36 Bohr mag/cell
     absolute magnetization    =    35.19 Bohr mag/cell

     iteration # 32     ecut=    60.00 Ry     beta= 0.30
     Davidson diagonalization with overlap
     ethr =  1.45E-10,  avg # of iterations =  5.4

     total cpu time spent up to now is      616.2 secs

     total energy              =   -5106.04839534 Ry
     estimated scf accuracy    <       0.00000011 Ry

     total magnetization       =    27.36 Bohr mag/cell
     absolute magnetization    =    35.19 Bohr mag/cell

     iteration # 33     ecut=    60.00 Ry     beta= 0.30
     Davidson diagonalization with overlap
     ethr =  4.49E-11,  avg # of iterations =  4.0

     total cpu time spent up to now is      635.1 secs

     total energy              =   -5106.04839541 Ry
     estimated scf accuracy    <       0.00000006 Ry

     total magnetization       =    27.36 Bohr mag/cell
     absolute magnetization    =    35.19 Bohr mag/cell

     iteration # 34     ecut=    60.00 Ry     beta= 0.30
     Davidson diagonalization with overlap
     ethr =  2.37E-11,  avg # of iterations =  5.2

     total cpu time spent up to now is      655.6 secs

     total energy              =   -5106.04839544 Ry
     estimated scf accuracy    <       0.00000006 Ry

     total magnetization       =    27.36 Bohr mag/cell
     absolute magnetization    =    35.19 Bohr mag/cell

     iteration # 35     ecut=    60.00 Ry     beta= 0.30
     Davidson diagonalization with overlap
     ethr =  2.37E-11,  avg # of iterations =  5.2

     total cpu time spent up to now is      676.3 secs

     total energy              =   -5106.04839547 Ry
     estimated scf accuracy    <       0.00000008 Ry

     total magnetization       =    27.36 Bohr mag/cell
     absolute magnetization    =    35.19 Bohr mag/cell

     iteration # 36     ecut=    60.00 Ry     beta= 0.30
     Davidson diagonalization with overlap
     ethr =  2.37E-11,  avg # of iterations =  3.6

     total cpu time spent up to now is      695.6 secs

     total energy              =   -5106.04839548 Ry
     estimated scf accuracy    <       0.00000001 Ry

     total magnetization       =    27.36 Bohr mag/cell
     absolute magnetization    =    35.19 Bohr mag/cell

     iteration # 37     ecut=    60.00 Ry     beta= 0.30
     Davidson diagonalization with overlap
     ethr =  5.16E-12,  avg # of iterations =  5.4
 
     Magnetic moment per site  (integrated on atomic sphere of radius R)
     atom   1 (R=0.179)  charge= 12.0893  magn= -1.4280
     atom   2 (R=0.179)  charge= 14.4051  magn=  2.1371
     atom   3 (R=0.179)  charge= 14.3910  magn=  2.3235
     atom   4 (R=0.179)  charge= 14.4051  magn=  2.1371
     atom   5 (R=0.179)  charge= 14.3910  magn=  2.3235
     atom   6 (R=0.179)  charge= 14.4051  magn=  2.1371
     atom   7 (R=0.179)  charge= 14.3910  magn=  2.3236
     atom   8 (R=0.179)  charge= 14.4051  magn=  2.1371
     atom   9 (R=0.179)  charge= 14.3910  magn=  2.3235
     atom  10 (R=0.179)  charge= 14.4051  magn=  2.1371
     atom  11 (R=0.179)  charge= 14.3910  magn=  2.3236
     atom  12 (R=0.179)  charge= 14.4051  magn=  2.1371
     atom  13 (R=0.179)  charge= 14.3910  magn=  2.3236
     atom  14 (R=0.179)  charge= 14.4051  magn=  2.1371
     atom  15 (R=0.179)  charge= 12.0887  magn= -1.4272
     atom  16 (R=0.179)  charge= 14.4051  magn=  2.1371

     total cpu time spent up to now is      717.1 secs

     End of self-consistent calculation

 ------ SPIN UP ------------


          k = 0.0000 0.0000 0.0000 (  9627 PWs)   bands (ev):

   -69.3871 -69.3284 -69.3284 -69.3284 -69.3224 -69.3224 -69.3224 -69.3172
   -69.3133 -69.3133 -69.3075 -69.3075 -69.3050 -69.2626 -52.4171 -52.4155
   -35.5805 -35.5805 -35.5805 -35.5690 -35.5690 -35.5690 -35.5072 -35.4681
   -35.4681 -35.4681 -35.4629 -35.4629 -35.4629 -35.4305 -35.3985 -35.3985
   -35.3985 -35.3630 -35.3630 -35.3630 -35.3582 -35.3582 -35.3200 -35.3200
   -35.3200 -35.2978 -35.2978 -35.2978 -35.2859 -35.2859 -35.2859 -35.2809
   -35.2809 -35.2809 -35.2797 -35.2797 -35.1598 -35.1598 -35.1598 -35.1425
   -35.1425 -35.1425 -23.7699 -23.7699 -23.7699 -23.7592 -23.7592 -23.7592
    10.1973  13.7396  13.7396  13.7396  13.7664  13.7664  13.8273  13.8482
    13.8482  13.9899  13.9899  13.9899  14.0443  14.0443  14.2153  15.2842
    15.2842  15.2842  15.4593  15.4593  15.4593  15.4917  15.4917  15.4917
    15.5796  15.5796  15.5796  15.6294  15.6294  15.6294  15.7191  16.0415
    16.0415  16.5595  16.5595  16.5595  16.7994  16.7994  16.7994  16.8338
    16.8338  16.8338  16.8656  16.8656  16.8656  17.2660  17.2660  17.2660
    17.4734  17.6220  17.6220  17.6495  17.6495  17.6591  17.7684  17.7684
    17.8114  17.8114  17.8114  17.8205  17.8205  17.8205  17.8692  17.8692
    17.8727  18.2711  18.2711  18.9534  18.9534  18.9534  18.9558  18.9558
    18.9558  18.9878  18.9878  18.9878  19.1473  19.1473  19.1473  19.1708
    19.1708  19.1708  19.1745  19.3520  19.3520  19.3520  19.9970

          k = 0.0000 0.0000 0.1667 (  9542 PWs)   bands (ev):

   -69.3848 -69.3385 -69.3278 -69.3278 -69.3229 -69.3229 -69.3221 -69.3173
   -69.3128 -69.3080 -69.3074 -69.3068 -69.3015 -69.2642 -52.4171 -52.4156
   -35.5757 -35.5743 -35.5743 -35.5607 -35.5607 -35.5599 -35.5110 -35.4742
   -35.4742 -35.4683 -35.4641 -35.4641 -35.4599 -35.4324 -35.4220 -35.4057
   -35.4057 -35.3956 -35.3956 -35.3915 -35.3605 -35.3230 -35.3174 -35.3136
   -35.3136 -35.2860 -35.2853 -35.2834 -35.2834 -35.2828 -35.2810 -35.2810
   -35.2802 -35.2678 -35.2616 -35.2616 -35.1687 -35.1649 -35.1649 -35.1487
   -35.1487 -35.1481 -23.7689 -23.7689 -23.7689 -23.7602 -23.7600 -23.7600
    10.3441  13.2546  13.7830  13.7830  13.8122  13.8339  13.8448  13.8980
    13.9120  13.9199  14.0367  14.0367  14.0948  14.1941  14.4627  15.2438
    15.3016  15.3016  15.3297  15.3474  15.3498  15.3498  15.4313  15.5205
    15.5205  15.5592  15.6025  15.6025  15.7301  15.8062  15.8062  16.0104
    16.3279  16.5540  16.5540  16.5967  16.6006  16.6167  16.6167  16.6976
    16.6976  16.9297  16.9308  17.0376  17.0443  17.0443  17.3905  17.4557
    17.4557  17.4689  17.4930  17.4930  17.5529  17.6031  17.6422  17.7355
    17.7749  17.7749  17.7914  17.8173  17.8188  17.8229  17.8392  17.9078
    17.9172  18.1535  18.3013  18.3182  18.3182  18.7549  18.8932  18.8932
    18.9174  18.9174  18.9398  19.0172  19.0653  19.1087  19.1251  19.1585
    19.1585  19.3063  19.3063  19.7047  19.8212  19.8212  20.1624

          k = 0.0000 0.0000 0.3333 (  9542 PWs)   bands (ev):

   -69.3776 -69.3533 -69.3268 -69.3268 -69.3239 -69.3239 -69.3212 -69.3184
   -69.3118 -69.3089 -69.3071 -69.3063 -69.2893 -69.2695 -52.4169 -52.4157
   -35.5619 -35.5566 -35.5566 -35.5361 -35.5361 -35.5335 -35.5233 -35.5007
   -35.5007 -35.4683 -35.4535 -35.4533 -35.4533 -35.4507 -35.4507 -35.4495
   -35.4437 -35.4374 -35.4169 -35.4169 -35.3431 -35.3110 -35.3104 -35.3104
   -35.3002 -35.2909 -35.2901 -35.2901 -35.2843 -35.2811 -35.2758 -35.2392
   -35.2392 -35.2275 -35.2275 -35.2259 -35.1932 -35.1798 -35.1798 -35.1666
   -35.1666 -35.1641 -23.7674 -23.7670 -23.7670 -23.7622 -23.7618 -23.7618
    10.7751  12.3257  13.8990  13.8990  13.9364  13.9660  14.0866  14.0946
    14.0946  14.0997  14.1423  14.1564  14.1761  14.2103  14.4950  14.7925
    14.9955  15.0510  15.2874  15.2874  15.3059  15.3059  15.5321  15.6565
    15.6565  15.6832  15.6832  15.7421  15.7574  16.1101  16.1530  16.1530
    16.1966  16.3012  16.3012  16.4791  16.5404  16.5404  16.6405  16.6405
    16.7212  16.7424  16.7424  16.7592  16.7674  17.1074  17.1551  17.1746
    17.3163  17.3163  17.3523  17.4224  17.4575  17.4575  17.5551  17.7289
    17.7500  17.7500  17.7737  17.8296  17.8361  17.8457  17.8518  17.8548
    17.8548  17.9870  18.2677  18.2707  18.4070  18.6299  18.6299  18.6739
    18.7108  18.7984  18.8617  18.9267  18.9695  18.9695  19.2784  19.2784
    19.4455  19.4455  19.4826  19.8880  19.8880  20.0848  20.1715

          k = 0.0000 0.0000-0.5000 (  9530 PWs)   bands (ev):

   -69.3670 -69.3670 -69.3252 -69.3252 -69.3252 -69.3252 -69.3198 -69.3198
   -69.3102 -69.3102 -69.3067 -69.3067 -69.2781 -69.2781 -52.4169 -52.4158
   -35.5424 -35.5424 -35.5306 -35.5306 -35.5306 -35.5306 -35.4979 -35.4979
   -35.4979 -35.4979 -35.4931 -35.4930 -35.4640 -35.4639 -35.4450 -35.4450
   -35.4367 -35.4367 -35.4367 -35.4367 -35.3208 -35.3206 -35.3013 -35.3013
   -35.3001 -35.3001 -35.3001 -35.3001 -35.2826 -35.2826 -35.2308 -35.2307
   -35.2046 -35.2046 -35.2046 -35.2046 -35.1941 -35.1941 -35.1941 -35.1941
   -35.1903 -35.1902 -23.7651 -23.7647 -23.7646 -23.7646 -23.7642 -23.7642
    11.4570  11.4571  14.0357  14.0357  14.0357  14.0357  14.0871  14.0871
    14.1172  14.1173  14.3185  14.3185  14.4000  14.4000  14.5714  14.5714
    14.5767  14.5768  15.2866  15.2866  15.2866  15.2866  15.8240  15.8241
    15.9107  15.9107  15.9108  15.9108  16.0725  16.0726  16.0773  16.0773
    16.0774  16.0774  16.1070  16.1071  16.5147  16.5147  16.5147  16.5147
    16.5151  16.5152  16.8392  16.8392  16.8392  16.8392  16.9127  16.9128
    17.1366  17.1366  17.3963  17.3964  17.5609  17.5609  17.5609  17.5609
    17.5978  17.5979  17.8384  17.8384  17.8509  17.8510  17.8633  17.8633
    18.2469  18.2469  18.2470  18.2470  18.5706  18.5708  18.6096  18.6096
    18.6384  18.6385  18.6435  18.6435  19.1287  19.1287  19.1288  19.1288
    19.7215  19.7215  19.7217  19.7217  19.8587  19.8590  20.2557

          k = 0.0000 0.1667 0.1667 (  9537 PWs)   bands (ev):

   -69.3824 -69.3399 -69.3348 -69.3274 -69.3242 -69.3225 -69.3225 -69.3176
   -69.3092 -69.3076 -69.3071 -69.3021 -69.3013 -69.2659 -52.4170 -52.4156
   -35.5739 -35.5703 -35.5682 -35.5547 -35.5531 -35.5447 -35.5170 -35.4796
   -35.4789 -35.4747 -35.4637 -35.4611 -35.4541 -35.4501 -35.4335 -35.4214
   -35.4187 -35.4002 -35.3955 -35.3698 -35.3673 -35.3428 -35.3340 -35.3073
   -35.3041 -35.2935 -35.2935 -35.2849 -35.2842 -35.2777 -35.2770 -35.2738
   -35.2606 -35.2531 -35.2452 -35.2368 -35.1862 -35.1697 -35.1607 -35.1586
   -35.1539 -35.1479 -23.7696 -23.7682 -23.7670 -23.7619 -23.7606 -23.7596
    10.4891  13.2817  13.3834  13.7436  13.8870  13.8901  13.9076  13.9167
    13.9648  13.9801  13.9838  14.0946  14.2006  14.4894  14.5064  15.1855
    15.2291  15.2328  15.2881  15.3293  15.3385  15.3773  15.4299  15.4905
    15.5287  15.5529  15.6064  15.6246  15.7684  15.7734  15.8196  16.1399
    16.2511  16.4279  16.4587  16.4842  16.5388  16.5883  16.7036  16.7661
    16.8591  16.9305  16.9792  16.9851  17.0204  17.0235  17.1566  17.2858
    17.3848  17.3870  17.4355  17.4749  17.5078  17.5860  17.6192  17.6197
    17.6695  17.6937  17.7682  17.7730  17.8026  17.8373  17.8565  18.0345
    18.1226  18.1229  18.1975  18.2485  18.3689  18.4265  18.4273  18.4836
    18.6040  18.7714  18.9660  19.0241  19.0319  19.0881  19.1412  19.2193
    19.4627  19.4724  19.6446  19.8422  20.0567  20.0867  20.2102

          k = 0.0000 0.1667 0.3333 (  9555 PWs)   bands (ev):

   -69.3757 -69.3523 -69.3342 -69.3273 -69.3263 -69.3236 -69.3216 -69.3187
   -69.3084 -69.3077 -69.3056 -69.3027 -69.2897 -69.2710 -52.4169 -52.4157
   -35.5651 -35.5558 -35.5516 -35.5324 -35.5320 -35.5308 -35.5127 -35.5008
   -35.4998 -35.4798 -35.4755 -35.4600 -35.4589 -35.4557 -35.4542 -35.4379
   -35.4350 -35.4209 -35.4108 -35.3947 -35.3547 -35.3345 -35.3158 -35.3099
   -35.3075 -35.3072 -35.2964 -35.2922 -35.2907 -35.2688 -35.2672 -35.2413
   -35.2358 -35.2218 -35.2172 -35.2128 -35.2033 -35.1836 -35.1780 -35.1688
   -35.1680 -35.1570 -23.7690 -23.7666 -23.7650 -23.7645 -23.7622 -23.7604
    10.9136  12.4307  13.5103  13.7198  14.0052  14.0492  14.0995  14.1553
    14.1713  14.1809  14.1863  14.2228  14.2655  14.4842  14.5474  14.8290
    14.9855  15.0303  15.3427  15.3470  15.3498  15.3587  15.3933  15.5123
    15.5898  15.6176  15.6717  15.7435  15.8418  16.0451  16.0797  16.1240
    16.1251  16.2721  16.3054  16.4102  16.4256  16.4955  16.5270  16.5524
    16.6107  16.6753  16.8274  16.8622  16.9924  17.0918  17.0956  17.1694
    17.2003  17.2167  17.2616  17.2954  17.3453  17.4607  17.5212  17.6418
    17.6911  17.7240  17.7483  17.8002  17.8318  17.8562  17.8637  17.8781
    17.9673  18.0344  18.1260  18.1680  18.2504  18.3262  18.3683  18.4703
    18.5527  18.5671  18.8432  18.9587  19.1054  19.2220  19.2509  19.3989
    19.4785  19.5778  19.7118  19.8590  19.8681  20.3845  20.4881

          k = 0.0000 0.1667-0.5000 (  9550 PWs)   bands (ev):

   -69.3653 -69.3653 -69.3310 -69.3310 -69.3249 -69.3249 -69.3201 -69.3201
   -69.3080 -69.3080 -69.3040 -69.3040 -69.2790 -69.2790 -52.4169 -52.4158
   -35.5500 -35.5500 -35.5306 -35.5305 -35.5277 -35.5276 -35.4994 -35.4994
   -35.4964 -35.4964 -35.4814 -35.4814 -35.4684 -35.4684 -35.4538 -35.4538
   -35.4268 -35.4268 -35.4171 -35.4170 -35.3321 -35.3320 -35.3225 -35.3225
   -35.3017 -35.3016 -35.3008 -35.3008 -35.2666 -35.2666 -35.2571 -35.2570
   -35.2063 -35.2063 -35.2062 -35.2061 -35.1922 -35.1921 -35.1862 -35.1862
   -35.1756 -35.1756 -23.7672 -23.7672 -23.7646 -23.7642 -23.7623 -23.7623
    11.5838  11.5838  13.6594  13.6594  14.1394  14.1394  14.1995  14.1996
    14.3155  14.3155  14.3831  14.3831  14.4609  14.4609  14.6082  14.6082
    14.6132  14.6133  15.3250  15.3251  15.3262  15.3262  15.7003  15.7004
    15.7543  15.7543  15.8395  15.8396  15.8729  15.8730  16.1180  16.1180
    16.1843  16.1843  16.2414  16.2414  16.3926  16.3926  16.3940  16.3941
    16.4978  16.4978  16.6121  16.6121  16.7568  16.7568  17.0772  17.0773
    17.2316  17.2317  17.3787  17.3788  17.5101  17.5102  17.5513  17.5514
    17.5979  17.5980  17.7722  17.7723  17.8379  17.8379  17.9016  17.9016
    18.0642  18.0643  18.0958  18.0958  18.1905  18.1905  18.4259  18.4259
    18.6055  18.6056  18.7648  18.7650  19.3533  19.3534  19.4064  19.4066
    19.4768  19.4768  19.6159  19.6160  20.2296  20.2297  20.5103

          k = 0.0000 0.3333 0.3333 (  9554 PWs)   bands (ev):

   -69.3698 -69.3523 -69.3429 -69.3339 -69.3253 -69.3225 -69.3225 -69.3197
   -69.3077 -69.3076 -69.3009 -69.2955 -69.2889 -69.2751 -52.4169 -52.4157
   -35.5643 -35.5502 -35.5460 -35.5384 -35.5154 -35.5134 -35.5092 -35.5062
   -35.5004 -35.4907 -35.4766 -35.4709 -35.4664 -35.4661 -35.4580 -35.4266
   -35.4136 -35.4082 -35.4053 -35.3673 -35.3631 -35.3501 -35.3446 -35.3294
   -35.3274 -35.3130 -35.3043 -35.3016 -35.2999 -35.2549 -35.2546 -35.2411
   -35.2355 -35.2295 -35.2048 -35.1948 -35.1931 -35.1887 -35.1785 -35.1758
   -35.1645 -35.1545 -23.7697 -23.7672 -23.7657 -23.7631 -23.7625 -23.7600
    11.3175  12.6610  12.7857  13.4600  14.2398  14.2868  14.2938  14.3148
    14.3249  14.3623  14.3775  14.3793  14.4176  14.5142  14.6133  14.9102
    14.9696  15.0121  15.0716  15.3618  15.3692  15.4321  15.4328  15.4973
    15.5334  15.5392  15.6203  15.7035  15.9205  15.9431  15.9705  15.9970
    16.1012  16.1115  16.1969  16.2017  16.2930  16.3693  16.3867  16.4537
    16.4839  16.5705  16.5982  16.6230  16.8026  16.9346  16.9729  17.1097
    17.2534  17.3054  17.3287  17.3895  17.4292  17.4393  17.5370  17.5867
    17.6381  17.6662  17.6664  17.6775  17.7299  17.7619  17.8005  17.8952
    17.8999  17.9287  17.9775  18.0253  18.1254  18.1766  18.2302  18.2337
    18.4349  18.6452  18.7488  19.0342  19.1570  19.3715  19.3982  19.4093
    19.4662  19.5704  19.7143  19.9237  20.3208  20.5908  20.9158

          k = 0.0000 0.3333-0.5000 (  9534 PWs)   bands (ev):

   -69.3609 -69.3609 -69.3403 -69.3403 -69.3238 -69.3238 -69.3212 -69.3212
   -69.3076 -69.3076 -69.2967 -69.2967 -69.2818 -69.2817 -52.4169 -52.4158
   -35.5577 -35.5576 -35.5332 -35.5331 -35.5212 -35.5211 -35.5039 -35.5039
   -35.4932 -35.4932 -35.4826 -35.4826 -35.4637 -35.4637 -35.4345 -35.4345
   -35.4137 -35.4136 -35.3883 -35.3882 -35.3507 -35.3505 -35.3445 -35.3445
   -35.3203 -35.3202 -35.3106 -35.3106 -35.2904 -35.2904 -35.2446 -35.2446
   -35.2135 -35.2135 -35.2106 -35.2105 -35.1879 -35.1879 -35.1721 -35.1721
   -35.1613 -35.1612 -23.7691 -23.7690 -23.7646 -23.7641 -23.7607 -23.7607
    11.9454  11.9455  13.1095  13.1095  14.3999  14.3999  14.4106  14.4106
    14.4342  14.4342  14.5152  14.5152  14.6690  14.6690  14.6994  14.6995
    14.7070  14.7071  15.3798  15.3798  15.3822  15.3822  15.4330  15.4330
    15.5332  15.5332  15.5938  15.5938  15.8255  15.8256  16.0859  16.0859
    16.1426  16.1426  16.1589  16.1589  16.2194  16.2195  16.2633  16.2633
    16.2895  16.2895  16.4690  16.4691  16.7080  16.7081  17.2455  17.2455
    17.3780  17.3780  17.3929  17.3930  17.4084  17.4084  17.5110  17.5110
    17.5744  17.5744  17.6256  17.6257  17.7654  17.7654  17.8196  17.8196
    17.8586  17.8587  18.0092  18.0092  18.0663  18.0663  18.2100  18.2101
    18.4327  18.4328  18.9595  18.9597  19.2618  19.2618  19.3808  19.3812
    19.6270  19.6270  19.7993  19.7995  20.7706  20.7706  20.8349

          k = 0.0000-0.5000-0.5000 (  9540 PWs)   bands (ev):

   -69.3570 -69.3570 -69.3460 -69.3460 -69.3225 -69.3225 -69.3225 -69.3225
   -69.3076 -69.3076 -69.2925 -69.2925 -69.2841 -69.2841 -52.4169 -52.4158
   -35.5605 -35.5605 -35.5314 -35.5313 -35.5175 -35.5174 -35.5145 -35.5145
   -35.4916 -35.4916 -35.4743 -35.4743 -35.4681 -35.4681 -35.4139 -35.4139
   -35.4064 -35.4064 -35.3648 -35.3646 -35.3596 -35.3594 -35.3550 -35.3550
   -35.3482 -35.3482 -35.3156 -35.3156 -35.3041 -35.3041 -35.2269 -35.2268
   -35.2260 -35.2260 -35.2110 -35.2109 -35.1859 -35.1859 -35.1675 -35.1675
   -35.1559 -35.1558 -23.7698 -23.7698 -23.7645 -23.7641 -23.7602 -23.7602
    12.4275  12.4275  12.5549  12.5550  14.4298  14.4298  14.5375  14.5376
    14.6088  14.6088  14.6280  14.6281  14.7429  14.7429  14.7843  14.7844
    14.9549  14.9549  15.0886  15.0886  15.3076  15.3076  15.3372  15.3372
    15.4955  15.4955  15.5658  15.5659  15.8392  15.8393  15.9831  15.9831
    15.9953  15.9953  15.9969  15.9969  16.1450  16.1450  16.1506  16.1508
    16.2182  16.2182  16.6853  16.6853  16.7595  16.7596  16.9723  16.9723
    17.3636  17.3636  17.4699  17.4699  17.5876  17.5876  17.5942  17.5943
    17.6022  17.6024  17.6240  17.6242  17.6497  17.6497  17.6842  17.6842
    17.7013  17.7013  18.0679  18.0679  18.0709  18.0709  18.1147  18.1147
    18.3139  18.3140  19.0397  19.0398  19.1815  19.1815  19.3605  19.3609
    19.7185  19.7185  19.8609  19.8612  21.1329  21.1329  21.1574

          k = 0.1667 0.1667 0.1667 (  9525 PWs)   bands (ev):

   -69.3801 -69.3391 -69.3391 -69.3307 -69.3241 -69.3241 -69.3229 -69.3181
   -69.3067 -69.3067 -69.3025 -69.3014 -69.3014 -69.2676 -52.4170 -52.4156
   -35.5684 -35.5663 -35.5663 -35.5537 -35.5358 -35.5358 -35.5231 -35.4806
   -35.4806 -35.4806 -35.4709 -35.4709 -35.4461 -35.4461 -35.4457 -35.4309
   -35.4206 -35.3971 -35.3971 -35.3736 -35.3659 -35.3659 -35.3369 -35.3051
   -35.3051 -35.2943 -35.2943 -35.2817 -35.2763 -35.2763 -35.2757 -35.2757
   -35.2549 -35.2441 -35.2236 -35.2236 -35.2018 -35.1665 -35.1665 -35.1610
   -35.1610 -35.1495 -23.7689 -23.7689 -23.7657 -23.7633 -23.7602 -23.7602
    10.6324  13.3639  13.3639  13.5211  13.8429  13.8429  13.8778  14.0067
    14.0067  14.0483  14.0581  14.0581  14.5468  14.5550  14.5550  15.0919
    15.1752  15.2477  15.2477  15.3335  15.3867  15.3867  15.4007  15.4007
    15.5814  15.5814  15.6285  15.6955  15.6955  15.7048  15.8999  16.1267
    16.1267  16.3572  16.3572  16.4659  16.4659  16.5990  16.8012  16.8041
    16.8041  16.8975  16.9018  16.9364  17.0052  17.0052  17.0248  17.0248
    17.2407  17.4869  17.4869  17.5576  17.5576  17.5637  17.5919  17.6445
    17.6445  17.6736  17.7069  17.7069  17.8235  17.8235  17.8311  17.8542
    17.8542  18.0367  18.1181  18.1181  18.1836  18.1836  18.3912  18.6970
    18.6970  18.7314  18.9324  19.1411  19.1411  19.1587  19.1587  19.2921
    19.3069  19.3069  19.7191  19.7191  20.2740  20.3515  20.3515

          k = 0.1667 0.1667 0.3333 (  9527 PWs)   bands (ev):

   -69.3737 -69.3513 -69.3363 -69.3301 -69.3280 -69.3257 -69.3223 -69.3192
   -69.3055 -69.3048 -69.3031 -69.3020 -69.2901 -69.2723 -52.4169 -52.4157
   -35.5622 -35.5539 -35.5491 -35.5365 -35.5354 -35.5134 -35.5068 -35.5030
   -35.4956 -35.4846 -35.4803 -35.4676 -35.4598 -35.4586 -35.4462 -35.4462
   -35.4239 -35.4157 -35.4108 -35.3794 -35.3776 -35.3452 -35.3299 -35.3270
   -35.3215 -35.2984 -35.2892 -35.2796 -35.2790 -35.2683 -35.2659 -35.2473
   -35.2332 -35.2326 -35.2164 -35.1981 -35.1973 -35.1830 -35.1791 -35.1742
   -35.1659 -35.1578 -23.7688 -23.7670 -23.7657 -23.7636 -23.7620 -23.7605
    11.0514  12.5380  13.5610  13.6580  13.8155  13.8563  14.1615  14.1769
    14.2018  14.2313  14.2539  14.3098  14.5591  14.5951  14.6103  14.8540
    14.9626  15.0942  15.2654  15.3325  15.3531  15.4195  15.4258  15.4671
    15.5049  15.6280  15.7224  15.8004  15.8038  15.8977  15.9881  16.0000
    16.1470  16.2008  16.2465  16.3257  16.3675  16.4291  16.4497  16.4573
    16.5481  16.5982  16.7893  16.8135  16.9176  16.9396  17.0383  17.0864
    17.1357  17.2372  17.2643  17.3984  17.4070  17.4939  17.5125  17.6297
    17.6859  17.7138  17.7373  17.7419  17.7425  17.7702  17.8766  17.8940
    17.9346  17.9354  17.9534  18.1140  18.2593  18.3221  18.3729  18.4586
    18.6001  18.6454  18.7651  18.8575  19.1170  19.2673  19.3462  19.4083
    19.4863  19.6078  19.6241  19.7220  20.0527  20.1003  20.9909

          k = 0.1667 0.1667-0.5000 (  9540 PWs)   bands (ev):

   -69.3637 -69.3637 -69.3325 -69.3325 -69.3280 -69.3280 -69.3208 -69.3208
   -69.3042 -69.3042 -69.3032 -69.3031 -69.2800 -69.2800 -52.4169 -52.4158
   -35.5510 -35.5509 -35.5330 -35.5329 -35.5234 -35.5233 -35.5044 -35.5044
   -35.4856 -35.4856 -35.4820 -35.4820 -35.4595 -35.4595 -35.4521 -35.4521
   -35.4431 -35.4430 -35.3950 -35.3949 -35.3536 -35.3534 -35.3369 -35.3369
   -35.3037 -35.3037 -35.2856 -35.2856 -35.2664 -35.2663 -35.2643 -35.2643
   -35.2108 -35.2108 -35.2042 -35.2042 -35.1919 -35.1919 -35.1781 -35.1780
   -35.1741 -35.1741 -23.7677 -23.7677 -23.7648 -23.7643 -23.7617 -23.7617
    11.7107  11.7108  13.7398  13.7399  13.8072  13.8072  14.4074  14.4074
    14.4108  14.4109  14.4535  14.4535  14.5229  14.5230  14.6201  14.6201
    14.6726  14.6726  15.3307  15.3308  15.3873  15.3874  15.6276  15.6276
    15.7063  15.7063  15.7662  15.7662  15.8187  15.8188  16.0914  16.0915
    16.1454  16.1454  16.2266  16.2266  16.2857  16.2857  16.3193  16.3194
    16.3493  16.3493  16.5623  16.5623  16.5840  16.5840  17.2047  17.2048
    17.2982  17.2983  17.3492  17.3493  17.4414  17.4414  17.5097  17.5097
    17.5708  17.5709  17.7463  17.7464  17.8173  17.8173  17.9151  17.9152
    17.9397  17.9397  18.0637  18.0637  18.3006  18.3007  18.3859  18.3859
    18.6256  18.6256  18.6657  18.6659  19.1994  19.1995  19.4536  19.4538
    19.6392  19.6395  19.7319  19.7322  19.8907  19.8910  21.3806

          k = 0.1667 0.3333 0.3333 (  9541 PWs)   bands (ev):

   -69.3680 -69.3509 -69.3432 -69.3337 -69.3300 -69.3264 -69.3232 -69.3207
   -69.3045 -69.3031 -69.3003 -69.2950 -69.2894 -69.2762 -52.4169 -52.4157
   -35.5588 -35.5455 -35.5451 -35.5388 -35.5205 -35.5121 -35.5095 -35.4974
   -35.4922 -35.4841 -35.4733 -35.4727 -35.4666 -35.4613 -35.4536 -35.4464
   -35.4248 -35.4008 -35.3961 -35.3921 -35.3653 -35.3569 -35.3560 -35.3515
   -35.3467 -35.2963 -35.2903 -35.2809 -35.2784 -35.2610 -35.2543 -35.2440
   -35.2367 -35.2313 -35.2015 -35.1948 -35.1878 -35.1848 -35.1804 -35.1789
   -35.1673 -35.1593 -23.7690 -23.7674 -23.7663 -23.7629 -23.7621 -23.7606
    11.4518  12.7764  12.8982  13.5842  13.8541  14.1434  14.1838  14.3208
    14.4056  14.4174  14.4912  14.4939  14.6137  14.6754  14.7832  14.9344
    14.9853  15.0403  15.0788  15.2348  15.4130  15.4435  15.4837  15.5068
    15.5088  15.5931  15.6972  15.6987  15.7256  15.8742  15.9221  15.9564
    15.9767  16.0497  16.0981  16.1056  16.2297  16.2342  16.2857  16.3783
    16.4061  16.4130  16.4322  16.4416  16.6926  16.7137  16.7430  17.2231
    17.2792  17.3475  17.3562  17.3896  17.5175  17.5189  17.5697  17.6106
    17.6370  17.6467  17.6680  17.7093  17.7313  17.7333  17.8228  17.8582
    17.8977  17.8978  17.9378  18.0003  18.2274  18.2594  18.3923  18.4067
    18.4897  18.6258  18.7115  18.8278  19.2444  19.2928  19.3315  19.4521
    19.5671  19.5818  19.6211  19.8414  19.8951  20.4535  20.6615

          k = 0.1667 0.3333-0.5000 (  9548 PWs)   bands (ev):

   -69.3594 -69.3594 -69.3401 -69.3401 -69.3280 -69.3280 -69.3223 -69.3223
   -69.3036 -69.3036 -69.2963 -69.2963 -69.2826 -69.2826 -52.4169 -52.4158
   -35.5537 -35.5536 -35.5300 -35.5299 -35.5207 -35.5206 -35.4995 -35.4994
   -35.4952 -35.4952 -35.4699 -35.4699 -35.4651 -35.4651 -35.4361 -35.4361
   -35.4311 -35.4310 -35.3789 -35.3788 -35.3714 -35.3713 -35.3647 -35.3646
   -35.3251 -35.3251 -35.2860 -35.2859 -35.2762 -35.2762 -35.2442 -35.2441
   -35.2140 -35.2139 -35.2091 -35.2091 -35.1893 -35.1893 -35.1732 -35.1732
   -35.1655 -35.1654 -23.7687 -23.7687 -23.7648 -23.7643 -23.7610 -23.7610
    12.0728  12.0729  13.2322  13.2322  14.0813  14.0813  14.4896  14.4896
    14.5875  14.5876  14.6158  14.6158  14.6776  14.6776  14.7386  14.7386
    14.8118  14.8118  15.3798  15.3798  15.3932  15.3932  15.4355  15.4355
    15.5303  15.5303  15.6098  15.6098  15.7947  15.7948  15.9715  15.9715
    16.0123  16.0123  16.0438  16.0438  16.0938  16.0939  16.1460  16.1460
    16.2335  16.2335  16.3138  16.3139  16.5471  16.5471  17.0023  17.0023
    17.4317  17.4318  17.4839  17.4839  17.4952  17.4952  17.5356  17.5357
    17.6015  17.6015  17.6915  17.6916  17.7594  17.7594  17.8056  17.8057
    17.9181  17.9181  18.0311  18.0311  18.1160  18.1161  18.3094  18.3094
    18.5726  18.5726  18.7852  18.7854  19.3068  19.3068  19.4089  19.4091
    19.5015  19.5018  19.7745  19.7748  20.1630  20.1631  21.2320

          k = 0.1667-0.5000-0.5000 (  9540 PWs)   bands (ev):

   -69.3555 -69.3555 -69.3456 -69.3456 -69.3273 -69.3273 -69.3232 -69.3232
   -69.3035 -69.3035 -69.2922 -69.2922 -69.2849 -69.2849 -52.4169 -52.4158
   -35.5551 -35.5550 -35.5253 -35.5252 -35.5165 -35.5164 -35.5103 -35.5103
   -35.4903 -35.4903 -35.4712 -35.4712 -35.4636 -35.4636 -35.4286 -35.4285
   -35.4103 -35.4102 -35.3893 -35.3891 -35.3808 -35.3808 -35.3556 -35.3556
   -35.3515 -35.3514 -35.2864 -35.2863 -35.2819 -35.2819 -35.2266 -35.2265
   -35.2208 -35.2208 -35.2125 -35.2124 -35.1894 -35.1894 -35.1711 -35.1711
   -35.1616 -35.1615 -23.7691 -23.7691 -23.7647 -23.7643 -23.7608 -23.7608
    12.5546  12.5546  12.6822  12.6823  14.4215  14.4215  14.4690  14.4690
    14.5207  14.5207  14.6330  14.6331  14.9179  14.9179  14.9480  14.9480
    14.9762  14.9762  15.0953  15.0954  15.2957  15.2957  15.3220  15.3221
    15.5329  15.5329  15.5695  15.5696  15.7866  15.7866  15.8168  15.8170
    15.8866  15.8866  15.9324  15.9324  16.0167  16.0168  16.1008  16.1008
    16.1086  16.1086  16.3878  16.3879  16.6659  16.6659  16.6790  16.6790
    17.4892  17.4892  17.5609  17.5609  17.6043  17.6045  17.6270  17.6271
    17.6559  17.6559  17.6834  17.6834  17.7290  17.7290  17.7911  17.7911
    17.8075  17.8076  17.9296  17.9296  18.0327  18.0327  18.2478  18.2478
    18.5790  18.5790  18.8450  18.8451  19.2804  19.2804  19.4410  19.4414
    19.4614  19.4614  19.7914  19.7917  20.5532  20.5534  20.7720

          k = 0.3333 0.3333 0.3333 (  9552 PWs)   bands (ev):

   -69.3629 -69.3470 -69.3470 -69.3347 -69.3337 -69.3337 -69.3242 -69.3222
   -69.2993 -69.2993 -69.2984 -69.2914 -69.2914 -69.2795 -52.4169 -52.4158
   -35.5485 -35.5450 -35.5335 -35.5335 -35.5132 -35.5132 -35.5116 -35.4895
   -35.4796 -35.4796 -35.4690 -35.4690 -35.4605 -35.4597 -35.4597 -35.4446
   -35.4360 -35.4360 -35.3920 -35.3866 -35.3866 -35.3800 -35.3800 -35.3691
   -35.3432 -35.3153 -35.2590 -35.2559 -35.2559 -35.2513 -35.2513 -35.2470
   -35.2470 -35.2234 -35.1969 -35.1947 -35.1947 -35.1800 -35.1800 -35.1787
   -35.1787 -35.1683 -23.7678 -23.7672 -23.7672 -23.7624 -23.7624 -23.7618
    11.8410  13.0961  13.0961  13.2827  13.9080  13.9080  14.0219  14.5291
    14.5291  14.6404  14.6949  14.6949  14.8539  14.8827  14.8827  14.9273
    15.0366  15.0734  15.0734  15.0743  15.4225  15.4225  15.4454  15.5634
    15.5634  15.6151  15.6151  15.7167  15.7339  15.7339  15.7468  15.8002
    15.8969  15.8969  15.9158  15.9158  15.9394  15.9394  16.0622  16.0622
    16.1514  16.2528  16.2528  16.2774  16.3402  16.4285  16.4285  16.9696
    17.3901  17.4457  17.4457  17.5437  17.5764  17.6015  17.6015  17.6810
    17.6810  17.7145  17.7145  17.7294  17.7783  17.7783  17.7909  17.8255
    17.9201  17.9201  18.0629  18.0629  18.3046  18.4341  18.4341  18.4639
    18.4639  18.5082  18.5835  18.9113  18.9113  19.3758  19.4675  19.4675
    19.5837  19.5837  19.5960  19.5960  19.8469  20.2504  20.2504

          k = 0.3333 0.3333-0.5000 (  9586 PWs)   bands (ev):

   -69.3553 -69.3552 -69.3410 -69.3409 -69.3345 -69.3345 -69.3239 -69.3239
   -69.2984 -69.2983 -69.2948 -69.2947 -69.2850 -69.2849 -52.4169 -52.4158
   -35.5459 -35.5459 -35.5220 -35.5219 -35.5150 -35.5149 -35.4948 -35.4948
   -35.4881 -35.4881 -35.4680 -35.4680 -35.4614 -35.4613 -35.4488 -35.4488
   -35.4238 -35.4237 -35.4135 -35.4134 -35.3980 -35.3980 -35.3638 -35.3638
   -35.3379 -35.3377 -35.2581 -35.2581 -35.2519 -35.2518 -35.2401 -35.2401
   -35.2182 -35.2181 -35.2040 -35.2040 -35.1948 -35.1948 -35.1766 -35.1765
   -35.1751 -35.1750 -23.7679 -23.7679 -23.7651 -23.7646 -23.7620 -23.7620
    12.4364  12.4364  13.5274  13.5274  13.6386  13.6386  14.4826  14.4826
    14.7121  14.7121  14.7662  14.7662  14.8192  14.8192  14.8991  14.8991
    14.9975  14.9975  15.3178  15.3179  15.4129  15.4129  15.4525  15.4525
    15.5088  15.5088  15.6318  15.6319  15.6865  15.6865  15.7482  15.7483
    15.7556  15.7557  15.8656  15.8657  15.8870  15.8870  15.9017  15.9018
    16.0382  16.0383  16.1748  16.1748  16.2466  16.2467  16.6014  16.6014
    17.5162  17.5163  17.5435  17.5435  17.5802  17.5803  17.6958  17.6958
    17.7501  17.7502  17.7609  17.7610  17.8058  17.8058  17.8109  17.8109
    17.8511  17.8511  18.1057  18.1057  18.3671  18.3671  18.4792  18.4793
    18.5472  18.5472  18.5508  18.5509  19.1220  19.1221  19.5357  19.5360
    19.5822  19.5826  19.6532  19.6534  19.8655  19.8657  20.6902

          k = 0.3333-0.5000-0.5000 (  9576 PWs)   bands (ev):

   -69.3511 -69.3511 -69.3448 -69.3447 -69.3358 -69.3358 -69.3246 -69.3246
   -69.2970 -69.2970 -69.2917 -69.2917 -69.2874 -69.2874 -52.4169 -52.4158
   -35.5428 -35.5428 -35.5108 -35.5107 -35.5087 -35.5086 -35.5010 -35.5010
   -35.4794 -35.4794 -35.4788 -35.4788 -35.4608 -35.4608 -35.4395 -35.4395
   -35.4295 -35.4294 -35.4188 -35.4188 -35.4098 -35.4097 -35.3791 -35.3791
   -35.3355 -35.3354 -35.2489 -35.2489 -35.2468 -35.2467 -35.2249 -35.2249
   -35.2165 -35.2164 -35.2085 -35.2085 -35.2006 -35.2006 -35.1811 -35.1811
   -35.1777 -35.1776 -23.7673 -23.7673 -23.7652 -23.7647 -23.7626 -23.7626
    12.9187  12.9187  13.0409  13.0409  14.0230  14.0230  14.1281  14.1281
    14.7743  14.7743  14.8779  14.8780  15.0318  15.0318  15.1091  15.1092
    15.1734  15.1734  15.2109  15.2109  15.2264  15.2264  15.3542  15.3543
    15.5720  15.5720  15.5795  15.5795  15.5940  15.5940  15.6734  15.6734
    15.7095  15.7096  15.7435  15.7437  15.7652  15.7654  15.8584  15.8584
    15.9852  15.9853  16.0363  16.0363  16.2702  16.2702  16.2824  16.2824
    17.5588  17.5588  17.6235  17.6235  17.6295  17.6297  17.6707  17.6707
    17.6758  17.6758  17.7971  17.7971  17.8637  17.8638  17.9276  17.9276
    18.0413  18.0415  18.1314  18.1314  18.2638  18.2639  18.2919  18.2919
    18.4904  18.4905  18.8307  18.8308  18.9852  18.9852  19.5161  19.5166
    19.5387  19.5387  19.6130  19.6134  20.0615  20.0618  20.3120

          k =-0.5000-0.5000-0.5000 (  9568 PWs)   bands (ev):

   -69.3443 -69.3443 -69.3443 -69.3443 -69.3443 -69.3443 -69.3254 -69.3254
   -69.2914 -69.2914 -69.2914 -69.2914 -69.2914 -69.2914 -52.4169 -52.4158
   -35.5367 -35.5366 -35.4930 -35.4930 -35.4928 -35.4928 -35.4902 -35.4902
   -35.4902 -35.4901 -35.4901 -35.4901 -35.4534 -35.4534 -35.4534 -35.4533
   -35.4533 -35.4533 -35.4095 -35.4095 -35.4095 -35.4094 -35.4094 -35.4094
   -35.3293 -35.3292 -35.2220 -35.2220 -35.2219 -35.2219 -35.2206 -35.2206
   -35.2206 -35.2205 -35.2205 -35.2205 -35.1944 -35.1944 -35.1944 -35.1943
   -35.1943 -35.1943 -23.7652 -23.7652 -23.7652 -23.7647 -23.7647 -23.7647
    13.4559  13.4559  13.4559  13.4559  13.4559  13.4559  13.7101  13.7101
    15.1157  15.1157  15.1157  15.1158  15.1158  15.1158  15.1163  15.1163
    15.1163  15.1164  15.1164  15.1164  15.3725  15.3725  15.3725  15.3725
    15.5881  15.5881  15.5881  15.5881  15.5881  15.5881  15.6228  15.6228
    15.6228  15.6229  15.6229  15.6229  15.6615  15.6616  15.7333  15.7333
    15.7335  15.7335  16.0225  16.0225  16.0225  16.0226  16.0226  16.0226
    17.6453  17.6453  17.6453  17.6454  17.6454  17.6454  17.6834  17.6834
    17.6834  17.6834  17.6834  17.6834  18.0975  18.0975  18.0977  18.0977
    18.1726  18.1726  18.1726  18.1726  18.1726  18.1726  18.5307  18.5307
    18.5307  18.5308  18.5308  18.5308  18.8087  18.8087  19.5397  19.5397
    19.5401  19.5401  19.8938  19.8938  19.8941  19.8941  19.8941

 ------ SPIN DOWN ----------


          k = 0.0000 0.0000 0.0000 (  9627 PWs)   bands (ev):

   -66.8307 -66.8069 -66.8069 -66.8069 -66.8000 -66.8000 -66.8000 -66.7943
   -66.5779 -66.5779 -66.5709 -66.5709 -66.5684 -66.5626 -53.9197 -53.9187
   -33.1220 -33.1220 -33.1220 -33.0909 -33.0390 -33.0390 -33.0390 -33.0369
   -33.0369 -33.0369 -33.0035 -32.9616 -32.9616 -32.9616 -32.8918 -32.8918
   -32.8492 -32.8492 -32.8492 -32.8096 -32.8096 -32.8096 -32.8024 -32.8024
   -32.7844 -32.7844 -32.7844 -32.6796 -32.6796 -32.6796 -32.6612 -32.6612
   -32.6612 -32.6046 -32.6046 -32.6046 -32.5465 -32.5465 -32.5465 -32.5224
   -32.5224 -32.5224 -25.2527 -25.2527 -25.2527 -25.2390 -25.2390 -25.2390
    10.2970  14.3630  14.3630  14.5458  14.5458  14.5458  14.5887  14.5977
    14.5977  14.6296  14.6296  14.6296  14.9673  15.4376  15.4376  16.3680
    16.3680  16.3680  16.5728  16.5728  16.5728  16.7624  16.7624  16.7624
    16.9782  16.9782  16.9782  17.2421  17.2421  17.7676  17.7676  17.7676
    18.0417  18.1670  18.1670  18.1670  18.2164  18.2164  18.2164  18.5464
    18.5464  18.5464  18.6202  18.6202  18.6202  18.7342  18.7342  18.7342
    19.2939  19.2939  19.2939  19.3065  19.3065  19.3065  19.4191  19.5352
    19.5352  19.5614  19.5614  19.5966  19.5966  19.5966  20.1227  20.1227
    20.1227  20.2291  20.4159  20.4159  20.4322  20.4322  20.5403  20.5403
    20.5403  20.5684  20.5684  20.5970  20.5970  20.8306  20.8947  20.8947
    20.8947  21.2222  21.2222  21.2222  21.2861  21.2861  21.2943

          k = 0.0000 0.0000 0.1667 (  9542 PWs)   bands (ev):

   -66.8292 -66.8083 -66.8061 -66.8061 -66.8006 -66.8006 -66.7995 -66.7942
   -66.5771 -66.5765 -66.5715 -66.5708 -66.5681 -66.5633 -53.9197 -53.9188
   -33.1191 -33.1164 -33.1164 -33.0915 -33.0442 -33.0442 -33.0358 -33.0287
   -33.0278 -33.0278 -33.0056 -32.9609 -32.9565 -32.9565 -32.9054 -32.9036
   -32.8686 -32.8686 -32.8460 -32.8430 -32.8430 -32.8089 -32.8058 -32.8030
   -32.7672 -32.7554 -32.7554 -32.6707 -32.6665 -32.6650 -32.6650 -32.6590
   -32.6590 -32.6004 -32.6004 -32.5965 -32.5553 -32.5503 -32.5503 -32.5292
   -32.5292 -32.5267 -25.2515 -25.2515 -25.2515 -25.2402 -25.2400 -25.2400
    10.4447  13.4987  14.4204  14.5927  14.6020  14.6020  14.6185  14.6606
    14.6606  14.6888  14.7322  15.0158  15.2378  15.4900  15.5025  16.2340
    16.3654  16.3654  16.5839  16.5839  16.6062  16.6438  16.8749  16.8749
    16.9125  17.0035  17.0035  17.0482  17.1680  17.5999  17.5999  17.7178
    18.0030  18.1543  18.1543  18.1566  18.1566  18.2131  18.2726  18.4154
    18.4154  18.4537  18.6745  18.7260  18.7260  18.7295  18.8544  18.8544
    18.8631  18.8961  18.9455  18.9455  18.9570  18.9570  19.1964  19.5106
    19.6299  19.7460  19.8406  19.8406  19.8442  19.9676  20.0685  20.0685
    20.1475  20.1936  20.3358  20.3884  20.4415  20.4431  20.5432  20.5626
    20.5869  20.5946  20.7593  20.7593  20.8231  20.8252  20.8252  20.8381
    20.9805  21.0137  21.2253  21.2349  21.2349  21.2493  21.2493

          k = 0.0000 0.0000 0.3333 (  9542 PWs)   bands (ev):

   -66.8247 -66.8129 -66.8050 -66.8050 -66.8016 -66.8016 -66.7987 -66.7955
   -66.5759 -66.5738 -66.5725 -66.5707 -66.5685 -66.5656 -53.9195 -53.9190
   -33.1111 -33.1008 -33.1008 -33.0950 -33.0592 -33.0592 -33.0289 -33.0112
   -33.0052 -33.0011 -33.0011 -32.9579 -32.9420 -32.9420 -32.9340 -32.9298
   -32.9117 -32.9117 -32.8851 -32.8851 -32.8384 -32.8151 -32.8077 -32.8040
   -32.7352 -32.7218 -32.7218 -32.6816 -32.6759 -32.6759 -32.6467 -32.6190
   -32.6190 -32.5897 -32.5897 -32.5792 -32.5777 -32.5605 -32.5605 -32.5489
   -32.5489 -32.5383 -25.2496 -25.2491 -25.2491 -25.2428 -25.2423 -25.2423
    10.8798  12.4775  14.5490  14.6567  14.7168  14.7168  14.7312  14.7312
    14.8087  14.8921  15.0209  15.1663  15.5243  15.6329  15.6956  15.8838
    16.2377  16.3997  16.3997  16.4307  16.5688  16.5688  16.8517  17.1084
    17.1237  17.1237  17.1448  17.1448  17.2533  17.4843  17.4843  17.5892
    17.6112  17.8533  17.8533  17.8710  17.9973  18.0883  18.0883  18.1718
    18.1718  18.2323  18.2323  18.2451  18.3488  18.3510  18.3510  18.7236
    18.8552  19.1127  19.1526  19.1526  19.3045  19.3617  19.3617  19.3701
    19.7398  19.8859  19.8859  20.0073  20.1034  20.1383  20.2153  20.2781
    20.2781  20.2896  20.3026  20.3370  20.3592  20.3592  20.4734  20.4933
    20.5232  20.5506  20.5617  20.5921  20.6722  20.8031  21.0181  21.0181
    21.0278  21.0856  21.1482  21.1482  21.1608  21.2531  21.2605

          k = 0.0000 0.0000-0.5000 (  9530 PWs)   bands (ev):

   -66.8191 -66.8191 -66.8031 -66.8031 -66.8031 -66.8031 -66.7972 -66.7972
   -66.5740 -66.5740 -66.5711 -66.5711 -66.5683 -66.5682 -53.9193 -53.9192
   -33.1019 -33.1019 -33.0799 -33.0799 -33.0799 -33.0799 -33.0196 -33.0196
   -32.9712 -32.9711 -32.9602 -32.9602 -32.9602 -32.9602 -32.9484 -32.9484
   -32.9183 -32.9183 -32.9183 -32.9183 -32.8271 -32.8271 -32.8057 -32.8057
   -32.7051 -32.7050 -32.6948 -32.6948 -32.6947 -32.6947 -32.6131 -32.6131
   -32.5798 -32.5798 -32.5798 -32.5798 -32.5750 -32.5750 -32.5750 -32.5750
   -32.5562 -32.5562 -25.2468 -25.2462 -25.2462 -25.2459 -25.2452 -25.2452
    11.5741  11.5741  14.6477  14.6478  14.7734  14.7734  14.7734  14.7734
    14.9655  14.9655  15.4211  15.4213  15.4373  15.4374  15.8663  15.8663
    16.0104  16.0105  16.4892  16.4892  16.4893  16.4893  17.1790  17.1791
    17.3035  17.3036  17.3092  17.3092  17.3092  17.3092  17.5788  17.5788
    17.6734  17.6734  17.6735  17.6735  17.7481  17.7481  17.7481  17.7481
    17.7668  17.7668  18.1804  18.1804  18.1804  18.1804  18.5669  18.5669
    19.1066  19.1070  19.4941  19.4942  19.5737  19.5737  19.5738  19.5738
    19.7441  19.7442  19.8476  19.8476  19.8476  19.8476  20.1856  20.1858
    20.2779  20.2779  20.4353  20.4353  20.5166  20.5168  20.5528  20.5529
    20.6506  20.6507  20.6956  20.6956  20.6956  20.6956  20.7323  20.7324
    20.7594  20.7594  21.2566  21.2566  21.2566  21.2566  21.3268

          k = 0.0000 0.1667 0.1667 (  9537 PWs)   bands (ev):

   -66.8276 -66.8081 -66.8073 -66.8056 -66.8011 -66.8001 -66.8001 -66.7946
   -66.5763 -66.5758 -66.5716 -66.5711 -66.5682 -66.5641 -53.9196 -53.9189
   -33.1165 -33.1115 -33.1109 -33.0924 -33.0487 -33.0438 -33.0386 -33.0249
   -33.0192 -33.0145 -33.0079 -32.9676 -32.9516 -32.9447 -32.9229 -32.9135
   -32.8806 -32.8785 -32.8552 -32.8495 -32.8418 -32.8157 -32.8082 -32.8056
   -32.7679 -32.7458 -32.7388 -32.6735 -32.6677 -32.6676 -32.6606 -32.6468
   -32.6437 -32.5972 -32.5961 -32.5875 -32.5700 -32.5537 -32.5468 -32.5377
   -32.5351 -32.5273 -25.2524 -25.2507 -25.2492 -25.2425 -25.2408 -25.2394
    10.5909  13.5856  13.5948  14.5362  14.5758  14.6627  14.7363  14.7507
    14.7717  14.7905  15.0862  15.2338  15.3334  15.5492  15.5612  16.1699
    16.3383  16.3607  16.6008  16.6340  16.6636  16.7137  16.7220  16.8517
    16.9172  16.9531  17.0106  17.0367  17.1088  17.4603  17.4642  17.7637
    17.8020  18.0241  18.0759  18.1295  18.1845  18.2486  18.2793  18.3221
    18.3511  18.4546  18.5432  18.6016  18.6034  18.6255  18.6368  18.6747
    18.6824  18.7671  18.8884  18.9107  19.0241  19.0640  19.4186  19.5127
    19.5532  19.6692  19.8659  19.9827  20.0121  20.0666  20.1103  20.1355
    20.1763  20.2505  20.3248  20.3665  20.4111  20.4373  20.4926  20.5411
    20.5487  20.5719  20.5793  20.6314  20.6707  20.6948  20.8644  20.9381
    20.9581  20.9697  21.0659  21.2676  21.3051  21.3605  21.5791

          k = 0.0000 0.1667 0.3333 (  9555 PWs)   bands (ev):

   -66.8237 -66.8122 -66.8062 -66.8044 -66.8024 -66.8013 -66.7991 -66.7959
   -66.5752 -66.5736 -66.5724 -66.5709 -66.5687 -66.5663 -53.9195 -53.9190
   -33.1101 -33.0977 -33.0961 -33.0958 -33.0613 -33.0567 -33.0328 -33.0143
   -33.0065 -32.9947 -32.9859 -32.9700 -32.9518 -32.9378 -32.9372 -32.9253
   -32.9139 -32.9099 -32.8851 -32.8665 -32.8437 -32.8180 -32.8168 -32.8093
   -32.7424 -32.7276 -32.7124 -32.6891 -32.6805 -32.6758 -32.6443 -32.6155
   -32.6113 -32.5952 -32.5883 -32.5820 -32.5693 -32.5630 -32.5561 -32.5519
   -32.5519 -32.5353 -25.2516 -25.2486 -25.2465 -25.2456 -25.2429 -25.2405
    11.0203  12.5921  13.8319  14.3782  14.7484  14.7902  14.8198  14.8500
    15.0290  15.0658  15.2691  15.3687  15.5762  15.6909  15.7500  15.8994
    16.2192  16.3932  16.4402  16.5051  16.5972  16.6168  16.8315  16.8635
    17.0493  17.0760  17.1028  17.1398  17.3242  17.3274  17.3511  17.4989
    17.6182  17.7087  17.8974  17.9080  17.9128  17.9711  18.0241  18.0253
    18.0753  18.1180  18.1306  18.1413  18.1567  18.2042  18.5395  18.8944
    18.9642  19.0743  19.1174  19.1575  19.3156  19.3283  19.3936  19.4231
    19.6512  19.8020  19.8871  19.9052  20.0552  20.1222  20.1442  20.1801
    20.2166  20.2203  20.2510  20.3167  20.4367  20.4771  20.4806  20.5154
    20.5220  20.5654  20.5775  20.6526  20.6723  20.6916  20.7762  20.7945
    20.8730  20.9004  20.9131  21.2154  21.3667  21.4390  21.6741

          k = 0.0000 0.1667-0.5000 (  9550 PWs)   bands (ev):

   -66.8180 -66.8180 -66.8044 -66.8044 -66.8029 -66.8029 -66.7975 -66.7975
   -66.5738 -66.5738 -66.5711 -66.5711 -66.5685 -66.5684 -53.9193 -53.9192
   -33.1022 -33.1022 -33.0791 -33.0791 -33.0762 -33.0762 -33.0233 -33.0233
   -32.9790 -32.9790 -32.9620 -32.9619 -32.9572 -32.9572 -32.9477 -32.9477
   -32.9144 -32.9144 -32.8989 -32.8989 -32.8314 -32.8314 -32.8135 -32.8135
   -32.7113 -32.7112 -32.7038 -32.7037 -32.6905 -32.6905 -32.6222 -32.6221
   -32.5829 -32.5829 -32.5784 -32.5784 -32.5757 -32.5756 -32.5651 -32.5651
   -32.5502 -32.5502 -25.2494 -25.2493 -25.2462 -25.2452 -25.2430 -25.2429
    11.7049  11.7049  14.1313  14.1313  14.8584  14.8584  14.8686  14.8686
    15.3053  15.3054  15.4769  15.4769  15.4969  15.4971  15.9006  15.9006
    16.0566  16.0567  16.5088  16.5089  16.5292  16.5292  17.0572  17.0573
    17.0980  17.0981  17.2696  17.2697  17.3187  17.3187  17.4727  17.4727
    17.5475  17.5475  17.6451  17.6451  17.6945  17.6945  17.7249  17.7249
    17.8444  17.8444  17.9977  17.9978  18.1244  18.1244  18.7781  18.7782
    19.1663  19.1666  19.4434  19.4435  19.4832  19.4833  19.5271  19.5271
    19.6595  19.6595  19.7368  19.7368  19.8249  19.8249  20.1597  20.1598
    20.2511  20.2511  20.3909  20.3909  20.4385  20.4387  20.5111  20.5112
    20.6110  20.6110  20.6136  20.6137  20.7017  20.7017  20.7529  20.7529
    20.8401  20.8401  20.9864  20.9865  21.5208  21.5208  21.5619

          k = 0.0000 0.3333 0.3333 (  9554 PWs)   bands (ev):

   -66.8202 -66.8113 -66.8089 -66.8045 -66.8032 -66.8002 -66.8002 -66.7971
   -66.5737 -66.5727 -66.5722 -66.5711 -66.5693 -66.5679 -53.9194 -53.9191
   -33.1073 -33.0985 -33.0884 -33.0835 -33.0671 -33.0547 -33.0386 -33.0221
   -32.9996 -32.9783 -32.9779 -32.9763 -32.9591 -32.9513 -32.9261 -32.9240
   -32.9152 -32.8987 -32.8898 -32.8515 -32.8485 -32.8292 -32.8263 -32.8214
   -32.7508 -32.7283 -32.7041 -32.6995 -32.6955 -32.6768 -32.6419 -32.6177
   -32.6018 -32.5941 -32.5841 -32.5692 -32.5688 -32.5658 -32.5609 -32.5542
   -32.5473 -32.5351 -25.2526 -25.2494 -25.2474 -25.2440 -25.2431 -25.2399
    11.4322  12.8971  12.9368  13.9154  14.9532  14.9636  14.9972  15.0988
    15.1851  15.2400  15.5052  15.6207  15.7317  15.8491  15.8688  15.8889
    16.1467  16.3522  16.4058  16.6295  16.6406  16.6771  16.6826  16.7913
    16.8193  16.9515  17.1218  17.1238  17.1479  17.1803  17.3458  17.3596
    17.4857  17.5248  17.5650  17.7267  17.7350  17.7447  17.7896  17.7906
    17.8446  17.9449  17.9488  17.9543  18.0946  18.3949  18.6146  18.8187
    19.1170  19.2416  19.2788  19.2831  19.3119  19.3211  19.5170  19.5824
    19.6079  19.6168  19.6715  19.6950  19.8590  19.9627  20.0621  20.0792
    20.1838  20.1881  20.3165  20.3409  20.4020  20.4076  20.4100  20.4976
    20.5053  20.5403  20.5771  20.6145  20.6528  20.6872  20.7424  20.7473
    20.8129  20.9513  20.9891  21.2661  21.6689  21.7098  22.4043

          k = 0.0000 0.3333-0.5000 (  9534 PWs)   bands (ev):

   -66.8154 -66.8154 -66.8070 -66.8070 -66.8016 -66.8016 -66.7987 -66.7987
   -66.5726 -66.5725 -66.5711 -66.5710 -66.5696 -66.5696 -53.9193 -53.9192
   -33.1030 -33.1030 -33.0764 -33.0764 -33.0671 -33.0671 -33.0321 -33.0321
   -32.9929 -32.9929 -32.9684 -32.9684 -32.9504 -32.9504 -32.9323 -32.9323
   -32.9056 -32.9056 -32.8695 -32.8695 -32.8400 -32.8400 -32.8296 -32.8296
   -32.7299 -32.7298 -32.7192 -32.7191 -32.6827 -32.6827 -32.6341 -32.6341
   -32.5843 -32.5843 -32.5772 -32.5772 -32.5756 -32.5755 -32.5525 -32.5524
   -32.5416 -32.5416 -25.2518 -25.2517 -25.2461 -25.2452 -25.2408 -25.2408
    12.0838  12.0839  13.3920  13.3921  15.0548  15.0549  15.1281  15.1282
    15.5084  15.5085  15.5879  15.5879  15.7417  15.7418  15.9619  15.9619
    16.1437  16.1438  16.4763  16.4763  16.6221  16.6221  16.7580  16.7580
    16.9581  16.9582  17.0666  17.0666  17.1589  17.1589  17.2260  17.2260
    17.3582  17.3582  17.5136  17.5136  17.5770  17.5770  17.7548  17.7549
    17.8578  17.8578  18.0087  18.0087  18.0166  18.0166  18.9883  18.9883
    19.1355  19.1356  19.1970  19.1972  19.4556  19.4558  19.4961  19.4962
    19.5258  19.5259  19.7404  19.7405  19.9870  19.9870  19.9941  19.9941
    20.0950  20.0951  20.2011  20.2011  20.3855  20.3856  20.4880  20.4880
    20.5166  20.5166  20.5718  20.5718  20.6138  20.6139  20.7733  20.7733
    20.9333  20.9333  21.1730  21.1731  22.0712  22.0712  22.0916

          k = 0.0000-0.5000-0.5000 (  9540 PWs)   bands (ev):

   -66.8128 -66.8128 -66.8097 -66.8097 -66.8002 -66.8002 -66.8002 -66.8002
   -66.5712 -66.5712 -66.5711 -66.5710 -66.5710 -66.5710 -53.9193 -53.9192
   -33.1035 -33.1035 -33.0744 -33.0744 -33.0603 -33.0603 -33.0387 -33.0387
   -33.0004 -33.0003 -32.9685 -32.9685 -32.9467 -32.9467 -32.9257 -32.9257
   -32.9000 -32.9000 -32.8534 -32.8534 -32.8431 -32.8431 -32.8403 -32.8403
   -32.7454 -32.7453 -32.7240 -32.7239 -32.6791 -32.6790 -32.6391 -32.6391
   -32.5840 -32.5839 -32.5779 -32.5779 -32.5743 -32.5743 -32.5476 -32.5476
   -32.5382 -32.5382 -25.2527 -25.2527 -25.2461 -25.2451 -25.2401 -25.2401
    12.6432  12.6432  12.6997  12.6997  15.1679  15.1679  15.2915  15.2916
    15.6543  15.6543  15.6895  15.6895  15.8305  15.8305  15.9765  15.9768
    16.1376  16.1376  16.3527  16.3527  16.6623  16.6623  16.6924  16.6925
    16.9185  16.9186  16.9471  16.9471  16.9905  16.9905  17.0937  17.0937
    17.3776  17.3776  17.4501  17.4501  17.4812  17.4812  17.6308  17.6308
    17.8720  17.8721  17.9310  17.9310  18.3595  18.3595  18.5786  18.5786
    19.1869  19.1870  19.3572  19.3572  19.3991  19.3991  19.5213  19.5217
    19.5491  19.5493  19.6630  19.6631  19.9741  19.9741  20.0164  20.0164
    20.0327  20.0327  20.1311  20.1311  20.4275  20.4275  20.4300  20.4301
    20.4544  20.4544  20.4806  20.4806  20.6094  20.6094  20.7731  20.7731
    21.0151  21.0151  21.2405  21.2406  22.6707  22.7110  22.7116

          k = 0.1667 0.1667 0.1667 (  9525 PWs)   bands (ev):

   -66.8263 -66.8075 -66.8075 -66.8064 -66.8006 -66.8006 -66.8006 -66.7950
   -66.5754 -66.5754 -66.5714 -66.5714 -66.5683 -66.5649 -53.9196 -53.9189
   -33.1129 -33.1070 -33.1070 -33.0931 -33.0494 -33.0439 -33.0439 -33.0208
   -33.0102 -33.0069 -33.0069 -32.9623 -32.9623 -32.9297 -32.9293 -32.9293
   -32.8942 -32.8681 -32.8681 -32.8503 -32.8503 -32.8235 -32.8103 -32.8103
   -32.7691 -32.7316 -32.7316 -32.6753 -32.6753 -32.6696 -32.6480 -32.6480
   -32.6269 -32.5999 -32.5832 -32.5832 -32.5815 -32.5510 -32.5510 -32.5416
   -32.5416 -32.5290 -25.2515 -25.2515 -25.2474 -25.2443 -25.2402 -25.2402
    10.7354  13.6754  13.6754  13.7038  14.6213  14.6213  14.7398  14.8836
    14.8836  15.1862  15.2686  15.2686  15.4561  15.6157  15.6157  16.1328
    16.3687  16.3687  16.6240  16.6392  16.6392  16.7045  16.7617  16.7617
    16.8765  16.8765  17.0261  17.1013  17.1013  17.1982  17.6253  17.6253
    17.6806  17.8700  18.0419  18.0419  18.1318  18.1318  18.2126  18.2126
    18.2829  18.3852  18.3852  18.3873  18.4319  18.4319  18.4898  18.5156
    18.7869  18.7869  19.0038  19.0038  19.1498  19.1955  19.5898  19.5898
    19.6544  19.6544  19.7154  19.9615  20.0443  20.0443  20.1213  20.1409
    20.2005  20.3138  20.3138  20.3519  20.3519  20.4176  20.4176  20.5220
    20.5220  20.5440  20.5440  20.6231  20.7356  20.7356  20.9499  20.9499
    20.9536  20.9536  20.9583  21.0080  21.3793  21.4214  21.4214

          k = 0.1667 0.1667 0.3333 (  9527 PWs)   bands (ev):

   -66.8224 -66.8115 -66.8060 -66.8053 -66.8021 -66.8018 -66.7995 -66.7962
   -66.5745 -66.5732 -66.5722 -66.5710 -66.5688 -66.5668 -53.9194 -53.9191
   -33.1074 -33.0959 -33.0944 -33.0932 -33.0592 -33.0580 -33.0367 -33.0169
   -33.0035 -32.9869 -32.9788 -32.9680 -32.9543 -32.9486 -32.9462 -32.9182
   -32.9083 -32.9050 -32.8807 -32.8616 -32.8553 -32.8269 -32.8228 -32.8158
   -32.7482 -32.7193 -32.7087 -32.6903 -32.6831 -32.6810 -32.6382 -32.6196
   -32.6025 -32.6003 -32.5914 -32.5725 -32.5653 -32.5643 -32.5574 -32.5556
   -32.5509 -32.5361 -25.2515 -25.2491 -25.2474 -25.2446 -25.2426 -25.2406
    11.1599  12.7079  13.9148  13.9562  14.4617  14.5352  14.9910  15.0562
    15.1348  15.3032  15.4128  15.5158  15.6357  15.7539  15.8086  15.9316
    16.2275  16.4196  16.4774  16.4875  16.6165  16.6614  16.7331  16.8238
    16.9646  17.0389  17.0919  17.1338  17.1421  17.2925  17.3839  17.5017
    17.5076  17.6154  17.7533  17.8144  17.8334  17.8833  17.9476  17.9529
    17.9746  17.9821  17.9975  18.0394  18.0772  18.1157  18.6956  18.7129
    19.0164  19.1210  19.1763  19.2718  19.4250  19.4296  19.4573  19.5232
    19.6030  19.6298  19.8318  19.8716  20.0617  20.0690  20.1057  20.1579
    20.1764  20.2553  20.3732  20.3981  20.4085  20.4357  20.4412  20.4748
    20.5318  20.5639  20.5878  20.6283  20.6593  20.7534  20.7626  20.7650
    20.9171  20.9296  20.9808  21.0146  21.0963  21.1101  22.1801

          k = 0.1667 0.1667-0.5000 (  9540 PWs)   bands (ev):

   -66.8170 -66.8170 -66.8041 -66.8041 -66.8037 -66.8037 -66.7979 -66.7979
   -66.5734 -66.5734 -66.5711 -66.5711 -66.5688 -66.5688 -53.9193 -53.9192
   -33.1011 -33.1011 -33.0766 -33.0766 -33.0750 -33.0750 -33.0266 -33.0266
   -32.9765 -32.9765 -32.9713 -32.9712 -32.9497 -32.9497 -32.9430 -32.9430
   -32.9179 -32.9179 -32.8845 -32.8845 -32.8393 -32.8393 -32.8226 -32.8226
   -32.7149 -32.7148 -32.7034 -32.7033 -32.6917 -32.6917 -32.6224 -32.6224
   -32.5888 -32.5888 -32.5755 -32.5755 -32.5746 -32.5746 -32.5604 -32.5604
   -32.5486 -32.5486 -25.2501 -25.2500 -25.2463 -25.2454 -25.2422 -25.2422
    11.8355  11.8355  14.2137  14.2138  14.2796  14.2796  15.2243  15.2244
    15.4140  15.4140  15.4551  15.4552  15.6460  15.6460  15.9441  15.9442
    16.1076  16.1076  16.5315  16.5316  16.5561  16.5562  16.9222  16.9223
    17.0943  17.0943  17.1812  17.1812  17.2899  17.2900  17.3360  17.3360
    17.4799  17.4799  17.5304  17.5305  17.7040  17.7040  17.7122  17.7122
    17.7710  17.7710  17.9305  17.9305  18.0116  18.0116  18.9489  18.9489
    19.1299  19.1299  19.2372  19.2375  19.4453  19.4455  19.5967  19.5967
    19.6003  19.6004  19.8819  19.8819  19.9025  19.9025  20.1451  20.1451
    20.2561  20.2562  20.3660  20.3661  20.4589  20.4590  20.5155  20.5155
    20.5852  20.5853  20.6263  20.6263  20.6680  20.6680  20.8159  20.8159
    20.8907  20.8908  20.9020  20.9021  20.9441  20.9441  22.5693

          k = 0.1667 0.3333 0.3333 (  9541 PWs)   bands (ev):

   -66.8192 -66.8105 -66.8084 -66.8043 -66.8040 -66.8009 -66.8007 -66.7976
   -66.5733 -66.5724 -66.5719 -66.5712 -66.5695 -66.5682 -53.9194 -53.9191
   -33.1031 -33.0970 -33.0855 -33.0826 -33.0644 -33.0554 -33.0429 -33.0243
   -32.9936 -32.9788 -32.9737 -32.9624 -32.9598 -32.9544 -32.9344 -32.9269
   -32.9127 -32.8857 -32.8839 -32.8677 -32.8559 -32.8407 -32.8355 -32.8309
   -32.7521 -32.7130 -32.7043 -32.6971 -32.6929 -32.6806 -32.6329 -32.6152
   -32.6085 -32.5870 -32.5861 -32.5730 -32.5640 -32.5637 -32.5619 -32.5547
   -32.5507 -32.5387 -25.2517 -25.2496 -25.2481 -25.2437 -25.2427 -25.2407
    11.5685  13.0199  13.0517  14.0389  14.2102  14.7731  14.8988  15.2945
    15.3371  15.4533  15.6846  15.7067  15.7646  15.9195  15.9219  15.9586
    16.1864  16.3609  16.4602  16.5559  16.6072  16.6473  16.7245  16.7612
    16.8469  16.9524  16.9923  17.0423  17.1664  17.2782  17.2886  17.3438
    17.3615  17.4177  17.4931  17.6023  17.6069  17.6687  17.7094  17.7535
    17.7955  17.8048  17.8178  17.8944  17.9641  18.2044  18.3396  18.9730
    19.1080  19.2596  19.2946  19.3544  19.4167  19.4179  19.5510  19.5725
    19.7291  19.7467  19.7819  19.7975  19.9226  20.0381  20.1118  20.1772
    20.1996  20.2217  20.2833  20.3519  20.3809  20.3900  20.4722  20.4893
    20.5300  20.5501  20.5905  20.6147  20.6722  20.6791  20.7175  20.7278
    20.7678  20.8526  20.8649  21.0031  21.0785  21.7134  21.7418

          k = 0.1667 0.3333-0.5000 (  9548 PWs)   bands (ev):

   -66.8145 -66.8145 -66.8066 -66.8066 -66.8026 -66.8026 -66.7992 -66.7992
   -66.5724 -66.5724 -66.5711 -66.5711 -66.5698 -66.5697 -53.9193 -53.9192
   -33.0996 -33.0996 -33.0739 -33.0739 -33.0671 -33.0671 -33.0349 -33.0349
   -32.9870 -32.9870 -32.9669 -32.9669 -32.9436 -32.9436 -32.9368 -32.9368
   -32.9068 -32.9068 -32.8664 -32.8664 -32.8543 -32.8543 -32.8417 -32.8417
   -32.7331 -32.7330 -32.7065 -32.7064 -32.6823 -32.6823 -32.6263 -32.6263
   -32.5887 -32.5887 -32.5764 -32.5763 -32.5737 -32.5737 -32.5541 -32.5541
   -32.5446 -32.5446 -25.2513 -25.2513 -25.2464 -25.2454 -25.2413 -25.2412
    12.2137  12.2138  13.5147  13.5147  14.5542  14.5543  15.2820  15.2820
    15.4971  15.4971  15.6351  15.6352  15.9291  15.9291  16.0392  16.0392
    16.2115  16.2115  16.5058  16.5059  16.6108  16.6109  16.6972  16.6973
    16.9722  16.9723  17.0476  17.0476  17.0954  17.0954  17.2215  17.2215
    17.2680  17.2680  17.4266  17.4266  17.5682  17.5682  17.6997  17.6997
    17.7414  17.7414  17.7912  17.7912  17.9305  17.9305  18.6196  18.6196
    19.2632  19.2632  19.3702  19.3704  19.4931  19.4933  19.6115  19.6116
    19.7254  19.7254  19.8275  19.8275  20.0331  20.0332  20.1061  20.1061
    20.1491  20.1492  20.2473  20.2474  20.3784  20.3785  20.4675  20.4675
    20.5097  20.5098  20.5640  20.5640  20.6108  20.6108  20.7361  20.7361
    20.8194  20.8195  21.0189  21.0190  21.3019  21.3019  22.4800

          k = 0.1667-0.5000-0.5000 (  9540 PWs)   bands (ev):

   -66.8120 -66.8120 -66.8092 -66.8092 -66.8010 -66.8010 -66.8007 -66.8007
   -66.5711 -66.5711 -66.5710 -66.5710 -66.5710 -66.5710 -53.9193 -53.9192
   -33.0992 -33.0992 -33.0722 -33.0722 -33.0600 -33.0599 -33.0413 -33.0413
   -32.9939 -32.9939 -32.9628 -32.9628 -32.9389 -32.9389 -32.9347 -32.9346
   -32.8974 -32.8974 -32.8629 -32.8629 -32.8612 -32.8612 -32.8486 -32.8486
   -32.7452 -32.7451 -32.7081 -32.7080 -32.6765 -32.6764 -32.6297 -32.6297
   -32.5851 -32.5851 -32.5773 -32.5773 -32.5753 -32.5753 -32.5518 -32.5517
   -32.5425 -32.5425 -25.2518 -25.2518 -25.2463 -25.2453 -25.2409 -25.2409
    12.7751  12.7752  12.8232  12.8232  14.8877  14.8877  15.0515  15.0515
    15.5822  15.5824  15.8444  15.8444  15.9845  15.9847  16.1661  16.1661
    16.2325  16.2325  16.3630  16.3630  16.6420  16.6421  16.6765  16.6765
    16.8779  16.8779  16.9512  16.9512  17.0288  17.0288  17.0607  17.0608
    17.2892  17.2892  17.3599  17.3599  17.4961  17.4961  17.5912  17.5912
    17.7537  17.7537  17.7567  17.7567  18.1069  18.1069  18.2403  18.2403
    19.4274  19.4276  19.4846  19.4846  19.5542  19.5545  19.6278  19.6279
    19.6916  19.6916  19.8513  19.8514  19.9949  19.9949  20.0616  20.0616
    20.0791  20.0791  20.1793  20.1793  20.4152  20.4153  20.4282  20.4282
    20.4327  20.4327  20.4626  20.4626  20.5806  20.5806  20.7345  20.7345
    20.8682  20.8682  21.0769  21.0770  21.8603  21.8603  21.8897

          k = 0.3333 0.3333 0.3333 (  9552 PWs)   bands (ev):

   -66.8162 -66.8085 -66.8085 -66.8059 -66.8030 -66.8030 -66.8020 -66.7988
   -66.5722 -66.5722 -66.5715 -66.5715 -66.5698 -66.5692 -53.9193 -53.9192
   -33.0957 -33.0943 -33.0775 -33.0775 -33.0607 -33.0531 -33.0531 -33.0311
   -32.9772 -32.9687 -32.9687 -32.9662 -32.9662 -32.9360 -32.9360 -32.9239
   -32.9045 -32.9045 -32.8718 -32.8718 -32.8701 -32.8632 -32.8546 -32.8546
   -32.7513 -32.7214 -32.6885 -32.6885 -32.6843 -32.6843 -32.6129 -32.6129
   -32.6121 -32.5869 -32.5778 -32.5746 -32.5746 -32.5600 -32.5600 -32.5561
   -32.5561 -32.5462 -25.2502 -25.2494 -25.2494 -25.2431 -25.2431 -25.2422
    11.9663  13.3644  13.3770  13.3770  14.3578  14.3578  14.4775  15.4684
    15.5267  15.5267  15.7830  15.7830  15.9705  16.0208  16.1150  16.1150
    16.3648  16.4417  16.4417  16.5627  16.5627  16.6763  16.6763  16.7221
    16.7736  16.9268  16.9268  17.0763  17.0763  17.1425  17.1909  17.3354
    17.3354  17.3402  17.3402  17.3702  17.3872  17.4761  17.4761  17.5379
    17.6248  17.6248  17.7471  17.7471  17.8522  17.8522  17.9460  18.5444
    19.2882  19.4459  19.4459  19.5570  19.5570  19.6145  19.6145  19.7827
    19.8229  19.9584  19.9709  19.9709  20.1321  20.1321  20.1690  20.1702
    20.2656  20.2656  20.3007  20.3007  20.3954  20.3954  20.4169  20.4169
    20.4702  20.4702  20.5126  20.5490  20.6300  20.6442  20.6442  20.7319
    20.7319  20.7342  20.7342  20.8089  21.1827  21.1852  21.1852

          k = 0.3333 0.3333-0.5000 (  9586 PWs)   bands (ev):

   -66.8123 -66.8123 -66.8058 -66.8058 -66.8044 -66.8044 -66.8008 -66.8008
   -66.5719 -66.5718 -66.5711 -66.5711 -66.5704 -66.5703 -53.9193 -53.9192
   -33.0931 -33.0931 -33.0672 -33.0672 -33.0659 -33.0659 -33.0418 -33.0418
   -32.9745 -32.9745 -32.9655 -32.9655 -32.9420 -32.9420 -32.9284 -32.9284
   -32.9029 -32.9029 -32.8826 -32.8826 -32.8680 -32.8680 -32.8645 -32.8645
   -32.7410 -32.7409 -32.6861 -32.6861 -32.6781 -32.6780 -32.6125 -32.6125
   -32.5925 -32.5925 -32.5753 -32.5753 -32.5747 -32.5747 -32.5578 -32.5578
   -32.5515 -32.5515 -25.2502 -25.2502 -25.2467 -25.2458 -25.2425 -25.2425
    12.5896  12.5897  13.8500  13.8501  13.8783  13.8783  14.9254  14.9254
    15.6912  15.6914  15.8024  15.8025  16.1439  16.1440  16.2505  16.2505
    16.3798  16.3798  16.5657  16.5658  16.5708  16.5709  16.6119  16.6120
    16.9531  16.9531  16.9762  16.9762  17.0527  17.0527  17.1206  17.1206
    17.2475  17.2475  17.2946  17.2946  17.4540  17.4540  17.4872  17.4872
    17.5406  17.5407  17.6172  17.6172  17.6810  17.6811  18.0878  18.0878
    19.5396  19.5399  19.5714  19.5715  19.5864  19.5866  19.8546  19.8547
    19.8985  19.8985  20.0368  20.0369  20.1386  20.1386  20.1690  20.1690
    20.2057  20.2058  20.3383  20.3384  20.4056  20.4057  20.4431  20.4431
    20.4797  20.4798  20.5497  20.5497  20.6055  20.6055  20.6691  20.6692
    20.7435  20.7435  20.7493  20.7494  20.7715  20.7716  21.8308

          k = 0.3333-0.5000-0.5000 (  9576 PWs)   bands (ev):

   -66.8098 -66.8098 -66.8079 -66.8079 -66.8034 -66.8034 -66.8022 -66.8022
   -66.5711 -66.5711 -66.5711 -66.5710 -66.5710 -66.5710 -53.9193 -53.9192
   -33.0900 -33.0900 -33.0663 -33.0663 -33.0586 -33.0586 -33.0482 -33.0482
   -32.9765 -32.9765 -32.9516 -32.9516 -32.9458 -32.9458 -32.9188 -32.9188
   -32.8962 -32.8962 -32.8942 -32.8942 -32.8885 -32.8885 -32.8679 -32.8679
   -32.7450 -32.7449 -32.6810 -32.6810 -32.6710 -32.6709 -32.6087 -32.6087
   -32.5875 -32.5875 -32.5792 -32.5792 -32.5746 -32.5746 -32.5615 -32.5615
   -32.5542 -32.5542 -25.2495 -25.2495 -25.2468 -25.2458 -25.2432 -25.2432
    13.1559  13.1560  13.1787  13.1787  14.3348  14.3348  14.4235  14.4236
    15.7913  15.7915  16.0008  16.0010  16.1301  16.1301  16.3737  16.3737
    16.4945  16.4945  16.4963  16.4964  16.5826  16.5826  16.7286  16.7286
    16.8380  16.8380  16.9441  16.9441  16.9886  16.9886  17.1566  17.1566
    17.1859  17.1859  17.2515  17.2515  17.3552  17.3552  17.4517  17.4517
    17.4854  17.4854  17.5088  17.5089  17.6481  17.6481  17.7135  17.7135
    19.6154  19.6157  19.6328  19.6331  19.7996  19.7996  19.9051  19.9052
    20.0547  20.0547  20.1560  20.1561  20.1660  20.1660  20.2548  20.2549
    20.2634  20.2634  20.2971  20.2971  20.3332  20.3332  20.3618  20.3619
    20.4104  20.4104  20.4292  20.4293  20.5077  20.5077  20.5357  20.5357
    20.6469  20.6469  20.7276  20.7277  21.2492  21.2493  21.2554

          k =-0.5000-0.5000-0.5000 (  9568 PWs)   bands (ev):

   -66.8066 -66.8066 -66.8066 -66.8066 -66.8066 -66.8066 -66.8035 -66.8035
   -66.5710 -66.5710 -66.5710 -66.5710 -66.5710 -66.5710 -53.9193 -53.9192
   -33.0852 -33.0852 -33.0574 -33.0574 -33.0574 -33.0574 -33.0574 -33.0574
   -32.9603 -32.9603 -32.9603 -32.9603 -32.9192 -32.9192 -32.9192 -32.9192
   -32.9192 -32.9192 -32.8931 -32.8931 -32.8931 -32.8931 -32.8931 -32.8931
   -32.7449 -32.7448 -32.6681 -32.6681 -32.6680 -32.6680 -32.5888 -32.5888
   -32.5888 -32.5888 -32.5888 -32.5888 -32.5677 -32.5677 -32.5677 -32.5676
   -32.5676 -32.5676 -25.2469 -25.2469 -25.2469 -25.2459 -25.2459 -25.2459
    13.7154  13.7154  13.7154  13.7155  13.7155  13.7155  13.7591  13.7591
    16.0092  16.0092  16.0094  16.0094  16.3237  16.3237  16.3237  16.3239
    16.3239  16.3239  16.8232  16.8232  16.8232  16.8232  16.8232  16.8232
    16.8704  16.8704  16.8704  16.8705  16.8705  16.8705  17.2363  17.2363
    17.2625  17.2625  17.2625  17.2625  17.2625  17.2625  17.3077  17.3077
    17.3077  17.3078  17.3078  17.3078  17.3678  17.3678  17.3678  17.3678
    19.6797  19.6797  19.6800  19.6800  20.0845  20.0845  20.0845  20.0846
    20.0846  20.0846  20.2997  20.2997  20.2997  20.2998  20.2998  20.2998
    20.3202  20.3202  20.3202  20.3202  20.3202  20.3202  20.4257  20.4257
    20.4258  20.4258  20.4631  20.4631  20.4631  20.4631  20.4631  20.4631
    20.7194  20.7194  20.7194  20.7194  20.7194  20.7194  20.7565

     the Fermi energy is    18.9452 ev

!    total energy              =   -5106.04839549 Ry
     total all-electron energy =    -39841.265215 Ry
     estimated scf accuracy    <          8.1E-09 Ry
     smearing contrib. (-TS)   =       0.00305828 Ry
     internal energy E=F+TS    =   -5106.05145377 Ry

     The total energy is F=E-TS. E is the sum of the following terms:
     one-electron contribution =   -1636.72460822 Ry
     hartree contribution      =     979.90167710 Ry
     xc contribution           =    -433.25423933 Ry
     ewald contribution        =   -2708.40936092 Ry
     one-center paw contrib.   =   -1307.56492240 Ry

     total magnetization       =    27.36 Bohr mag/cell
     absolute magnetization    =    35.19 Bohr mag/cell

     convergence has been achieved in  37 iterations

     Forces acting on atoms (cartesian axes, Ry/au):

     atom    1 type  2   force =     0.00000000    0.00000000    0.00000000
     atom    2 type  1   force =     0.00013259    0.00013259    0.00013259
     atom    3 type  1   force =     0.00000000   -0.00000000    0.00000000
     atom    4 type  1   force =     0.00013259    0.00013259   -0.00013259
     atom    5 type  1   force =     0.00000000    0.00000000    0.00000000
     atom    6 type  1   force =     0.00013259   -0.00013259    0.00013259
     atom    7 type  1   force =     0.00000000    0.00000000    0.00000000
     atom    8 type  1   force =     0.00013259   -0.00013259   -0.00013259
     atom    9 type  1   force =     0.00000000    0.00000000    0.00000000
     atom   10 type  1   force =    -0.00013259    0.00013259    0.00013259
     atom   11 type  1   force =     0.00000000   -0.00000000    0.00000000
     atom   12 type  1   force =    -0.00013259    0.00013259   -0.00013259
     atom   13 type  1   force =     0.00000000   -0.00000000    0.00000000
     atom   14 type  1   force =    -0.00013259   -0.00013259    0.00013259
     atom   15 type  2   force =     0.00000000    0.00000000    0.00000000
     atom   16 type  1   force =    -0.00013259   -0.00013259   -0.00013259

     Total force =     0.000650     Total SCF correction =     0.000281
     SCF correction compared to forces is large: reduce conv_thr to get better values


     Computing stress (Cartesian axis) and pressure

          total   stress  (Ry/bohr**3)                   (kbar)     P=       26.76
   0.00018188   0.00000000   0.00000000           26.76        0.00        0.00
   0.00000000   0.00018188   0.00000000            0.00       26.76        0.00
   0.00000000   0.00000000   0.00018188            0.00        0.00       26.76


     BFGS Geometry Optimization
     Energy error            =      0.0E+00 Ry
     Gradient error          =      1.3E-04 Ry/Bohr
     Cell gradient error     =      2.7E+01 kbar

     number of scf cycles    =   1
     number of bfgs steps    =   0

     enthalpy           new  =   -5106.0483954913 Ry

     new trust radius        =       0.0317151263 bohr
     new conv_thr            =       0.0000000100 Ry

     new unit-cell volume =   1232.86477 a.u.^3 (   182.69171 Ang^3 )
     density =      8.05150 g/cm^3

CELL_PARAMETERS (angstrom)
   5.674221443   0.000000000   0.000000000
   0.000000000   5.674221443   0.000000000
   0.000000000   0.000000000   5.674221443

ATOMIC_POSITIONS (crystal)
Cr               0.0000000000        0.0000000000        0.0000000000
Fe               0.2500124219        0.2500124219        0.2500124219
Fe               0.0000000000       -0.0000000000        0.5000000000
Fe               0.2500124219        0.2500124219        0.7499875781
Fe               0.0000000000        0.5000000000        0.0000000000
Fe               0.2500124219        0.7499875781        0.2500124219
Fe               0.0000000000        0.5000000000        0.5000000000
Fe               0.2500124219        0.7499875781        0.7499875781
Fe               0.5000000000        0.0000000000        0.0000000000
Fe               0.7499875781        0.2500124219        0.2500124219
Fe               0.5000000000       -0.0000000000        0.5000000000
Fe               0.7499875781        0.2500124219        0.7499875781
Fe               0.5000000000        0.5000000000        0.0000000000
Fe               0.7499875781        0.7499875781        0.2500124219
Cr               0.5000000000        0.5000000000        0.5000000000
Fe               0.7499875781        0.7499875781        0.7499875781



     Writing config-only to output data dir ./tmp/fecr_fe14cr02_vcr.save/ :
     XML data file
     NEW-OLD atomic charge density approx. for the potential

     Check: negative core charge=   -0.000003
     Generating pointlists ...

     total cpu time spent up to now is      749.8 secs

     Self-consistent Calculation

     iteration #  1     ecut=    60.00 Ry     beta= 0.30
     Davidson diagonalization with overlap
     ethr =  1.00E-06,  avg # of iterations =  5.8

     total cpu time spent up to now is      776.0 secs

     total energy              =   -5106.05081608 Ry
     estimated scf accuracy    <       0.00164073 Ry

     total magnetization       =    27.55 Bohr mag/cell
     absolute magnetization    =    35.54 Bohr mag/cell

     iteration #  2     ecut=    60.00 Ry     beta= 0.30
     Davidson diagonalization with overlap
     ethr =  6.51E-07,  avg # of iterations =  4.7

     total cpu time spent up to now is      797.1 secs

     total energy              =   -5106.05018864 Ry
     estimated scf accuracy    <       0.01264883 Ry

     total magnetization       =    27.55 Bohr mag/cell
     absolute magnetization    =    35.48 Bohr mag/cell

     iteration #  3     ecut=    60.00 Ry     beta= 0.30
     Davidson diagonalization with overlap
     ethr =  6.51E-07,  avg # of iterations =  5.0

     total cpu time spent up to now is      817.1 secs

     total energy              =   -5106.05050543 Ry
     estimated scf accuracy    <       0.00114469 Ry

     total magnetization       =    27.55 Bohr mag/cell
     absolute magnetization    =    35.56 Bohr mag/cell

     iteration #  4     ecut=    60.00 Ry     beta= 0.30
     Davidson diagonalization with overlap
     ethr =  4.54E-07,  avg # of iterations =  1.2

     total cpu time spent up to now is      833.3 secs

     total energy              =   -5106.05046998 Ry
     estimated scf accuracy    <       0.00028498 Ry

     total magnetization       =    27.56 Bohr mag/cell
     absolute magnetization    =    35.58 Bohr mag/cell

     iteration #  5     ecut=    60.00 Ry     beta= 0.30
     Davidson diagonalization with overlap
     ethr =  1.13E-07,  avg # of iterations =  2.7

     total cpu time spent up to now is      850.8 secs

     total energy              =   -5106.04990240 Ry
     estimated scf accuracy    <       0.00009704 Ry

     total magnetization       =    27.56 Bohr mag/cell
     absolute magnetization    =    35.58 Bohr mag/cell

     iteration #  6     ecut=    60.00 Ry     beta= 0.30
     Davidson diagonalization with overlap
     ethr =  3.85E-08,  avg # of iterations =  6.0

     total cpu time spent up to now is      873.6 secs

     total energy              =   -5106.05008516 Ry
     estimated scf accuracy    <       0.00047765 Ry

     total magnetization       =    27.58 Bohr mag/cell
     absolute magnetization    =    35.68 Bohr mag/cell

     iteration #  7     ecut=    60.00 Ry     beta= 0.30
     Davidson diagonalization with overlap
     ethr =  3.85E-08,  avg # of iterations =  3.9

     total cpu time spent up to now is      893.3 secs

     total energy              =   -5106.05015506 Ry
     estimated scf accuracy    <       0.00008452 Ry

     total magnetization       =    27.60 Bohr mag/cell
     absolute magnetization    =    35.74 Bohr mag/cell

     iteration #  8     ecut=    60.00 Ry     beta= 0.30
     Davidson diagonalization with overlap
     ethr =  3.35E-08,  avg # of iterations =  3.2

     total cpu time spent up to now is      911.7 secs

     total energy              =   -5106.05015111 Ry
     estimated scf accuracy    <       0.00005481 Ry

     total magnetization       =    27.60 Bohr mag/cell
     absolute magnetization    =    35.77 Bohr mag/cell

     iteration #  9     ecut=    60.00 Ry     beta= 0.30
     Davidson diagonalization with overlap
     ethr =  2.17E-08,  avg # of iterations =  4.6

     total cpu time spent up to now is      931.9 secs

     total energy              =   -5106.05001042 Ry
     estimated scf accuracy    <       0.00004227 Ry

     total magnetization       =    27.60 Bohr mag/cell
     absolute magnetization    =    35.81 Bohr mag/cell

     iteration # 10     ecut=    60.00 Ry     beta= 0.30
     Davidson diagonalization with overlap
     ethr =  1.68E-08,  avg # of iterations =  3.5

     total cpu time spent up to now is      951.1 secs

     total energy              =   -5106.05001926 Ry
     estimated scf accuracy    <       0.00004132 Ry

     total magnetization       =    27.60 Bohr mag/cell
     absolute magnetization    =    35.85 Bohr mag/cell

     iteration # 11     ecut=    60.00 Ry     beta= 0.30
     Davidson diagonalization with overlap
     ethr =  1.64E-08,  avg # of iterations =  2.3

     total cpu time spent up to now is      968.6 secs

     total energy              =   -5106.05002228 Ry
     estimated scf accuracy    <       0.00003269 Ry

     total magnetization       =    27.60 Bohr mag/cell
     absolute magnetization    =    35.88 Bohr mag/cell

     iteration # 12     ecut=    60.00 Ry     beta= 0.30
     Davidson diagonalization with overlap
     ethr =  1.30E-08,  avg # of iterations =  3.6

     total cpu time spent up to now is      987.1 secs

     total energy              =   -5106.05002477 Ry
     estimated scf accuracy    <       0.00000040 Ry

     total magnetization       =    27.59 Bohr mag/cell
     absolute magnetization    =    35.88 Bohr mag/cell

     iteration # 13     ecut=    60.00 Ry     beta= 0.30
     Davidson diagonalization with overlap
     ethr =  1.58E-10,  avg # of iterations =  7.0

     total cpu time spent up to now is     1012.7 secs

     total energy              =   -5106.05002878 Ry
     estimated scf accuracy    <       0.00000059 Ry

     total magnetization       =    27.59 Bohr mag/cell
     absolute magnetization    =    35.89 Bohr mag/cell

     iteration # 14     ecut=    60.00 Ry     beta= 0.30
     Davidson diagonalization with overlap
     ethr =  1.58E-10,  avg # of iterations =  4.3

     total cpu time spent up to now is     1033.5 secs

     total energy              =   -5106.05002532 Ry
     estimated scf accuracy    <       0.00000105 Ry

     total magnetization       =    27.59 Bohr mag/cell
     absolute magnetization    =    35.89 Bohr mag/cell

     iteration # 15     ecut=    60.00 Ry     beta= 0.30
     Davidson diagonalization with overlap
     ethr =  1.58E-10,  avg # of iterations =  4.7

     total cpu time spent up to now is     1053.9 secs

     total energy              =   -5106.05002270 Ry
     estimated scf accuracy    <       0.00000020 Ry

     total magnetization       =    27.59 Bohr mag/cell
     absolute magnetization    =    35.90 Bohr mag/cell

     iteration # 16     ecut=    60.00 Ry     beta= 0.30
     Davidson diagonalization with overlap
     ethr =  7.76E-11,  avg # of iterations =  5.1

     total cpu time spent up to now is     1076.6 secs

     total energy              =   -5106.05002216 Ry
     estimated scf accuracy    <       0.00000007 Ry

     total magnetization       =    27.59 Bohr mag/cell
     absolute magnetization    =    35.90 Bohr mag/cell

     iteration # 17     ecut=    60.00 Ry     beta= 0.30
     Davidson diagonalization with overlap
     ethr =  2.97E-11,  avg # of iterations =  5.1

     total cpu time spent up to now is     1099.6 secs

     total energy              =   -5106.05002221 Ry
     estimated scf accuracy    <       0.00000007 Ry

     total magnetization       =    27.59 Bohr mag/cell
     absolute magnetization    =    35.90 Bohr mag/cell

     iteration # 18     ecut=    60.00 Ry     beta= 0.30
     Davidson diagonalization with overlap
     ethr =  2.76E-11,  avg # of iterations =  1.8

     total cpu time spent up to now is     1116.6 secs

     total energy              =   -5106.05002235 Ry
     estimated scf accuracy    <       0.00000005 Ry

     total magnetization       =    27.59 Bohr mag/cell
     absolute magnetization    =    35.90 Bohr mag/cell

     iteration # 19     ecut=    60.00 Ry     beta= 0.30
     Davidson diagonalization with overlap
     ethr =  1.99E-11,  avg # of iterations =  4.0

     total cpu time spent up to now is     1138.2 secs

     total energy              =   -5106.05002218 Ry
     estimated scf accuracy    <       0.00000002 Ry

     total magnetization       =    27.59 Bohr mag/cell
     absolute magnetization    =    35.90 Bohr mag/cell

     iteration # 20     ecut=    60.00 Ry     beta= 0.30
     Davidson diagonalization with overlap
     ethr =  9.49E-12,  avg # of iterations =  3.0

     total cpu time spent up to now is     1157.7 secs

     total energy              =   -5106.05002222 Ry
     estimated scf accuracy    <       0.00000001 Ry

     total magnetization       =    27.59 Bohr mag/cell
     absolute magnetization    =    35.90 Bohr mag/cell

     iteration # 21     ecut=    60.00 Ry     beta= 0.30
     Davidson diagonalization with overlap
     ethr =  4.89E-12,  avg # of iterations =  2.3
 
     Magnetic moment per site  (integrated on atomic sphere of radius R)
     atom   1 (R=0.179)  charge= 12.0731  magn= -1.5221
     atom   2 (R=0.179)  charge= 14.3886  magn=  2.1739
     atom   3 (R=0.179)  charge= 14.3753  magn=  2.3504
     atom   4 (R=0.179)  charge= 14.3886  magn=  2.1739
     atom   5 (R=0.179)  charge= 14.3753  magn=  2.3504
     atom   6 (R=0.179)  charge= 14.3886  magn=  2.1739
     atom   7 (R=0.179)  charge= 14.3756  magn=  2.3504
     atom   8 (R=0.179)  charge= 14.3886  magn=  2.1739
     atom   9 (R=0.179)  charge= 14.3753  magn=  2.3504
     atom  10 (R=0.179)  charge= 14.3886  magn=  2.1739
     atom  11 (R=0.179)  charge= 14.3756  magn=  2.3504
     atom  12 (R=0.179)  charge= 14.3886  magn=  2.1739
     atom  13 (R=0.179)  charge= 14.3756  magn=  2.3504
     atom  14 (R=0.179)  charge= 14.3886  magn=  2.1739
     atom  15 (R=0.179)  charge= 12.0726  magn= -1.5207
     atom  16 (R=0.179)  charge= 14.3886  magn=  2.1739

     total cpu time spent up to now is     1175.2 secs

     End of self-consistent calculation

 ------ SPIN UP ------------


          k = 0.0000 0.0000 0.0000 (  9627 PWs)   bands (ev):

   -69.6885 -69.6390 -69.6390 -69.6390 -69.6335 -69.6335 -69.6335 -69.6285
   -69.6099 -69.6099 -69.6044 -69.6044 -69.6021 -69.5679 -52.6705 -52.6688
   -35.8804 -35.8804 -35.8804 -35.8577 -35.8577 -35.8577 -35.8212 -35.7785
   -35.7785 -35.7785 -35.7707 -35.7707 -35.7707 -35.7486 -35.6957 -35.6957
   -35.6957 -35.6618 -35.6618 -35.6557 -35.6557 -35.6557 -35.6264 -35.6264
   -35.6264 -35.5939 -35.5939 -35.5939 -35.5934 -35.5934 -35.5934 -35.5875
   -35.5875 -35.5840 -35.5840 -35.5840 -35.4691 -35.4691 -35.4691 -35.4508
   -35.4508 -35.4508 -24.0217 -24.0217 -24.0217 -24.0118 -24.0118 -24.0118
     9.9673  13.5054  13.5054  13.5054  13.5318  13.5318  13.5840  13.6181
    13.6181  13.7302  13.7302  13.7302  13.7941  13.7941  13.9555  15.0217
    15.0217  15.0217  15.1858  15.1858  15.1858  15.2289  15.2289  15.2289
    15.3194  15.3194  15.3194  15.3571  15.3571  15.3571  15.4598  15.7777
    15.7777  16.2721  16.2721  16.2721  16.4951  16.4951  16.4951  16.5454
    16.5454  16.5454  16.5669  16.5669  16.5669  16.9734  16.9734  16.9734
    17.1516  17.3039  17.3039  17.3364  17.3364  17.3414  17.4569  17.4569
    17.4939  17.4939  17.4939  17.4967  17.4967  17.4967  17.5465  17.5465
    17.5632  17.9573  17.9573  18.6101  18.6101  18.6101  18.6499  18.6499
    18.6499  18.6905  18.6905  18.6905  18.8278  18.8278  18.8278  18.8356
    18.8458  18.8458  18.8458  19.0374  19.0374  19.0374  19.7078

          k = 0.0000 0.0000 0.1659 (  9542 PWs)   bands (ev):

   -69.6863 -69.6455 -69.6385 -69.6385 -69.6340 -69.6340 -69.6331 -69.6286
   -69.6094 -69.6049 -69.6049 -69.6044 -69.6007 -69.5693 -52.6705 -52.6688
   -35.8762 -35.8746 -35.8746 -35.8497 -35.8497 -35.8491 -35.8240 -35.7871
   -35.7871 -35.7759 -35.7706 -35.7668 -35.7668 -35.7504 -35.7196 -35.7033
   -35.7033 -35.6928 -35.6928 -35.6909 -35.6563 -35.6247 -35.6238 -35.6134
   -35.6134 -35.5928 -35.5904 -35.5887 -35.5880 -35.5863 -35.5863 -35.5839
   -35.5839 -35.5679 -35.5665 -35.5665 -35.4776 -35.4740 -35.4740 -35.4567
   -35.4567 -35.4561 -24.0207 -24.0207 -24.0207 -24.0127 -24.0125 -24.0125
    10.1125  12.9996  13.5473  13.5473  13.5763  13.5963  13.6091  13.6569
    13.6808  13.6856  13.7777  13.7777  13.8443  13.9376  14.2086  14.9860
    15.0388  15.0388  15.0589  15.0836  15.0845  15.0845  15.1730  15.2567
    15.2567  15.2951  15.3314  15.3314  15.4681  15.5355  15.5355  15.7455
    16.0513  16.2664  16.2664  16.3108  16.3123  16.3239  16.3239  16.4037
    16.4037  16.6251  16.6395  16.7378  16.7462  16.7462  17.0767  17.1442
    17.1442  17.1673  17.1942  17.1942  17.2415  17.2940  17.3253  17.4260
    17.4582  17.4582  17.4809  17.4920  17.4991  17.5009  17.5149  17.5899
    17.6005  17.8366  17.9877  18.0054  18.0054  18.4263  18.5739  18.5739
    18.5828  18.5828  18.6029  18.7135  18.7570  18.7670  18.8508  18.8633
    18.8633  18.9848  18.9848  19.3681  19.4969  19.4969  19.8701

          k = 0.0000 0.0000 0.3318 (  9542 PWs)   bands (ev):

   -69.6797 -69.6578 -69.6375 -69.6375 -69.6348 -69.6348 -69.6323 -69.6297
   -69.6084 -69.6058 -69.6041 -69.6034 -69.5918 -69.5742 -52.6704 -52.6689
   -35.8643 -35.8583 -35.8583 -35.8333 -35.8263 -35.8263 -35.8241 -35.8088
   -35.8088 -35.7700 -35.7697 -35.7562 -35.7562 -35.7551 -35.7475 -35.7443
   -35.7443 -35.7393 -35.7194 -35.7194 -35.6406 -35.6175 -35.6101 -35.6101
   -35.6017 -35.5981 -35.5923 -35.5923 -35.5918 -35.5889 -35.5798 -35.5439
   -35.5439 -35.5336 -35.5336 -35.5293 -35.5009 -35.4881 -35.4881 -35.4740
   -35.4740 -35.4712 -24.0194 -24.0190 -24.0190 -24.0145 -24.0142 -24.0142
    10.5391  12.0759  13.6589  13.6589  13.6969  13.7219  13.8396  13.8396
    13.8512  13.8652  13.9022  13.9072  13.9288  13.9553  14.2464  14.5447
    14.7316  14.7979  15.0246  15.0246  15.0437  15.0437  15.2649  15.3881
    15.3881  15.4104  15.4104  15.4783  15.4894  15.8413  15.8699  15.8699
    15.9172  16.0201  16.0201  16.1966  16.2519  16.2519  16.3513  16.3513
    16.4301  16.4475  16.4475  16.4706  16.4834  16.8119  16.8519  16.8670
    17.0124  17.0124  17.0484  17.1167  17.1571  17.1571  17.2405  17.4185
    17.4373  17.4373  17.4619  17.5055  17.5170  17.5208  17.5291  17.5479
    17.5479  17.6705  17.9439  17.9458  18.0936  18.3027  18.3027  18.3545
    18.4051  18.4643  18.5488  18.5886  18.6431  18.6431  18.9469  18.9469
    19.1447  19.1447  19.1940  19.5745  19.5745  19.7668  19.8621

          k = 0.0000 0.0000-0.4977 (  9530 PWs)   bands (ev):

   -69.6700 -69.6700 -69.6360 -69.6360 -69.6360 -69.6360 -69.6311 -69.6311
   -69.6070 -69.6069 -69.6037 -69.6037 -69.5821 -69.5820 -52.6704 -52.6690
   -35.8481 -35.8480 -35.8349 -35.8349 -35.8348 -35.8348 -35.7898 -35.7898
   -35.7898 -35.7898 -35.7859 -35.7858 -35.7638 -35.7636 -35.7622 -35.7622
   -35.7397 -35.7397 -35.7397 -35.7397 -35.6206 -35.6204 -35.6081 -35.6081
   -35.6012 -35.6012 -35.6012 -35.6012 -35.5902 -35.5902 -35.5369 -35.5368
   -35.5115 -35.5115 -35.5114 -35.5114 -35.5008 -35.5008 -35.5007 -35.5007
   -35.4960 -35.4958 -24.0175 -24.0170 -24.0170 -24.0166 -24.0162 -24.0162
    11.2142  11.2145  13.7884  13.7884  13.7885  13.7885  13.8425  13.8427
    13.8673  13.8676  14.0767  14.0768  14.1597  14.1603  14.3163  14.3163
    14.3302  14.3305  15.0246  15.0246  15.0248  15.0248  15.5512  15.5516
    15.6345  15.6345  15.6346  15.6346  15.7956  15.7956  15.7958  15.7958
    15.7981  15.7986  15.8354  15.8355  16.2249  16.2249  16.2249  16.2249
    16.2358  16.2362  16.5526  16.5526  16.5527  16.5527  16.6167  16.6172
    16.8382  16.8382  17.0849  17.0850  17.2512  17.2512  17.2513  17.2513
    17.2896  17.2897  17.5140  17.5140  17.5299  17.5302  17.5490  17.5490
    17.9300  17.9300  17.9302  17.9302  18.2410  18.2412  18.2962  18.2962
    18.3062  18.3063  18.3309  18.3310  18.7971  18.7971  18.7973  18.7973
    19.4144  19.4144  19.4148  19.4148  19.5582  19.5584  19.9408

          k = 0.0000 0.1659 0.1659 (  9537 PWs)   bands (ev):

   -69.6842 -69.6465 -69.6428 -69.6381 -69.6347 -69.6336 -69.6336 -69.6290
   -69.6069 -69.6045 -69.6045 -69.6020 -69.6007 -69.5709 -52.6705 -52.6689
   -35.8744 -35.8696 -35.8690 -35.8451 -35.8424 -35.8352 -35.8282 -35.7923
   -35.7899 -35.7792 -35.7772 -35.7646 -35.7566 -35.7508 -35.7461 -35.7177
   -35.7132 -35.7025 -35.6980 -35.6674 -35.6624 -35.6435 -35.6360 -35.6120
   -35.6043 -35.5982 -35.5958 -35.5925 -35.5866 -35.5837 -35.5799 -35.5795
   -35.5640 -35.5590 -35.5479 -35.5423 -35.4944 -35.4785 -35.4698 -35.4662
   -35.4618 -35.4560 -24.0214 -24.0201 -24.0190 -24.0143 -24.0131 -24.0121
    10.2560  13.0278  13.1271  13.5054  13.6496  13.6532  13.6702  13.6813
    13.7196  13.7461  13.7500  13.8357  13.9462  14.2374  14.2504  14.9215
    14.9722  14.9732  15.0282  15.0659  15.0748  15.1134  15.1578  15.2266
    15.2644  15.2890  15.3411  15.3582  15.4984  15.5035  15.5499  15.8649
    15.9758  16.1430  16.1720  16.1988  16.2512  16.2977  16.4119  16.4708
    16.5650  16.6353  16.6843  16.6857  16.7210  16.7244  16.8551  16.9845
    17.0740  17.0817  17.1309  17.1715  17.1954  17.2741  17.3080  17.3189
    17.3557  17.3825  17.4535  17.4566  17.4844  17.5160  17.5318  17.7138
    17.8035  17.8064  17.8800  17.9394  18.0507  18.1035  18.1107  18.1583
    18.2798  18.4406  18.6353  18.6856  18.7625  18.8063  18.8284  18.8971
    19.1647  19.1737  19.3130  19.5269  19.7521  19.7619  19.8724

          k = 0.0000 0.1659 0.3318 (  9555 PWs)   bands (ev):

   -69.6780 -69.6569 -69.6421 -69.6371 -69.6368 -69.6345 -69.6327 -69.6300
   -69.6059 -69.6049 -69.6037 -69.6017 -69.5923 -69.5756 -52.6704 -52.6689
   -35.8667 -35.8552 -35.8538 -35.8394 -35.8248 -35.8211 -35.8082 -35.8078
   -35.8052 -35.7821 -35.7753 -35.7736 -35.7630 -35.7534 -35.7490 -35.7468
   -35.7405 -35.7208 -35.7154 -35.6956 -35.6513 -35.6361 -35.6131 -35.6128
   -35.6113 -35.6110 -35.6011 -35.5992 -35.5921 -35.5746 -35.5733 -35.5455
   -35.5410 -35.5279 -35.5243 -35.5181 -35.5098 -35.4918 -35.4848 -35.4763
   -35.4762 -35.4648 -24.0208 -24.0187 -24.0173 -24.0165 -24.0146 -24.0129
    10.6762  12.1804  13.2565  13.4770  13.7636  13.8061  13.8609  13.9166
    13.9250  13.9342  13.9448  13.9745  14.0115  14.2340  14.2973  14.5798
    14.7232  14.7766  15.0768  15.0838  15.0867  15.0960  15.1314  15.2457
    15.3213  15.3497  15.4047  15.4761  15.5700  15.7637  15.8024  15.8479
    15.8480  15.9896  16.0243  16.1269  16.1414  16.2079  16.2394  16.2692
    16.3252  16.3813  16.5394  16.5666  16.6966  16.7949  16.8003  16.8727
    16.8924  16.9135  16.9549  16.9913  17.0407  17.1539  17.2087  17.3336
    17.3766  17.4091  17.4374  17.4816  17.5199  17.5361  17.5551  17.5571
    17.6513  17.7113  17.8098  17.8495  17.9244  18.0070  18.0452  18.1445
    18.2382  18.2419  18.5369  18.6213  18.7830  18.9344  18.9436  19.1011
    19.1804  19.2444  19.4120  19.5485  19.5638  20.0666  20.1554

          k = 0.0000 0.1659-0.4977 (  9550 PWs)   bands (ev):

   -69.6685 -69.6685 -69.6396 -69.6396 -69.6358 -69.6358 -69.6313 -69.6313
   -69.6054 -69.6053 -69.6026 -69.6026 -69.5829 -69.5829 -52.6704 -52.6690
   -35.8539 -35.8538 -35.8325 -35.8324 -35.8320 -35.8319 -35.7943 -35.7942
   -35.7882 -35.7882 -35.7814 -35.7813 -35.7683 -35.7682 -35.7640 -35.7639
   -35.7329 -35.7328 -35.7199 -35.7197 -35.6313 -35.6311 -35.6253 -35.6253
   -35.6071 -35.6071 -35.6011 -35.6011 -35.5726 -35.5725 -35.5630 -35.5629
   -35.5133 -35.5133 -35.5118 -35.5117 -35.4989 -35.4988 -35.4933 -35.4933
   -35.4830 -35.4829 -24.0192 -24.0192 -24.0170 -24.0162 -24.0147 -24.0146
    11.3399  11.3402  13.4104  13.4106  13.8908  13.8908  13.9501  13.9503
    14.0714  14.0715  14.1392  14.1394  14.2184  14.2190  14.3523  14.3524
    14.3657  14.3660  15.0619  15.0622  15.0637  15.0639  15.4294  15.4298
    15.4840  15.4840  15.5655  15.5657  15.6014  15.6017  15.8364  15.8366
    15.9022  15.9023  15.9637  15.9638  16.1072  16.1074  16.1076  16.1079
    16.2147  16.2150  16.3275  16.3276  16.4727  16.4729  16.7758  16.7761
    16.9305  16.9306  17.0684  17.0685  17.2001  17.2003  17.2416  17.2417
    17.2888  17.2888  17.4540  17.4543  17.5241  17.5241  17.5783  17.5784
    17.7491  17.7494  17.7773  17.7776  17.8736  17.8736  18.0968  18.0968
    18.3022  18.3022  18.4320  18.4322  19.0250  19.0250  19.1006  19.1009
    19.1826  19.1826  19.3158  19.3158  19.9075  19.9076  20.1923

          k = 0.0000 0.3318 0.3318 (  9554 PWs)   bands (ev):

   -69.6725 -69.6568 -69.6490 -69.6415 -69.6361 -69.6336 -69.6336 -69.6310
   -69.6048 -69.6045 -69.6010 -69.5967 -69.5917 -69.5794 -52.6704 -52.6689
   -35.8661 -35.8506 -35.8473 -35.8415 -35.8116 -35.8092 -35.8072 -35.8062
   -35.8025 -35.7955 -35.7814 -35.7720 -35.7705 -35.7645 -35.7635 -35.7350
   -35.7165 -35.7128 -35.7124 -35.6655 -35.6586 -35.6503 -35.6441 -35.6301
   -35.6290 -35.6189 -35.6082 -35.6054 -35.5989 -35.5610 -35.5609 -35.5491
   -35.5400 -35.5346 -35.5113 -35.5026 -35.4994 -35.4948 -35.4865 -35.4830
   -35.4723 -35.4631 -24.0214 -24.0192 -24.0178 -24.0154 -24.0148 -24.0125
    11.0762  12.4109  12.5334  13.2133  14.0016  14.0405  14.0468  14.0702
    14.0782  14.1058  14.1306  14.1346  14.1608  14.2680  14.3649  14.6487
    14.7164  14.7567  14.8185  15.0993  15.1001  15.1670  15.1681  15.2327
    15.2713  15.2717  15.3559  15.4361  15.6378  15.6701  15.6970  15.7208
    15.8224  15.8324  15.9150  15.9242  16.0131  16.0833  16.1058  16.1688
    16.1908  16.2863  16.3163  16.3390  16.5066  16.6416  16.6741  16.8072
    16.9517  16.9971  17.0211  17.0829  17.1239  17.1300  17.2284  17.2744
    17.3234  17.3525  17.3537  17.3646  17.4175  17.4457  17.4886  17.5815
    17.5853  17.6048  17.6657  17.7075  17.8084  17.8488  17.9023  17.9120
    18.1389  18.3496  18.4197  18.6947  18.8809  19.0660  19.0764  19.1193
    19.1794  19.2692  19.3824  19.6301  19.9928  20.2668  20.5598

          k = 0.0000 0.3318-0.4977 (  9534 PWs)   bands (ev):

   -69.6645 -69.6645 -69.6467 -69.6467 -69.6348 -69.6348 -69.6323 -69.6323
   -69.6046 -69.6046 -69.5978 -69.5977 -69.5854 -69.5853 -52.6704 -52.6690
   -35.8605 -35.8604 -35.8301 -35.8300 -35.8254 -35.8253 -35.8041 -35.8040
   -35.7849 -35.7849 -35.7839 -35.7838 -35.7779 -35.7779 -35.7344 -35.7343
   -35.7212 -35.7211 -35.6905 -35.6904 -35.6480 -35.6478 -35.6458 -35.6458
   -35.6168 -35.6167 -35.6167 -35.6167 -35.5953 -35.5952 -35.5511 -35.5511
   -35.5204 -35.5204 -35.5165 -35.5163 -35.4949 -35.4949 -35.4792 -35.4792
   -35.4700 -35.4699 -24.0209 -24.0209 -24.0170 -24.0161 -24.0132 -24.0132
    11.6990  11.6992  12.8591  12.8593  14.1575  14.1575  14.1587  14.1589
    14.1799  14.1801  14.2694  14.2699  14.4186  14.4187  14.4493  14.4496
    14.4516  14.4517  15.1168  15.1168  15.1182  15.1184  15.1681  15.1683
    15.2690  15.2693  15.3263  15.3266  15.5540  15.5543  15.8029  15.8031
    15.8597  15.8597  15.8815  15.8816  15.9412  15.9415  15.9843  15.9844
    16.0058  16.0059  16.1820  16.1822  16.4242  16.4244  16.9347  16.9348
    17.0689  17.0690  17.0896  17.0898  17.1032  17.1033  17.1993  17.1995
    17.2644  17.2644  17.3134  17.3141  17.4525  17.4525  17.5039  17.5040
    17.5431  17.5435  17.6855  17.6855  17.7519  17.7519  17.8827  17.8827
    18.1435  18.1437  18.6234  18.6235  18.9831  18.9831  19.0908  19.0911
    19.2948  19.2949  19.5021  19.5024  20.4249  20.4250  20.4926

          k = 0.0000-0.4977-0.4977 (  9540 PWs)   bands (ev):

   -69.6608 -69.6608 -69.6515 -69.6515 -69.6336 -69.6336 -69.6336 -69.6336
   -69.6045 -69.6045 -69.5944 -69.5943 -69.5875 -69.5875 -52.6704 -52.6690
   -35.8630 -35.8629 -35.8238 -35.8236 -35.8214 -35.8213 -35.8180 -35.8180
   -35.7831 -35.7831 -35.7828 -35.7828 -35.7776 -35.7776 -35.7184 -35.7184
   -35.7148 -35.7147 -35.6636 -35.6634 -35.6558 -35.6556 -35.6552 -35.6552
   -35.6467 -35.6467 -35.6216 -35.6215 -35.6055 -35.6055 -35.5355 -35.5355
   -35.5309 -35.5309 -35.5171 -35.5169 -35.4930 -35.4930 -35.4746 -35.4746
   -35.4649 -35.4648 -24.0215 -24.0215 -24.0169 -24.0161 -24.0127 -24.0127
    12.1793  12.1793  12.3044  12.3049  14.1866  14.1866  14.2914  14.2919
    14.3504  14.3504  14.3734  14.3740  14.4912  14.4912  14.5252  14.5254
    14.6994  14.6994  14.8357  14.8359  15.0459  15.0459  15.0698  15.0698
    15.2349  15.2349  15.3010  15.3019  15.5660  15.5664  15.7093  15.7093
    15.7093  15.7099  15.7190  15.7190  15.8691  15.8691  15.8759  15.8762
    15.9338  15.9338  16.4023  16.4025  16.4639  16.4640  16.6735  16.6735
    17.0553  17.0553  17.1595  17.1595  17.2781  17.2781  17.2816  17.2824
    17.2889  17.2892  17.3108  17.3113  17.3396  17.3396  17.3689  17.3689
    17.3921  17.3921  17.7438  17.7438  17.7544  17.7544  17.7870  17.7870
    18.0330  18.0331  18.6997  18.6999  18.9094  18.9094  19.0730  19.0733
    19.3869  19.3869  19.5677  19.5681  20.7707  20.7707  20.7912

          k = 0.1659 0.1659 0.1659 (  9525 PWs)   bands (ev):

   -69.6820 -69.6457 -69.6457 -69.6402 -69.6345 -69.6345 -69.6339 -69.6294
   -69.6042 -69.6042 -69.6020 -69.6020 -69.6008 -69.5725 -52.6704 -52.6689
   -35.8703 -35.8658 -35.8658 -35.8431 -35.8324 -35.8271 -35.8271 -35.7934
   -35.7900 -35.7900 -35.7735 -35.7735 -35.7571 -35.7462 -35.7462 -35.7400
   -35.7179 -35.6948 -35.6948 -35.6758 -35.6649 -35.6649 -35.6362 -35.6086
   -35.6086 -35.5981 -35.5981 -35.5839 -35.5823 -35.5823 -35.5794 -35.5794
   -35.5587 -35.5490 -35.5291 -35.5291 -35.5097 -35.4750 -35.4750 -35.4689
   -35.4689 -35.4574 -24.0207 -24.0207 -24.0178 -24.0155 -24.0127 -24.0127
    10.3977  13.1097  13.1097  13.2629  13.6035  13.6035  13.6366  13.7717
    13.7717  13.8032  13.8208  13.8208  14.2884  14.3021  14.3021  14.8324
    14.9199  14.9868  14.9868  15.0697  15.1232  15.1232  15.1362  15.1362
    15.3165  15.3165  15.3614  15.4260  15.4260  15.4328  15.6263  15.8532
    15.8532  16.0730  16.0730  16.1805  16.1805  16.3074  16.5062  16.5102
    16.5102  16.6062  16.6114  16.6436  16.7080  16.7080  16.7225  16.7225
    16.9379  17.1826  17.1826  17.2521  17.2536  17.2536  17.2761  17.3329
    17.3329  17.3591  17.3925  17.3925  17.5111  17.5111  17.5151  17.5329
    17.5329  17.7216  17.8017  17.8017  17.8631  17.8631  18.0614  18.3698
    18.3698  18.3989  18.6246  18.8342  18.8342  18.8635  18.8635  18.9890
    18.9890  18.9934  19.4098  19.4098  19.9510  20.0351  20.0351

          k = 0.1659 0.1659 0.3318 (  9527 PWs)   bands (ev):

   -69.6761 -69.6560 -69.6435 -69.6395 -69.6371 -69.6357 -69.6332 -69.6304
   -69.6035 -69.6035 -69.6023 -69.6016 -69.5926 -69.5768 -52.6704 -52.6689
   -35.8643 -35.8541 -35.8500 -35.8427 -35.8260 -35.8118 -35.8061 -35.8033
   -35.7963 -35.7891 -35.7832 -35.7679 -35.7638 -35.7626 -35.7614 -35.7429
   -35.7265 -35.7210 -35.7075 -35.6826 -35.6772 -35.6448 -35.6290 -35.6284
   -35.6241 -35.6031 -35.5917 -35.5836 -35.5831 -35.5744 -35.5720 -35.5511
   -35.5398 -35.5382 -35.5222 -35.5052 -35.5036 -35.4899 -35.4870 -35.4814
   -35.4746 -35.4655 -24.0207 -24.0190 -24.0178 -24.0158 -24.0144 -24.0130
    10.8126  12.2871  13.3075  13.4018  13.5717  13.6110  13.9177  13.9395
    13.9603  13.9883  14.0127  14.0634  14.3044  14.3440  14.3594  14.6043
    14.7042  14.8352  15.0042  15.0716  15.0895  15.1549  15.1632  15.1997
    15.2387  15.3610  15.4530  15.5295  15.5310  15.6220  15.7159  15.7223
    15.8683  15.9196  15.9679  16.0437  16.0838  16.1449  16.1651  16.1721
    16.2617  16.3140  16.5028  16.5198  16.6187  16.6467  16.7371  16.7888
    16.8389  16.9296  16.9608  17.0918  17.1011  17.1864  17.1989  17.3173
    17.3711  17.4027  17.4238  17.4260  17.4285  17.4557  17.5596  17.5752
    17.6165  17.6178  17.6379  17.7981  17.9370  18.0017  18.0482  18.1319
    18.2963  18.3164  18.4358  18.5298  18.8230  18.9486  19.0484  19.1161
    19.1764  19.3069  19.3223  19.4182  19.7429  19.7868  20.6444

          k = 0.1659 0.1659-0.4977 (  9540 PWs)   bands (ev):

   -69.6670 -69.6670 -69.6404 -69.6404 -69.6377 -69.6377 -69.6318 -69.6318
   -69.6029 -69.6028 -69.6025 -69.6025 -69.5838 -69.5837 -52.6704 -52.6690
   -35.8546 -35.8545 -35.8350 -35.8349 -35.8262 -35.8261 -35.7970 -35.7970
   -35.7889 -35.7888 -35.7770 -35.7770 -35.7662 -35.7662 -35.7556 -35.7556
   -35.7454 -35.7453 -35.7002 -35.7001 -35.6535 -35.6534 -35.6381 -35.6381
   -35.6035 -35.6034 -35.5895 -35.5895 -35.5731 -35.5730 -35.5705 -35.5704
   -35.5162 -35.5161 -35.5111 -35.5111 -35.4985 -35.4984 -35.4862 -35.4861
   -35.4812 -35.4811 -24.0197 -24.0196 -24.0171 -24.0163 -24.0141 -24.0141
    11.4658  11.4661  13.4902  13.4904  13.5556  13.5557  14.1594  14.1595
    14.1671  14.1671  14.2075  14.2076  14.2780  14.2786  14.3659  14.3661
    14.4213  14.4215  15.0680  15.0682  15.1231  15.1233  15.3591  15.3594
    15.4362  15.4363  15.4931  15.4932  15.5492  15.5495  15.8128  15.8129
    15.8630  15.8631  15.9462  15.9463  16.0018  16.0019  16.0372  16.0376
    16.0672  16.0675  16.2802  16.2802  16.3018  16.3020  16.8976  16.8979
    16.9954  16.9954  17.0427  17.0427  17.1305  17.1306  17.2012  17.2015
    17.2613  17.2614  17.4306  17.4310  17.5034  17.5035  17.5936  17.5936
    17.6212  17.6214  17.7455  17.7456  17.9824  17.9825  18.0788  18.0789
    18.2971  18.2972  18.3356  18.3357  18.8866  18.8866  19.1615  19.1616
    19.3335  19.3338  19.4304  19.4306  19.5840  19.5842  21.0393

          k = 0.1659 0.3318 0.3318 (  9541 PWs)   bands (ev):

   -69.6710 -69.6555 -69.6491 -69.6412 -69.6390 -69.6357 -69.6341 -69.6317
   -69.6030 -69.6021 -69.6006 -69.5964 -69.5921 -69.5804 -52.6704 -52.6689
   -35.8614 -35.8500 -35.8434 -35.8411 -35.8154 -35.8124 -35.8052 -35.8037
   -35.7920 -35.7870 -35.7789 -35.7724 -35.7693 -35.7678 -35.7543 -35.7510
   -35.7297 -35.7014 -35.6977 -35.6929 -35.6637 -35.6587 -35.6566 -35.6519
   -35.6480 -35.5948 -35.5944 -35.5865 -35.5816 -35.5679 -35.5607 -35.5514
   -35.5414 -35.5359 -35.5080 -35.5010 -35.4957 -35.4915 -35.4874 -35.4868
   -35.4754 -35.4674 -24.0208 -24.0193 -24.0183 -24.0152 -24.0144 -24.0131
    11.2092  12.5253  12.6449  13.3358  13.5977  13.8948  13.9335  14.0811
    14.1643  14.1704  14.2434  14.2450  14.3657  14.4208  14.5295  14.6742
    14.7308  14.7874  14.8205  14.9736  15.1479  15.1813  15.2168  15.2406
    15.2437  15.3239  15.4247  15.4302  15.4571  15.5977  15.6496  15.6821
    15.7005  15.7731  15.8224  15.8263  15.9458  15.9537  16.0078  16.0978
    16.1245  16.1277  16.1478  16.1576  16.4025  16.4254  16.4499  16.9150
    16.9779  17.0396  17.0474  17.0836  17.2088  17.2089  17.2574  17.2997
    17.3247  17.3332  17.3564  17.3956  17.4173  17.4200  17.5063  17.5401
    17.5802  17.5843  17.6188  17.6826  17.9091  17.9384  18.0799  18.0805
    18.1711  18.2978  18.4068  18.4956  18.9660  18.9792  19.0122  19.1559
    19.2725  19.2745  19.3221  19.5335  19.5975  20.1167  20.3311

          k = 0.1659 0.3318-0.4977 (  9548 PWs)   bands (ev):

   -69.6631 -69.6631 -69.6464 -69.6464 -69.6373 -69.6373 -69.6331 -69.6331
   -69.6025 -69.6025 -69.5976 -69.5975 -69.5861 -69.5861 -52.6704 -52.6690
   -35.8570 -35.8569 -35.8294 -35.8293 -35.8223 -35.8221 -35.8018 -35.8018
   -35.7894 -35.7894 -35.7787 -35.7787 -35.7677 -35.7677 -35.7425 -35.7425
   -35.7286 -35.7285 -35.6774 -35.6772 -35.6771 -35.6770 -35.6642 -35.6641
   -35.6235 -35.6234 -35.5912 -35.5911 -35.5805 -35.5805 -35.5508 -35.5507
   -35.5195 -35.5193 -35.5159 -35.5159 -35.4962 -35.4961 -35.4805 -35.4804
   -35.4738 -35.4737 -24.0206 -24.0205 -24.0171 -24.0163 -24.0135 -24.0135
    11.8252  11.8255  12.9803  12.9805  13.8267  13.8269  14.2456  14.2456
    14.3374  14.3379  14.3606  14.3609  14.4285  14.4285  14.4866  14.4870
    14.5573  14.5575  15.1167  15.1168  15.1301  15.1302  15.1698  15.1700
    15.2652  15.2656  15.3417  15.3419  15.5239  15.5242  15.6944  15.6946
    15.7304  15.7306  15.7669  15.7669  15.8188  15.8191  15.8648  15.8648
    15.9554  15.9558  16.0321  16.0322  16.2658  16.2659  16.7005  16.7005
    17.1249  17.1250  17.1715  17.1715  17.1870  17.1873  17.2249  17.2252
    17.2912  17.2913  17.3775  17.3779  17.4451  17.4451  17.4908  17.4908
    17.5993  17.5993  17.7130  17.7134  17.7980  17.7980  17.9882  17.9882
    18.2683  18.2684  18.4542  18.4544  18.9990  18.9990  19.1138  19.1139
    19.1994  19.1997  19.4790  19.4793  19.8421  19.8421  20.8771

          k = 0.1659-0.4977-0.4977 (  9540 PWs)   bands (ev):

   -69.6595 -69.6595 -69.6512 -69.6512 -69.6363 -69.6363 -69.6342 -69.6342
   -69.6024 -69.6024 -69.5942 -69.5941 -69.5882 -69.5882 -52.6704 -52.6690
   -35.8582 -35.8581 -35.8202 -35.8201 -35.8180 -35.8179 -35.8156 -35.8156
   -35.7854 -35.7854 -35.7837 -35.7837 -35.7642 -35.7642 -35.7362 -35.7361
   -35.7112 -35.7112 -35.6863 -35.6862 -35.6786 -35.6786 -35.6556 -35.6556
   -35.6545 -35.6543 -35.5914 -35.5913 -35.5842 -35.5842 -35.5350 -35.5349
   -35.5259 -35.5259 -35.5185 -35.5184 -35.4963 -35.4963 -35.4781 -35.4781
   -35.4703 -35.4702 -24.0209 -24.0209 -24.0171 -24.0163 -24.0133 -24.0133
    12.3050  12.3050  12.4303  12.4307  14.1640  14.1640  14.2101  14.2105
    14.2758  14.2758  14.3852  14.3858  14.6615  14.6615  14.6891  14.6895
    14.7206  14.7206  14.8418  14.8420  15.0308  15.0308  15.0608  15.0609
    15.2695  15.2695  15.3043  15.3051  15.5132  15.5132  15.5443  15.5448
    15.6045  15.6052  15.6596  15.6596  15.7428  15.7431  15.8202  15.8202
    15.8346  15.8346  16.1058  16.1062  16.3781  16.3782  16.3873  16.3873
    17.1780  17.1780  17.2488  17.2488  17.2905  17.2906  17.3144  17.3151
    17.3450  17.3450  17.3681  17.3681  17.4186  17.4187  17.4786  17.4786
    17.4927  17.4932  17.6112  17.6112  17.7149  17.7152  17.9228  17.9228
    18.2813  18.2814  18.5130  18.5132  19.0034  19.0034  19.1289  19.1289
    19.1487  19.1491  19.4978  19.4982  20.2107  20.2107  20.4370

          k = 0.3318 0.3318 0.3318 (  9552 PWs)   bands (ev):

   -69.6663 -69.6521 -69.6521 -69.6424 -69.6410 -69.6410 -69.6351 -69.6331
   -69.5998 -69.5998 -69.5987 -69.5937 -69.5937 -69.5834 -52.6704 -52.6690
   -35.8532 -35.8495 -35.8343 -35.8343 -35.8128 -35.8128 -35.8030 -35.8017
   -35.7801 -35.7801 -35.7756 -35.7747 -35.7747 -35.7579 -35.7579 -35.7432
   -35.7332 -35.7332 -35.6890 -35.6858 -35.6858 -35.6793 -35.6793 -35.6763
   -35.6491 -35.6141 -35.5646 -35.5621 -35.5621 -35.5568 -35.5568 -35.5519
   -35.5519 -35.5283 -35.5035 -35.5009 -35.5009 -35.4880 -35.4880 -35.4862
   -35.4862 -35.4754 -24.0198 -24.0192 -24.0192 -24.0148 -24.0148 -24.0141
    11.5948  12.8427  12.8427  13.0254  13.6556  13.6556  13.7662  14.2853
    14.2853  14.3868  14.4450  14.4450  14.5927  14.6286  14.6286  14.6766
    14.7688  14.8171  14.8184  14.8184  15.1596  15.1596  15.1788  15.2967
    15.2967  15.3447  15.3447  15.4421  15.4647  15.4647  15.4747  15.5318
    15.6234  15.6234  15.6413  15.6413  15.6674  15.6674  15.7830  15.7830
    15.8725  15.9755  15.9755  15.9968  16.0602  16.1453  16.1453  16.6678
    17.0866  17.1350  17.1350  17.2349  17.2613  17.2898  17.2898  17.3681
    17.3681  17.4013  17.4013  17.4162  17.4621  17.4621  17.4764  17.5056
    17.6055  17.6055  17.7467  17.7467  17.9799  18.1100  18.1100  18.1371
    18.1371  18.1782  18.2841  18.5852  18.5852  19.0592  19.1776  19.1776
    19.2902  19.2902  19.2999  19.2999  19.5299  19.9372  19.9372

          k = 0.3318 0.3318-0.4977 (  9586 PWs)   bands (ev):

   -69.6594 -69.6594 -69.6469 -69.6469 -69.6418 -69.6418 -69.6347 -69.6347
   -69.5989 -69.5989 -69.5964 -69.5964 -69.5882 -69.5882 -52.6704 -52.6690
   -35.8505 -35.8504 -35.8235 -35.8234 -35.8156 -35.8155 -35.7995 -35.7994
   -35.7832 -35.7831 -35.7802 -35.7802 -35.7629 -35.7628 -35.7475 -35.7475
   -35.7221 -35.7220 -35.7108 -35.7106 -35.6957 -35.6957 -35.6682 -35.6681
   -35.6399 -35.6398 -35.5628 -35.5627 -35.5574 -35.5574 -35.5470 -35.5469
   -35.5235 -35.5233 -35.5105 -35.5104 -35.5013 -35.5013 -35.4845 -35.4844
   -35.4822 -35.4821 -24.0198 -24.0198 -24.0174 -24.0166 -24.0144 -24.0144
    12.1856  12.1859  13.2726  13.2728  13.3812  13.3814  14.2210  14.2212
    14.4642  14.4644  14.5157  14.5158  14.5638  14.5642  14.6466  14.6471
    14.7401  14.7401  15.0571  15.0572  15.1478  15.1479  15.1876  15.1877
    15.2438  15.2440  15.3615  15.3618  15.4152  15.4154  15.4792  15.4797
    15.4852  15.4853  15.5908  15.5909  15.6108  15.6108  15.6288  15.6292
    15.7631  15.7636  15.8999  15.9001  15.9705  15.9707  16.3112  16.3113
    17.2079  17.2080  17.2291  17.2292  17.2680  17.2681  17.3810  17.3814
    17.4369  17.4372  17.4435  17.4437  17.4935  17.4936  17.4955  17.4957
    17.5362  17.5363  17.7859  17.7863  18.0436  18.0437  18.1552  18.1555
    18.2217  18.2218  18.2302  18.2306  18.8068  18.8069  19.2434  19.2437
    19.2876  19.2879  19.3500  19.3502  19.5653  19.5655  20.3569

          k = 0.3318-0.4977-0.4977 (  9576 PWs)   bands (ev):

   -69.6556 -69.6556 -69.6502 -69.6502 -69.6426 -69.6426 -69.6355 -69.6355
   -69.5981 -69.5981 -69.5939 -69.5938 -69.5903 -69.5903 -52.6704 -52.6690
   -35.8479 -35.8478 -35.8141 -35.8140 -35.8096 -35.8096 -35.8023 -35.8022
   -35.7923 -35.7923 -35.7720 -35.7720 -35.7652 -35.7651 -35.7393 -35.7393
   -35.7252 -35.7251 -35.7147 -35.7147 -35.7097 -35.7096 -35.6791 -35.6791
   -35.6418 -35.6416 -35.5533 -35.5532 -35.5527 -35.5527 -35.5328 -35.5328
   -35.5225 -35.5223 -35.5140 -35.5140 -35.5068 -35.5068 -35.4877 -35.4877
   -35.4854 -35.4853 -24.0193 -24.0193 -24.0175 -24.0167 -24.0149 -24.0149
    12.6655  12.6655  12.7852  12.7857  13.7634  13.7634  13.8651  13.8655
    14.5244  14.5244  14.6240  14.6245  14.7737  14.7737  14.8544  14.8545
    14.9134  14.9134  14.9488  14.9488  14.9648  14.9652  15.0944  15.0947
    15.3030  15.3030  15.3125  15.3130  15.3265  15.3265  15.4058  15.4058
    15.4350  15.4357  15.4756  15.4759  15.4947  15.4953  15.5849  15.5849
    15.7095  15.7100  15.7648  15.7648  15.9899  15.9899  16.0043  16.0047
    17.2463  17.2463  17.3115  17.3115  17.3141  17.3141  17.3592  17.3595
    17.3602  17.3602  17.4820  17.4820  17.5490  17.5494  17.6101  17.6101
    17.7246  17.7253  17.8135  17.8135  17.9410  17.9412  17.9665  17.9665
    18.1643  18.1646  18.5127  18.5129  18.6564  18.6564  19.2246  19.2249
    19.2505  19.2505  19.3189  19.3193  19.7460  19.7461  19.9960

          k =-0.4977-0.4977-0.4977 (  9568 PWs)   bands (ev):

   -69.6497 -69.6497 -69.6497 -69.6497 -69.6497 -69.6497 -69.6363 -69.6363
   -69.5937 -69.5937 -69.5937 -69.5936 -69.5936 -69.5936 -52.6704 -52.6690
   -35.8429 -35.8428 -35.8012 -35.8012 -35.8012 -35.8012 -35.8012 -35.8012
   -35.7879 -35.7879 -35.7876 -35.7876 -35.7476 -35.7476 -35.7476 -35.7475
   -35.7475 -35.7475 -35.7092 -35.7092 -35.7092 -35.7091 -35.7091 -35.7091
   -35.6367 -35.6365 -35.5303 -35.5303 -35.5303 -35.5303 -35.5258 -35.5258
   -35.5258 -35.5256 -35.5256 -35.5256 -35.5005 -35.5005 -35.5005 -35.5003
   -35.5003 -35.5003 -24.0175 -24.0175 -24.0175 -24.0167 -24.0167 -24.0167
    13.1982  13.1982  13.1982  13.1984  13.1984  13.1984  13.4459  13.4466
    14.8540  14.8540  14.8540  14.8544  14.8544  14.8544  14.8609  14.8609
    14.8609  14.8610  14.8610  14.8610  15.1138  15.1138  15.1142  15.1142
    15.3190  15.3190  15.3190  15.3193  15.3193  15.3193  15.3537  15.3537
    15.3537  15.3544  15.3544  15.3544  15.3875  15.3879  15.4645  15.4645
    15.4654  15.4654  15.7511  15.7511  15.7511  15.7518  15.7518  15.7518
    17.3291  17.3291  17.3291  17.3291  17.3291  17.3291  17.3721  17.3721
    17.3721  17.3723  17.3723  17.3723  17.7801  17.7801  17.7808  17.7808
    17.8497  17.8497  17.8497  17.8497  17.8497  17.8497  18.2075  18.2075
    18.2075  18.2076  18.2076  18.2076  18.4729  18.4735  19.2490  19.2490
    19.2493  19.2493  19.5922  19.5922  19.5924  19.5924  19.5924

 ------ SPIN DOWN ----------


          k = 0.0000 0.0000 0.0000 (  9627 PWs)   bands (ev):

   -67.0974 -67.0760 -67.0760 -67.0760 -67.0694 -67.0694 -67.0694 -67.0641
   -66.8439 -66.8439 -66.8373 -66.8373 -66.8350 -66.8304 -54.2760 -54.2751
   -33.3870 -33.3870 -33.3870 -33.3607 -33.3108 -33.3108 -33.3108 -33.2916
   -33.2916 -33.2916 -33.2776 -33.2246 -33.2246 -33.2246 -33.1561 -33.1561
   -33.1160 -33.1160 -33.1160 -33.0780 -33.0780 -33.0780 -33.0712 -33.0712
   -33.0520 -33.0520 -33.0520 -32.9419 -32.9419 -32.9419 -32.9336 -32.9336
   -32.9336 -32.8706 -32.8706 -32.8706 -32.8179 -32.8179 -32.8179 -32.7950
   -32.7950 -32.7950 -25.6058 -25.6058 -25.6058 -25.5932 -25.5932 -25.5932
    10.0612  14.1018  14.1018  14.2836  14.2836  14.2836  14.3113  14.3644
    14.3644  14.3900  14.3900  14.3900  14.7357  15.2230  15.2230  16.0874
    16.0874  16.0874  16.3194  16.3194  16.3194  16.5166  16.5166  16.5166
    16.7460  16.7460  16.7460  16.9640  16.9640  17.5223  17.5223  17.5223
    17.8007  17.9074  17.9074  17.9074  17.9228  17.9228  17.9228  18.2802
    18.2802  18.2802  18.3591  18.3591  18.3591  18.4711  18.4711  18.4711
    18.9813  18.9813  18.9813  18.9878  18.9878  18.9878  19.1393  19.1944
    19.1944  19.2856  19.2856  19.3161  19.3161  19.3161  19.8255  19.8255
    19.8255  19.9426  20.1103  20.1103  20.1290  20.1290  20.2444  20.2444
    20.2444  20.2758  20.2758  20.3004  20.3004  20.5390  20.5684  20.5684
    20.5684  20.9054  20.9054  20.9054  20.9710  20.9710  20.9836

          k = 0.0000 0.0000 0.1659 (  9542 PWs)   bands (ev):

   -67.0960 -67.0772 -67.0752 -67.0752 -67.0700 -67.0700 -67.0690 -67.0640
   -66.8431 -66.8426 -66.8379 -66.8372 -66.8347 -66.8310 -54.2759 -54.2751
   -33.3844 -33.3817 -33.3817 -33.3612 -33.3156 -33.3156 -33.3079 -33.2839
   -33.2830 -33.2830 -33.2796 -33.2237 -33.2197 -33.2197 -33.1690 -33.1670
   -33.1339 -33.1339 -33.1130 -33.1091 -33.1091 -33.0773 -33.0745 -33.0718
   -33.0358 -33.0248 -33.0248 -32.9387 -32.9372 -32.9372 -32.9336 -32.9233
   -32.9233 -32.8668 -32.8668 -32.8633 -32.8262 -32.8213 -32.8213 -32.8015
   -32.8015 -32.7990 -25.6047 -25.6047 -25.6047 -25.5942 -25.5941 -25.5941
    10.2073  13.2366  14.1596  14.3220  14.3399  14.3399  14.3830  14.4190
    14.4190  14.4539  14.4905  14.7817  14.9765  15.2732  15.2863  15.9571
    16.0905  16.0905  16.3292  16.3292  16.3610  16.3892  16.6206  16.6206
    16.6556  16.7703  16.7703  16.8148  16.8961  17.3514  17.3514  17.4713
    17.7188  17.8795  17.8795  17.8965  17.8965  17.9529  18.0084  18.1575
    18.1575  18.1958  18.3549  18.4490  18.4490  18.4569  18.5502  18.5502
    18.6001  18.6021  18.6432  18.6432  18.6884  18.6884  18.9238  19.1731
    19.3370  19.4191  19.5548  19.5548  19.5630  19.6851  19.7731  19.7731
    19.8497  19.9075  20.0505  20.0693  20.1234  20.1541  20.2472  20.2666
    20.2915  20.2981  20.4423  20.4423  20.5129  20.5159  20.5189  20.5189
    20.6771  20.7142  20.9168  20.9178  20.9178  20.9389  20.9389

          k = 0.0000 0.0000 0.3318 (  9542 PWs)   bands (ev):

   -67.0919 -67.0813 -67.0741 -67.0741 -67.0709 -67.0709 -67.0683 -67.0653
   -66.8420 -66.8403 -66.8388 -66.8371 -66.8351 -66.8330 -54.2758 -54.2753
   -33.3776 -33.3674 -33.3674 -33.3640 -33.3293 -33.3293 -33.3014 -33.2849
   -33.2618 -33.2577 -33.2577 -33.2203 -33.2055 -33.2055 -33.1952 -33.1922
   -33.1737 -33.1737 -33.1498 -33.1498 -33.1057 -33.0833 -33.0762 -33.0728
   -33.0052 -32.9925 -32.9925 -32.9533 -32.9480 -32.9480 -32.9113 -32.8863
   -32.8863 -32.8572 -32.8572 -32.8485 -32.8462 -32.8307 -32.8307 -32.8201
   -32.8201 -32.8099 -25.6029 -25.6025 -25.6025 -25.5967 -25.5962 -25.5962
    10.6378  12.2212  14.2908  14.4147  14.4566  14.4566  14.4843  14.4843
    14.5424  14.6523  14.7731  14.9243  15.2693  15.4102  15.4746  15.6159
    15.9979  16.1325  16.1325  16.1904  16.3125  16.3125  16.5935  16.8400
    16.8757  16.8757  16.8836  16.8836  17.0164  17.2339  17.2339  17.3168
    17.3636  17.5702  17.5968  17.5968  17.7475  17.8095  17.8095  17.9005
    17.9005  17.9702  17.9744  17.9744  18.0699  18.0699  18.0868  18.4331
    18.5867  18.8290  18.8654  18.8654  19.0363  19.0419  19.0841  19.0841
    19.4269  19.5931  19.5931  19.6967  19.8226  19.8464  19.9153  19.9766
    19.9834  19.9834  20.0127  20.0479  20.0546  20.0546  20.1595  20.2005
    20.2339  20.2543  20.2624  20.2962  20.3511  20.5066  20.7083  20.7083
    20.7255  20.7828  20.8355  20.8355  20.8428  20.9428  20.9435

          k = 0.0000 0.0000-0.4977 (  9530 PWs)   bands (ev):

   -67.0870 -67.0870 -67.0723 -67.0723 -67.0723 -67.0723 -67.0669 -67.0669
   -66.8402 -66.8402 -66.8377 -66.8377 -66.8351 -66.8351 -54.2756 -54.2754
   -33.3698 -33.3698 -33.3482 -33.3482 -33.3482 -33.3482 -33.2928 -33.2928
   -33.2299 -33.2299 -33.2191 -33.2191 -33.2190 -33.2190 -33.2105 -33.2105
   -33.1822 -33.1822 -33.1822 -33.1822 -33.0948 -33.0948 -33.0744 -33.0744
   -32.9761 -32.9760 -32.9664 -32.9664 -32.9664 -32.9664 -32.8801 -32.8801
   -32.8494 -32.8494 -32.8494 -32.8494 -32.8438 -32.8438 -32.8438 -32.8438
   -32.8264 -32.8264 -25.6004 -25.5998 -25.5998 -25.5995 -25.5989 -25.5989
    11.3252  11.3254  14.3964  14.3968  14.5190  14.5190  14.5190  14.5190
    14.7124  14.7126  15.1706  15.1709  15.1801  15.1805  15.6357  15.6358
    15.7814  15.7817  16.2288  16.2288  16.2288  16.2288  16.9149  16.9153
    17.0237  17.0238  17.0475  17.0475  17.0477  17.0477  17.3361  17.3365
    17.4120  17.4120  17.4121  17.4121  17.4813  17.4813  17.4813  17.4813
    17.5087  17.5091  17.9223  17.9223  17.9225  17.9225  18.3020  18.3022
    18.7943  18.7952  19.1982  19.1985  19.2828  19.2828  19.2833  19.2833
    19.4695  19.4697  19.5566  19.5566  19.5568  19.5568  19.8810  19.8811
    19.9641  19.9644  20.1328  20.1328  20.2107  20.2108  20.2560  20.2562
    20.3584  20.3584  20.3927  20.3927  20.3930  20.3930  20.4383  20.4383
    20.4627  20.4630  20.9393  20.9393  20.9393  20.9393  21.0064

          k = 0.0000 0.1659 0.1659 (  9537 PWs)   bands (ev):

   -67.0947 -67.0770 -67.0763 -67.0747 -67.0705 -67.0696 -67.0696 -67.0644
   -66.8424 -66.8420 -66.8380 -66.8375 -66.8348 -66.8317 -54.2759 -54.2752
   -33.3820 -33.3774 -33.3767 -33.3618 -33.3198 -33.3151 -33.3106 -33.2817
   -33.2804 -33.2749 -33.2706 -33.2299 -33.2149 -33.2082 -33.1853 -33.1762
   -33.1453 -33.1428 -33.1210 -33.1162 -33.1083 -33.0837 -33.0767 -33.0743
   -33.0363 -33.0147 -33.0091 -32.9451 -32.9403 -32.9399 -32.9247 -32.9119
   -32.9093 -32.8639 -32.8632 -32.8550 -32.8396 -32.8244 -32.8183 -32.8095
   -32.8071 -32.7996 -25.6056 -25.6040 -25.6026 -25.5964 -25.5948 -25.5935
    10.3519  13.3273  13.3287  14.2951  14.3103  14.4004  14.4918  14.5139
    14.5318  14.5479  14.8500  14.9733  15.0714  15.3304  15.3432  15.8988
    16.0742  16.0801  16.3438  16.3794  16.4067  16.4475  16.4738  16.5973
    16.6640  16.6994  16.7772  16.8033  16.8731  17.2160  17.2169  17.4956
    17.5260  17.7717  17.8188  17.8662  17.9243  17.9912  18.0219  18.0474
    18.0548  18.1751  18.2365  18.3011  18.3224  18.3364  18.3490  18.3826
    18.4162  18.4910  18.6076  18.6400  18.7604  18.7948  19.1406  19.2226
    19.2375  19.3440  19.5638  19.6887  19.7208  19.7675  19.8161  19.8463
    19.8896  19.9631  20.0396  20.0499  20.1214  20.1241  20.1838  20.2456
    20.2552  20.2645  20.2832  20.3296  20.3700  20.3958  20.5684  20.6150
    20.6558  20.6661  20.7594  20.9498  20.9954  21.0425  21.2522

          k = 0.0000 0.1659 0.3318 (  9555 PWs)   bands (ev):

   -67.0910 -67.0807 -67.0752 -67.0736 -67.0717 -67.0707 -67.0686 -67.0656
   -66.8414 -66.8400 -66.8388 -66.8373 -66.8353 -66.8337 -54.2757 -54.2753
   -33.3764 -33.3647 -33.3645 -33.3631 -33.3314 -33.3269 -33.3051 -33.2877
   -33.2632 -33.2515 -33.2439 -33.2314 -33.2126 -33.2009 -33.1988 -33.1893
   -33.1755 -33.1731 -33.1501 -33.1319 -33.1105 -33.0860 -33.0847 -33.0777
   -33.0122 -32.9968 -32.9838 -32.9598 -32.9530 -32.9480 -32.9091 -32.8829
   -32.8792 -32.8629 -32.8559 -32.8507 -32.8384 -32.8329 -32.8269 -32.8231
   -32.8230 -32.8071 -25.6048 -25.6021 -25.6001 -25.5993 -25.5967 -25.5945
    10.7769  12.3352  13.5710  14.1301  14.4857  14.5286  14.5701  14.6056
    14.7867  14.8173  15.0264  15.1093  15.3199  15.4659  15.5274  15.6330
    15.9774  16.1198  16.1962  16.2401  16.3372  16.3590  16.5729  16.6036
    16.7855  16.8360  16.8408  16.9011  17.0790  17.0820  17.1060  17.2322
    17.3577  17.4188  17.6114  17.6543  17.6612  17.6950  17.7585  17.7675
    17.8016  17.8549  17.8633  17.8821  17.8838  17.9395  18.2731  18.6000
    18.6756  18.8025  18.8294  18.8720  19.0424  19.0517  19.0709  19.1536
    19.3373  19.5052  19.5879  19.6183  19.7603  19.8327  19.8619  19.8864
    19.9084  19.9176  19.9423  20.0111  20.1421  20.1838  20.1882  20.2121
    20.2234  20.2660  20.2822  20.3584  20.3745  20.3839  20.4804  20.4934
    20.5762  20.5850  20.6117  20.9082  21.0470  21.1176  21.3504

          k = 0.0000 0.1659-0.4977 (  9550 PWs)   bands (ev):

   -67.0859 -67.0859 -67.0735 -67.0735 -67.0722 -67.0721 -67.0671 -67.0671
   -66.8401 -66.8401 -66.8377 -66.8377 -66.8353 -66.8353 -54.2756 -54.2754
   -33.3698 -33.3698 -33.3478 -33.3477 -33.3448 -33.3448 -33.2962 -33.2962
   -33.2379 -33.2379 -33.2224 -33.2224 -33.2161 -33.2161 -33.2083 -33.2083
   -33.1787 -33.1787 -33.1634 -33.1634 -33.0988 -33.0988 -33.0816 -33.0816
   -32.9817 -32.9816 -32.9747 -32.9747 -32.9626 -32.9625 -32.8880 -32.8880
   -32.8521 -32.8521 -32.8481 -32.8481 -32.8444 -32.8444 -32.8353 -32.8353
   -32.8209 -32.8209 -25.6028 -25.6027 -25.5998 -25.5989 -25.5968 -25.5968
    11.4549  11.4551  13.8750  13.8752  14.6017  14.6017  14.6142  14.6145
    15.0556  15.0558  15.2194  15.2198  15.2442  15.2445  15.6682  15.6683
    15.8265  15.8267  16.2446  16.2446  16.2662  16.2662  16.7915  16.7915
    16.8358  16.8361  17.0137  17.0140  17.0495  17.0496  17.2143  17.2145
    17.2851  17.2855  17.3813  17.3814  17.4384  17.4385  17.4707  17.4708
    17.5860  17.5861  17.7450  17.7452  17.8677  17.8678  18.5062  18.5064
    18.8558  18.8566  19.1492  19.1494  19.1888  19.1891  19.2305  19.2309
    19.3790  19.3792  19.4484  19.4485  19.5482  19.5484  19.8594  19.8595
    19.9500  19.9501  20.0985  20.0988  20.1332  20.1332  20.2040  20.2041
    20.3088  20.3089  20.3218  20.3218  20.4027  20.4028  20.4495  20.4496
    20.5421  20.5422  20.6846  20.6846  21.1988  21.1988  21.2363

          k = 0.0000 0.3318 0.3318 (  9554 PWs)   bands (ev):

   -67.0879 -67.0798 -67.0777 -67.0736 -67.0725 -67.0696 -67.0696 -67.0667
   -66.8400 -66.8392 -66.8386 -66.8375 -66.8359 -66.8350 -54.2757 -54.2754
   -33.3736 -33.3664 -33.3566 -33.3514 -33.3372 -33.3247 -33.3107 -33.2950
   -33.2579 -33.2377 -33.2374 -33.2340 -33.2195 -33.2112 -33.1883 -33.1866
   -33.1791 -33.1634 -33.1553 -33.1177 -33.1149 -33.0963 -33.0939 -33.0890
   -33.0195 -32.9965 -32.9736 -32.9714 -32.9679 -32.9495 -32.9066 -32.8834
   -32.8700 -32.8631 -32.8519 -32.8388 -32.8385 -32.8364 -32.8316 -32.8245
   -32.8192 -32.8068 -25.6057 -25.6027 -25.6009 -25.5978 -25.5970 -25.5940
    11.1849  12.6347  12.6833  13.6613  14.6890  14.7010  14.7390  14.8484
    14.9394  14.9901  15.2604  15.3662  15.4724  15.6075  15.6149  15.6635
    15.9052  16.0707  16.1634  16.3710  16.3786  16.3871  16.4140  16.5361
    16.5778  16.7048  16.8641  16.8824  16.9062  16.9411  17.0805  17.0964
    17.2050  17.2632  17.3052  17.4599  17.4716  17.4801  17.5403  17.5452
    17.5948  17.6887  17.6904  17.6973  17.8383  18.1159  18.3509  18.5450
    18.8223  18.9439  18.9819  18.9918  19.0162  19.0369  19.2250  19.2621
    19.3317  19.3399  19.3657  19.4215  19.5670  19.6703  19.7739  19.7953
    19.8864  19.9011  20.0095  20.0484  20.0920  20.1137  20.1225  20.2058
    20.2061  20.2357  20.2814  20.3184  20.3559  20.3935  20.4295  20.4531
    20.5192  20.6529  20.6657  20.9598  21.3432  21.3802  22.0542

          k = 0.0000 0.3318-0.4977 (  9534 PWs)   bands (ev):

   -67.0835 -67.0835 -67.0760 -67.0760 -67.0710 -67.0710 -67.0683 -67.0682
   -66.8390 -66.8389 -66.8377 -66.8376 -66.8364 -66.8363 -54.2756 -54.2755
   -33.3699 -33.3699 -33.3459 -33.3459 -33.3363 -33.3362 -33.3044 -33.3044
   -33.2520 -33.2519 -33.2273 -33.2273 -33.2095 -33.2095 -33.1952 -33.1952
   -33.1707 -33.1706 -33.1349 -33.1349 -33.1069 -33.1069 -33.0967 -33.0967
   -32.9998 -32.9998 -32.9876 -32.9876 -32.9555 -32.9555 -32.8990 -32.8990
   -32.8535 -32.8535 -32.8458 -32.8458 -32.8455 -32.8454 -32.8241 -32.8241
   -32.8128 -32.8128 -25.6050 -25.6049 -25.5997 -25.5989 -25.5948 -25.5948
    11.8309  11.8312  13.1345  13.1346  14.7911  14.7911  14.8704  14.8708
    15.2579  15.2581  15.3318  15.3322  15.4884  15.4887  15.7205  15.7206
    15.9097  15.9099  16.1996  16.1996  16.3477  16.3477  16.5013  16.5014
    16.7051  16.7052  16.8096  16.8097  16.9091  16.9093  16.9725  16.9726
    17.0991  17.0996  17.2568  17.2568  17.3264  17.3267  17.5087  17.5089
    17.6016  17.6017  17.7539  17.7540  17.7555  17.7555  18.7044  18.7044
    18.8586  18.8587  18.9014  18.9016  19.1471  19.1476  19.2062  19.2064
    19.2231  19.2232  19.4536  19.4539  19.7075  19.7076  19.7076  19.7078
    19.8052  19.8052  19.9117  19.9121  20.0847  20.0847  20.1820  20.1821
    20.2262  20.2263  20.2783  20.2783  20.3172  20.3172  20.4800  20.4800
    20.6113  20.6114  20.8699  20.8700  21.7376  21.7377  21.7537

          k = 0.0000-0.4977-0.4977 (  9540 PWs)   bands (ev):

   -67.0811 -67.0811 -67.0784 -67.0784 -67.0697 -67.0697 -67.0697 -67.0697
   -66.8377 -66.8377 -66.8377 -66.8376 -66.8376 -66.8376 -54.2756 -54.2755
   -33.3701 -33.3701 -33.3445 -33.3445 -33.3297 -33.3297 -33.3108 -33.3108
   -33.2588 -33.2588 -33.2273 -33.2273 -33.2058 -33.2058 -33.1895 -33.1895
   -33.1656 -33.1656 -33.1195 -33.1195 -33.1099 -33.1099 -33.1066 -33.1066
   -33.0140 -33.0140 -32.9919 -32.9919 -32.9522 -32.9522 -32.9036 -32.9036
   -32.8533 -32.8533 -32.8463 -32.8463 -32.8444 -32.8444 -32.8198 -32.8197
   -32.8096 -32.8096 -25.6058 -25.6058 -25.5997 -25.5989 -25.5942 -25.5942
    12.3826  12.3830  12.4484  12.4484  14.8986  14.8986  15.0320  15.0325
    15.4059  15.4059  15.4374  15.4378  15.5818  15.5821  15.7059  15.7066
    15.9112  15.9112  16.0700  16.0700  16.3914  16.3916  16.4216  16.4216
    16.6808  16.6811  16.7038  16.7038  16.7525  16.7526  16.8239  16.8239
    17.1227  17.1235  17.1983  17.1983  17.2351  17.2351  17.3897  17.3900
    17.6182  17.6184  17.6760  17.6760  18.0822  18.0822  18.3159  18.3159
    18.8938  18.8939  19.0808  19.0808  19.1040  19.1040  19.2026  19.2032
    19.2324  19.2325  19.3852  19.3855  19.6883  19.6883  19.7344  19.7344
    19.7479  19.7487  19.8499  19.8499  20.1299  20.1301  20.1387  20.1388
    20.1647  20.1647  20.1747  20.1747  20.3134  20.3134  20.4804  20.4804
    20.6891  20.6891  20.9371  20.9373  22.3144  22.3149  22.3690

          k = 0.1659 0.1659 0.1659 (  9525 PWs)   bands (ev):

   -67.0934 -67.0765 -67.0765 -67.0755 -67.0701 -67.0701 -67.0700 -67.0648
   -66.8416 -66.8416 -66.8378 -66.8378 -66.8349 -66.8325 -54.2758 -54.2752
   -33.3788 -33.3732 -33.3732 -33.3624 -33.3203 -33.3153 -33.3153 -33.2839
   -33.2764 -33.2635 -33.2635 -33.2247 -33.2247 -33.1940 -33.1913 -33.1913
   -33.1579 -33.1335 -33.1335 -33.1161 -33.1161 -33.0909 -33.0786 -33.0786
   -33.0375 -33.0016 -33.0016 -32.9469 -32.9469 -32.9426 -32.9130 -32.9130
   -32.8937 -32.8665 -32.8513 -32.8513 -32.8500 -32.8223 -32.8223 -32.8131
   -32.8131 -32.8012 -25.6047 -25.6047 -25.6009 -25.5980 -25.5943 -25.5943
    10.4950  13.4168  13.4168  13.4333  14.3782  14.3782  14.4954  14.6415
    14.6415  14.9483  15.0073  15.0073  15.1933  15.3954  15.3954  15.8677
    16.0924  16.0924  16.3665  16.3828  16.3828  16.4429  16.5055  16.5055
    16.6277  16.6277  16.7927  16.8658  16.8658  16.9640  17.3639  17.3639
    17.4074  17.6225  17.7778  17.7778  17.8794  17.8794  17.9205  17.9205
    17.9818  18.1085  18.1169  18.1169  18.1472  18.1472  18.2263  18.2454
    18.5033  18.5033  18.7216  18.7216  18.8812  18.9284  19.2647  19.2647
    19.3717  19.3717  19.4345  19.6656  19.7498  19.7498  19.8128  19.8464
    19.9117  20.0095  20.0095  20.0661  20.0661  20.1163  20.1163  20.2280
    20.2280  20.2485  20.2485  20.3277  20.4137  20.4137  20.6480  20.6480
    20.6517  20.6517  20.6538  20.7079  21.0581  21.1060  21.1060

          k = 0.1659 0.1659 0.3318 (  9527 PWs)   bands (ev):

   -67.0899 -67.0800 -67.0751 -67.0744 -67.0714 -67.0712 -67.0690 -67.0659
   -66.8408 -66.8397 -66.8386 -66.8374 -66.8354 -66.8341 -54.2757 -54.2753
   -33.3739 -33.3644 -33.3615 -33.3607 -33.3295 -33.3281 -33.3087 -33.2902
   -33.2601 -33.2454 -33.2375 -33.2288 -33.2153 -33.2092 -33.2086 -33.1803
   -33.1734 -33.1684 -33.1447 -33.1277 -33.1212 -33.0941 -33.0905 -33.0838
   -33.0178 -32.9890 -32.9800 -32.9613 -32.9557 -32.9527 -32.9036 -32.8866
   -32.8693 -32.8689 -32.8589 -32.8418 -32.8349 -32.8348 -32.8278 -32.8268
   -32.8219 -32.8078 -25.6047 -25.6025 -25.6009 -25.5983 -25.5965 -25.5946
    10.9152  12.4502  13.6563  13.6908  14.2127  14.2837  14.7414  14.8086
    14.8883  15.0422  15.1700  15.2531  15.3773  15.5268  15.5840  15.6671
    15.9841  16.1538  16.2074  16.2317  16.3568  16.3984  16.4793  16.5622
    16.7121  16.7782  16.8542  16.8931  16.8971  17.0515  17.1220  17.2400
    17.2551  17.3309  17.4735  17.5308  17.5795  17.6324  17.6774  17.6835
    17.7246  17.7264  17.7287  17.7797  17.8178  17.8630  18.4254  18.4396
    18.7193  18.8285  18.8902  18.9831  19.1089  19.1512  19.1781  19.2525
    19.2881  19.3358  19.5427  19.5776  19.7663  19.7764  19.8166  19.8650
    19.8937  19.9464  20.0647  20.0894  20.1000  20.1387  20.1533  20.1784
    20.2362  20.2665  20.2915  20.3310  20.3649  20.4424  20.4583  20.4663
    20.6136  20.6287  20.6745  20.7135  20.7858  20.8029  21.8444

          k = 0.1659 0.1659-0.4977 (  9540 PWs)   bands (ev):

   -67.0850 -67.0850 -67.0733 -67.0733 -67.0729 -67.0729 -67.0675 -67.0675
   -66.8398 -66.8397 -66.8377 -66.8377 -66.8356 -66.8356 -54.2756 -54.2755
   -33.3686 -33.3686 -33.3451 -33.3450 -33.3442 -33.3441 -33.2992 -33.2992
   -33.2350 -33.2350 -33.2319 -33.2318 -33.2096 -33.2096 -33.2044 -33.2043
   -33.1806 -33.1806 -33.1502 -33.1502 -33.1061 -33.1061 -33.0901 -33.0901
   -32.9860 -32.9860 -32.9737 -32.9736 -32.9633 -32.9633 -32.8882 -32.8882
   -32.8577 -32.8576 -32.8446 -32.8446 -32.8445 -32.8445 -32.8308 -32.8308
   -32.8195 -32.8195 -25.6034 -25.6033 -25.5999 -25.5991 -25.5961 -25.5961
    11.5844  11.5846  13.9582  13.9584  14.0191  14.0192  14.9690  14.9693
    15.1528  15.1530  15.2041  15.2044  15.3945  15.3948  15.7086  15.7088
    15.8764  15.8766  16.2672  16.2672  16.2872  16.2872  16.6546  16.6548
    16.8356  16.8357  16.9234  16.9238  17.0211  17.0214  17.0881  17.0882
    17.2208  17.2210  17.2702  17.2702  17.4497  17.4498  17.4576  17.4576
    17.5155  17.5156  17.6793  17.6794  17.7590  17.7592  18.6689  18.6691
    18.8507  18.8509  18.9264  18.9272  19.1460  19.1464  19.3089  19.3091
    19.3096  19.3101  19.5975  19.5976  19.6152  19.6154  19.8484  19.8485
    19.9551  19.9552  20.0648  20.0649  20.1587  20.1587  20.2171  20.2172
    20.2944  20.2944  20.3302  20.3303  20.3551  20.3552  20.5105  20.5107
    20.5903  20.5903  20.5994  20.5994  20.6442  20.6443  22.2271

          k = 0.1659 0.3318 0.3318 (  9541 PWs)   bands (ev):

   -67.0870 -67.0790 -67.0772 -67.0735 -67.0731 -67.0703 -67.0701 -67.0672
   -66.8396 -66.8390 -66.8384 -66.8376 -66.8360 -66.8353 -54.2757 -54.2754
   -33.3699 -33.3650 -33.3539 -33.3507 -33.3346 -33.3255 -33.3144 -33.2971
   -33.2517 -33.2383 -33.2337 -33.2213 -33.2210 -33.2148 -33.1964 -33.1885
   -33.1758 -33.1516 -33.1485 -33.1328 -33.1216 -33.1069 -33.1024 -33.0978
   -33.0213 -32.9827 -32.9762 -32.9673 -32.9651 -32.9526 -32.8983 -32.8812
   -32.8761 -32.8555 -32.8549 -32.8429 -32.8345 -32.8338 -32.8324 -32.8251
   -32.8220 -32.8102 -25.6049 -25.6030 -25.6016 -25.5975 -25.5965 -25.5947
    11.3199  12.7566  12.7972  13.7832  13.9470  14.5169  14.6432  15.0427
    15.0854  15.1883  15.4396  15.4396  15.5019  15.6661  15.6839  15.7300
    15.9431  16.0858  16.2125  16.2725  16.3598  16.3794  16.4479  16.5001
    16.6045  16.7159  16.7456  16.7858  16.9273  17.0251  17.0313  17.0851
    17.0969  17.1513  17.2366  17.3425  17.3484  17.4068  17.4633  17.5044
    17.5350  17.5550  17.5685  17.6441  17.7115  17.9393  18.0797  18.6924
    18.8301  18.9557  18.9914  19.0582  19.1065  19.1228  19.2525  19.2728
    19.4323  19.4683  19.5043  19.5166  19.6263  19.7485  19.8256  19.8773
    19.8990  19.9372  19.9798  20.0592  20.0787  20.0937  20.1764  20.1964
    20.2348  20.2473  20.2888  20.3134  20.3701  20.3856  20.4191  20.4304
    20.4601  20.5549  20.5593  20.6965  20.7754  21.3854  21.4170

          k = 0.1659 0.3318-0.4977 (  9548 PWs)   bands (ev):

   -67.0827 -67.0827 -67.0756 -67.0755 -67.0719 -67.0719 -67.0687 -67.0687
   -66.8388 -66.8388 -66.8377 -66.8377 -66.8365 -66.8365 -54.2756 -54.2755
   -33.3669 -33.3669 -33.3435 -33.3434 -33.3364 -33.3363 -33.3069 -33.3069
   -33.2464 -33.2464 -33.2261 -33.2261 -33.2038 -33.2037 -33.1993 -33.1993
   -33.1701 -33.1701 -33.1324 -33.1324 -33.1200 -33.1200 -33.1079 -33.1079
   -33.0033 -33.0033 -32.9762 -32.9761 -32.9548 -32.9547 -32.8919 -32.8919
   -32.8576 -32.8576 -32.8452 -32.8452 -32.8437 -32.8437 -32.8254 -32.8254
   -32.8157 -32.8157 -25.6045 -25.6045 -25.5999 -25.5991 -25.5952 -25.5952
    11.9597  11.9599  13.2557  13.2559  14.2923  14.2924  15.0174  15.0177
    15.2389  15.2393  15.3783  15.3786  15.6774  15.6777  15.7927  15.7929
    15.9767  15.9768  16.2290  16.2290  16.3331  16.3332  16.4430  16.4431
    16.7188  16.7189  16.7926  16.7927  16.8496  16.8497  16.9714  16.9717
    17.0146  17.0148  17.1744  17.1746  17.3173  17.3174  17.4505  17.4505
    17.4918  17.4920  17.5361  17.5362  17.6797  17.6798  18.3488  18.3489
    18.9723  18.9724  19.0649  19.0655  19.1829  19.1834  19.3144  19.3147
    19.4293  19.4296  19.5424  19.5426  19.7527  19.7527  19.8181  19.8183
    19.8550  19.8551  19.9577  19.9579  20.0800  20.0801  20.1632  20.1633
    20.2180  20.2181  20.2705  20.2705  20.3115  20.3116  20.4378  20.4378
    20.5084  20.5084  20.7179  20.7179  20.9852  20.9853  22.1378

          k = 0.1659-0.4977-0.4977 (  9540 PWs)   bands (ev):

   -67.0804 -67.0804 -67.0779 -67.0779 -67.0704 -67.0704 -67.0701 -67.0701
   -66.8377 -66.8377 -66.8376 -66.8376 -66.8375 -66.8375 -54.2756 -54.2755
   -33.3663 -33.3662 -33.3424 -33.3424 -33.3295 -33.3295 -33.3132 -33.3132
   -33.2527 -33.2527 -33.2218 -33.2218 -33.1987 -33.1987 -33.1984 -33.1983
   -33.1619 -33.1619 -33.1281 -33.1281 -33.1266 -33.1265 -33.1144 -33.1144
   -33.0146 -33.0146 -32.9776 -32.9775 -32.9495 -32.9495 -32.8950 -32.8950
   -32.8542 -32.8542 -32.8458 -32.8458 -32.8453 -32.8453 -32.8235 -32.8234
   -32.8137 -32.8137 -25.6050 -25.6050 -25.5999 -25.5990 -25.5949 -25.5949
    12.5132  12.5136  12.5705  12.5705  14.6218  14.6218  14.7864  14.7869
    15.3243  15.3247  15.5866  15.5866  15.7134  15.7140  15.9223  15.9226
    16.0044  16.0044  16.0795  16.0795  16.3457  16.3459  16.4354  16.4354
    16.6397  16.6399  16.7071  16.7071  16.7660  16.7660  16.8232  16.8233
    17.0369  17.0376  17.1132  17.1132  17.2471  17.2471  17.3506  17.3509
    17.4997  17.4997  17.5063  17.5065  17.8440  17.8440  17.9817  17.9818
    19.1210  19.1214  19.1809  19.1809  19.2346  19.2353  19.3185  19.3188
    19.4082  19.4082  19.5699  19.5702  19.7108  19.7108  19.7760  19.7767
    19.7954  19.7954  19.8970  19.8970  20.1174  20.1175  20.1351  20.1351
    20.1398  20.1399  20.1630  20.1630  20.2842  20.2843  20.4410  20.4410
    20.5486  20.5486  20.7756  20.7757  21.5287  21.5289  21.5610

          k = 0.3318 0.3318 0.3318 (  9552 PWs)   bands (ev):

   -67.0843 -67.0773 -67.0773 -67.0749 -67.0723 -67.0723 -67.0713 -67.0683
   -66.8387 -66.8387 -66.8380 -66.8380 -66.8364 -66.8361 -54.2756 -54.2754
   -33.3633 -33.3623 -33.3463 -33.3463 -33.3313 -33.3237 -33.3237 -33.3035
   -33.2352 -33.2299 -33.2299 -33.2268 -33.2268 -33.1964 -33.1964 -33.1856
   -33.1674 -33.1674 -33.1367 -33.1362 -33.1362 -33.1279 -33.1200 -33.1200
   -33.0214 -32.9925 -32.9604 -32.9604 -32.9558 -32.9558 -32.8799 -32.8799
   -32.8785 -32.8550 -32.8476 -32.8447 -32.8447 -32.8302 -32.8302 -32.8267
   -32.8267 -32.8173 -25.6035 -25.6028 -25.6028 -25.5969 -25.5969 -25.5961
    11.7140  13.0948  13.1199  13.1199  14.0989  14.0989  14.2122  15.1921
    15.2692  15.2692  15.5161  15.5161  15.7215  15.7594  15.8747  15.8747
    16.1216  16.1620  16.1620  16.3178  16.3178  16.4075  16.4075  16.4376
    16.5422  16.6813  16.6813  16.8225  16.8225  16.9062  16.9313  17.0883
    17.0883  17.0887  17.0887  17.1173  17.1330  17.2260  17.2260  17.2947
    17.3817  17.3817  17.4998  17.4998  17.6003  17.6003  17.6924  18.2749
    18.9999  19.1352  19.1352  19.2380  19.2380  19.3110  19.3110  19.5007
    19.5355  19.6779  19.6779  19.6806  19.8399  19.8399  19.8745  19.8823
    19.9674  19.9674  20.0133  20.0133  20.1031  20.1031  20.1078  20.1078
    20.1732  20.1732  20.1983  20.2551  20.3354  20.3492  20.3492  20.4335
    20.4335  20.4392  20.4392  20.5132  20.8688  20.8718  20.8718

          k = 0.3318 0.3318-0.4977 (  9586 PWs)   bands (ev):

   -67.0807 -67.0807 -67.0748 -67.0748 -67.0736 -67.0736 -67.0702 -67.0702
   -66.8384 -66.8383 -66.8377 -66.8377 -66.8370 -66.8370 -54.2756 -54.2755
   -33.3610 -33.3610 -33.3374 -33.3373 -33.3355 -33.3354 -33.3135 -33.3135
   -33.2348 -33.2347 -33.2257 -33.2257 -33.2033 -33.2032 -33.1895 -33.1895
   -33.1653 -33.1653 -33.1465 -33.1464 -33.1323 -33.1323 -33.1303 -33.1303
   -33.0114 -33.0114 -32.9577 -32.9577 -32.9505 -32.9505 -32.8792 -32.8792
   -32.8611 -32.8610 -32.8446 -32.8446 -32.8443 -32.8443 -32.8284 -32.8283
   -32.8223 -32.8223 -25.6035 -25.6035 -25.6003 -25.5994 -25.5964 -25.5964
    12.3324  12.3326  13.5906  13.5908  13.6121  13.6122  14.6564  14.6567
    15.4276  15.4280  15.5381  15.5385  15.8802  15.8804  15.9913  15.9915
    16.1277  16.1278  16.2951  16.2952  16.3049  16.3049  16.3641  16.3641
    16.7084  16.7087  16.7234  16.7236  16.8063  16.8066  16.8751  16.8756
    17.0035  17.0035  17.0472  17.0474  17.2080  17.2082  17.2420  17.2421
    17.2933  17.2933  17.3730  17.3731  17.4363  17.4366  17.8285  17.8287
    19.2217  19.2224  19.2595  19.2600  19.2755  19.2756  19.5568  19.5573
    19.6147  19.6148  19.7396  19.7398  19.8507  19.8511  19.8863  19.8864
    19.9113  19.9115  20.0448  20.0450  20.0988  20.0989  20.1471  20.1472
    20.1873  20.1873  20.2490  20.2490  20.3121  20.3123  20.3664  20.3665
    20.4420  20.4422  20.4530  20.4531  20.4751  20.4752  21.5019

          k = 0.3318-0.4977-0.4977 (  9576 PWs)   bands (ev):

   -67.0785 -67.0785 -67.0767 -67.0767 -67.0726 -67.0726 -67.0716 -67.0716
   -66.8378 -66.8378 -66.8377 -66.8376 -66.8375 -66.8375 -54.2756 -54.2755
   -33.3581 -33.3581 -33.3367 -33.3367 -33.3289 -33.3288 -33.3197 -33.3197
   -33.2364 -33.2363 -33.2139 -33.2138 -33.2056 -33.2056 -33.1801 -33.1801
   -33.1592 -33.1591 -33.1576 -33.1576 -33.1517 -33.1517 -33.1326 -33.1326
   -33.0156 -33.0156 -32.9530 -32.9530 -32.9441 -32.9441 -32.8757 -32.8757
   -32.8563 -32.8562 -32.8487 -32.8487 -32.8436 -32.8436 -32.8321 -32.8321
   -32.8247 -32.8247 -25.6029 -25.6029 -25.6003 -25.5995 -25.5971 -25.5971
    12.8907  12.8911  12.9224  12.9224  14.0704  14.0704  14.1530  14.1534
    15.5257  15.5262  15.7287  15.7294  15.8569  15.8569  16.0888  16.0888
    16.2071  16.2072  16.2612  16.2612  16.3370  16.3372  16.4877  16.4877
    16.5995  16.5997  16.6972  16.6972  16.7362  16.7362  16.9122  16.9129
    16.9481  16.9483  17.0078  17.0078  17.1125  17.1125  17.2051  17.2051
    17.2459  17.2461  17.2647  17.2649  17.4000  17.4000  17.4637  17.4640
    19.2937  19.2943  19.3104  19.3110  19.4837  19.4837  19.5961  19.5966
    19.7673  19.7673  19.8686  19.8693  19.8805  19.8805  19.9647  19.9650
    19.9746  19.9746  20.0123  20.0123  20.0193  20.0193  20.0699  20.0701
    20.1184  20.1184  20.1418  20.1419  20.2130  20.2133  20.2344  20.2344
    20.3548  20.3548  20.4320  20.4321  20.9333  20.9336  20.9399

          k =-0.4977-0.4977-0.4977 (  9568 PWs)   bands (ev):

   -67.0755 -67.0755 -67.0755 -67.0755 -67.0755 -67.0755 -67.0727 -67.0727
   -66.8376 -66.8376 -66.8376 -66.8376 -66.8376 -66.8376 -54.2756 -54.2755
   -33.3537 -33.3537 -33.3283 -33.3283 -33.3283 -33.3283 -33.3283 -33.3283
   -33.2215 -33.2215 -33.2214 -33.2214 -33.1804 -33.1804 -33.1804 -33.1804
   -33.1804 -33.1804 -33.1561 -33.1561 -33.1561 -33.1561 -33.1561 -33.1561
   -33.0161 -33.0161 -32.9414 -32.9414 -32.9414 -32.9414 -32.8573 -32.8573
   -32.8573 -32.8573 -32.8573 -32.8573 -32.8373 -32.8373 -32.8373 -32.8373
   -32.8373 -32.8373 -25.6004 -25.6004 -25.6004 -25.5996 -25.5996 -25.5996
    13.4544  13.4544  13.4544  13.4546  13.4546  13.4546  13.4817  13.4823
    15.7366  15.7366  15.7373  15.7373  16.0388  16.0388  16.0388  16.0391
    16.0391  16.0391  16.5848  16.5848  16.5848  16.5849  16.5849  16.5849
    16.6213  16.6213  16.6213  16.6214  16.6214  16.6214  16.9913  16.9917
    17.0208  17.0208  17.0208  17.0216  17.0216  17.0216  17.0683  17.0683
    17.0683  17.0686  17.0686  17.0686  17.1302  17.1302  17.1304  17.1304
    19.3552  19.3552  19.3558  19.3558  19.7646  19.7646  19.7646  19.7650
    19.7650  19.7650  20.0081  20.0081  20.0081  20.0086  20.0086  20.0086
    20.0325  20.0325  20.0325  20.0328  20.0328  20.0328  20.1369  20.1369
    20.1374  20.1374  20.1760  20.1760  20.1760  20.1762  20.1762  20.1762
    20.4162  20.4162  20.4162  20.4163  20.4163  20.4163  20.4567

     the Fermi energy is    18.6415 ev

!    total energy              =   -5106.05002215 Ry
     total all-electron energy =    -39841.266842 Ry
     estimated scf accuracy    <          2.0E-09 Ry
     smearing contrib. (-TS)   =       0.00357997 Ry
     internal energy E=F+TS    =   -5106.05360213 Ry

     The total energy is F=E-TS. E is the sum of the following terms:
     one-electron contribution =   -1656.12103180 Ry
     hartree contribution      =     986.92372338 Ry
     xc contribution           =    -433.14809269 Ry
     ewald contribution        =   -2696.14969551 Ry
     one-center paw contrib.   =   -1307.55850551 Ry

     total magnetization       =    27.59 Bohr mag/cell
     absolute magnetization    =    35.90 Bohr mag/cell

     convergence has been achieved in  21 iterations

     Forces acting on atoms (cartesian axes, Ry/au):

     atom    1 type  2   force =     0.00000000    0.00000000    0.00000000
     atom    2 type  1   force =     0.00009453    0.00009453    0.00009453
     atom    3 type  1   force =     0.00000000    0.00000000    0.00000000
     atom    4 type  1   force =     0.00009453    0.00009453   -0.00009453
     atom    5 type  1   force =     0.00000000   -0.00000000    0.00000000
     atom    6 type  1   force =     0.00009453   -0.00009453    0.00009453
     atom    7 type  1   force =     0.00000000   -0.00000000    0.00000000
     atom    8 type  1   force =     0.00009453   -0.00009453   -0.00009453
     atom    9 type  1   force =     0.00000000   -0.00000000    0.00000000
     atom   10 type  1   force =    -0.00009453    0.00009453    0.00009453
     atom   11 type  1   force =     0.00000000    0.00000000    0.00000000
     atom   12 type  1   force =    -0.00009453    0.00009453   -0.00009453
     atom   13 type  1   force =     0.00000000    0.00000000    0.00000000
     atom   14 type  1   force =    -0.00009453   -0.00009453    0.00009453
     atom   15 type  2   force =     0.00000000    0.00000000    0.00000000
     atom   16 type  1   force =    -0.00009453   -0.00009453   -0.00009453

     Total force =     0.000463     Total SCF correction =     0.000028


     Computing stress (Cartesian axis) and pressure

          total   stress  (Ry/bohr**3)                   (kbar)     P=        2.00
   0.00001363   0.00000000   0.00000000            2.00        0.00        0.00
   0.00000000   0.00001363   0.00000000            0.00        2.00        0.00
   0.00000000   0.00000000   0.00001363            0.00        0.00        2.00

     Energy error            =      1.6E-03 Ry
     Gradient error          =      9.5E-05 Ry/Bohr
     Cell gradient error     =      2.0E+00 kbar

     number of scf cycles    =   2
     number of bfgs steps    =   1

     enthalpy           old  =   -5106.0483954913 Ry
     enthalpy           new  =   -5106.0500221537 Ry

     CASE: enthalpy          _new < enthalpy          _old

     new trust radius        =       0.0026018027 bohr
     new conv_thr            =            1.0E-10 Ry

     new unit-cell volume =   1234.23560 a.u.^3 (   182.89485 Ang^3 )
     density =      8.04256 g/cm^3

CELL_PARAMETERS (angstrom)
   5.676323735   0.000000000   0.000000000
   0.000000000   5.676323735   0.000000000
   0.000000000   0.000000000   5.676323735

ATOMIC_POSITIONS (crystal)
Cr               0.0000000000        0.0000000000        0.0000000000
Fe               0.2500220470        0.2500220470        0.2500220470
Fe               0.0000000000        0.0000000000        0.5000000000
Fe               0.2500220470        0.2500220470        0.7499779530
Fe               0.0000000000        0.5000000000        0.0000000000
Fe               0.2500220470        0.7499779530        0.2500220470
Fe               0.0000000000        0.5000000000        0.5000000000
Fe               0.2500220470        0.7499779530        0.7499779530
Fe               0.5000000000        0.0000000000        0.0000000000
Fe               0.7499779530        0.2500220470        0.2500220470
Fe               0.5000000000       -0.0000000000        0.5000000000
Fe               0.7499779530        0.2500220470        0.7499779530
Fe               0.5000000000        0.5000000000        0.0000000000
Fe               0.7499779530        0.7499779530        0.2500220470
Cr               0.5000000000        0.5000000000        0.5000000000
Fe               0.7499779530        0.7499779530        0.7499779530



     Writing config-only to output data dir ./tmp/fecr_fe14cr02_vcr.save/ :
     XML data file
     NEW-OLD atomic charge density approx. for the potential

     Check: negative core charge=   -0.000003
     Generating pointlists ...

     total cpu time spent up to now is     1208.8 secs

     Self-consistent Calculation

     iteration #  1     ecut=    60.00 Ry     beta= 0.30
     Davidson diagonalization with overlap
     ethr =  1.00E-06,  avg # of iterations =  2.0

     Threshold (ethr) on eigenvalues was too large:
     Diagonalizing with lowered threshold

     Davidson diagonalization with overlap
     ethr =  3.85E-09,  avg # of iterations =  5.0

     total cpu time spent up to now is     1240.3 secs

     total energy              =   -5106.05003876 Ry
     estimated scf accuracy    <       0.00001413 Ry

     total magnetization       =    27.60 Bohr mag/cell
     absolute magnetization    =    35.93 Bohr mag/cell

     iteration #  2     ecut=    60.00 Ry     beta= 0.30
     Davidson diagonalization with overlap
     ethr =  5.61E-09,  avg # of iterations =  5.0

     total cpu time spent up to now is     1261.4 secs

     total energy              =   -5106.05003337 Ry
     estimated scf accuracy    <       0.00012510 Ry

     total magnetization       =    27.60 Bohr mag/cell
     absolute magnetization    =    35.92 Bohr mag/cell

     iteration #  3     ecut=    60.00 Ry     beta= 0.30
     Davidson diagonalization with overlap
     ethr =  5.61E-09,  avg # of iterations =  4.8

     total cpu time spent up to now is     1281.4 secs

     total energy              =   -5106.05003785 Ry
     estimated scf accuracy    <       0.00000818 Ry

     total magnetization       =    27.60 Bohr mag/cell
     absolute magnetization    =    35.93 Bohr mag/cell

     iteration #  4     ecut=    60.00 Ry     beta= 0.30
     Davidson diagonalization with overlap
     ethr =  3.25E-09,  avg # of iterations =  3.0

     total cpu time spent up to now is     1299.4 secs

     total energy              =   -5106.05003729 Ry
     estimated scf accuracy    <       0.00001062 Ry

     total magnetization       =    27.60 Bohr mag/cell
     absolute magnetization    =    35.93 Bohr mag/cell

     iteration #  5     ecut=    60.00 Ry     beta= 0.30
     Davidson diagonalization with overlap
     ethr =  3.25E-09,  avg # of iterations =  1.9

     total cpu time spent up to now is     1316.0 secs

     total energy              =   -5106.05003423 Ry
     estimated scf accuracy    <       0.00000064 Ry

     total magnetization       =    27.60 Bohr mag/cell
     absolute magnetization    =    35.93 Bohr mag/cell

     iteration #  6     ecut=    60.00 Ry     beta= 0.30
     Davidson diagonalization with overlap
     ethr =  2.56E-10,  avg # of iterations =  5.9

     total cpu time spent up to now is     1338.1 secs

     total energy              =   -5106.05003437 Ry
     estimated scf accuracy    <       0.00000209 Ry

     total magnetization       =    27.60 Bohr mag/cell
     absolute magnetization    =    35.93 Bohr mag/cell

     iteration #  7     ecut=    60.00 Ry     beta= 0.30
     Davidson diagonalization with overlap
     ethr =  2.56E-10,  avg # of iterations =  3.2

     total cpu time spent up to now is     1357.3 secs

     total energy              =   -5106.05003495 Ry
     estimated scf accuracy    <       0.00000060 Ry

     total magnetization       =    27.61 Bohr mag/cell
     absolute magnetization    =    35.94 Bohr mag/cell

     iteration #  8     ecut=    60.00 Ry     beta= 0.30
     Davidson diagonalization with overlap
     ethr =  2.39E-10,  avg # of iterations =  2.4

     total cpu time spent up to now is     1374.7 secs

     total energy              =   -5106.05003556 Ry
     estimated scf accuracy    <       0.00000042 Ry

     total magnetization       =    27.61 Bohr mag/cell
     absolute magnetization    =    35.94 Bohr mag/cell

     iteration #  9     ecut=    60.00 Ry     beta= 0.30
     Davidson diagonalization with overlap
     ethr =  1.66E-10,  avg # of iterations =  4.6

     total cpu time spent up to now is     1394.4 secs

     total energy              =   -5106.05003492 Ry
     estimated scf accuracy    <       0.00000023 Ry

     total magnetization       =    27.61 Bohr mag/cell
     absolute magnetization    =    35.95 Bohr mag/cell

     iteration # 10     ecut=    60.00 Ry     beta= 0.30
     Davidson diagonalization with overlap
     ethr =  8.98E-11,  avg # of iterations =  4.2

     total cpu time spent up to now is     1414.2 secs

     total energy              =   -5106.05003471 Ry
     estimated scf accuracy    <       0.00000008 Ry

     total magnetization       =    27.61 Bohr mag/cell
     absolute magnetization    =    35.95 Bohr mag/cell

     iteration # 11     ecut=    60.00 Ry     beta= 0.30
     Davidson diagonalization with overlap
     ethr =  3.26E-11,  avg # of iterations =  3.8

     total cpu time spent up to now is     1433.6 secs

     total energy              =   -5106.05003459 Ry
     estimated scf accuracy    <       0.00000003 Ry

     total magnetization       =    27.61 Bohr mag/cell
     absolute magnetization    =    35.95 Bohr mag/cell

     iteration # 12     ecut=    60.00 Ry     beta= 0.30
     Davidson diagonalization with overlap
     ethr =  1.19E-11,  avg # of iterations =  5.5

     total cpu time spent up to now is     1455.9 secs

     total energy              =   -5106.05003462 Ry
     estimated scf accuracy    <       0.00000002 Ry

     total magnetization       =    27.61 Bohr mag/cell
     absolute magnetization    =    35.95 Bohr mag/cell

     iteration # 13     ecut=    60.00 Ry     beta= 0.30
     Davidson diagonalization with overlap
     ethr =  9.32E-12,  avg # of iterations =  3.4

     total cpu time spent up to now is     1473.9 secs

     total energy              =   -5106.05003462 Ry
     estimated scf accuracy    <          1.3E-09 Ry

     total magnetization       =    27.61 Bohr mag/cell
     absolute magnetization    =    35.95 Bohr mag/cell

     iteration # 14     ecut=    60.00 Ry     beta= 0.30
     Davidson diagonalization with overlap
     ethr =  5.02E-13,  avg # of iterations =  5.3

     total cpu time spent up to now is     1495.7 secs

     total energy              =   -5106.05003462 Ry
     estimated scf accuracy    <          1.4E-09 Ry

     total magnetization       =    27.61 Bohr mag/cell
     absolute magnetization    =    35.95 Bohr mag/cell

     iteration # 15     ecut=    60.00 Ry     beta= 0.30
     Davidson diagonalization with overlap
     ethr =  5.02E-13,  avg # of iterations =  4.7

     total cpu time spent up to now is     1516.0 secs

     total energy              =   -5106.05003462 Ry
     estimated scf accuracy    <          7.0E-10 Ry

     total magnetization       =    27.61 Bohr mag/cell
     absolute magnetization    =    35.95 Bohr mag/cell

     iteration # 16     ecut=    60.00 Ry     beta= 0.30
     Davidson diagonalization with overlap
     ethr =  2.78E-13,  avg # of iterations =  4.2

     total cpu time spent up to now is     1535.4 secs

     total energy              =   -5106.05003463 Ry
     estimated scf accuracy    <          1.2E-10 Ry

     total magnetization       =    27.61 Bohr mag/cell
     absolute magnetization    =    35.95 Bohr mag/cell

     iteration # 17     ecut=    60.00 Ry     beta= 0.30
     Davidson diagonalization with overlap
     ethr =  1.00E-13,  avg # of iterations =  4.2

     total cpu time spent up to now is     1556.0 secs

     total energy              =   -5106.05003463 Ry
     estimated scf accuracy    <          1.1E-10 Ry

     total magnetization       =    27.61 Bohr mag/cell
     absolute magnetization    =    35.95 Bohr mag/cell

     iteration # 18     ecut=    60.00 Ry     beta= 0.30
     Davidson diagonalization with overlap
     ethr =  1.00E-13,  avg # of iterations =  3.4

     total cpu time spent up to now is     1574.1 secs

     total energy              =   -5106.05003463 Ry
     estimated scf accuracy    <          1.4E-10 Ry

     total magnetization       =    27.61 Bohr mag/cell
     absolute magnetization    =    35.95 Bohr mag/cell

     iteration # 19     ecut=    60.00 Ry     beta= 0.30
     Davidson diagonalization with overlap
     ethr =  1.00E-13,  avg # of iterations =  3.0
 
     Magnetic moment per site  (integrated on atomic sphere of radius R)
     atom   1 (R=0.179)  charge= 12.0717  magn= -1.5302
     atom   2 (R=0.179)  charge= 14.3872  magn=  2.1769
     atom   3 (R=0.179)  charge= 14.3740  magn=  2.3526
     atom   4 (R=0.179)  charge= 14.3872  magn=  2.1769
     atom   5 (R=0.179)  charge= 14.3740  magn=  2.3526
     atom   6 (R=0.179)  charge= 14.3872  magn=  2.1769
     atom   7 (R=0.179)  charge= 14.3744  magn=  2.3524
     atom   8 (R=0.179)  charge= 14.3872  magn=  2.1769
     atom   9 (R=0.179)  charge= 14.3740  magn=  2.3526
     atom  10 (R=0.179)  charge= 14.3872  magn=  2.1769
     atom  11 (R=0.179)  charge= 14.3744  magn=  2.3524
     atom  12 (R=0.179)  charge= 14.3872  magn=  2.1769
     atom  13 (R=0.179)  charge= 14.3744  magn=  2.3524
     atom  14 (R=0.179)  charge= 14.3872  magn=  2.1769
     atom  15 (R=0.179)  charge= 12.0714  magn= -1.5276
     atom  16 (R=0.179)  charge= 14.3872  magn=  2.1769

     total cpu time spent up to now is     1592.1 secs

     End of self-consistent calculation

 ------ SPIN UP ------------


          k = 0.0000 0.0000 0.0000 (  9627 PWs)   bands (ev):

   -69.7131 -69.6644 -69.6644 -69.6644 -69.6588 -69.6588 -69.6588 -69.6539
   -69.6340 -69.6340 -69.6286 -69.6286 -69.6263 -69.5927 -52.6913 -52.6889
   -35.9049 -35.9049 -35.9049 -35.8812 -35.8812 -35.8812 -35.8469 -35.8043
   -35.8043 -35.8043 -35.7953 -35.7953 -35.7953 -35.7746 -35.7199 -35.7199
   -35.7199 -35.6866 -35.6866 -35.6795 -35.6795 -35.6795 -35.6514 -35.6514
   -35.6514 -35.6185 -35.6185 -35.6185 -35.6180 -35.6180 -35.6180 -35.6127
   -35.6127 -35.6087 -35.6087 -35.6087 -35.4943 -35.4943 -35.4943 -35.4759
   -35.4759 -35.4759 -24.0422 -24.0422 -24.0422 -24.0323 -24.0323 -24.0323
     9.9487  13.4864  13.4864  13.4864  13.5127  13.5127  13.5642  13.5994
    13.5994  13.7091  13.7091  13.7091  13.7738  13.7738  13.9344  15.0004
    15.0004  15.0004  15.1636  15.1636  15.1636  15.2076  15.2076  15.2076
    15.2983  15.2983  15.2983  15.3350  15.3350  15.3350  15.4388  15.7563
    15.7563  16.2488  16.2488  16.2488  16.4704  16.4704  16.4704  16.5220
    16.5220  16.5220  16.5427  16.5427  16.5427  16.9497  16.9497  16.9497
    17.1255  17.2781  17.2781  17.3110  17.3110  17.3156  17.4316  17.4316
    17.4681  17.4681  17.4681  17.4704  17.4704  17.4704  17.5203  17.5203
    17.5381  17.9319  17.9319  18.5823  18.5823  18.5823  18.6225  18.6225
    18.6225  18.6690  18.6690  18.6690  18.8000  18.8000  18.8000  18.8082
    18.8214  18.8214  18.8214  19.0119  19.0119  19.0119  19.6844

          k = 0.0000 0.0000 0.1659 (  9542 PWs)   bands (ev):

   -69.7110 -69.6706 -69.6638 -69.6638 -69.6593 -69.6593 -69.6585 -69.6540
   -69.6335 -69.6292 -69.6291 -69.6285 -69.6250 -69.5941 -52.6913 -52.6889
   -35.9008 -35.8992 -35.8992 -35.8733 -35.8733 -35.8727 -35.8496 -35.8127
   -35.8127 -35.8017 -35.7952 -35.7915 -35.7915 -35.7763 -35.7438 -35.7276
   -35.7276 -35.7169 -35.7169 -35.7154 -35.6805 -35.6493 -35.6488 -35.6379
   -35.6379 -35.6179 -35.6156 -35.6133 -35.6131 -35.6109 -35.6109 -35.6085
   -35.6085 -35.5923 -35.5914 -35.5914 -35.5028 -35.4992 -35.4992 -35.4819
   -35.4819 -35.4812 -24.0413 -24.0413 -24.0413 -24.0332 -24.0330 -24.0330
    10.0937  12.9789  13.5282  13.5282  13.5571  13.5770  13.5900  13.6373
    13.6620  13.6666  13.7566  13.7566  13.8240  13.9168  14.1879  14.9650
    15.0175  15.0175  15.0369  15.0622  15.0629  15.0629  15.1521  15.2352
    15.2352  15.2737  15.3094  15.3094  15.4468  15.5136  15.5136  15.7240
    16.0289  16.2431  16.2431  16.2876  16.2888  16.3002  16.3002  16.3799
    16.3799  16.6004  16.6159  16.7134  16.7220  16.7220  17.0512  17.1189
    17.1189  17.1428  17.1699  17.1699  17.2162  17.2689  17.2996  17.4009
    17.4325  17.4325  17.4557  17.4656  17.4728  17.4751  17.4886  17.5640
    17.5748  17.8109  17.9623  17.9800  17.9800  18.3997  18.5476  18.5476
    18.5556  18.5556  18.5755  18.6889  18.7320  18.7392  18.8286  18.8397
    18.8397  18.9588  18.9588  19.3408  19.4706  19.4706  19.8464

          k = 0.0000 0.0000 0.3317 (  9542 PWs)   bands (ev):

   -69.7044 -69.6827 -69.6629 -69.6629 -69.6602 -69.6602 -69.6577 -69.6551
   -69.6326 -69.6299 -69.6283 -69.6276 -69.6164 -69.5990 -52.6913 -52.6890
   -35.8890 -35.8830 -35.8830 -35.8586 -35.8500 -35.8500 -35.8478 -35.8340
   -35.8340 -35.7958 -35.7943 -35.7810 -35.7808 -35.7808 -35.7717 -35.7682
   -35.7682 -35.7635 -35.7440 -35.7440 -35.6649 -35.6425 -35.6346 -35.6346
   -35.6263 -35.6232 -35.6169 -35.6169 -35.6169 -35.6140 -35.6046 -35.5687
   -35.5687 -35.5585 -35.5585 -35.5540 -35.5260 -35.5132 -35.5132 -35.4990
   -35.4990 -35.4962 -24.0400 -24.0396 -24.0396 -24.0350 -24.0346 -24.0346
    10.5200  12.0557  13.6394  13.6394  13.6775  13.7021  13.8189  13.8189
    13.8320  13.8462  13.8827  13.8870  13.9087  13.9346  14.2262  14.5245
    14.7102  14.7773  15.0032  15.0032  15.0224  15.0224  15.2432  15.3663
    15.3663  15.3882  15.3882  15.4569  15.4677  15.8195  15.8469  15.8469
    15.8945  15.9973  15.9973  16.1737  16.2284  16.2284  16.3278  16.3278
    16.4065  16.4235  16.4235  16.4472  16.4604  16.7879  16.8273  16.8420
    16.9877  16.9877  17.0237  17.0919  17.1328  17.1328  17.2149  17.3933
    17.4119  17.4119  17.4366  17.4792  17.4910  17.4944  17.5029  17.5229
    17.5229  17.6448  17.9176  17.9195  18.0682  18.2762  18.2762  18.3286
    18.3804  18.4372  18.5234  18.5612  18.6165  18.6165  18.9200  18.9200
    19.1204  19.1204  19.1707  19.5491  19.5491  19.7411  19.8370

          k = 0.0000 0.0000-0.4976 (  9530 PWs)   bands (ev):

   -69.6948 -69.6948 -69.6614 -69.6614 -69.6614 -69.6614 -69.6564 -69.6564
   -69.6312 -69.6310 -69.6279 -69.6278 -69.6068 -69.6067 -52.6912 -52.6890
   -35.8732 -35.8731 -35.8598 -35.8598 -35.8597 -35.8597 -35.8136 -35.8136
   -35.8136 -35.8136 -35.8098 -35.8097 -35.7882 -35.7881 -35.7881 -35.7880
   -35.7644 -35.7644 -35.7643 -35.7643 -35.6450 -35.6448 -35.6332 -35.6332
   -35.6257 -35.6257 -35.6257 -35.6257 -35.6154 -35.6154 -35.5618 -35.5617
   -35.5366 -35.5366 -35.5364 -35.5364 -35.5258 -35.5258 -35.5257 -35.5257
   -35.5209 -35.5206 -24.0384 -24.0379 -24.0379 -24.0368 -24.0363 -24.0363
    11.1944  11.1949  13.7684  13.7684  13.7684  13.7684  13.8226  13.8230
    13.8468  13.8474  14.0570  14.0572  14.1400  14.1409  14.2955  14.2956
    14.3100  14.3106  15.0032  15.0032  15.0036  15.0036  15.5289  15.5296
    15.6120  15.6120  15.6122  15.6122  15.7726  15.7726  15.7729  15.7729
    15.7756  15.7765  15.8133  15.8136  16.2013  16.2013  16.2014  16.2014
    16.2129  16.2138  16.5293  16.5293  16.5295  16.5295  16.5925  16.5934
    16.8140  16.8140  17.0596  17.0597  17.2260  17.2260  17.2263  17.2263
    17.2646  17.2646  17.4876  17.4877  17.5037  17.5042  17.5235  17.5235
    17.9043  17.9043  17.9045  17.9045  18.2142  18.2145  18.2707  18.2709
    18.2791  18.2794  18.3054  18.3058  18.7701  18.7701  18.7704  18.7704
    19.3894  19.3894  19.3901  19.3901  19.5338  19.5341  19.9155

          k = 0.0000 0.1659 0.1659 (  9537 PWs)   bands (ev):

   -69.7088 -69.6716 -69.6680 -69.6634 -69.6601 -69.6589 -69.6589 -69.6544
   -69.6311 -69.6287 -69.6287 -69.6264 -69.6250 -69.5957 -52.6913 -52.6890
   -35.8990 -35.8941 -35.8937 -35.8687 -35.8660 -35.8589 -35.8536 -35.8179
   -35.8154 -35.8050 -35.8019 -35.7894 -35.7812 -35.7766 -35.7702 -35.7419
   -35.7372 -35.7270 -35.7227 -35.6917 -35.6864 -35.6681 -35.6606 -35.6369
   -35.6287 -35.6231 -35.6204 -35.6176 -35.6112 -35.6087 -35.6045 -35.6044
   -35.5886 -35.5839 -35.5726 -35.5672 -35.5196 -35.5037 -35.4950 -35.4912
   -35.4869 -35.4811 -24.0419 -24.0407 -24.0397 -24.0347 -24.0336 -24.0326
    10.2371  13.0072  13.1063  13.4860  13.6303  13.6339  13.6509  13.6621
    13.6996  13.7271  13.7310  13.8147  13.9256  14.2170  14.2296  14.9000
    14.9514  14.9521  15.0071  15.0445  15.0534  15.0919  15.1357  15.2052
    15.2429  15.2676  15.3195  15.3366  15.4761  15.4819  15.5281  15.8426
    15.9534  16.1199  16.1487  16.1757  16.2278  16.2742  16.3883  16.4468
    16.5411  16.6113  16.6599  16.6618  16.6964  16.7004  16.8306  16.9600
    17.0487  17.0569  17.1062  17.1469  17.1700  17.2487  17.2828  17.2944
    17.3302  17.3572  17.4280  17.4309  17.4585  17.4899  17.5054  17.6877
    17.7776  17.7807  17.8542  17.9144  18.0249  18.0772  18.0851  18.1319
    18.2535  18.4138  18.6084  18.6582  18.7406  18.7835  18.8030  18.8710
    19.1406  19.1495  19.2861  19.5014  19.7249  19.7380  19.8450

          k = 0.0000 0.1659 0.3317 (  9555 PWs)   bands (ev):

   -69.7027 -69.6818 -69.6673 -69.6624 -69.6621 -69.6599 -69.6580 -69.6554
   -69.6301 -69.6290 -69.6279 -69.6260 -69.6168 -69.6004 -52.6913 -52.6890
   -35.8914 -35.8798 -35.8785 -35.8645 -35.8486 -35.8448 -35.8333 -35.8331
   -35.8291 -35.8067 -35.8011 -35.7978 -35.7885 -35.7774 -35.7729 -35.7720
   -35.7651 -35.7452 -35.7402 -35.7201 -35.6755 -35.6608 -35.6378 -35.6373
   -35.6361 -35.6355 -35.6259 -35.6242 -35.6166 -35.5996 -35.5983 -35.5703
   -35.5659 -35.5528 -35.5494 -35.5429 -35.5348 -35.5169 -35.5098 -35.5015
   -35.5012 -35.4899 -24.0413 -24.0393 -24.0382 -24.0366 -24.0350 -24.0334
    10.6569  12.1601  13.2360  13.4573  13.7439  13.7863  13.8415  13.8973
    13.9042  13.9149  13.9252  13.9544  13.9909  14.2137  14.2770  14.5595
    14.7019  14.7560  15.0552  15.0624  15.0654  15.0747  15.1101  15.2241
    15.2995  15.3279  15.3831  15.4544  15.5480  15.7408  15.7799  15.8255
    15.8255  15.9667  16.0015  16.1039  16.1183  16.1846  16.2160  16.2462
    16.3020  16.3574  16.5160  16.5426  16.6725  16.7708  16.7763  16.8486
    16.8674  16.8889  16.9301  16.9666  17.0160  17.1289  17.1834  17.3086
    17.3510  17.3835  17.4122  17.4557  17.4946  17.5101  17.5289  17.5322
    17.6256  17.6851  17.7842  17.8236  17.8979  17.9811  18.0190  18.1180
    18.2115  18.2167  18.5121  18.5940  18.7566  18.9113  18.9186  19.0771
    19.1562  19.2174  19.3877  19.5234  19.5392  20.0408  20.1284

          k = 0.0000 0.1659-0.4976 (  9550 PWs)   bands (ev):

   -69.6932 -69.6932 -69.6648 -69.6648 -69.6612 -69.6612 -69.6567 -69.6567
   -69.6296 -69.6295 -69.6269 -69.6269 -69.6076 -69.6075 -52.6912 -52.6890
   -35.8788 -35.8787 -35.8573 -35.8572 -35.8569 -35.8568 -35.8184 -35.8183
   -35.8120 -35.8120 -35.8057 -35.8056 -35.7940 -35.7940 -35.7881 -35.7881
   -35.7577 -35.7576 -35.7445 -35.7444 -35.6556 -35.6554 -35.6500 -35.6500
   -35.6321 -35.6321 -35.6255 -35.6254 -35.5975 -35.5975 -35.5879 -35.5878
   -35.5384 -35.5383 -35.5367 -35.5366 -35.5239 -35.5238 -35.5183 -35.5183
   -35.5081 -35.5079 -24.0399 -24.0397 -24.0379 -24.0363 -24.0352 -24.0350
    11.3201  11.3206  13.3901  13.3904  13.8706  13.8707  13.9297  13.9302
    14.0516  14.0517  14.1193  14.1197  14.1985  14.1995  14.3316  14.3316
    14.3455  14.3461  15.0404  15.0409  15.0423  15.0426  15.4073  15.4079
    15.4621  15.4621  15.5432  15.5435  15.5793  15.5797  15.8135  15.8138
    15.8793  15.8795  15.9411  15.9413  16.0839  16.0842  16.0844  16.0848
    16.1917  16.1921  16.3043  16.3045  16.4496  16.4498  16.7512  16.7518
    16.9061  16.9061  17.0432  17.0433  17.1749  17.1752  17.2164  17.2166
    17.2637  17.2637  17.4281  17.4286  17.4986  17.4986  17.5519  17.5522
    17.7235  17.7238  17.7514  17.7519  17.8479  17.8479  18.0700  18.0702
    18.2776  18.2776  18.4051  18.4051  18.9982  18.9983  19.0757  19.0763
    19.1588  19.1589  19.2915  19.2915  19.8814  19.8815  20.1668

          k = 0.0000 0.3317 0.3317 (  9554 PWs)   bands (ev):

   -69.6973 -69.6817 -69.6740 -69.6667 -69.6615 -69.6590 -69.6590 -69.6563
   -69.6290 -69.6287 -69.6253 -69.6211 -69.6163 -69.6041 -52.6912 -52.6890
   -35.8908 -35.8755 -35.8717 -35.8663 -35.8367 -35.8346 -35.8312 -35.8299
   -35.8265 -35.8201 -35.8072 -35.7961 -35.7961 -35.7887 -35.7874 -35.7600
   -35.7412 -35.7376 -35.7374 -35.6898 -35.6827 -35.6749 -35.6686 -35.6548
   -35.6534 -35.6439 -35.6332 -35.6299 -35.6233 -35.5860 -35.5859 -35.5742
   -35.5648 -35.5594 -35.5363 -35.5277 -35.5244 -35.5197 -35.5116 -35.5080
   -35.4974 -35.4883 -24.0420 -24.0398 -24.0385 -24.0357 -24.0352 -24.0330
    11.0567  12.3907  12.5129  13.1933  13.9823  14.0205  14.0267  14.0504
    14.0582  14.0849  14.1105  14.1149  14.1399  14.2481  14.3447  14.6274
    14.6958  14.7360  14.7980  15.0779  15.0782  15.1454  15.1467  15.2112
    15.2495  15.2504  15.3344  15.4144  15.6149  15.6479  15.6748  15.6983
    15.7997  15.8097  15.8922  15.9017  15.9903  16.0600  16.0829  16.1457
    16.1670  16.2633  16.2933  16.3159  16.4826  16.6178  16.6499  16.7826
    16.9272  16.9721  16.9962  17.0580  17.0992  17.1049  17.2033  17.2491
    17.2978  17.3270  17.3284  17.3392  17.3921  17.4200  17.4633  17.5561
    17.5597  17.5785  17.6405  17.6817  17.7827  17.8222  17.8756  17.8859
    18.1149  18.3256  18.3930  18.6671  18.8586  19.0390  19.0524  19.0958
    19.1562  19.2448  19.3555  19.6063  19.9662  20.2406  20.5310

          k = 0.0000 0.3317-0.4976 (  9534 PWs)   bands (ev):

   -69.6893 -69.6893 -69.6717 -69.6717 -69.6602 -69.6602 -69.6577 -69.6577
   -69.6287 -69.6287 -69.6222 -69.6221 -69.6100 -69.6100 -52.6912 -52.6890
   -35.8853 -35.8852 -35.8546 -35.8544 -35.8503 -35.8502 -35.8287 -35.8286
   -35.8087 -35.8087 -35.8081 -35.8081 -35.8036 -35.8035 -35.7589 -35.7588
   -35.7462 -35.7461 -35.7151 -35.7149 -35.6722 -35.6720 -35.6704 -35.6704
   -35.6418 -35.6417 -35.6409 -35.6408 -35.6201 -35.6201 -35.5761 -35.5761
   -35.5454 -35.5454 -35.5414 -35.5412 -35.5199 -35.5199 -35.5042 -35.5042
   -35.4952 -35.4950 -24.0415 -24.0414 -24.0379 -24.0363 -24.0337 -24.0336
    11.6789  11.6794  12.8387  12.8391  14.1378  14.1378  14.1382  14.1384
    14.1592  14.1596  14.2493  14.2501  14.3982  14.3984  14.4289  14.4294
    14.4309  14.4311  15.0954  15.0955  15.0967  15.0970  15.1465  15.1469
    15.2475  15.2479  15.3044  15.3050  15.5318  15.5324  15.7798  15.7802
    15.8367  15.8368  15.8590  15.8592  15.9185  15.9190  15.9615  15.9618
    15.9828  15.9829  16.1587  16.1589  16.4011  16.4014  16.9094  16.9096
    17.0438  17.0439  17.0649  17.0652  17.0784  17.0786  17.1739  17.1743
    17.2392  17.2393  17.2879  17.2889  17.4270  17.4271  17.4782  17.4784
    17.5174  17.5180  17.6591  17.6592  17.7263  17.7264  17.8561  17.8561
    18.1201  18.1203  18.5962  18.5962  18.9605  18.9605  19.0671  19.0678
    19.2679  19.2679  19.4779  19.4784  20.3969  20.3970  20.4650

          k = 0.0000-0.4976-0.4976 (  9540 PWs)   bands (ev):

   -69.6857 -69.6857 -69.6765 -69.6765 -69.6590 -69.6589 -69.6589 -69.6589
   -69.6287 -69.6287 -69.6189 -69.6188 -69.6122 -69.6122 -52.6912 -52.6890
   -35.8877 -35.8876 -35.8477 -35.8475 -35.8463 -35.8462 -35.8431 -35.8431
   -35.8085 -35.8085 -35.8069 -35.8069 -35.8021 -35.8021 -35.7433 -35.7432
   -35.7399 -35.7398 -35.6879 -35.6877 -35.6799 -35.6797 -35.6797 -35.6797
   -35.6711 -35.6711 -35.6466 -35.6465 -35.6300 -35.6300 -35.5607 -35.5607
   -35.5557 -35.5557 -35.5420 -35.5418 -35.5180 -35.5180 -35.4996 -35.4996
   -35.4901 -35.4899 -24.0421 -24.0421 -24.0378 -24.0362 -24.0332 -24.0332
    12.1592  12.1592  12.2840  12.2848  14.1669  14.1669  14.2712  14.2721
    14.3294  14.3294  14.3526  14.3535  14.4707  14.4707  14.5040  14.5045
    14.6786  14.6786  14.8150  14.8155  15.0247  15.0247  15.0481  15.0481
    15.2137  15.2137  15.2792  15.2807  15.5437  15.5444  15.6857  15.6868
    15.6871  15.6871  15.6966  15.6966  15.8466  15.8466  15.8535  15.8540
    15.9107  15.9107  16.3792  16.3796  16.4399  16.4400  16.6492  16.6492
    17.0302  17.0302  17.1343  17.1343  17.2530  17.2530  17.2560  17.2573
    17.2635  17.2637  17.2853  17.2861  17.3144  17.3144  17.3433  17.3433
    17.3669  17.3670  17.7174  17.7175  17.7287  17.7287  17.7604  17.7604
    18.0101  18.0104  18.6722  18.6723  18.8873  18.8873  19.0495  19.0502
    19.3600  19.3600  19.5438  19.5445  20.7414  20.7414  20.7615

          k = 0.1659 0.1659 0.1659 (  9525 PWs)   bands (ev):

   -69.7067 -69.6708 -69.6708 -69.6655 -69.6598 -69.6598 -69.6593 -69.6548
   -69.6284 -69.6284 -69.6264 -69.6264 -69.6250 -69.5973 -52.6913 -52.6890
   -35.8950 -35.8904 -35.8904 -35.8667 -35.8577 -35.8509 -35.8509 -35.8190
   -35.8155 -35.8155 -35.7982 -35.7982 -35.7828 -35.7706 -35.7706 -35.7649
   -35.7422 -35.7191 -35.7191 -35.7004 -35.6894 -35.6894 -35.6607 -35.6334
   -35.6334 -35.6229 -35.6229 -35.6085 -35.6073 -35.6073 -35.6041 -35.6041
   -35.5834 -35.5738 -35.5539 -35.5539 -35.5348 -35.5001 -35.5001 -35.4940
   -35.4940 -35.4825 -24.0413 -24.0413 -24.0385 -24.0359 -24.0332 -24.0332
    10.3787  13.0891  13.0891  13.2419  13.5840  13.5840  13.6170  13.7525
    13.7525  13.7833  13.8015  13.8015  14.2674  14.2816  14.2816  14.8113
    14.8991  14.9655  14.9655  15.0483  15.1017  15.1017  15.1147  15.1147
    15.2949  15.2949  15.3397  15.4042  15.4042  15.4107  15.6041  15.8310
    15.8310  16.0499  16.0499  16.1573  16.1573  16.2837  16.4823  16.4864
    16.4864  16.5825  16.5878  16.6198  16.6838  16.6838  16.6980  16.6980
    16.9133  17.1579  17.1579  17.2268  17.2289  17.2289  17.2505  17.3076
    17.3076  17.3336  17.3670  17.3670  17.4858  17.4858  17.4895  17.5068
    17.5068  17.6960  17.7760  17.7760  17.8371  17.8371  18.0346  18.3432
    18.3432  18.3720  18.5997  18.8079  18.8079  18.8409  18.8409  18.9633
    18.9633  18.9692  19.3848  19.3848  19.9249  20.0095  20.0095

          k = 0.1659 0.1659 0.3317 (  9527 PWs)   bands (ev):

   -69.7008 -69.6809 -69.6686 -69.6647 -69.6624 -69.6611 -69.6586 -69.6558
   -69.6278 -69.6277 -69.6267 -69.6258 -69.6171 -69.6016 -52.6912 -52.6890
   -35.8890 -35.8787 -35.8747 -35.8678 -35.8497 -35.8369 -35.8300 -35.8287
   -35.8202 -35.8141 -35.8078 -35.7929 -35.7880 -35.7873 -35.7872 -35.7671
   -35.7511 -35.7458 -35.7318 -35.7073 -35.7015 -35.6692 -35.6536 -35.6528
   -35.6488 -35.6279 -35.6165 -35.6083 -35.6078 -35.5994 -35.5970 -35.5759
   -35.5648 -35.5631 -35.5471 -35.5302 -35.5285 -35.5150 -35.5120 -35.5064
   -35.4998 -35.4905 -24.0412 -24.0396 -24.0385 -24.0361 -24.0348 -24.0335
    10.7933  12.2668  13.2869  13.3810  13.5519  13.5910  13.8979  13.9202
    13.9406  13.9686  13.9931  14.0434  14.2837  14.3237  14.3390  14.5840
    14.6832  14.8142  14.9830  15.0504  15.0681  15.1334  15.1419  15.1780
    15.2171  15.3393  15.4311  15.5075  15.5088  15.5997  15.6938  15.6998
    15.8457  15.8967  15.9452  16.0207  16.0608  16.1218  16.1420  16.1489
    16.2385  16.2909  16.4796  16.4960  16.5944  16.6230  16.7127  16.7646
    16.8148  16.9047  16.9362  17.0669  17.0763  17.1615  17.1735  17.2920
    17.3455  17.3774  17.3984  17.4003  17.4030  17.4302  17.5339  17.5493
    17.5907  17.5920  17.6123  17.7724  17.9109  17.9757  18.0218  18.1054
    18.2716  18.2897  18.4090  18.5032  18.7991  18.9228  19.0244  19.0924
    19.1514  19.2826  19.2978  19.3936  19.7178  19.7614  20.6163

          k = 0.1659 0.1659-0.4976 (  9540 PWs)   bands (ev):

   -69.6918 -69.6918 -69.6656 -69.6656 -69.6630 -69.6630 -69.6572 -69.6572
   -69.6272 -69.6271 -69.6267 -69.6267 -69.6085 -69.6084 -52.6912 -52.6890
   -35.8795 -35.8794 -35.8598 -35.8597 -35.8511 -35.8510 -35.8209 -35.8209
   -35.8136 -35.8135 -35.8012 -35.8012 -35.7917 -35.7916 -35.7799 -35.7799
   -35.7699 -35.7698 -35.7251 -35.7249 -35.6780 -35.6778 -35.6626 -35.6626
   -35.6280 -35.6279 -35.6142 -35.6142 -35.5981 -35.5981 -35.5954 -35.5954
   -35.5411 -35.5410 -35.5361 -35.5360 -35.5235 -35.5234 -35.5113 -35.5112
   -35.5062 -35.5061 -24.0403 -24.0402 -24.0381 -24.0365 -24.0346 -24.0345
    11.4459  11.4464  13.4699  13.4702  13.5351  13.5354  14.1392  14.1394
    14.1473  14.1473  14.1874  14.1877  14.2578  14.2589  14.3452  14.3454
    14.4008  14.4012  15.0466  15.0469  15.1015  15.1019  15.3373  15.3377
    15.4142  15.4144  15.4709  15.4710  15.5272  15.5277  15.7902  15.7904
    15.8400  15.8402  15.9234  15.9236  15.9787  15.9788  16.0141  16.0149
    16.0442  16.0447  16.2573  16.2573  16.2788  16.2792  16.8726  16.8730
    16.9708  16.9708  17.0178  17.0179  17.1052  17.1054  17.1760  17.1766
    17.2362  17.2363  17.4049  17.4055  17.4780  17.4780  17.5675  17.5675
    17.5953  17.5956  17.7197  17.7198  17.9565  17.9567  18.0538  18.0540
    18.2704  18.2706  18.3087  18.3089  18.8612  18.8613  19.1377  19.1381
    19.3085  19.3091  19.4059  19.4063  19.5590  19.5595  21.0118

          k = 0.1659 0.3317 0.3317 (  9541 PWs)   bands (ev):

   -69.6957 -69.6804 -69.6741 -69.6664 -69.6643 -69.6610 -69.6595 -69.6570
   -69.6272 -69.6263 -69.6249 -69.6209 -69.6167 -69.6051 -52.6912 -52.6890
   -35.8862 -35.8749 -35.8679 -35.8659 -35.8404 -35.8362 -35.8295 -35.8292
   -35.8164 -35.8113 -35.8042 -35.7979 -35.7935 -35.7920 -35.7792 -35.7752
   -35.7545 -35.7259 -35.7226 -35.7171 -35.6880 -35.6833 -35.6811 -35.6764
   -35.6726 -35.6192 -35.6191 -35.6114 -35.6063 -35.5929 -35.5857 -35.5764
   -35.5662 -35.5607 -35.5330 -35.5260 -35.5208 -35.5165 -35.5124 -35.5118
   -35.5005 -35.4925 -24.0414 -24.0400 -24.0390 -24.0356 -24.0349 -24.0336
    11.1896  12.5050  12.6244  13.3156  13.5769  13.8747  13.9131  14.0616
    14.1447  14.1504  14.2233  14.2248  14.3456  14.4001  14.5089  14.6530
    14.7101  14.7668  14.7996  14.9524  15.1263  15.1600  15.1951  15.2189
    15.2221  15.3021  15.4025  15.4085  15.4353  15.5752  15.6274  15.6598
    15.6781  15.7506  15.8001  15.8036  15.9228  15.9309  15.9853  16.0750
    16.1017  16.1045  16.1247  16.1346  16.3789  16.4020  16.4261  16.8900
    16.9534  17.0146  17.0223  17.0588  17.1836  17.1839  17.2321  17.2745
    17.2994  17.3077  17.3311  17.3702  17.3918  17.3946  17.4806  17.5143
    17.5544  17.5588  17.5929  17.6568  17.8833  17.9123  18.0534  18.0551
    18.1453  18.2711  18.3822  18.4686  18.9435  18.9538  18.9862  19.1319
    19.2486  19.2497  19.2979  19.5086  19.5733  20.0894  20.3043

          k = 0.1659 0.3317-0.4976 (  9548 PWs)   bands (ev):

   -69.6879 -69.6879 -69.6715 -69.6715 -69.6625 -69.6625 -69.6585 -69.6585
   -69.6267 -69.6267 -69.6220 -69.6220 -69.6107 -69.6107 -52.6912 -52.6890
   -35.8818 -35.8817 -35.8541 -35.8539 -35.8470 -35.8469 -35.8265 -35.8264
   -35.8134 -35.8134 -35.8042 -35.8042 -35.7919 -35.7919 -35.7675 -35.7674
   -35.7528 -35.7527 -35.7020 -35.7019 -35.7017 -35.7015 -35.6886 -35.6886
   -35.6478 -35.6478 -35.6161 -35.6160 -35.6052 -35.6052 -35.5758 -35.5757
   -35.5444 -35.5442 -35.5409 -35.5409 -35.5212 -35.5212 -35.5055 -35.5055
   -35.4990 -35.4988 -24.0411 -24.0411 -24.0381 -24.0365 -24.0340 -24.0339
    11.8051  11.8055  12.9598  12.9602  13.8060  13.8063  14.2258  14.2258
    14.3169  14.3177  14.3398  14.3402  14.4082  14.4082  14.4660  14.4667
    14.5366  14.5369  15.0952  15.0954  15.1087  15.1089  15.1482  15.1485
    15.2435  15.2442  15.3198  15.3202  15.5018  15.5023  15.6719  15.6722
    15.7074  15.7078  15.7444  15.7445  15.7964  15.7969  15.8420  15.8420
    15.9327  15.9333  16.0093  16.0094  16.2429  16.2430  16.6759  16.6760
    17.1000  17.1001  17.1461  17.1462  17.1620  17.1624  17.1996  17.2001
    17.2661  17.2661  17.3518  17.3526  17.4195  17.4196  17.4652  17.4653
    17.5734  17.5734  17.6870  17.6877  17.7722  17.7722  17.9620  17.9622
    18.2436  18.2437  18.4274  18.4275  18.9738  18.9738  19.0900  19.0902
    19.1750  19.1754  19.4549  19.4555  19.8161  19.8161  20.8484

          k = 0.1659-0.4976-0.4976 (  9540 PWs)   bands (ev):

   -69.6844 -69.6844 -69.6761 -69.6761 -69.6616 -69.6616 -69.6595 -69.6595
   -69.6267 -69.6267 -69.6187 -69.6186 -69.6128 -69.6128 -52.6912 -52.6890
   -35.8830 -35.8829 -35.8451 -35.8449 -35.8420 -35.8417 -35.8407 -35.8407
   -35.8111 -35.8111 -35.8076 -35.8076 -35.7886 -35.7886 -35.7612 -35.7611
   -35.7358 -35.7357 -35.7106 -35.7104 -35.7029 -35.7029 -35.6800 -35.6800
   -35.6791 -35.6789 -35.6163 -35.6162 -35.6088 -35.6088 -35.5601 -35.5601
   -35.5507 -35.5507 -35.5435 -35.5433 -35.5213 -35.5213 -35.5031 -35.5031
   -35.4955 -35.4953 -24.0415 -24.0415 -24.0380 -24.0364 -24.0338 -24.0338
    12.2848  12.2848  12.4097  12.4105  14.1431  14.1431  14.1890  14.1897
    14.2559  14.2559  14.3649  14.3659  14.6406  14.6406  14.6680  14.6686
    14.6998  14.6998  14.8211  14.8215  15.0093  15.0093  15.0396  15.0397
    15.2481  15.2481  15.2824  15.2839  15.4910  15.4910  15.5221  15.5228
    15.5814  15.5825  15.6375  15.6375  15.7205  15.7210  15.7975  15.7975
    15.8123  15.8123  16.0828  16.0834  16.3546  16.3549  16.3635  16.3635
    17.1527  17.1527  17.2235  17.2235  17.2650  17.2651  17.2888  17.2900
    17.3198  17.3198  17.3425  17.3425  17.3934  17.3936  17.4532  17.4532
    17.4670  17.4678  17.5854  17.5854  17.6890  17.6895  17.8964  17.8964
    18.2571  18.2573  18.4860  18.4862  18.9810  18.9810  19.1019  19.1019
    19.1250  19.1256  19.4739  19.4746  20.1829  20.1830  20.4099

          k = 0.3317 0.3317 0.3317 (  9552 PWs)   bands (ev):

   -69.6911 -69.6771 -69.6771 -69.6676 -69.6661 -69.6661 -69.6605 -69.6584
   -69.6242 -69.6242 -69.6230 -69.6183 -69.6183 -69.6080 -52.6912 -52.6890
   -35.8781 -35.8744 -35.8590 -35.8590 -35.8375 -35.8375 -35.8273 -35.8268
   -35.8047 -35.8047 -35.8013 -35.7995 -35.7995 -35.7821 -35.7821 -35.7675
   -35.7573 -35.7573 -35.7132 -35.7102 -35.7102 -35.7037 -35.7037 -35.7013
   -35.6739 -35.6384 -35.5895 -35.5871 -35.5871 -35.5817 -35.5817 -35.5767
   -35.5767 -35.5532 -35.5285 -35.5258 -35.5258 -35.5131 -35.5131 -35.5112
   -35.5112 -35.5005 -24.0404 -24.0398 -24.0398 -24.0352 -24.0352 -24.0346
    11.5749  12.8221  12.8221  13.0046  13.6352  13.6352  13.7454  14.2654
    14.2654  14.3662  14.4247  14.4247  14.5715  14.6080  14.6080  14.6562
    14.7470  14.7963  14.7977  14.7977  15.1382  15.1382  15.1571  15.2751
    15.2751  15.3227  15.3227  15.4198  15.4428  15.4428  15.4527  15.5100
    15.6012  15.6012  15.6191  15.6191  15.6453  15.6453  15.7603  15.7603
    15.8498  15.9529  15.9529  15.9740  16.0374  16.1223  16.1223  16.6433
    17.0620  17.1097  17.1097  17.2098  17.2358  17.2645  17.2645  17.3427
    17.3427  17.3759  17.3759  17.3908  17.4365  17.4365  17.4509  17.4797
    17.5800  17.5800  17.7211  17.7211  17.9535  18.0836  18.0836  18.1106
    18.1106  18.1514  18.2598  18.5587  18.5587  19.0335  19.1541  19.1541
    19.2664  19.2664  19.2759  19.2759  19.5042  19.9118  19.9118

          k = 0.3317 0.3317-0.4976 (  9586 PWs)   bands (ev):

   -69.6842 -69.6842 -69.6719 -69.6719 -69.6670 -69.6670 -69.6601 -69.6601
   -69.6233 -69.6233 -69.6209 -69.6208 -69.6128 -69.6128 -52.6912 -52.6890
   -35.8754 -35.8753 -35.8483 -35.8481 -35.8405 -35.8404 -35.8243 -35.8242
   -35.8073 -35.8072 -35.8056 -35.8055 -35.7874 -35.7873 -35.7717 -35.7717
   -35.7464 -35.7463 -35.7350 -35.7348 -35.7200 -35.7200 -35.6930 -35.6930
   -35.6645 -35.6644 -35.5876 -35.5876 -35.5823 -35.5823 -35.5720 -35.5719
   -35.5484 -35.5482 -35.5354 -35.5354 -35.5263 -35.5263 -35.5096 -35.5094
   -35.5072 -35.5071 -24.0404 -24.0404 -24.0383 -24.0367 -24.0348 -24.0348
    12.1653  12.1656  13.2518  13.2522  13.3602  13.3606  14.1997  14.2001
    14.4440  14.4443  14.4954  14.4955  14.5429  14.5436  14.6260  14.6267
    14.7192  14.7192  15.0358  15.0361  15.1262  15.1264  15.1660  15.1663
    15.2222  15.2226  15.3394  15.3400  15.3931  15.3934  15.4572  15.4580
    15.4632  15.4634  15.5684  15.5687  15.5884  15.5884  15.6065  15.6072
    15.7406  15.7414  15.8774  15.8779  15.9479  15.9484  16.2875  16.2877
    17.1828  17.1829  17.2036  17.2037  17.2427  17.2428  17.3554  17.3559
    17.4114  17.4119  17.4177  17.4180  17.4681  17.4683  17.4699  17.4702
    17.5106  17.5108  17.7598  17.7605  18.0174  18.0174  18.1288  18.1292
    18.1952  18.1954  18.2041  18.2047  18.7812  18.7814  19.2197  19.2202
    19.2637  19.2642  19.3254  19.3258  19.5409  19.5412  20.3299

          k = 0.3317-0.4976-0.4976 (  9576 PWs)   bands (ev):

   -69.6805 -69.6805 -69.6752 -69.6752 -69.6677 -69.6677 -69.6609 -69.6609
   -69.6225 -69.6225 -69.6184 -69.6183 -69.6149 -69.6149 -52.6912 -52.6890
   -35.8729 -35.8728 -35.8390 -35.8389 -35.8349 -35.8349 -35.8263 -35.8261
   -35.8179 -35.8179 -35.7960 -35.7960 -35.7900 -35.7898 -35.7636 -35.7636
   -35.7493 -35.7492 -35.7388 -35.7388 -35.7341 -35.7340 -35.7036 -35.7036
   -35.6667 -35.6665 -35.5783 -35.5782 -35.5774 -35.5774 -35.5580 -35.5579
   -35.5474 -35.5472 -35.5388 -35.5388 -35.5318 -35.5318 -35.5127 -35.5127
   -35.5105 -35.5103 -24.0399 -24.0399 -24.0384 -24.0368 -24.0353 -24.0353
    12.6450  12.6450  12.7644  12.7651  13.7424  13.7424  13.8436  13.8444
    14.5041  14.5041  14.6032  14.6040  14.7527  14.7527  14.8336  14.8339
    14.8923  14.8923  14.9275  14.9275  14.9434  14.9441  15.0732  15.0737
    15.2812  15.2812  15.2906  15.2915  15.3048  15.3048  15.3841  15.3841
    15.4124  15.4136  15.4537  15.4543  15.4725  15.4736  15.5627  15.5627
    15.6870  15.6878  15.7427  15.7427  15.9671  15.9671  15.9815  15.9822
    17.2209  17.2209  17.2862  17.2862  17.2884  17.2885  17.3338  17.3344
    17.3346  17.3346  17.4564  17.4564  17.5233  17.5240  17.5843  17.5843
    17.6987  17.6998  17.7877  17.7877  17.9148  17.9150  17.9401  17.9401
    18.1378  18.1382  18.4868  18.4871  18.6297  18.6297  19.2008  19.2014
    19.2272  19.2272  19.2950  19.2956  19.7205  19.7206  19.9705

          k =-0.4976-0.4976-0.4976 (  9568 PWs)   bands (ev):

   -69.6747 -69.6747 -69.6747 -69.6747 -69.6747 -69.6747 -69.6616 -69.6616
   -69.6182 -69.6182 -69.6182 -69.6181 -69.6181 -69.6181 -52.6912 -52.6890
   -35.8679 -35.8678 -35.8267 -35.8267 -35.8267 -35.8266 -35.8266 -35.8266
   -35.8119 -35.8119 -35.8117 -35.8117 -35.7716 -35.7716 -35.7716 -35.7715
   -35.7715 -35.7715 -35.7336 -35.7336 -35.7336 -35.7335 -35.7335 -35.7335
   -35.6616 -35.6615 -35.5554 -35.5554 -35.5554 -35.5554 -35.5507 -35.5507
   -35.5507 -35.5505 -35.5505 -35.5505 -35.5255 -35.5255 -35.5255 -35.5252
   -35.5252 -35.5252 -24.0385 -24.0385 -24.0385 -24.0368 -24.0368 -24.0368
    13.1772  13.1772  13.1772  13.1776  13.1776  13.1776  13.4243  13.4254
    14.8326  14.8326  14.8326  14.8333  14.8333  14.8333  14.8401  14.8401
    14.8401  14.8403  14.8403  14.8403  15.0926  15.0926  15.0934  15.0934
    15.2971  15.2971  15.2971  15.2975  15.2975  15.2975  15.3317  15.3317
    15.3317  15.3329  15.3329  15.3329  15.3651  15.3658  15.4424  15.4424
    15.4438  15.4438  15.7287  15.7287  15.7287  15.7300  15.7300  15.7300
    17.3034  17.3034  17.3034  17.3035  17.3035  17.3035  17.3467  17.3467
    17.3467  17.3472  17.3472  17.3472  17.7541  17.7541  17.7553  17.7553
    17.8235  17.8235  17.8235  17.8235  17.8235  17.8235  18.1812  18.1812
    18.1812  18.1815  18.1815  18.1815  18.4455  18.4466  19.2253  19.2253
    19.2259  19.2259  19.5677  19.5677  19.5681  19.5681  19.5681

 ------ SPIN DOWN ----------


          k = 0.0000 0.0000 0.0000 (  9627 PWs)   bands (ev):

   -67.1192 -67.0979 -67.0979 -67.0979 -67.0914 -67.0914 -67.0914 -67.0861
   -66.8657 -66.8657 -66.8591 -66.8591 -66.8568 -66.8523 -54.3047 -54.3038
   -33.4086 -33.4086 -33.4086 -33.3827 -33.3330 -33.3330 -33.3330 -33.3125
   -33.3125 -33.3125 -33.3000 -33.2461 -33.2461 -33.2461 -33.1777 -33.1777
   -33.1378 -33.1378 -33.1378 -33.0999 -33.0999 -33.0999 -33.0932 -33.0932
   -33.0739 -33.0739 -33.0739 -32.9634 -32.9634 -32.9634 -32.9559 -32.9559
   -32.9559 -32.8924 -32.8924 -32.8924 -32.8401 -32.8401 -32.8401 -32.8173
   -32.8173 -32.8173 -25.6345 -25.6345 -25.6345 -25.6219 -25.6219 -25.6219
    10.0422  14.0807  14.0807  14.2624  14.2624  14.2624  14.2888  14.3454
    14.3454  14.3705  14.3705  14.3705  14.7169  15.2056  15.2056  16.0645
    16.0645  16.0645  16.2988  16.2988  16.2988  16.4966  16.4966  16.4966
    16.7271  16.7271  16.7271  16.9413  16.9413  17.5024  17.5024  17.5024
    17.7810  17.8863  17.8863  17.8863  17.8991  17.8991  17.8991  18.2586
    18.2586  18.2586  18.3378  18.3378  18.3378  18.4497  18.4497  18.4497
    18.9550  18.9550  18.9550  18.9630  18.9630  18.9630  19.1166  19.1668
    19.1668  19.2631  19.2631  19.2933  19.2933  19.2933  19.8013  19.8013
    19.8013  19.9192  20.0841  20.0841  20.1057  20.1057  20.2203  20.2203
    20.2203  20.2520  20.2520  20.2763  20.2763  20.5153  20.5419  20.5419
    20.5419  20.8797  20.8797  20.8797  20.9454  20.9454  20.9583

          k = 0.0000 0.0000 0.1659 (  9542 PWs)   bands (ev):

   -67.1178 -67.0991 -67.0971 -67.0971 -67.0920 -67.0920 -67.0910 -67.0860
   -66.8649 -66.8644 -66.8597 -66.8591 -66.8565 -66.8529 -54.3047 -54.3039
   -33.4061 -33.4034 -33.4034 -33.3832 -33.3378 -33.3378 -33.3301 -33.3048
   -33.3039 -33.3039 -33.3019 -33.2452 -33.2412 -33.2412 -33.1905 -33.1885
   -33.1556 -33.1556 -33.1348 -33.1309 -33.1309 -33.0993 -33.0964 -33.0937
   -33.0578 -33.0468 -33.0468 -32.9610 -32.9595 -32.9595 -32.9551 -32.9450
   -32.9450 -32.8887 -32.8887 -32.8852 -32.8483 -32.8435 -32.8435 -32.8237
   -32.8237 -32.8213 -25.6334 -25.6334 -25.6334 -25.6230 -25.6228 -25.6228
    10.1881  13.2154  14.1384  14.3000  14.3187  14.3187  14.3639  14.3994
    14.3994  14.4348  14.4709  14.7627  14.9553  15.2556  15.2687  15.9345
    16.0680  16.0680  16.3085  16.3085  16.3410  16.3686  16.6000  16.6000
    16.6346  16.7513  16.7513  16.7958  16.8740  17.3312  17.3312  17.4513
    17.6957  17.8572  17.8572  17.8753  17.8753  17.9317  17.9869  18.1366
    18.1366  18.1748  18.3290  18.4265  18.4265  18.4347  18.5254  18.5254
    18.5781  18.5789  18.6187  18.6187  18.6665  18.6665  18.9016  19.1458
    19.3133  19.3925  19.5316  19.5316  19.5401  19.6621  19.7491  19.7491
    19.8255  19.8842  20.0273  20.0434  20.0974  20.1307  20.2232  20.2426
    20.2675  20.2741  20.4165  20.4165  20.4865  20.4910  20.4941  20.4941
    20.6524  20.6898  20.8917  20.8921  20.8921  20.9137  20.9137

          k = 0.0000 0.0000 0.3317 (  9542 PWs)   bands (ev):

   -67.1138 -67.1032 -67.0961 -67.0961 -67.0929 -67.0929 -67.0902 -67.0873
   -66.8638 -66.8621 -66.8606 -66.8590 -66.8569 -66.8549 -54.3046 -54.3040
   -33.3993 -33.3892 -33.3892 -33.3860 -33.3514 -33.3514 -33.3237 -33.3072
   -33.2828 -33.2787 -33.2787 -33.2418 -33.2270 -33.2270 -33.2166 -33.2137
   -33.1951 -33.1951 -33.1714 -33.1714 -33.1275 -33.1052 -33.0981 -33.0947
   -33.0274 -33.0147 -33.0147 -32.9755 -32.9703 -32.9703 -32.9330 -32.9082
   -32.9082 -32.8791 -32.8791 -32.8706 -32.8682 -32.8528 -32.8528 -32.8423
   -32.8423 -32.8321 -25.6316 -25.6312 -25.6312 -25.6254 -25.6249 -25.6249
    10.6182  12.2004  14.2698  14.3950  14.4355  14.4355  14.4643  14.4643
    14.5207  14.6328  14.7530  14.9046  15.2486  15.3921  15.4566  15.5941
    15.9784  16.1107  16.1107  16.1709  16.2916  16.2916  16.5726  16.8182
    16.8539  16.8539  16.8641  16.8641  16.9971  17.2136  17.2136  17.2947
    17.3434  17.5458  17.5760  17.5760  17.7272  17.7867  17.7867  17.8786
    17.8786  17.9478  17.9535  17.9535  18.0472  18.0472  18.0655  18.4095
    18.5648  18.8060  18.8421  18.8421  19.0145  19.0153  19.0615  19.0615
    19.4014  19.5693  19.5693  19.6715  19.7998  19.8228  19.8909  19.9513
    19.9595  19.9595  19.9891  20.0244  20.0299  20.0299  20.1341  20.1767
    20.2104  20.2303  20.2381  20.2722  20.3251  20.4825  20.6831  20.6831
    20.7010  20.7582  20.8101  20.8101  20.8170  20.9171  20.9183

          k = 0.0000 0.0000-0.4976 (  9530 PWs)   bands (ev):

   -67.1088 -67.1088 -67.0943 -67.0943 -67.0943 -67.0943 -67.0889 -67.0889
   -66.8620 -66.8620 -66.8595 -66.8595 -66.8570 -66.8569 -54.3044 -54.3041
   -33.3917 -33.3916 -33.3702 -33.3702 -33.3701 -33.3701 -33.3151 -33.3151
   -33.2511 -33.2510 -33.2403 -33.2403 -33.2402 -33.2402 -33.2320 -33.2318
   -33.2039 -33.2039 -33.2037 -33.2037 -33.1167 -33.1166 -33.0963 -33.0963
   -32.9982 -32.9982 -32.9886 -32.9886 -32.9886 -32.9886 -32.9020 -32.9019
   -32.8715 -32.8715 -32.8715 -32.8715 -32.8659 -32.8659 -32.8658 -32.8658
   -32.8486 -32.8485 -25.6293 -25.6287 -25.6287 -25.6280 -25.6274 -25.6274
    11.3050  11.3054  14.3758  14.3765  14.4984  14.4984  14.4984  14.4984
    14.6918  14.6921  15.1501  15.1507  15.1591  15.1596  15.6169  15.6171
    15.7627  15.7631  16.2076  16.2076  16.2076  16.2076  16.8933  16.8940
    17.0009  17.0012  17.0261  17.0261  17.0266  17.0266  17.3161  17.3170
    17.3907  17.3907  17.3909  17.3909  17.4597  17.4597  17.4597  17.4597
    17.4876  17.4882  17.9012  17.9012  17.9016  17.9016  18.2804  18.2808
    18.7686  18.7702  19.1741  19.1745  19.2589  19.2589  19.2599  19.2599
    19.4471  19.4474  19.5329  19.5329  19.5332  19.5332  19.8563  19.8564
    19.9384  19.9390  20.1083  20.1084  20.1858  20.1860  20.2319  20.2321
    20.3346  20.3347  20.3680  20.3680  20.3685  20.3685  20.4144  20.4144
    20.4385  20.4390  20.9135  20.9135  20.9136  20.9136  20.9803

          k = 0.0000 0.1659 0.1659 (  9537 PWs)   bands (ev):

   -67.1164 -67.0989 -67.0982 -67.0967 -67.0925 -67.0916 -67.0916 -67.0864
   -66.8642 -66.8638 -66.8598 -66.8593 -66.8566 -66.8536 -54.3046 -54.3039
   -33.4037 -33.3991 -33.3984 -33.3838 -33.3419 -33.3372 -33.3328 -33.3041
   -33.3013 -33.2958 -33.2916 -33.2514 -33.2364 -33.2298 -33.2067 -33.1977
   -33.1670 -33.1644 -33.1427 -33.1379 -33.1301 -33.1056 -33.0987 -33.0962
   -33.0583 -33.0368 -33.0313 -32.9673 -32.9626 -32.9622 -32.9463 -32.9337
   -32.9311 -32.8858 -32.8850 -32.8770 -32.8617 -32.8466 -32.8405 -32.8317
   -32.8293 -32.8219 -25.6342 -25.6327 -25.6313 -25.6251 -25.6235 -25.6222
    10.3326  13.3064  13.3072  14.2755  14.2888  14.3791  14.4719  14.4947
    14.5123  14.5282  14.8308  14.9521  15.0502  15.3126  15.3255  15.8767
    16.0526  16.0572  16.3229  16.3587  16.3859  16.4260  16.4536  16.5766
    16.6434  16.6787  16.7582  16.7842  16.8539  17.1962  17.1968  17.4738
    17.5036  17.7512  17.7979  17.8447  17.9031  17.9703  18.0009  18.0228
    18.0330  18.1525  18.2117  18.2768  18.2996  18.3130  18.3256  18.3590
    18.3945  18.4685  18.5848  18.6180  18.7389  18.7729  19.1180  19.1958
    19.2152  19.3176  19.5393  19.6648  19.6971  19.7432  19.7922  19.8228
    19.8663  19.9397  20.0164  20.0243  20.0957  20.1008  20.1587  20.2216
    20.2313  20.2395  20.2591  20.3051  20.3456  20.3715  20.5443  20.5888
    20.6312  20.6414  20.7345  20.9240  20.9703  21.0166  21.2257

          k = 0.0000 0.1659 0.3317 (  9555 PWs)   bands (ev):

   -67.1129 -67.1026 -67.0972 -67.0956 -67.0937 -67.0927 -67.0906 -67.0876
   -66.8632 -66.8618 -66.8606 -66.8592 -66.8571 -66.8556 -54.3045 -54.3040
   -33.3982 -33.3866 -33.3864 -33.3849 -33.3535 -33.3489 -33.3273 -33.3100
   -33.2842 -33.2726 -33.2650 -33.2528 -33.2340 -33.2225 -33.2202 -33.2109
   -33.1969 -33.1946 -33.1718 -33.1536 -33.1323 -33.1079 -33.1066 -33.0996
   -33.0342 -33.0188 -33.0060 -32.9820 -32.9753 -32.9703 -32.9308 -32.9048
   -32.9012 -32.8848 -32.8778 -32.8727 -32.8605 -32.8550 -32.8490 -32.8453
   -32.8452 -32.8293 -25.6335 -25.6308 -25.6290 -25.6278 -25.6254 -25.6232
    10.7572  12.3144  13.5499  14.1099  14.4644  14.5074  14.5498  14.5857
    14.7670  14.7971  15.0067  15.0883  15.2991  15.4476  15.5093  15.6113
    15.9577  16.0975  16.1761  16.2187  16.3160  16.3380  16.5519  16.5825
    16.7641  16.8164  16.8196  16.8817  17.0588  17.0623  17.0861  17.2105
    17.3365  17.3952  17.5882  17.6336  17.6408  17.6723  17.7371  17.7465
    17.7793  17.8326  17.8426  17.8598  17.8629  17.9181  18.2514  18.5761
    18.6522  18.7804  18.8060  18.8488  19.0202  19.0292  19.0447  19.1317
    19.3118  19.4812  19.5636  19.5950  19.7364  19.8092  19.8389  19.8625
    19.8831  19.8934  19.9172  19.9863  20.1182  20.1597  20.1647  20.1875
    20.1992  20.2417  20.2582  20.3344  20.3503  20.3589  20.4563  20.4689
    20.5521  20.5594  20.5872  20.8833  21.0210  21.0915  21.3241

          k = 0.0000 0.1659-0.4976 (  9550 PWs)   bands (ev):

   -67.1077 -67.1077 -67.0955 -67.0955 -67.0941 -67.0941 -67.0891 -67.0891
   -66.8619 -66.8619 -66.8596 -66.8595 -66.8572 -66.8571 -54.3044 -54.3041
   -33.3916 -33.3916 -33.3697 -33.3697 -33.3668 -33.3667 -33.3184 -33.3184
   -33.2591 -33.2590 -33.2438 -33.2437 -33.2373 -33.2373 -33.2296 -33.2296
   -33.2004 -33.2003 -33.1851 -33.1850 -33.1207 -33.1206 -33.1035 -33.1035
   -33.0038 -33.0038 -32.9969 -32.9968 -32.9848 -32.9848 -32.9098 -32.9098
   -32.8742 -32.8742 -32.8702 -32.8702 -32.8664 -32.8664 -32.8574 -32.8574
   -32.8430 -32.8430 -25.6315 -25.6314 -25.6287 -25.6274 -25.6255 -25.6254
    11.4346  11.4350  13.8542  13.8545  14.5808  14.5808  14.5935  14.5940
    15.0352  15.0356  15.1984  15.1989  15.2235  15.2241  15.6493  15.6494
    15.8077  15.8081  16.2230  16.2230  16.2447  16.2447  16.7699  16.7700
    16.8144  16.8149  16.9928  16.9933  17.0275  17.0278  17.1934  17.1936
    17.2638  17.2644  17.3598  17.3600  17.4176  17.4178  17.4500  17.4502
    17.5649  17.5652  17.7243  17.7247  17.8467  17.8470  18.4840  18.4844
    18.8303  18.8317  19.1251  19.1255  19.1648  19.1653  19.2063  19.2070
    19.3562  19.3565  19.4249  19.4252  19.5257  19.5259  19.8350  19.8351
    19.9256  19.9256  20.0746  20.0751  20.1084  20.1085  20.1790  20.1791
    20.2843  20.2844  20.2980  20.2981  20.3783  20.3785  20.4248  20.4250
    20.5179  20.5180  20.6601  20.6601  21.1727  21.1727  21.2098

          k = 0.0000 0.3317 0.3317 (  9554 PWs)   bands (ev):

   -67.1097 -67.1017 -67.0997 -67.0956 -67.0944 -67.0916 -67.0916 -67.0887
   -66.8618 -66.8611 -66.8604 -66.8594 -66.8577 -66.8569 -54.3045 -54.3041
   -33.3954 -33.3883 -33.3785 -33.3733 -33.3592 -33.3468 -33.3329 -33.3172
   -33.2790 -33.2589 -33.2586 -33.2551 -33.2408 -33.2324 -33.2099 -33.2079
   -33.2006 -33.1850 -33.1770 -33.1394 -33.1367 -33.1181 -33.1158 -33.1108
   -33.0415 -33.0184 -32.9957 -32.9937 -32.9902 -32.9718 -32.9283 -32.9052
   -32.8920 -32.8851 -32.8739 -32.8610 -32.8606 -32.8585 -32.8538 -32.8466
   -32.8414 -32.8291 -25.6344 -25.6314 -25.6297 -25.6264 -25.6256 -25.6227
    11.1649  12.6135  12.6628  13.6407  14.6676  14.6797  14.7180  14.8281
    14.9195  14.9698  15.2405  15.3455  15.4513  15.5862  15.5958  15.6452
    15.8856  16.0478  16.1437  16.3491  16.3547  16.3670  16.3921  16.5153
    16.5582  16.6847  16.8432  16.8627  16.8866  16.9216  17.0590  17.0751
    17.1823  17.2419  17.2841  17.4383  17.4503  17.4586  17.5200  17.5253
    17.5744  17.6672  17.6697  17.6768  17.8175  18.0933  18.3294  18.5227
    18.7983  18.9197  18.9579  18.9682  18.9914  19.0145  19.2013  19.2362
    19.3092  19.3174  19.3410  19.3992  19.5433  19.6465  19.7505  19.7722
    19.8619  19.8781  19.9846  20.0247  20.0668  20.0898  20.0991  20.1815
    20.1824  20.2110  20.2574  20.2944  20.3318  20.3696  20.4042  20.4292
    20.4953  20.6286  20.6394  20.9349  21.3168  21.3534  22.0258

          k = 0.0000 0.3317-0.4976 (  9534 PWs)   bands (ev):

   -67.1054 -67.1054 -67.0979 -67.0979 -67.0929 -67.0929 -67.0902 -67.0902
   -66.8608 -66.8607 -66.8595 -66.8594 -66.8582 -66.8581 -54.3044 -54.3041
   -33.3917 -33.3917 -33.3679 -33.3679 -33.3583 -33.3582 -33.3266 -33.3266
   -33.2732 -33.2731 -33.2485 -33.2485 -33.2307 -33.2307 -33.2167 -33.2166
   -33.1924 -33.1922 -33.1566 -33.1566 -33.1287 -33.1286 -33.1186 -33.1185
   -33.0219 -33.0219 -33.0096 -33.0096 -32.9778 -32.9778 -32.9207 -32.9207
   -32.8756 -32.8755 -32.8679 -32.8678 -32.8675 -32.8675 -32.8463 -32.8463
   -32.8350 -32.8350 -25.6336 -25.6336 -25.6286 -25.6274 -25.6235 -25.6235
    11.8104  11.8108  13.1135  13.1138  14.7697  14.7697  14.8494  14.8500
    15.2374  15.2379  15.3109  15.3115  15.4677  15.4682  15.7008  15.7010
    15.8907  15.8909  16.1771  16.1771  16.3252  16.3253  16.4805  16.4807
    16.6845  16.6847  16.7886  16.7889  16.8889  16.8892  16.9519  16.9520
    17.0779  17.0787  17.2359  17.2360  17.3060  17.3064  17.4885  17.4889
    17.5808  17.5810  17.7331  17.7334  17.7343  17.7343  18.6813  18.6814
    18.8361  18.8363  18.8772  18.8776  19.1219  19.1227  19.1818  19.1822
    19.1993  19.1994  19.4302  19.4307  19.6842  19.6846  19.6848  19.6849
    19.7816  19.7817  19.8881  19.8888  20.0602  20.0603  20.1572  20.1572
    20.2026  20.2028  20.2544  20.2545  20.2931  20.2932  20.4561  20.4562
    20.5852  20.5853  20.8452  20.8454  21.7105  21.7106  21.7262

          k = 0.0000-0.4976-0.4976 (  9540 PWs)   bands (ev):

   -67.1030 -67.1030 -67.1003 -67.1003 -67.0916 -67.0916 -67.0916 -67.0916
   -66.8596 -66.8596 -66.8595 -66.8594 -66.8594 -66.8594 -54.3044 -54.3041
   -33.3919 -33.3918 -33.3666 -33.3666 -33.3517 -33.3516 -33.3330 -33.3330
   -33.2800 -33.2799 -33.2485 -33.2485 -33.2270 -33.2270 -33.2111 -33.2111
   -33.1874 -33.1872 -33.1412 -33.1412 -33.1317 -33.1316 -33.1283 -33.1283
   -33.0361 -33.0360 -33.0139 -33.0139 -32.9746 -32.9745 -32.9252 -32.9252
   -32.8754 -32.8753 -32.8682 -32.8682 -32.8665 -32.8665 -32.8420 -32.8420
   -32.8318 -32.8318 -25.6345 -25.6345 -25.6286 -25.6273 -25.6229 -25.6229
    12.3614  12.3620  12.4280  12.4280  14.8768  14.8768  15.0108  15.0116
    15.3858  15.3858  15.4168  15.4175  15.5615  15.5620  15.6837  15.6848
    15.8928  15.8928  16.0470  16.0470  16.3670  16.3673  16.4021  16.4021
    16.6614  16.6620  16.6840  16.6840  16.7332  16.7332  16.8020  16.8020
    17.1018  17.1031  17.1779  17.1779  17.2150  17.2150  17.3700  17.3705
    17.5975  17.5979  17.6553  17.6553  18.0597  18.0597  18.2945  18.2946
    18.8699  18.8701  19.0583  19.0583  19.0801  19.0801  19.1765  19.1776
    19.2068  19.2068  19.3625  19.3630  19.6651  19.6651  19.7114  19.7114
    19.7245  19.7259  19.8270  19.8270  20.1055  20.1058  20.1151  20.1153
    20.1412  20.1412  20.1499  20.1499  20.2893  20.2894  20.4566  20.4566
    20.6627  20.6627  20.9124  20.9126  22.2853  22.2863  22.3190

          k = 0.1659 0.1659 0.1659 (  9525 PWs)   bands (ev):

   -67.1152 -67.0984 -67.0984 -67.0974 -67.0920 -67.0920 -67.0920 -67.0868
   -66.8634 -66.8634 -66.8596 -66.8596 -66.8567 -66.8543 -54.3046 -54.3040
   -33.4006 -33.3949 -33.3949 -33.3843 -33.3424 -33.3375 -33.3375 -33.3062
   -33.2973 -33.2845 -33.2845 -33.2462 -33.2462 -33.2156 -33.2127 -33.2127
   -33.1795 -33.1552 -33.1552 -33.1379 -33.1379 -33.1127 -33.1006 -33.1006
   -33.0595 -33.0237 -33.0237 -32.9691 -32.9691 -32.9649 -32.9347 -32.9347
   -32.9156 -32.8884 -32.8733 -32.8733 -32.8720 -32.8445 -32.8445 -32.8353
   -32.8353 -32.8235 -25.6334 -25.6334 -25.6297 -25.6266 -25.6230 -25.6230
    10.4755  13.3958  13.3958  13.4114  14.3584  14.3584  14.4755  14.6218
    14.6218  14.9290  14.9860  14.9860  15.1720  15.3774  15.3774  15.8461
    16.0699  16.0699  16.3456  16.3619  16.3619  16.4216  16.4847  16.4847
    16.6075  16.6075  16.7737  16.8467  16.8467  16.9450  17.3427  17.3427
    17.3852  17.6024  17.7562  17.7562  17.8589  17.8589  17.8969  17.8969
    17.9574  18.0858  18.0951  18.0951  18.1241  18.1241  18.2049  18.2235
    18.4803  18.4803  18.6988  18.6988  18.8594  18.9067  19.2383  19.2383
    19.3487  19.3487  19.4116  19.6415  19.7259  19.7259  19.7878  19.8225
    19.8882  19.9847  19.9847  20.0429  20.0429  20.0919  20.0919  20.2041
    20.2041  20.2245  20.2245  20.3037  20.3877  20.3877  20.6235  20.6235
    20.6272  20.6272  20.6291  20.6835  21.0321  21.0804  21.0804

          k = 0.1659 0.1659 0.3317 (  9527 PWs)   bands (ev):

   -67.1118 -67.1019 -67.0970 -67.0964 -67.0934 -67.0932 -67.0910 -67.0879
   -66.8626 -66.8615 -66.8604 -66.8593 -66.8572 -66.8560 -54.3045 -54.3041
   -33.3957 -33.3864 -33.3833 -33.3826 -33.3516 -33.3501 -33.3309 -33.3125
   -33.2811 -33.2665 -33.2587 -33.2501 -33.2366 -33.2306 -33.2301 -33.2017
   -33.1950 -33.1899 -33.1663 -33.1494 -33.1430 -33.1159 -33.1123 -33.1057
   -33.0399 -33.0111 -33.0022 -32.9835 -32.9780 -32.9749 -32.9254 -32.9084
   -32.8911 -32.8909 -32.8808 -32.8639 -32.8569 -32.8569 -32.8500 -32.8490
   -32.8441 -32.8301 -25.6334 -25.6312 -25.6297 -25.6269 -25.6252 -25.6233
    10.8954  12.4294  13.6354  13.6693  14.1924  14.2633  14.7212  14.7885
    14.8683  15.0210  15.1503  15.2317  15.3563  15.5083  15.5658  15.6456
    15.9642  16.1319  16.1847  16.2118  16.3356  16.3769  16.4587  16.5410
    16.6916  16.7571  16.8348  16.8736  16.8771  17.0319  17.1007  17.2188
    17.2346  17.3078  17.4508  17.5079  17.5589  17.6120  17.6554  17.6617
    17.7042  17.7056  17.7069  17.7585  17.7968  17.8424  18.4034  18.4174
    18.6951  18.8048  18.8669  18.9596  19.0829  19.1289  19.1554  19.2305
    19.2625  19.3119  19.5193  19.5537  19.7423  19.7526  19.7931  19.8412
    19.8707  19.9213  20.0396  20.0644  20.0749  20.1146  20.1299  20.1543
    20.2121  20.2423  20.2674  20.3068  20.3409  20.4163  20.4343  20.4422
    20.5890  20.6043  20.6496  20.6889  20.7606  20.7780  21.8172

          k = 0.1659 0.1659-0.4976 (  9540 PWs)   bands (ev):

   -67.1069 -67.1068 -67.0952 -67.0952 -67.0948 -67.0948 -67.0895 -67.0895
   -66.8616 -66.8615 -66.8596 -66.8595 -66.8575 -66.8574 -54.3044 -54.3041
   -33.3905 -33.3904 -33.3670 -33.3670 -33.3661 -33.3661 -33.3215 -33.3215
   -33.2562 -33.2561 -33.2532 -33.2531 -33.2309 -33.2309 -33.2258 -33.2257
   -33.2021 -33.2020 -33.1720 -33.1719 -33.1279 -33.1278 -33.1119 -33.1119
   -33.0082 -33.0082 -32.9958 -32.9958 -32.9856 -32.9855 -32.9100 -32.9100
   -32.8797 -32.8797 -32.8668 -32.8667 -32.8665 -32.8665 -32.8529 -32.8529
   -32.8417 -32.8417 -25.6321 -25.6320 -25.6289 -25.6276 -25.6248 -25.6247
    11.5640  11.5644  13.9374  13.9377  13.9979  13.9981  14.9482  14.9486
    15.1315  15.1319  15.1836  15.1842  15.3740  15.3744  15.6895  15.6896
    15.8575  15.8578  16.2456  16.2457  16.2653  16.2653  16.6329  16.6331
    16.8146  16.8147  16.9024  16.9030  16.9993  16.9998  17.0679  17.0681
    17.1997  17.2002  17.2490  17.2492  17.4291  17.4292  17.4369  17.4369
    17.4947  17.4948  17.6587  17.6591  17.7384  17.7388  18.6460  18.6464
    18.8280  18.8283  18.9009  18.9023  19.1215  19.1222  19.2854  19.2857
    19.2859  19.2867  19.5740  19.5742  19.5921  19.5924  19.8243  19.8245
    19.9306  19.9308  20.0404  20.0405  20.1343  20.1344  20.1928  20.1931
    20.2707  20.2707  20.3061  20.3063  20.3298  20.3299  20.4857  20.4860
    20.5658  20.5658  20.5748  20.5749  20.6198  20.6199  22.1993

          k = 0.1659 0.3317 0.3317 (  9541 PWs)   bands (ev):

   -67.1088 -67.1009 -67.0991 -67.0954 -67.0951 -67.0922 -67.0921 -67.0892
   -66.8615 -66.8608 -66.8602 -66.8594 -66.8579 -66.8572 -54.3045 -54.3041
   -33.3917 -33.3869 -33.3758 -33.3725 -33.3566 -33.3475 -33.3366 -33.3194
   -33.2729 -33.2595 -33.2550 -33.2425 -33.2424 -33.2361 -33.2178 -33.2099
   -33.1973 -33.1733 -33.1701 -33.1545 -33.1433 -33.1286 -33.1242 -33.1196
   -33.0434 -33.0048 -32.9985 -32.9894 -32.9873 -32.9749 -32.9201 -32.9030
   -32.8980 -32.8776 -32.8768 -32.8650 -32.8566 -32.8559 -32.8545 -32.8473
   -32.8443 -32.8324 -25.6336 -25.6317 -25.6304 -25.6261 -25.6252 -25.6234
    11.2997  12.7353  12.7766  13.7624  13.9257  14.4961  14.6225  15.0222
    15.0650  15.1668  15.4179  15.4197  15.4805  15.6454  15.6647  15.7114
    15.9233  16.0633  16.1926  16.2493  16.3399  16.3577  16.4254  16.4788
    16.5848  16.6967  16.7254  16.7650  16.9078  17.0037  17.0112  17.0642
    17.0753  17.1298  17.2158  17.3215  17.3274  17.3855  17.4433  17.4841
    17.5138  17.5347  17.5483  17.6238  17.6910  17.9178  18.0585  18.6695
    18.8075  18.9310  18.9667  19.0342  19.0813  19.0989  19.2266  19.2501
    19.4083  19.4456  19.4817  19.4938  19.6023  19.7250  19.8024  19.8529
    19.8746  19.9141  19.9552  20.0354  20.0534  20.0703  20.1524  20.1726
    20.2108  20.2227  20.2643  20.2890  20.3456  20.3618  20.3949  20.4063
    20.4350  20.5306  20.5345  20.6716  20.7507  21.3588  21.3906

          k = 0.1659 0.3317-0.4976 (  9548 PWs)   bands (ev):

   -67.1046 -67.1046 -67.0975 -67.0975 -67.0938 -67.0938 -67.0907 -67.0907
   -66.8607 -66.8606 -66.8595 -66.8595 -66.8583 -66.8583 -54.3044 -54.3041
   -33.3888 -33.3887 -33.3655 -33.3655 -33.3584 -33.3583 -33.3292 -33.3291
   -33.2677 -33.2676 -33.2473 -33.2473 -33.2251 -33.2250 -33.2208 -33.2207
   -33.1916 -33.1916 -33.1542 -33.1541 -33.1417 -33.1417 -33.1296 -33.1296
   -33.0254 -33.0254 -32.9983 -32.9982 -32.9771 -32.9770 -32.9137 -32.9137
   -32.8796 -32.8796 -32.8672 -32.8672 -32.8658 -32.8658 -32.8476 -32.8476
   -32.8379 -32.8379 -25.6332 -25.6332 -25.6289 -25.6276 -25.6240 -25.6239
    11.9390  11.9394  13.2347  13.2349  14.2710  14.2712  14.9958  14.9963
    15.2178  15.2184  15.3573  15.3578  15.6569  15.6573  15.7725  15.7728
    15.9575  15.9577  16.2065  16.2066  16.3105  16.3106  16.4224  16.4226
    16.6982  16.6984  16.7719  16.7722  16.8296  16.8298  16.9509  16.9515
    16.9940  16.9944  17.1539  17.1541  17.2969  17.2971  17.4302  17.4303
    17.4714  17.4718  17.5153  17.5155  17.6592  17.6595  18.3267  18.3270
    18.9486  18.9488  19.0399  19.0408  19.1575  19.1584  19.2903  19.2908
    19.4052  19.4057  19.5192  19.5195  19.7298  19.7299  19.7946  19.7950
    19.8310  19.8313  19.9341  19.9345  20.0557  20.0559  20.1384  20.1385
    20.1943  20.1944  20.2466  20.2466  20.2871  20.2874  20.4134  20.4135
    20.4832  20.4833  20.6934  20.6934  20.9595  20.9597  22.1100

          k = 0.1659-0.4976-0.4976 (  9540 PWs)   bands (ev):

   -67.1023 -67.1023 -67.0999 -67.0998 -67.0924 -67.0924 -67.0921 -67.0921
   -66.8596 -66.8596 -66.8595 -66.8594 -66.8593 -66.8593 -54.3045 -54.3041
   -33.3881 -33.3880 -33.3645 -33.3645 -33.3516 -33.3515 -33.3354 -33.3354
   -33.2739 -33.2738 -33.2430 -33.2430 -33.2200 -33.2199 -33.2199 -33.2199
   -33.1836 -33.1835 -33.1498 -33.1498 -33.1483 -33.1482 -33.1361 -33.1361
   -33.0367 -33.0366 -32.9997 -32.9996 -32.9719 -32.9718 -32.9168 -32.9168
   -32.8763 -32.8762 -32.8678 -32.8678 -32.8674 -32.8674 -32.8457 -32.8457
   -32.8359 -32.8359 -25.6337 -25.6337 -25.6288 -25.6275 -25.6236 -25.6236
    12.4919  12.4925  12.5500  12.5500  14.6003  14.6003  14.7648  14.7655
    15.3032  15.3039  15.5657  15.5657  15.6912  15.6922  15.9024  15.9029
    15.9858  15.9858  16.0565  16.0565  16.3216  16.3219  16.4159  16.4159
    16.6202  16.6206  16.6873  16.6873  16.7447  16.7447  16.8038  16.8040
    17.0161  17.0174  17.0931  17.0931  17.2269  17.2269  17.3308  17.3314
    17.4790  17.4790  17.4858  17.4863  17.8226  17.8226  17.9605  17.9609
    19.0958  19.0966  19.1563  19.1563  19.2085  19.2096  19.2933  19.2940
    19.3852  19.3852  19.5469  19.5474  19.6877  19.6877  19.7525  19.7538
    19.7724  19.7724  19.8740  19.8740  20.0932  20.0933  20.1107  20.1107
    20.1163  20.1166  20.1389  20.1389  20.2600  20.2603  20.4171  20.4171
    20.5227  20.5227  20.7511  20.7512  21.5017  21.5021  21.5343

          k = 0.3317 0.3317 0.3317 (  9552 PWs)   bands (ev):

   -67.1061 -67.0992 -67.0992 -67.0969 -67.0942 -67.0942 -67.0933 -67.0903
   -66.8605 -66.8605 -66.8598 -66.8598 -66.8582 -66.8580 -54.3045 -54.3041
   -33.3851 -33.3842 -33.3683 -33.3683 -33.3534 -33.3458 -33.3458 -33.3258
   -33.2563 -33.2513 -33.2513 -33.2481 -33.2481 -33.2177 -33.2177 -33.2070
   -33.1889 -33.1889 -33.1585 -33.1578 -33.1578 -33.1495 -33.1417 -33.1417
   -33.0435 -33.0147 -32.9827 -32.9827 -32.9780 -32.9780 -32.9017 -32.9017
   -32.9003 -32.8769 -32.8697 -32.8669 -32.8669 -32.8523 -32.8523 -32.8488
   -32.8488 -32.8395 -25.6322 -25.6315 -25.6315 -25.6256 -25.6256 -25.6248
    11.6936  13.0729  13.0991  13.0991  14.0779  14.0779  14.1907  15.1697
    15.2483  15.2483  15.4944  15.4944  15.7012  15.7382  15.8551  15.8551
    16.1018  16.1391  16.1391  16.2979  16.2979  16.3858  16.3858  16.4145
    16.5233  16.6614  16.6614  16.8019  16.8019  16.8869  16.9102  17.0680
    17.0680  17.0684  17.0684  17.0968  17.1124  17.2057  17.2057  17.2749
    17.3619  17.3619  17.4796  17.4796  17.5798  17.5798  17.6718  18.2530
    18.9765  19.1100  19.1100  19.2121  19.2121  19.2864  19.2864  19.4778
    19.5122  19.6541  19.6541  19.6580  19.8162  19.8162  19.8504  19.8589
    19.9432  19.9432  19.9899  19.9899  20.0794  20.0794  20.0827  20.0827
    20.1492  20.1492  20.1728  20.2312  20.3114  20.3252  20.3252  20.4093
    20.4093  20.4152  20.4152  20.4891  20.8433  20.8464  20.8464

          k = 0.3317 0.3317-0.4976 (  9586 PWs)   bands (ev):

   -67.1026 -67.1026 -67.0967 -67.0967 -67.0955 -67.0955 -67.0922 -67.0922
   -66.8602 -66.8601 -66.8596 -66.8595 -66.8589 -66.8588 -54.3045 -54.3041
   -33.3829 -33.3828 -33.3594 -33.3594 -33.3575 -33.3574 -33.3357 -33.3357
   -33.2561 -33.2560 -33.2470 -33.2469 -33.2247 -33.2246 -33.2108 -33.2108
   -33.1868 -33.1868 -33.1680 -33.1680 -33.1539 -33.1539 -33.1520 -33.1520
   -33.0336 -33.0335 -32.9799 -32.9799 -32.9728 -32.9728 -32.9011 -32.9011
   -32.8831 -32.8830 -32.8667 -32.8667 -32.8663 -32.8663 -32.8505 -32.8505
   -32.8444 -32.8444 -25.6322 -25.6322 -25.6292 -25.6279 -25.6251 -25.6250
    12.3115  12.3119  13.5695  13.5699  13.5905  13.5907  14.6346  14.6350
    15.4060  15.4067  15.5164  15.5171  15.8587  15.8590  15.9701  15.9704
    16.1068  16.1069  16.2733  16.2733  16.2836  16.2837  16.3440  16.3441
    16.6885  16.6889  16.7028  16.7032  16.7861  16.7867  16.8550  16.8558
    16.9836  16.9836  17.0271  17.0274  17.1879  17.1883  17.2221  17.2222
    17.2732  17.2732  17.3531  17.3533  17.4163  17.4168  17.8074  17.8077
    19.1957  19.1968  19.2338  19.2347  19.2505  19.2507  19.5324  19.5332
    19.5916  19.5918  19.7155  19.7157  19.8272  19.8278  19.8633  19.8634
    19.8874  19.8877  20.0209  20.0212  20.0738  20.0739  20.1230  20.1233
    20.1635  20.1636  20.2247  20.2247  20.2882  20.2885  20.3418  20.3419
    20.4174  20.4178  20.4289  20.4290  20.4510  20.4511  21.4752

          k = 0.3317-0.4976-0.4976 (  9576 PWs)   bands (ev):

   -67.1004 -67.1004 -67.0986 -67.0986 -67.0945 -67.0945 -67.0935 -67.0935
   -66.8596 -66.8596 -66.8595 -66.8594 -66.8594 -66.8594 -54.3045 -54.3041
   -33.3800 -33.3799 -33.3588 -33.3588 -33.3510 -33.3509 -33.3419 -33.3419
   -33.2577 -33.2575 -33.2354 -33.2352 -33.2269 -33.2269 -33.2014 -33.2014
   -33.1807 -33.1806 -33.1792 -33.1791 -33.1732 -33.1732 -33.1542 -33.1542
   -33.0378 -33.0378 -32.9753 -32.9752 -32.9665 -32.9664 -32.8976 -32.8976
   -32.8783 -32.8782 -32.8707 -32.8707 -32.8656 -32.8656 -32.8542 -32.8542
   -32.8469 -32.8469 -25.6316 -25.6316 -25.6292 -25.6280 -25.6257 -25.6257
    12.8692  12.8698  12.9016  12.9016  14.0489  14.0489  14.1310  14.1317
    15.5040  15.5048  15.7064  15.7075  15.8348  15.8348  16.0656  16.0656
    16.1836  16.1837  16.2422  16.2422  16.3171  16.3174  16.4681  16.4681
    16.5801  16.5804  16.6772  16.6772  16.7157  16.7157  16.8921  16.8934
    16.9286  16.9290  16.9880  16.9880  17.0928  17.0928  17.1851  17.1851
    17.2263  17.2268  17.2447  17.2451  17.3799  17.3799  17.4432  17.4438
    19.2673  19.2685  19.2840  19.2851  19.4581  19.4581  19.5708  19.5718
    19.7439  19.7439  19.8450  19.8462  19.8573  19.8573  19.9410  19.9415
    19.9511  19.9511  19.9892  19.9892  19.9937  19.9937  20.0462  20.0465
    20.0947  20.0947  20.1183  20.1186  20.1889  20.1895  20.2099  20.2099
    20.3311  20.3311  20.4079  20.4081  20.9075  20.9080  20.9143

          k =-0.4976-0.4976-0.4976 (  9568 PWs)   bands (ev):

   -67.0975 -67.0975 -67.0975 -67.0975 -67.0975 -67.0975 -67.0947 -67.0947
   -66.8594 -66.8594 -66.8594 -66.8594 -66.8594 -66.8594 -54.3045 -54.3041
   -33.3757 -33.3756 -33.3504 -33.3504 -33.3504 -33.3504 -33.3504 -33.3504
   -33.2429 -33.2429 -33.2427 -33.2427 -33.2018 -33.2018 -33.2018 -33.2018
   -33.2018 -33.2018 -33.1776 -33.1776 -33.1776 -33.1776 -33.1776 -33.1776
   -33.0383 -33.0383 -32.9638 -32.9638 -32.9637 -32.9637 -32.8793 -32.8793
   -32.8793 -32.8793 -32.8793 -32.8793 -32.8594 -32.8594 -32.8594 -32.8594
   -32.8594 -32.8594 -25.6293 -25.6293 -25.6293 -25.6280 -25.6280 -25.6280
    13.4332  13.4332  13.4332  13.4335  13.4335  13.4335  13.4591  13.4600
    15.7143  15.7143  15.7154  15.7154  16.0156  16.0156  16.0156  16.0160
    16.0160  16.0160  16.5653  16.5653  16.5653  16.5656  16.5656  16.5656
    16.6010  16.6010  16.6010  16.6013  16.6013  16.6013  16.9713  16.9719
    17.0009  17.0009  17.0009  17.0023  17.0023  17.0023  17.0487  17.0487
    17.0487  17.0492  17.0492  17.0492  17.1108  17.1108  17.1111  17.1111
    19.3287  19.3287  19.3297  19.3297  19.7385  19.7385  19.7385  19.7393
    19.7393  19.7393  19.9842  19.9842  19.9842  19.9851  19.9851  19.9851
    20.0091  20.0091  20.0091  20.0095  20.0095  20.0095  20.1131  20.1131
    20.1142  20.1142  20.1526  20.1526  20.1526  20.1529  20.1529  20.1529
    20.3916  20.3916  20.3916  20.3916  20.3916  20.3916  20.4324

     the Fermi energy is    18.6169 ev

!    total energy              =   -5106.05003463 Ry
     total all-electron energy =    -39841.266855 Ry
     estimated scf accuracy    <          1.7E-11 Ry
     smearing contrib. (-TS)   =       0.00362566 Ry
     internal energy E=F+TS    =   -5106.05366029 Ry

     The total energy is F=E-TS. E is the sum of the following terms:
     one-electron contribution =   -1657.70378956 Ry
     hartree contribution      =     987.49907711 Ry
     xc contribution           =    -433.13983654 Ry
     ewald contribution        =   -2695.15111937 Ry
     one-center paw contrib.   =   -1307.55799193 Ry

     total magnetization       =    27.61 Bohr mag/cell
     absolute magnetization    =    35.95 Bohr mag/cell

     convergence has been achieved in  19 iterations

     Forces acting on atoms (cartesian axes, Ry/au):

     atom    1 type  2   force =     0.00000000   -0.00000000    0.00000000
     atom    2 type  1   force =     0.00006652    0.00006652    0.00006652
     atom    3 type  1   force =     0.00000000    0.00000000    0.00000000
     atom    4 type  1   force =     0.00006652    0.00006652   -0.00006652
     atom    5 type  1   force =     0.00000000    0.00000000    0.00000000
     atom    6 type  1   force =     0.00006652   -0.00006652    0.00006652
     atom    7 type  1   force =     0.00000000   -0.00000000    0.00000000
     atom    8 type  1   force =     0.00006652   -0.00006652   -0.00006652
     atom    9 type  1   force =     0.00000000    0.00000000    0.00000000
     atom   10 type  1   force =    -0.00006652    0.00006652    0.00006652
     atom   11 type  1   force =     0.00000000    0.00000000    0.00000000
     atom   12 type  1   force =    -0.00006652    0.00006652   -0.00006652
     atom   13 type  1   force =     0.00000000   -0.00000000    0.00000000
     atom   14 type  1   force =    -0.00006652   -0.00006652    0.00006652
     atom   15 type  2   force =     0.00000000    0.00000000    0.00000000
     atom   16 type  1   force =    -0.00006652   -0.00006652   -0.00006652

     Total force =     0.000326     Total SCF correction =     0.000014


     Computing stress (Cartesian axis) and pressure

          total   stress  (Ry/bohr**3)                   (kbar)     P=        0.35
   0.00000240   0.00000000   0.00000000            0.35        0.00        0.00
   0.00000000   0.00000240   0.00000000            0.00        0.35        0.00
   0.00000000   0.00000000   0.00000240            0.00        0.00        0.35

     Energy error            =      1.2E-05 Ry
     Gradient error          =      6.7E-05 Ry/Bohr
     Cell gradient error     =      3.5E-01 kbar

     bfgs converged in   3 scf cycles and   2 bfgs steps
     (criteria: energy <  1.0E-04 Ry, force <  1.0E-04 Ry/Bohr, cell <  5.0E-01 kbar)

     End of BFGS Geometry Optimization

     Final enthalpy           =   -5106.0500346335 Ry

     File ./tmp/fecr_fe14cr02_vcr.bfgs deleted, as requested
Begin final coordinates
     new unit-cell volume =   1234.23560 a.u.^3 (   182.89485 Ang^3 )
     density =      8.04256 g/cm^3

CELL_PARAMETERS (angstrom)
   5.676323735   0.000000000   0.000000000
   0.000000000   5.676323735   0.000000000
   0.000000000   0.000000000   5.676323735

ATOMIC_POSITIONS (crystal)
Cr               0.0000000000        0.0000000000        0.0000000000
Fe               0.2500220470        0.2500220470        0.2500220470
Fe               0.0000000000        0.0000000000        0.5000000000
Fe               0.2500220470        0.2500220470        0.7499779530
Fe               0.0000000000        0.5000000000        0.0000000000
Fe               0.2500220470        0.7499779530        0.2500220470
Fe               0.0000000000        0.5000000000        0.5000000000
Fe               0.2500220470        0.7499779530        0.7499779530
Fe               0.5000000000        0.0000000000        0.0000000000
Fe               0.7499779530        0.2500220470        0.2500220470
Fe               0.5000000000       -0.0000000000        0.5000000000
Fe               0.7499779530        0.2500220470        0.7499779530
Fe               0.5000000000        0.5000000000        0.0000000000
Fe               0.7499779530        0.7499779530        0.2500220470
Cr               0.5000000000        0.5000000000        0.5000000000
Fe               0.7499779530        0.7499779530        0.7499779530
End final coordinates



     Writing config-only to output data dir ./tmp/fecr_fe14cr02_vcr.save/ :
     XML data file

     Final scf calculation at the relaxed structure.
     The G-vectors are recalculated for the final unit cell
     Results may differ from those at the preceding step.
 
     G-vector sticks info
     --------------------
     sticks:   dense  smooth     PW     G-vecs:    dense   smooth      PW
     Sum        4397    2209    621               219223    77605   11753
 
     Using Slab Decomposition
 


     bravais-lattice index     =            0
     lattice parameter (alat)  =      10.6742  a.u.
     unit-cell volume          =    1234.2356 (a.u.)^3
     number of atoms/cell      =           16
     number of atomic types    =            2
     number of electrons       =       252.00
     number of Kohn-Sham states=          151
     kinetic-energy cutoff     =      60.0000  Ry
     charge density cutoff     =     480.0000  Ry
     scf convergence threshold =      1.0E-10
     mixing beta               =       0.3000
     number of iterations used =            8  plain     mixing
     press convergence thresh. =      5.0E-01
     Exchange-correlation= SLA  PW   PBX  PBC
                           (   1   4   3   4   0   0   0)

     GPU acceleration is ACTIVE.  1 visible GPUs per MPI rank


     celldm(1)=  10.674188  celldm(2)=   0.000000  celldm(3)=   0.000000
     celldm(4)=   0.000000  celldm(5)=   0.000000  celldm(6)=   0.000000

     crystal axes: (cart. coord. in units of alat)
               a(1) = (   1.004919   0.000000   0.000000 )  
               a(2) = (   0.000000   1.004919   0.000000 )  
               a(3) = (   0.000000   0.000000   1.004919 )  

     reciprocal axes: (cart. coord. in units 2 pi/alat)
               b(1) = (  0.995105  0.000000  0.000000 )  
               b(2) = (  0.000000  0.995105  0.000000 )  
               b(3) = (  0.000000  0.000000  0.995105 )  


     PseudoPot. # 1 for Fe read from file:
     ./pseudo/Fe.pbe-spn-kjpaw_psl.1.0.0.UPF
     MD5 check sum: fc81f059e5c5069939230b1155715ae8
     Pseudo is Projector augmented-wave + core cor, Zval = 16.0
     Generated using &quot;atomic&quot; code by A. Dal Corso  v.6.3
     Shape of augmentation charge: PSQ
     Using radial grid of 1191 points,  6 beta functions with: 
                l(1) =   0
                l(2) =   0
                l(3) =   1
                l(4) =   1
                l(5) =   2
                l(6) =   2
     Q(r) pseudized with 0 coefficients 


     PseudoPot. # 2 for Cr read from file:
     ./pseudo/Cr.pbe-spn-kjpaw_psl.1.0.0.UPF
     MD5 check sum: 198f1a2427a48552563eee314eba32ba
     Pseudo is Projector augmented-wave + core cor, Zval = 14.0
     Generated using &quot;atomic&quot; code by A. Dal Corso  v.6.3
     Shape of augmentation charge: PSQ
     Using radial grid of 1183 points,  6 beta functions with: 
                l(1) =   0
                l(2) =   0
                l(3) =   1
                l(4) =   1
                l(5) =   2
                l(6) =   2
     Q(r) pseudized with 0 coefficients 


     atomic species   valence    mass     pseudopotential
     Fe               16.00    55.84500     Fe( 1.00)
     Cr               14.00    51.99600     Cr( 1.00)

     Starting magnetic structure 
     atomic species   magnetization
     Fe              0.157
     Cr             -0.127

     48 Sym. Ops., with inversion, found



   Cartesian axes

     site n.     atom                  positions (alat units)
         1        Cr     tau(   1) = (   0.0000000   0.0000000   0.0000000  )
         2        Fe     tau(   2) = (   0.2512520   0.2512520   0.2512520  )
         3        Fe     tau(   3) = (   0.0000000   0.0000000   0.5024596  )
         4        Fe     tau(   4) = (   0.2512520   0.2512520   0.7536673  )
         5        Fe     tau(   5) = (   0.0000000   0.5024596   0.0000000  )
         6        Fe     tau(   6) = (   0.2512520   0.7536673   0.2512520  )
         7        Fe     tau(   7) = (   0.0000000   0.5024596   0.5024596  )
         8        Fe     tau(   8) = (   0.2512520   0.7536673   0.7536673  )
         9        Fe     tau(   9) = (   0.5024596   0.0000000   0.0000000  )
        10        Fe     tau(  10) = (   0.7536673   0.2512520   0.2512520  )
        11        Fe     tau(  11) = (   0.5024596  -0.0000000   0.5024596  )
        12        Fe     tau(  12) = (   0.7536673   0.2512520   0.7536673  )
        13        Fe     tau(  13) = (   0.5024596   0.5024596   0.0000000  )
        14        Fe     tau(  14) = (   0.7536673   0.7536673   0.2512520  )
        15        Cr     tau(  15) = (   0.5024596   0.5024596   0.5024596  )
        16        Fe     tau(  16) = (   0.7536673   0.7536673   0.7536673  )

     number of k points=    20  Marzari-Vanderbilt smearing, width (Ry)=  0.0200
                       cart. coord. in units 2pi/alat
        k(    1) = (   0.0000000   0.0000000   0.0000000), wk =   0.0046296
        k(    2) = (   0.0000000   0.0000000   0.1658508), wk =   0.0277778
        k(    3) = (   0.0000000   0.0000000   0.3317016), wk =   0.0277778
        k(    4) = (   0.0000000   0.0000000  -0.4975524), wk =   0.0138889
        k(    5) = (   0.0000000   0.1658508   0.1658508), wk =   0.0555556
        k(    6) = (   0.0000000   0.1658508   0.3317016), wk =   0.1111111
        k(    7) = (   0.0000000   0.1658508  -0.4975524), wk =   0.0555556
        k(    8) = (   0.0000000   0.3317016   0.3317016), wk =   0.0555556
        k(    9) = (   0.0000000   0.3317016  -0.4975524), wk =   0.0555556
        k(   10) = (   0.0000000  -0.4975524  -0.4975524), wk =   0.0138889
        k(   11) = (   0.1658508   0.1658508   0.1658508), wk =   0.0370370
        k(   12) = (   0.1658508   0.1658508   0.3317016), wk =   0.1111111
        k(   13) = (   0.1658508   0.1658508  -0.4975524), wk =   0.0555556
        k(   14) = (   0.1658508   0.3317016   0.3317016), wk =   0.1111111
        k(   15) = (   0.1658508   0.3317016  -0.4975524), wk =   0.1111111
        k(   16) = (   0.1658508  -0.4975524  -0.4975524), wk =   0.0277778
        k(   17) = (   0.3317016   0.3317016   0.3317016), wk =   0.0370370
        k(   18) = (   0.3317016   0.3317016  -0.4975524), wk =   0.0555556
        k(   19) = (   0.3317016  -0.4975524  -0.4975524), wk =   0.0277778
        k(   20) = (  -0.4975524  -0.4975524  -0.4975524), wk =   0.0046296

     Dense  grid:   219223 G-vectors     FFT dimensions: (  75,  75,  75)

     Smooth grid:    77605 G-vectors     FFT dimensions: (  54,  54,  54)

     Estimated max dynamical RAM per process >       1.89 GB

     Check: negative core charge=   -0.000003
     Generating pointlists ...

     Initial potential from superposition of free atoms

     starting charge     251.9923, renormalised to     252.0000
     Starting wfcs are  160 randomized atomic wfcs
     Checking if some PAW data can be deallocated... 

     total cpu time spent up to now is     1617.7 secs

     Self-consistent Calculation

     iteration #  1     ecut=    60.00 Ry     beta= 0.30
     Davidson diagonalization with overlap
     c_bands:  1 eigenvalues not converged
     c_bands:  1 eigenvalues not converged
     c_bands:  2 eigenvalues not converged
     c_bands:  3 eigenvalues not converged
     c_bands:  3 eigenvalues not converged
     c_bands:  1 eigenvalues not converged
     c_bands:  4 eigenvalues not converged
     c_bands:  4 eigenvalues not converged
     c_bands:  1 eigenvalues not converged
     c_bands:  1 eigenvalues not converged
     c_bands:  1 eigenvalues not converged
     c_bands:  1 eigenvalues not converged
     c_bands:  3 eigenvalues not converged
     c_bands:  4 eigenvalues not converged
     c_bands:  1 eigenvalues not converged
     c_bands:  2 eigenvalues not converged
     c_bands:  3 eigenvalues not converged
     c_bands:  1 eigenvalues not converged
     c_bands:  1 eigenvalues not converged
     c_bands:  1 eigenvalues not converged
     c_bands:  2 eigenvalues not converged
     ethr =  1.00E-06,  avg # of iterations = 18.5

     total cpu time spent up to now is     1670.0 secs

     total energy              =   -5105.41494254 Ry
     estimated scf accuracy    <       1.63316312 Ry

     total magnetization       =    28.32 Bohr mag/cell
     absolute magnetization    =    34.12 Bohr mag/cell

     iteration #  2     ecut=    60.00 Ry     beta= 0.30
     Davidson diagonalization with overlap
     ethr =  6.48E-04,  avg # of iterations =  5.8

     total cpu time spent up to now is     1692.7 secs

     total energy              =   -5104.55346190 Ry
     estimated scf accuracy    <      29.00729514 Ry

     total magnetization       =    29.71 Bohr mag/cell
     absolute magnetization    =    30.63 Bohr mag/cell

     iteration #  3     ecut=    60.00 Ry     beta= 0.30
     Davidson diagonalization with overlap
     ethr =  6.48E-04,  avg # of iterations =  5.0

     total cpu time spent up to now is     1713.5 secs

     total energy              =   -5105.91482665 Ry
     estimated scf accuracy    <       0.62007523 Ry

     total magnetization       =    28.29 Bohr mag/cell
     absolute magnetization    =    35.18 Bohr mag/cell

     iteration #  4     ecut=    60.00 Ry     beta= 0.30
     Davidson diagonalization with overlap
     ethr =  2.46E-04,  avg # of iterations =  2.5

     total cpu time spent up to now is     1731.5 secs

     total energy              =   -5105.92640125 Ry
     estimated scf accuracy    <       1.52769315 Ry

     total magnetization       =    27.69 Bohr mag/cell
     absolute magnetization    =    34.33 Bohr mag/cell

     iteration #  5     ecut=    60.00 Ry     beta= 0.30
     Davidson diagonalization with overlap
     ethr =  2.46E-04,  avg # of iterations =  1.1

     total cpu time spent up to now is     1747.5 secs

     total energy              =   -5106.02773774 Ry
     estimated scf accuracy    <       0.05131752 Ry

     total magnetization       =    28.11 Bohr mag/cell
     absolute magnetization    =    35.11 Bohr mag/cell

     iteration #  6     ecut=    60.00 Ry     beta= 0.30
     Davidson diagonalization with overlap
     ethr =  2.04E-05,  avg # of iterations =  6.1

     total cpu time spent up to now is     1769.7 secs

     total energy              =   -5106.04562379 Ry
     estimated scf accuracy    <       0.02693957 Ry

     total magnetization       =    27.85 Bohr mag/cell
     absolute magnetization    =    35.23 Bohr mag/cell

     iteration #  7     ecut=    60.00 Ry     beta= 0.30
     Davidson diagonalization with overlap
     ethr =  1.07E-05,  avg # of iterations =  4.2

     total cpu time spent up to now is     1788.7 secs

     total energy              =   -5106.04853774 Ry
     estimated scf accuracy    <       0.02538891 Ry

     total magnetization       =    27.70 Bohr mag/cell
     absolute magnetization    =    35.43 Bohr mag/cell

     iteration #  8     ecut=    60.00 Ry     beta= 0.30
     Davidson diagonalization with overlap
     ethr =  1.01E-05,  avg # of iterations =  2.2

     total cpu time spent up to now is     1805.6 secs

     total energy              =   -5106.04998823 Ry
     estimated scf accuracy    <       0.00991985 Ry

     total magnetization       =    27.69 Bohr mag/cell
     absolute magnetization    =    35.49 Bohr mag/cell

     iteration #  9     ecut=    60.00 Ry     beta= 0.30
     Davidson diagonalization with overlap
     ethr =  3.94E-06,  avg # of iterations =  3.1

     total cpu time spent up to now is     1823.7 secs

     total energy              =   -5106.05091363 Ry
     estimated scf accuracy    <       0.01024595 Ry

     total magnetization       =    27.68 Bohr mag/cell
     absolute magnetization    =    35.54 Bohr mag/cell

     iteration # 10     ecut=    60.00 Ry     beta= 0.30
     Davidson diagonalization with overlap
     ethr =  3.94E-06,  avg # of iterations =  1.8

     total cpu time spent up to now is     1840.9 secs

     total energy              =   -5106.05171070 Ry
     estimated scf accuracy    <       0.00284113 Ry

     total magnetization       =    27.65 Bohr mag/cell
     absolute magnetization    =    35.64 Bohr mag/cell

     iteration # 11     ecut=    60.00 Ry     beta= 0.30
     Davidson diagonalization with overlap
     ethr =  1.13E-06,  avg # of iterations =  3.4

     total cpu time spent up to now is     1859.2 secs

     total energy              =   -5106.05207369 Ry
     estimated scf accuracy    <       0.00045734 Ry

     total magnetization       =    27.61 Bohr mag/cell
     absolute magnetization    =    35.71 Bohr mag/cell

     iteration # 12     ecut=    60.00 Ry     beta= 0.30
     Davidson diagonalization with overlap
     ethr =  1.81E-07,  avg # of iterations =  4.8

     total cpu time spent up to now is     1878.9 secs

     total energy              =   -5106.05211766 Ry
     estimated scf accuracy    <       0.00032387 Ry

     total magnetization       =    27.61 Bohr mag/cell
     absolute magnetization    =    35.74 Bohr mag/cell

     iteration # 13     ecut=    60.00 Ry     beta= 0.30
     Davidson diagonalization with overlap
     ethr =  1.29E-07,  avg # of iterations =  1.9

     total cpu time spent up to now is     1896.0 secs

     total energy              =   -5106.05216212 Ry
     estimated scf accuracy    <       0.00003667 Ry

     total magnetization       =    27.61 Bohr mag/cell
     absolute magnetization    =    35.77 Bohr mag/cell

     iteration # 14     ecut=    60.00 Ry     beta= 0.30
     Davidson diagonalization with overlap
     ethr =  1.46E-08,  avg # of iterations =  5.3

     total cpu time spent up to now is     1917.3 secs

     total energy              =   -5106.05218538 Ry
     estimated scf accuracy    <       0.00001576 Ry

     total magnetization       =    27.61 Bohr mag/cell
     absolute magnetization    =    35.82 Bohr mag/cell

     iteration # 15     ecut=    60.00 Ry     beta= 0.30
     Davidson diagonalization with overlap
     ethr =  6.25E-09,  avg # of iterations =  5.0

     total cpu time spent up to now is     1938.4 secs

     total energy              =   -5106.05219741 Ry
     estimated scf accuracy    <       0.00000715 Ry

     total magnetization       =    27.61 Bohr mag/cell
     absolute magnetization    =    35.87 Bohr mag/cell

     iteration # 16     ecut=    60.00 Ry     beta= 0.30
     Davidson diagonalization with overlap
     ethr =  2.84E-09,  avg # of iterations =  3.3

     total cpu time spent up to now is     1957.2 secs

     total energy              =   -5106.05220056 Ry
     estimated scf accuracy    <       0.00000677 Ry

     total magnetization       =    27.61 Bohr mag/cell
     absolute magnetization    =    35.89 Bohr mag/cell

     iteration # 17     ecut=    60.00 Ry     beta= 0.30
     Davidson diagonalization with overlap
     ethr =  2.69E-09,  avg # of iterations =  4.8

     total cpu time spent up to now is     1977.3 secs

     total energy              =   -5106.05220378 Ry
     estimated scf accuracy    <       0.00000227 Ry

     total magnetization       =    27.61 Bohr mag/cell
     absolute magnetization    =    35.91 Bohr mag/cell

     iteration # 18     ecut=    60.00 Ry     beta= 0.30
     Davidson diagonalization with overlap
     ethr =  8.99E-10,  avg # of iterations =  5.0

     total cpu time spent up to now is     1997.2 secs

     total energy              =   -5106.05220429 Ry
     estimated scf accuracy    <       0.00000454 Ry

     total magnetization       =    27.61 Bohr mag/cell
     absolute magnetization    =    35.92 Bohr mag/cell

     iteration # 19     ecut=    60.00 Ry     beta= 0.30
     Davidson diagonalization with overlap
     ethr =  8.99E-10,  avg # of iterations =  5.3

     total cpu time spent up to now is     2018.3 secs

     total energy              =   -5106.05220596 Ry
     estimated scf accuracy    <       0.00000083 Ry

     total magnetization       =    27.61 Bohr mag/cell
     absolute magnetization    =    35.94 Bohr mag/cell

     iteration # 20     ecut=    60.00 Ry     beta= 0.30
     Davidson diagonalization with overlap
     ethr =  3.30E-10,  avg # of iterations =  4.9

     total cpu time spent up to now is     2038.4 secs

     total energy              =   -5106.05220662 Ry
     estimated scf accuracy    <       0.00000040 Ry

     total magnetization       =    27.61 Bohr mag/cell
     absolute magnetization    =    35.95 Bohr mag/cell

     iteration # 21     ecut=    60.00 Ry     beta= 0.30
     Davidson diagonalization with overlap
     ethr =  1.59E-10,  avg # of iterations =  4.3

     total cpu time spent up to now is     2058.5 secs

     total energy              =   -5106.05220675 Ry
     estimated scf accuracy    <       0.00000032 Ry

     total magnetization       =    27.61 Bohr mag/cell
     absolute magnetization    =    35.95 Bohr mag/cell

     iteration # 22     ecut=    60.00 Ry     beta= 0.30
     Davidson diagonalization with overlap
     ethr =  1.26E-10,  avg # of iterations =  4.7

     total cpu time spent up to now is     2079.3 secs

     total energy              =   -5106.05220688 Ry
     estimated scf accuracy    <       0.00000009 Ry

     total magnetization       =    27.61 Bohr mag/cell
     absolute magnetization    =    35.95 Bohr mag/cell

     iteration # 23     ecut=    60.00 Ry     beta= 0.30
     Davidson diagonalization with overlap
     ethr =  3.71E-11,  avg # of iterations =  4.9

     total cpu time spent up to now is     2099.6 secs

     total energy              =   -5106.05220692 Ry
     estimated scf accuracy    <       0.00000004 Ry

     total magnetization       =    27.61 Bohr mag/cell
     absolute magnetization    =    35.95 Bohr mag/cell

     iteration # 24     ecut=    60.00 Ry     beta= 0.30
     Davidson diagonalization with overlap
     ethr =  1.39E-11,  avg # of iterations =  2.8

     total cpu time spent up to now is     2117.5 secs

     total energy              =   -5106.05220692 Ry
     estimated scf accuracy    <       0.00000004 Ry

     total magnetization       =    27.61 Bohr mag/cell
     absolute magnetization    =    35.95 Bohr mag/cell

     iteration # 25     ecut=    60.00 Ry     beta= 0.30
     Davidson diagonalization with overlap
     ethr =  1.39E-11,  avg # of iterations =  1.7

     total cpu time spent up to now is     2134.7 secs

     total energy              =   -5106.05220693 Ry
     estimated scf accuracy    <          8.2E-09 Ry

     total magnetization       =    27.61 Bohr mag/cell
     absolute magnetization    =    35.96 Bohr mag/cell

     iteration # 26     ecut=    60.00 Ry     beta= 0.30
     Davidson diagonalization with overlap
     ethr =  3.24E-12,  avg # of iterations =  5.2

     total cpu time spent up to now is     2156.6 secs

     total energy              =   -5106.05220693 Ry
     estimated scf accuracy    <          1.1E-09 Ry

     total magnetization       =    27.61 Bohr mag/cell
     absolute magnetization    =    35.96 Bohr mag/cell

     iteration # 27     ecut=    60.00 Ry     beta= 0.30
     Davidson diagonalization with overlap
     ethr =  4.53E-13,  avg # of iterations =  5.1

     total cpu time spent up to now is     2177.8 secs

     total energy              =   -5106.05220694 Ry
     estimated scf accuracy    <          4.3E-10 Ry

     total magnetization       =    27.61 Bohr mag/cell
     absolute magnetization    =    35.96 Bohr mag/cell

     iteration # 28     ecut=    60.00 Ry     beta= 0.30
     Davidson diagonalization with overlap
     ethr =  1.70E-13,  avg # of iterations =  5.2

     total cpu time spent up to now is     2199.1 secs

     total energy              =   -5106.05220694 Ry
     estimated scf accuracy    <          7.0E-10 Ry

     total magnetization       =    27.61 Bohr mag/cell
     absolute magnetization    =    35.96 Bohr mag/cell

     iteration # 29     ecut=    60.00 Ry     beta= 0.30
     Davidson diagonalization with overlap
     ethr =  1.70E-13,  avg # of iterations =  4.7

     total cpu time spent up to now is     2219.0 secs

     total energy              =   -5106.05220694 Ry
     estimated scf accuracy    <          1.6E-10 Ry

     total magnetization       =    27.61 Bohr mag/cell
     absolute magnetization    =    35.96 Bohr mag/cell

     iteration # 30     ecut=    60.00 Ry     beta= 0.30
     Davidson diagonalization with overlap
     ethr =  1.00E-13,  avg # of iterations =  2.4
 
     Magnetic moment per site  (integrated on atomic sphere of radius R)
     atom   1 (R=0.179)  charge= 12.0717  magn= -1.5304
     atom   2 (R=0.179)  charge= 14.3872  magn=  2.1770
     atom   3 (R=0.179)  charge= 14.3740  magn=  2.3526
     atom   4 (R=0.179)  charge= 14.3872  magn=  2.1770
     atom   5 (R=0.179)  charge= 14.3740  magn=  2.3526
     atom   6 (R=0.179)  charge= 14.3872  magn=  2.1770
     atom   7 (R=0.179)  charge= 14.3744  magn=  2.3525
     atom   8 (R=0.179)  charge= 14.3872  magn=  2.1770
     atom   9 (R=0.179)  charge= 14.3740  magn=  2.3526
     atom  10 (R=0.179)  charge= 14.3872  magn=  2.1770
     atom  11 (R=0.179)  charge= 14.3744  magn=  2.3525
     atom  12 (R=0.179)  charge= 14.3872  magn=  2.1770
     atom  13 (R=0.179)  charge= 14.3744  magn=  2.3525
     atom  14 (R=0.179)  charge= 14.3872  magn=  2.1770
     atom  15 (R=0.179)  charge= 12.0715  magn= -1.5279
     atom  16 (R=0.179)  charge= 14.3872  magn=  2.1770

     total cpu time spent up to now is     2236.2 secs

     End of self-consistent calculation

 ------ SPIN UP ------------


          k = 0.0000 0.0000 0.0000 (  9771 PWs)   bands (ev):

   -69.7131 -69.6643 -69.6643 -69.6643 -69.6592 -69.6592 -69.6592 -69.6539
   -69.6339 -69.6339 -69.6288 -69.6288 -69.6262 -69.5926 -52.6913 -52.6889
   -35.9052 -35.9052 -35.9052 -35.8815 -35.8815 -35.8815 -35.8468 -35.8043
   -35.8043 -35.8043 -35.7953 -35.7953 -35.7953 -35.7748 -35.7198 -35.7198
   -35.7198 -35.6865 -35.6865 -35.6794 -35.6794 -35.6794 -35.6513 -35.6513
   -35.6513 -35.6184 -35.6184 -35.6184 -35.6179 -35.6179 -35.6179 -35.6128
   -35.6128 -35.6089 -35.6089 -35.6089 -35.4944 -35.4944 -35.4944 -35.4764
   -35.4764 -35.4764 -24.0417 -24.0417 -24.0417 -24.0323 -24.0323 -24.0323
     9.9485  13.4862  13.4862  13.4862  13.5123  13.5123  13.5642  13.5993
    13.5993  13.7091  13.7091  13.7091  13.7738  13.7738  13.9344  15.0003
    15.0003  15.0003  15.1635  15.1635  15.1635  15.2075  15.2075  15.2075
    15.2984  15.2984  15.2984  15.3349  15.3349  15.3349  15.4387  15.7563
    15.7563  16.2487  16.2487  16.2487  16.4703  16.4703  16.4703  16.5220
    16.5220  16.5220  16.5426  16.5426  16.5426  16.9497  16.9497  16.9497
    17.1254  17.2780  17.2780  17.3109  17.3109  17.3155  17.4315  17.4315
    17.4680  17.4680  17.4680  17.4703  17.4703  17.4703  17.5202  17.5202
    17.5379  17.9318  17.9318  18.5822  18.5822  18.5822  18.6224  18.6224
    18.6224  18.6692  18.6692  18.6692  18.7999  18.7999  18.7999  18.8081
    18.8211  18.8211  18.8211  19.0117  19.0117  19.0117  19.6841

          k = 0.0000 0.0000 0.1659 (  9719 PWs)   bands (ev):

   -69.7110 -69.6707 -69.6639 -69.6639 -69.6594 -69.6594 -69.6588 -69.6543
   -69.6335 -69.6293 -69.6290 -69.6286 -69.6251 -69.5942 -52.6912 -52.6889
   -35.9009 -35.8993 -35.8993 -35.8734 -35.8734 -35.8727 -35.8497 -35.8128
   -35.8128 -35.8020 -35.7952 -35.7916 -35.7916 -35.7764 -35.7439 -35.7277
   -35.7277 -35.7170 -35.7170 -35.7155 -35.6808 -35.6493 -35.6491 -35.6380
   -35.6380 -35.6179 -35.6157 -35.6135 -35.6131 -35.6109 -35.6109 -35.6085
   -35.6085 -35.5923 -35.5914 -35.5914 -35.5027 -35.4993 -35.4993 -35.4821
   -35.4821 -35.4812 -24.0410 -24.0410 -24.0410 -24.0329 -24.0328 -24.0328
    10.0934  12.9786  13.5281  13.5281  13.5570  13.5768  13.5897  13.6372
    13.6619  13.6665  13.7564  13.7564  13.8238  13.9166  14.1878  14.9650
    15.0174  15.0174  15.0368  15.0622  15.0628  15.0628  15.1520  15.2352
    15.2352  15.2736  15.3093  15.3093  15.4468  15.5135  15.5135  15.7239
    16.0288  16.2430  16.2430  16.2875  16.2888  16.3001  16.3001  16.3798
    16.3798  16.6003  16.6158  16.7134  16.7220  16.7220  17.0511  17.1188
    17.1188  17.1427  17.1699  17.1699  17.2161  17.2688  17.2995  17.4007
    17.4324  17.4324  17.4556  17.4655  17.4726  17.4749  17.4884  17.5639
    17.5747  17.8108  17.9621  17.9799  17.9799  18.3995  18.5474  18.5474
    18.5556  18.5556  18.5755  18.6888  18.7318  18.7392  18.8286  18.8396
    18.8396  18.9586  18.9586  19.3407  19.4705  19.4705  19.8463

          k = 0.0000 0.0000 0.3317 (  9690 PWs)   bands (ev):

   -69.7047 -69.6827 -69.6629 -69.6629 -69.6604 -69.6604 -69.6576 -69.6552
   -69.6325 -69.6300 -69.6282 -69.6276 -69.6163 -69.5992 -52.6912 -52.6890
   -35.8893 -35.8831 -35.8831 -35.8586 -35.8501 -35.8501 -35.8480 -35.8342
   -35.8342 -35.7959 -35.7945 -35.7811 -35.7810 -35.7810 -35.7716 -35.7683
   -35.7683 -35.7635 -35.7440 -35.7440 -35.6648 -35.6426 -35.6345 -35.6345
   -35.6262 -35.6232 -35.6170 -35.6170 -35.6169 -35.6142 -35.6045 -35.5687
   -35.5687 -35.5584 -35.5584 -35.5539 -35.5263 -35.5134 -35.5134 -35.4990
   -35.4990 -35.4964 -24.0395 -24.0393 -24.0393 -24.0348 -24.0344 -24.0344
    10.5193  12.0556  13.6391  13.6391  13.6773  13.7020  13.8187  13.8187
    13.8320  13.8461  13.8827  13.8869  13.9086  13.9346  14.2261  14.5244
    14.7101  14.7773  15.0032  15.0032  15.0223  15.0223  15.2431  15.3662
    15.3662  15.3881  15.3881  15.4568  15.4676  15.8195  15.8468  15.8468
    15.8945  15.9973  15.9973  16.1736  16.2283  16.2283  16.3278  16.3278
    16.4064  16.4233  16.4233  16.4471  16.4602  16.7878  16.8272  16.8419
    16.9876  16.9876  17.0236  17.0918  17.1327  17.1327  17.2148  17.3933
    17.4117  17.4117  17.4365  17.4791  17.4909  17.4943  17.5028  17.5229
    17.5229  17.6447  17.9176  17.9194  18.0681  18.2761  18.2761  18.3285
    18.3801  18.4372  18.5231  18.5612  18.6163  18.6163  18.9197  18.9197
    19.1205  19.1205  19.1707  19.5490  19.5490  19.7411  19.8370

          k = 0.0000 0.0000-0.4976 (  9658 PWs)   bands (ev):

   -69.6947 -69.6947 -69.6615 -69.6615 -69.6615 -69.6615 -69.6565 -69.6564
   -69.6312 -69.6311 -69.6279 -69.6278 -69.6068 -69.6067 -52.6912 -52.6890
   -35.8732 -35.8731 -35.8599 -35.8599 -35.8597 -35.8597 -35.8136 -35.8136
   -35.8136 -35.8136 -35.8099 -35.8098 -35.7883 -35.7882 -35.7881 -35.7881
   -35.7644 -35.7644 -35.7643 -35.7643 -35.6450 -35.6448 -35.6332 -35.6332
   -35.6257 -35.6257 -35.6257 -35.6257 -35.6155 -35.6155 -35.5618 -35.5617
   -35.5365 -35.5365 -35.5363 -35.5363 -35.5258 -35.5258 -35.5257 -35.5257
   -35.5210 -35.5207 -24.0381 -24.0375 -24.0375 -24.0365 -24.0359 -24.0359
    11.1944  11.1949  13.7681  13.7681  13.7681  13.7681  13.8223  13.8227
    13.8468  13.8473  14.0570  14.0571  14.1399  14.1409  14.2955  14.2955
    14.3100  14.3106  15.0032  15.0032  15.0035  15.0035  15.5288  15.5296
    15.6119  15.6119  15.6122  15.6122  15.7725  15.7725  15.7728  15.7728
    15.7756  15.7764  15.8132  15.8134  16.2013  16.2013  16.2013  16.2013
    16.2128  16.2137  16.5293  16.5293  16.5294  16.5294  16.5924  16.5933
    16.8139  16.8139  17.0595  17.0597  17.2259  17.2259  17.2262  17.2262
    17.2646  17.2646  17.4875  17.4876  17.5036  17.5041  17.5234  17.5234
    17.9042  17.9042  17.9044  17.9044  18.2142  18.2144  18.2705  18.2706
    18.2791  18.2794  18.3053  18.3056  18.7698  18.7698  18.7702  18.7702
    19.3894  19.3894  19.3900  19.3900  19.5338  19.5342  19.9147

          k = 0.0000 0.1659 0.1659 (  9681 PWs)   bands (ev):

   -69.7089 -69.6716 -69.6680 -69.6635 -69.6602 -69.6590 -69.6590 -69.6546
   -69.6311 -69.6287 -69.6287 -69.6264 -69.6250 -69.5958 -52.6912 -52.6889
   -35.8991 -35.8942 -35.8938 -35.8688 -35.8661 -35.8590 -35.8537 -35.8180
   -35.8156 -35.8051 -35.8020 -35.7893 -35.7814 -35.7767 -35.7702 -35.7420
   -35.7372 -35.7270 -35.7227 -35.6917 -35.6864 -35.6681 -35.6606 -35.6369
   -35.6287 -35.6232 -35.6204 -35.6176 -35.6112 -35.6087 -35.6046 -35.6044
   -35.5887 -35.5840 -35.5726 -35.5672 -35.5197 -35.5037 -35.4950 -35.4912
   -35.4869 -35.4811 -24.0416 -24.0404 -24.0394 -24.0345 -24.0332 -24.0323
    10.2367  13.0070  13.1061  13.4859  13.6302  13.6338  13.6508  13.6620
    13.6996  13.7270  13.7309  13.8145  13.9254  14.2169  14.2295  14.9000
    14.9513  14.9521  15.0070  15.0445  15.0533  15.0919  15.1356  15.2051
    15.2429  15.2675  15.3194  15.3365  15.4760  15.4819  15.5280  15.8425
    15.9533  16.1198  16.1487  16.1756  16.2277  16.2741  16.3882  16.4467
    16.5411  16.6113  16.6598  16.6618  16.6963  16.7003  16.8305  16.9600
    17.0486  17.0567  17.1061  17.1468  17.1700  17.2486  17.2827  17.2944
    17.3301  17.3571  17.4279  17.4307  17.4584  17.4897  17.5052  17.6876
    17.7775  17.7806  17.8541  17.9142  18.0248  18.0771  18.0850  18.1318
    18.2533  18.4137  18.6082  18.6581  18.7407  18.7835  18.8030  18.8708
    19.1406  19.1494  19.2860  19.5013  19.7248  19.7380  19.8449

          k = 0.0000 0.1659 0.3317 (  9689 PWs)   bands (ev):

   -69.7027 -69.6818 -69.6674 -69.6625 -69.6622 -69.6600 -69.6581 -69.6555
   -69.6301 -69.6291 -69.6279 -69.6260 -69.6168 -69.6005 -52.6912 -52.6890
   -35.8915 -35.8798 -35.8786 -35.8646 -35.8487 -35.8449 -35.8334 -35.8332
   -35.8292 -35.8068 -35.8011 -35.7978 -35.7886 -35.7775 -35.7730 -35.7721
   -35.7652 -35.7453 -35.7401 -35.7201 -35.6755 -35.6608 -35.6378 -35.6372
   -35.6362 -35.6355 -35.6259 -35.6243 -35.6167 -35.5996 -35.5983 -35.5703
   -35.5659 -35.5529 -35.5494 -35.5429 -35.5348 -35.5170 -35.5098 -35.5015
   -35.5012 -35.4899 -24.0410 -24.0390 -24.0379 -24.0362 -24.0347 -24.0331
    10.6566  12.1600  13.2357  13.4571  13.7438  13.7862  13.8414  13.8972
    13.9040  13.9148  13.9252  13.9543  13.9907  14.2137  14.2769  14.5595
    14.7018  14.7560  15.0552  15.0624  15.0653  15.0746  15.1101  15.2240
    15.2994  15.3279  15.3830  15.4543  15.5479  15.7407  15.7799  15.8254
    15.8254  15.9666  16.0015  16.1038  16.1183  16.1845  16.2160  16.2461
    16.3020  16.3573  16.5159  16.5425  16.6725  16.7706  16.7762  16.8485
    16.8673  16.8888  16.9300  16.9665  17.0159  17.1288  17.1833  17.3085
    17.3509  17.3834  17.4121  17.4556  17.4945  17.5100  17.5288  17.5321
    17.6255  17.6850  17.7840  17.8235  17.8978  17.9810  18.0189  18.1180
    18.2114  18.2165  18.5120  18.5939  18.7564  18.9114  18.9186  19.0770
    19.1561  19.2172  19.3877  19.5234  19.5391  20.0408  20.1283

          k = 0.0000 0.1659-0.4976 (  9690 PWs)   bands (ev):

   -69.6933 -69.6933 -69.6649 -69.6649 -69.6612 -69.6612 -69.6568 -69.6568
   -69.6296 -69.6295 -69.6269 -69.6269 -69.6077 -69.6076 -52.6912 -52.6890
   -35.8789 -35.8788 -35.8574 -35.8573 -35.8570 -35.8569 -35.8184 -35.8184
   -35.8121 -35.8121 -35.8058 -35.8056 -35.7941 -35.7940 -35.7882 -35.7881
   -35.7579 -35.7578 -35.7445 -35.7444 -35.6556 -35.6554 -35.6501 -35.6500
   -35.6321 -35.6321 -35.6255 -35.6254 -35.5975 -35.5975 -35.5879 -35.5879
   -35.5384 -35.5383 -35.5367 -35.5366 -35.5240 -35.5239 -35.5184 -35.5183
   -35.5081 -35.5079 -24.0395 -24.0394 -24.0377 -24.0360 -24.0348 -24.0347
    11.3198  11.3203  13.3900  13.3903  13.8705  13.8706  13.9296  13.9301
    14.0515  14.0515  14.1192  14.1196  14.1985  14.1994  14.3315  14.3315
    14.3454  14.3460  15.0404  15.0408  15.0423  15.0426  15.4073  15.4078
    15.4620  15.4620  15.5431  15.5434  15.5792  15.5796  15.8134  15.8137
    15.8792  15.8794  15.9410  15.9413  16.0838  16.0841  16.0844  16.0847
    16.1916  16.1921  16.3042  16.3044  16.4495  16.4498  16.7511  16.7517
    16.9060  16.9060  17.0431  17.0432  17.1748  17.1752  17.2164  17.2165
    17.2636  17.2636  17.4280  17.4285  17.4985  17.4985  17.5518  17.5520
    17.7234  17.7238  17.7513  17.7518  17.8478  17.8478  18.0700  18.0701
    18.2775  18.2776  18.4050  18.4051  18.9981  18.9982  19.0756  19.0762
    19.1588  19.1589  19.2915  19.2915  19.8814  19.8815  20.1662

          k = 0.0000 0.3317 0.3317 (  9653 PWs)   bands (ev):

   -69.6973 -69.6817 -69.6741 -69.6667 -69.6617 -69.6590 -69.6590 -69.6563
   -69.6290 -69.6286 -69.6252 -69.6210 -69.6163 -69.6041 -52.6912 -52.6890
   -35.8908 -35.8756 -35.8716 -35.8663 -35.8367 -35.8347 -35.8312 -35.8298
   -35.8264 -35.8201 -35.8073 -35.7962 -35.7961 -35.7888 -35.7875 -35.7600
   -35.7413 -35.7377 -35.7373 -35.6897 -35.6827 -35.6748 -35.6687 -35.6547
   -35.6533 -35.6441 -35.6332 -35.6298 -35.6232 -35.5860 -35.5858 -35.5742
   -35.5648 -35.5594 -35.5363 -35.5277 -35.5243 -35.5198 -35.5117 -35.5080
   -35.4974 -35.4882 -24.0416 -24.0394 -24.0382 -24.0353 -24.0349 -24.0325
    11.0566  12.3904  12.5127  13.1932  13.9822  14.0204  14.0267  14.0503
    14.0581  14.0846  14.1104  14.1148  14.1398  14.2480  14.3446  14.6274
    14.6958  14.7359  14.7979  15.0779  15.0781  15.1454  15.1466  15.2111
    15.2495  15.2504  15.3343  15.4144  15.6148  15.6479  15.6748  15.6983
    15.7997  15.8097  15.8921  15.9017  15.9903  16.0600  16.0829  16.1456
    16.1669  16.2633  16.2933  16.3158  16.4825  16.6177  16.6498  16.7825
    16.9271  16.9721  16.9961  17.0579  17.0991  17.1048  17.2033  17.2490
    17.2977  17.3269  17.3283  17.3391  17.3920  17.4199  17.4632  17.5560
    17.5596  17.5784  17.6404  17.6816  17.7827  17.8221  17.8755  17.8859
    18.1148  18.3256  18.3929  18.6671  18.8587  19.0388  19.0524  19.0959
    19.1563  19.2448  19.3555  19.6064  19.9661  20.2405  20.5309

          k = 0.0000 0.3317-0.4976 (  9694 PWs)   bands (ev):

   -69.6893 -69.6893 -69.6718 -69.6718 -69.6604 -69.6604 -69.6577 -69.6577
   -69.6288 -69.6288 -69.6223 -69.6222 -69.6101 -69.6100 -52.6912 -52.6890
   -35.8854 -35.8852 -35.8547 -35.8546 -35.8504 -35.8502 -35.8288 -35.8287
   -35.8088 -35.8088 -35.8082 -35.8082 -35.8037 -35.8037 -35.7589 -35.7589
   -35.7463 -35.7462 -35.7151 -35.7150 -35.6723 -35.6720 -35.6705 -35.6705
   -35.6419 -35.6419 -35.6409 -35.6408 -35.6202 -35.6202 -35.5762 -35.5761
   -35.5454 -35.5453 -35.5415 -35.5413 -35.5200 -35.5200 -35.5042 -35.5042
   -35.4952 -35.4951 -24.0411 -24.0411 -24.0376 -24.0360 -24.0334 -24.0334
    11.6787  11.6791  12.8384  12.8387  14.1377  14.1377  14.1379  14.1382
    14.1590  14.1594  14.2492  14.2500  14.3981  14.3983  14.4288  14.4294
    14.4308  14.4311  15.0954  15.0954  15.0967  15.0970  15.1464  15.1469
    15.2474  15.2478  15.3044  15.3050  15.5318  15.5323  15.7797  15.7801
    15.8366  15.8367  15.8589  15.8591  15.9184  15.9189  15.9615  15.9618
    15.9827  15.9828  16.1586  16.1588  16.4010  16.4014  16.9094  16.9095
    17.0437  17.0438  17.0648  17.0652  17.0783  17.0785  17.1738  17.1742
    17.2391  17.2392  17.2878  17.2889  17.4269  17.4270  17.4781  17.4783
    17.5173  17.5179  17.6590  17.6591  17.7262  17.7263  17.8560  17.8560
    18.1200  18.1203  18.5961  18.5961  18.9605  18.9605  19.0670  19.0677
    19.2677  19.2678  19.4779  19.4784  20.3967  20.3968  20.4647

          k = 0.0000-0.4976-0.4976 (  9684 PWs)   bands (ev):

   -69.6857 -69.6857 -69.6766 -69.6766 -69.6590 -69.6590 -69.6590 -69.6590
   -69.6286 -69.6286 -69.6190 -69.6189 -69.6123 -69.6123 -52.6912 -52.6890
   -35.8878 -35.8876 -35.8480 -35.8477 -35.8464 -35.8462 -35.8434 -35.8434
   -35.8086 -35.8086 -35.8069 -35.8069 -35.8022 -35.8022 -35.7433 -35.7432
   -35.7401 -35.7400 -35.6880 -35.6877 -35.6799 -35.6799 -35.6798 -35.6796
   -35.6711 -35.6711 -35.6465 -35.6464 -35.6301 -35.6301 -35.5607 -35.5607
   -35.5558 -35.5558 -35.5420 -35.5418 -35.5180 -35.5180 -35.4997 -35.4997
   -35.4902 -35.4900 -24.0417 -24.0417 -24.0376 -24.0360 -24.0329 -24.0329
    12.1589  12.1589  12.2837  12.2845  14.1668  14.1668  14.2712  14.2720
    14.3294  14.3294  14.3526  14.3534  14.4707  14.4707  14.5039  14.5044
    14.6785  14.6785  14.8150  14.8154  15.0246  15.0247  15.0481  15.0481
    15.2137  15.2137  15.2791  15.2807  15.5437  15.5443  15.6856  15.6867
    15.6870  15.6870  15.6966  15.6966  15.8465  15.8465  15.8535  15.8540
    15.9106  15.9106  16.3792  16.3796  16.4398  16.4399  16.6491  16.6491
    17.0302  17.0302  17.1342  17.1342  17.2529  17.2529  17.2559  17.2572
    17.2634  17.2636  17.2853  17.2860  17.3143  17.3143  17.3432  17.3432
    17.3668  17.3669  17.7173  17.7174  17.7286  17.7286  17.7603  17.7603
    18.0102  18.0105  18.6721  18.6722  18.8873  18.8873  19.0495  19.0502
    19.3599  19.3599  19.5438  19.5445  20.7413  20.7413  20.7615

          k = 0.1659 0.1659 0.1659 (  9717 PWs)   bands (ev):

   -69.7069 -69.6708 -69.6708 -69.6656 -69.6600 -69.6600 -69.6594 -69.6549
   -69.6284 -69.6284 -69.6266 -69.6266 -69.6251 -69.5973 -52.6912 -52.6889
   -35.8953 -35.8904 -35.8904 -35.8667 -35.8579 -35.8511 -35.8511 -35.8191
   -35.8156 -35.8156 -35.7982 -35.7982 -35.7829 -35.7708 -35.7708 -35.7650
   -35.7423 -35.7193 -35.7193 -35.7005 -35.6894 -35.6894 -35.6610 -35.6333
   -35.6333 -35.6230 -35.6230 -35.6085 -35.6075 -35.6075 -35.6042 -35.6042
   -35.5833 -35.5739 -35.5539 -35.5539 -35.5350 -35.5002 -35.5002 -35.4941
   -35.4941 -35.4828 -24.0410 -24.0410 -24.0383 -24.0356 -24.0330 -24.0330
    10.3784  13.0891  13.0891  13.2417  13.5837  13.5837  13.6169  13.7525
    13.7525  13.7832  13.8014  13.8014  14.2672  14.2813  14.2813  14.8113
    14.8990  14.9655  14.9655  15.0483  15.1017  15.1017  15.1147  15.1147
    15.2949  15.2949  15.3396  15.4041  15.4041  15.4107  15.6041  15.8309
    15.8309  16.0499  16.0499  16.1572  16.1572  16.2835  16.4822  16.4863
    16.4863  16.5824  16.5877  16.6197  16.6837  16.6837  16.6979  16.6979
    16.9133  17.1579  17.1579  17.2266  17.2287  17.2287  17.2504  17.3074
    17.3074  17.3335  17.3669  17.3669  17.4857  17.4857  17.4894  17.5066
    17.5066  17.6959  17.7759  17.7759  17.8370  17.8370  18.0344  18.3431
    18.3431  18.3719  18.5995  18.8078  18.8078  18.8409  18.8409  18.9631
    18.9631  18.9691  19.3847  19.3847  19.9247  20.0094  20.0094

          k = 0.1659 0.1659 0.3317 (  9689 PWs)   bands (ev):

   -69.7009 -69.6809 -69.6687 -69.6648 -69.6624 -69.6611 -69.6587 -69.6559
   -69.6278 -69.6277 -69.6268 -69.6259 -69.6172 -69.6017 -52.6912 -52.6890
   -35.8891 -35.8788 -35.8748 -35.8679 -35.8498 -35.8371 -35.8301 -35.8288
   -35.8202 -35.8142 -35.8081 -35.7929 -35.7881 -35.7874 -35.7873 -35.7671
   -35.7513 -35.7460 -35.7319 -35.7074 -35.7015 -35.6693 -35.6536 -35.6528
   -35.6488 -35.6280 -35.6164 -35.6084 -35.6079 -35.5994 -35.5970 -35.5760
   -35.5649 -35.5631 -35.5471 -35.5302 -35.5286 -35.5150 -35.5121 -35.5065
   -35.4998 -35.4906 -24.0409 -24.0394 -24.0383 -24.0358 -24.0345 -24.0332
    10.7930  12.2666  13.2867  13.3809  13.5517  13.5909  13.8978  13.9201
    13.9405  13.9686  13.9931  14.0433  14.2835  14.3235  14.3389  14.5840
    14.6831  14.8142  14.9829  15.0504  15.0681  15.1333  15.1418  15.1780
    15.2170  15.3392  15.4310  15.5074  15.5087  15.5996  15.6937  15.6997
    15.8457  15.8967  15.9452  16.0207  16.0607  16.1217  16.1419  16.1488
    16.2384  16.2908  16.4795  16.4959  16.5943  16.6229  16.7126  16.7645
    16.8147  16.9046  16.9361  17.0668  17.0762  17.1614  17.1734  17.2919
    17.3454  17.3773  17.3983  17.4002  17.4029  17.4301  17.5337  17.5492
    17.5906  17.5919  17.6122  17.7723  17.9108  17.9756  18.0217  18.1053
    18.2716  18.2896  18.4090  18.5032  18.7991  18.9227  19.0243  19.0923
    19.1513  19.2826  19.2977  19.3935  19.7178  19.7614  20.6162

          k = 0.1659 0.1659-0.4976 (  9658 PWs)   bands (ev):

   -69.6918 -69.6918 -69.6657 -69.6657 -69.6630 -69.6630 -69.6573 -69.6573
   -69.6272 -69.6271 -69.6267 -69.6267 -69.6085 -69.6084 -52.6912 -52.6890
   -35.8796 -35.8795 -35.8599 -35.8598 -35.8511 -35.8510 -35.8210 -35.8210
   -35.8138 -35.8136 -35.8013 -35.8012 -35.7917 -35.7917 -35.7801 -35.7800
   -35.7699 -35.7698 -35.7250 -35.7249 -35.6780 -35.6778 -35.6626 -35.6626
   -35.6279 -35.6278 -35.6142 -35.6141 -35.5981 -35.5981 -35.5954 -35.5954
   -35.5411 -35.5409 -35.5361 -35.5360 -35.5234 -35.5234 -35.5113 -35.5112
   -35.5062 -35.5061 -24.0399 -24.0398 -24.0377 -24.0361 -24.0343 -24.0342
    11.4456  11.4461  13.4698  13.4701  13.5350  13.5353  14.1391  14.1393
    14.1472  14.1473  14.1874  14.1877  14.2578  14.2589  14.3451  14.3454
    14.4008  14.4011  15.0466  15.0469  15.1015  15.1019  15.3372  15.3376
    15.4141  15.4144  15.4708  15.4709  15.5272  15.5276  15.7901  15.7903
    15.8400  15.8401  15.9232  15.9234  15.9786  15.9788  16.0141  16.0148
    16.0442  16.0446  16.2572  16.2572  16.2787  16.2791  16.8725  16.8729
    16.9707  16.9708  17.0178  17.0178  17.1051  17.1053  17.1760  17.1765
    17.2361  17.2362  17.4048  17.4054  17.4778  17.4779  17.5674  17.5674
    17.5952  17.5955  17.7196  17.7197  17.9564  17.9567  18.0538  18.0539
    18.2703  18.2705  18.3087  18.3089  18.8611  18.8612  19.1377  19.1381
    19.3085  19.3091  19.4059  19.4063  19.5590  19.5594  21.0111

          k = 0.1659 0.3317 0.3317 (  9671 PWs)   bands (ev):

   -69.6957 -69.6805 -69.6742 -69.6665 -69.6643 -69.6612 -69.6596 -69.6571
   -69.6273 -69.6263 -69.6249 -69.6209 -69.6168 -69.6052 -52.6912 -52.6890
   -35.8863 -35.8749 -35.8678 -35.8660 -35.8404 -35.8362 -35.8295 -35.8293
   -35.8165 -35.8114 -35.8043 -35.7980 -35.7935 -35.7921 -35.7793 -35.7751
   -35.7545 -35.7259 -35.7227 -35.7171 -35.6880 -35.6833 -35.6811 -35.6764
   -35.6726 -35.6193 -35.6191 -35.6115 -35.6064 -35.5929 -35.5858 -35.5765
   -35.5662 -35.5608 -35.5329 -35.5260 -35.5208 -35.5165 -35.5125 -35.5119
   -35.5005 -35.4925 -24.0410 -24.0397 -24.0386 -24.0352 -24.0346 -24.0332
    11.1895  12.5046  12.6242  13.3155  13.5768  13.8745  13.9130  14.0615
    14.1446  14.1503  14.2232  14.2247  14.3455  14.4000  14.5089  14.6530
    14.7101  14.7668  14.7995  14.9524  15.1263  15.1599  15.1951  15.2189
    15.2221  15.3020  15.4024  15.4085  15.4353  15.5752  15.6274  15.6598
    15.6780  15.7506  15.8000  15.8036  15.9227  15.9308  15.9852  16.0749
    16.1016  16.1044  16.1246  16.1345  16.3788  16.4019  16.4260  16.8899
    16.9534  17.0145  17.0222  17.0587  17.1835  17.1838  17.2320  17.2744
    17.2993  17.3076  17.3310  17.3701  17.3918  17.3945  17.4805  17.5141
    17.5543  17.5587  17.5928  17.6567  17.8832  17.9122  18.0533  18.0551
    18.1452  18.2711  18.3821  18.4685  18.9435  18.9537  18.9861  19.1320
    19.2486  19.2496  19.2979  19.5086  19.5734  20.0894  20.3042

          k = 0.1659 0.3317-0.4976 (  9694 PWs)   bands (ev):

   -69.6880 -69.6880 -69.6716 -69.6715 -69.6626 -69.6626 -69.6586 -69.6586
   -69.6267 -69.6267 -69.6221 -69.6220 -69.6108 -69.6107 -52.6912 -52.6890
   -35.8819 -35.8818 -35.8542 -35.8540 -35.8471 -35.8470 -35.8267 -35.8265
   -35.8134 -35.8134 -35.8043 -35.8043 -35.7920 -35.7920 -35.7675 -35.7674
   -35.7529 -35.7528 -35.7020 -35.7019 -35.7017 -35.7015 -35.6886 -35.6885
   -35.6478 -35.6477 -35.6161 -35.6160 -35.6053 -35.6053 -35.5758 -35.5758
   -35.5444 -35.5442 -35.5410 -35.5409 -35.5212 -35.5212 -35.5056 -35.5055
   -35.4991 -35.4989 -24.0408 -24.0408 -24.0378 -24.0362 -24.0337 -24.0336
    11.8048  11.8052  12.9595  12.9599  13.8058  13.8061  14.2257  14.2258
    14.3169  14.3176  14.3398  14.3402  14.4081  14.4082  14.4659  14.4666
    14.5366  14.5368  15.0952  15.0953  15.1086  15.1088  15.1482  15.1484
    15.2434  15.2441  15.3198  15.3201  15.5018  15.5023  15.6718  15.6721
    15.7073  15.7078  15.7443  15.7444  15.7963  15.7969  15.8419  15.8420
    15.9326  15.9333  16.0092  16.0093  16.2429  16.2430  16.6758  16.6759
    17.0999  17.1000  17.1461  17.1461  17.1619  17.1624  17.1995  17.2000
    17.2660  17.2660  17.3517  17.3525  17.4194  17.4195  17.4651  17.4651
    17.5733  17.5733  17.6869  17.6876  17.7721  17.7721  17.9620  17.9621
    18.2436  18.2437  18.4273  18.4275  18.9737  18.9738  19.0899  19.0902
    19.1749  19.1754  19.4549  19.4554  19.8160  19.8160  20.8482

          k = 0.1659-0.4976-0.4976 (  9676 PWs)   bands (ev):

   -69.6844 -69.6844 -69.6762 -69.6762 -69.6617 -69.6617 -69.6596 -69.6596
   -69.6267 -69.6267 -69.6188 -69.6186 -69.6129 -69.6129 -52.6912 -52.6890
   -35.8831 -35.8830 -35.8451 -35.8450 -35.8421 -35.8419 -35.8409 -35.8409
   -35.8111 -35.8111 -35.8077 -35.8077 -35.7887 -35.7887 -35.7613 -35.7611
   -35.7359 -35.7357 -35.7105 -35.7104 -35.7029 -35.7029 -35.6800 -35.6800
   -35.6791 -35.6789 -35.6164 -35.6162 -35.6089 -35.6089 -35.5601 -35.5601
   -35.5507 -35.5507 -35.5435 -35.5433 -35.5213 -35.5213 -35.5032 -35.5032
   -35.4955 -35.4953 -24.0411 -24.0411 -24.0377 -24.0361 -24.0334 -24.0334
    12.2847  12.2847  12.4095  12.4103  14.1429  14.1429  14.1888  14.1895
    14.2558  14.2558  14.3648  14.3658  14.6406  14.6406  14.6679  14.6685
    14.6997  14.6997  14.8210  14.8214  15.0093  15.0093  15.0395  15.0397
    15.2480  15.2480  15.2824  15.2838  15.4909  15.4909  15.5220  15.5228
    15.5813  15.5824  15.6374  15.6374  15.7205  15.7210  15.7974  15.7974
    15.8122  15.8122  16.0828  16.0834  16.3545  16.3548  16.3635  16.3635
    17.1526  17.1526  17.2234  17.2234  17.2649  17.2650  17.2888  17.2899
    17.3197  17.3197  17.3423  17.3423  17.3933  17.3935  17.4532  17.4532
    17.4670  17.4678  17.5852  17.5852  17.6889  17.6894  17.8963  17.8963
    18.2570  18.2572  18.4860  18.4862  18.9810  18.9810  19.1017  19.1017
    19.1249  19.1255  19.4739  19.4745  20.1828  20.1829  20.4097

          k = 0.3317 0.3317 0.3317 (  9708 PWs)   bands (ev):

   -69.6911 -69.6771 -69.6771 -69.6677 -69.6662 -69.6662 -69.6605 -69.6587
   -69.6241 -69.6241 -69.6232 -69.6183 -69.6183 -69.6081 -52.6912 -52.6890
   -35.8782 -35.8745 -35.8590 -35.8590 -35.8376 -35.8376 -35.8274 -35.8268
   -35.8047 -35.8047 -35.8013 -35.7997 -35.7997 -35.7821 -35.7821 -35.7676
   -35.7576 -35.7576 -35.7133 -35.7102 -35.7102 -35.7037 -35.7037 -35.7013
   -35.6739 -35.6384 -35.5894 -35.5872 -35.5872 -35.5819 -35.5819 -35.5767
   -35.5767 -35.5532 -35.5285 -35.5258 -35.5258 -35.5131 -35.5131 -35.5113
   -35.5113 -35.5005 -24.0400 -24.0396 -24.0396 -24.0348 -24.0348 -24.0343
    11.5745  12.8219  12.8219  13.0044  13.6349  13.6349  13.7453  14.2654
    14.2654  14.3661  14.4247  14.4247  14.5713  14.6079  14.6079  14.6562
    14.7468  14.7962  14.7976  14.7976  15.1381  15.1381  15.1571  15.2750
    15.2750  15.3226  15.3226  15.4198  15.4427  15.4427  15.4526  15.5099
    15.6011  15.6011  15.6190  15.6190  15.6452  15.6452  15.7602  15.7602
    15.8498  15.9529  15.9529  15.9739  16.0373  16.1222  16.1222  16.6432
    17.0619  17.1096  17.1096  17.2097  17.2357  17.2644  17.2644  17.3426
    17.3426  17.3758  17.3758  17.3907  17.4364  17.4364  17.4508  17.4796
    17.5799  17.5799  17.7210  17.7210  17.9535  18.0836  18.0836  18.1105
    18.1105  18.1514  18.2598  18.5586  18.5586  19.0333  19.1540  19.1540
    19.2664  19.2664  19.2759  19.2759  19.5042  19.9118  19.9118

          k = 0.3317 0.3317-0.4976 (  9696 PWs)   bands (ev):

   -69.6842 -69.6842 -69.6720 -69.6720 -69.6670 -69.6670 -69.6601 -69.6601
   -69.6233 -69.6233 -69.6209 -69.6208 -69.6128 -69.6127 -52.6912 -52.6890
   -35.8755 -35.8753 -35.8483 -35.8482 -35.8405 -35.8404 -35.8243 -35.8242
   -35.8073 -35.8073 -35.8057 -35.8056 -35.7874 -35.7873 -35.7718 -35.7718
   -35.7465 -35.7464 -35.7350 -35.7349 -35.7200 -35.7200 -35.6930 -35.6930
   -35.6644 -35.6643 -35.5876 -35.5875 -35.5823 -35.5823 -35.5720 -35.5720
   -35.5483 -35.5481 -35.5354 -35.5353 -35.5263 -35.5263 -35.5096 -35.5095
   -35.5073 -35.5072 -24.0400 -24.0400 -24.0380 -24.0364 -24.0344 -24.0344
    12.1650  12.1654  13.2516  13.2519  13.3601  13.3604  14.1996  14.2000
    14.4439  14.4442  14.4953  14.4955  14.5429  14.5435  14.6259  14.6267
    14.7191  14.7192  15.0358  15.0360  15.1261  15.1263  15.1660  15.1662
    15.2221  15.2226  15.3394  15.3399  15.3930  15.3934  15.4572  15.4580
    15.4631  15.4633  15.5683  15.5686  15.5883  15.5884  15.6065  15.6071
    15.7406  15.7414  15.8774  15.8778  15.9478  15.9483  16.2875  16.2877
    17.1827  17.1828  17.2035  17.2036  17.2426  17.2427  17.3553  17.3558
    17.4113  17.4119  17.4176  17.4178  17.4680  17.4683  17.4697  17.4701
    17.5105  17.5107  17.7598  17.7604  18.0173  18.0173  18.1287  18.1291
    18.1951  18.1953  18.2041  18.2047  18.7812  18.7813  19.2197  19.2202
    19.2637  19.2642  19.3253  19.3258  19.5409  19.5412  20.3299

          k = 0.3317-0.4976-0.4976 (  9692 PWs)   bands (ev):

   -69.6805 -69.6805 -69.6752 -69.6752 -69.6678 -69.6678 -69.6610 -69.6610
   -69.6225 -69.6225 -69.6185 -69.6183 -69.6149 -69.6149 -52.6912 -52.6890
   -35.8730 -35.8729 -35.8391 -35.8389 -35.8350 -35.8350 -35.8264 -35.8261
   -35.8180 -35.8180 -35.7960 -35.7960 -35.7900 -35.7898 -35.7638 -35.7638
   -35.7494 -35.7493 -35.7388 -35.7388 -35.7342 -35.7341 -35.7035 -35.7035
   -35.6666 -35.6665 -35.5783 -35.5782 -35.5774 -35.5774 -35.5579 -35.5579
   -35.5474 -35.5472 -35.5388 -35.5388 -35.5318 -35.5318 -35.5126 -35.5126
   -35.5104 -35.5102 -24.0396 -24.0396 -24.0380 -24.0364 -24.0350 -24.0350
    12.6449  12.6449  12.7642  12.7650  13.7421  13.7421  13.8434  13.8442
    14.5040  14.5040  14.6031  14.6040  14.7527  14.7527  14.8336  14.8338
    14.8922  14.8922  14.9274  14.9274  14.9434  14.9440  15.0731  15.0737
    15.2811  15.2811  15.2906  15.2915  15.3048  15.3048  15.3840  15.3840
    15.4123  15.4136  15.4537  15.4542  15.4725  15.4736  15.5627  15.5627
    15.6869  15.6877  15.7427  15.7427  15.9670  15.9670  15.9814  15.9821
    17.2208  17.2208  17.2861  17.2861  17.2883  17.2884  17.3337  17.3343
    17.3345  17.3345  17.4563  17.4563  17.5233  17.5239  17.5843  17.5843
    17.6986  17.6997  17.7876  17.7876  17.9147  17.9150  17.9400  17.9400
    18.1377  18.1381  18.4867  18.4870  18.6296  18.6296  19.2009  19.2015
    19.2272  19.2272  19.2950  19.2957  19.7204  19.7205  19.9705

          k =-0.4976-0.4976-0.4976 (  9808 PWs)   bands (ev):

   -69.6746 -69.6746 -69.6746 -69.6746 -69.6746 -69.6746 -69.6618 -69.6618
   -69.6185 -69.6185 -69.6185 -69.6184 -69.6184 -69.6184 -52.6912 -52.6890
   -35.8679 -35.8678 -35.8270 -35.8270 -35.8270 -35.8270 -35.8270 -35.8270
   -35.8124 -35.8124 -35.8121 -35.8121 -35.7721 -35.7721 -35.7721 -35.7719
   -35.7719 -35.7719 -35.7336 -35.7336 -35.7336 -35.7335 -35.7335 -35.7335
   -35.6619 -35.6618 -35.5554 -35.5554 -35.5553 -35.5553 -35.5509 -35.5509
   -35.5509 -35.5507 -35.5507 -35.5507 -35.5253 -35.5253 -35.5253 -35.5251
   -35.5251 -35.5251 -24.0383 -24.0383 -24.0383 -24.0367 -24.0367 -24.0367
    13.1772  13.1772  13.1772  13.1776  13.1776  13.1776  13.4238  13.4250
    14.8325  14.8325  14.8325  14.8332  14.8332  14.8332  14.8400  14.8400
    14.8400  14.8401  14.8401  14.8401  15.0925  15.0925  15.0933  15.0933
    15.2970  15.2970  15.2970  15.2975  15.2975  15.2975  15.3316  15.3316
    15.3316  15.3328  15.3328  15.3328  15.3651  15.3658  15.4424  15.4424
    15.4438  15.4438  15.7286  15.7286  15.7286  15.7299  15.7299  15.7299
    17.3032  17.3032  17.3032  17.3034  17.3034  17.3034  17.3466  17.3466
    17.3466  17.3471  17.3471  17.3471  17.7540  17.7540  17.7552  17.7552
    17.8234  17.8234  17.8234  17.8234  17.8234  17.8234  18.1811  18.1811
    18.1811  18.1814  18.1814  18.1814  18.4454  18.4465  19.2252  19.2252
    19.2258  19.2258  19.5676  19.5676  19.5676  19.5680  19.5680

 ------ SPIN DOWN ----------


          k = 0.0000 0.0000 0.0000 (  9771 PWs)   bands (ev):

   -67.1191 -67.0978 -67.0978 -67.0978 -67.0920 -67.0920 -67.0920 -67.0860
   -66.8656 -66.8656 -66.8598 -66.8598 -66.8567 -66.8524 -54.3049 -54.3039
   -33.4089 -33.4089 -33.4089 -33.3826 -33.3329 -33.3329 -33.3329 -33.3128
   -33.3128 -33.3128 -33.3001 -33.2460 -33.2460 -33.2460 -33.1776 -33.1776
   -33.1377 -33.1377 -33.1377 -33.0998 -33.0998 -33.0998 -33.0933 -33.0933
   -33.0738 -33.0738 -33.0738 -32.9633 -32.9633 -32.9633 -32.9563 -32.9563
   -32.9563 -32.8923 -32.8923 -32.8923 -32.8401 -32.8401 -32.8401 -32.8180
   -32.8180 -32.8180 -25.6342 -25.6342 -25.6342 -25.6220 -25.6220 -25.6220
    10.0420  14.0807  14.0807  14.2624  14.2624  14.2624  14.2888  14.3450
    14.3450  14.3703  14.3703  14.3703  14.7169  15.2056  15.2056  16.0646
    16.0646  16.0646  16.2987  16.2987  16.2987  16.4967  16.4967  16.4967
    16.7272  16.7272  16.7272  16.9414  16.9414  17.5025  17.5025  17.5025
    17.7811  17.8863  17.8863  17.8863  17.8991  17.8991  17.8991  18.2587
    18.2587  18.2587  18.3379  18.3379  18.3379  18.4497  18.4497  18.4497
    18.9548  18.9548  18.9548  18.9628  18.9628  18.9628  19.1167  19.1666
    19.1666  19.2632  19.2632  19.2933  19.2933  19.2933  19.8014  19.8014
    19.8014  19.9193  20.0842  20.0842  20.1058  20.1058  20.2204  20.2204
    20.2204  20.2520  20.2520  20.2765  20.2765  20.5154  20.5419  20.5419
    20.5419  20.8798  20.8798  20.8798  20.9455  20.9455  20.9584

          k = 0.0000 0.0000 0.1659 (  9719 PWs)   bands (ev):

   -67.1180 -67.0993 -67.0972 -67.0972 -67.0922 -67.0922 -67.0917 -67.0865
   -66.8650 -66.8646 -66.8599 -66.8596 -66.8569 -66.8531 -54.3048 -54.3040
   -33.4062 -33.4036 -33.4036 -33.3832 -33.3378 -33.3378 -33.3304 -33.3049
   -33.3040 -33.3040 -33.3020 -33.2452 -33.2413 -33.2413 -33.1905 -33.1886
   -33.1556 -33.1556 -33.1351 -33.1309 -33.1309 -33.0993 -33.0966 -33.0936
   -33.0579 -33.0469 -33.0469 -32.9612 -32.9597 -32.9597 -32.9554 -32.9450
   -32.9450 -32.8887 -32.8887 -32.8851 -32.8484 -32.8436 -32.8436 -32.8241
   -32.8241 -32.8214 -25.6334 -25.6333 -25.6333 -25.6229 -25.6228 -25.6228
    10.1879  13.2151  14.1382  14.2998  14.3185  14.3185  14.3637  14.3994
    14.3994  14.4345  14.4707  14.7627  14.9552  15.2556  15.2688  15.9343
    16.0679  16.0679  16.3085  16.3085  16.3410  16.3685  16.6000  16.6000
    16.6346  16.7514  16.7514  16.7958  16.8739  17.3312  17.3312  17.4514
    17.6957  17.8571  17.8571  17.8754  17.8754  17.9317  17.9870  18.1366
    18.1366  18.1749  18.3288  18.4265  18.4265  18.4348  18.5253  18.5253
    18.5780  18.5789  18.6186  18.6186  18.6666  18.6666  18.9017  19.1456
    19.3133  19.3924  19.5316  19.5316  19.5402  19.6621  19.7492  19.7492
    19.8256  19.8843  20.0274  20.0434  20.0974  20.1308  20.2233  20.2427
    20.2676  20.2742  20.4166  20.4166  20.4865  20.4910  20.4941  20.4941
    20.6525  20.6899  20.8917  20.8921  20.8921  20.9137  20.9137

          k = 0.0000 0.0000 0.3317 (  9690 PWs)   bands (ev):

   -67.1143 -67.1031 -67.0961 -67.0961 -67.0934 -67.0934 -67.0901 -67.0875
   -66.8639 -66.8621 -66.8611 -66.8591 -66.8571 -66.8552 -54.3047 -54.3041
   -33.3996 -33.3893 -33.3893 -33.3860 -33.3514 -33.3514 -33.3237 -33.3073
   -33.2831 -33.2788 -33.2788 -33.2420 -33.2272 -33.2272 -33.2165 -33.2136
   -33.1952 -33.1952 -33.1713 -33.1713 -33.1275 -33.1052 -33.0981 -33.0949
   -33.0273 -33.0146 -33.0146 -32.9756 -32.9704 -32.9704 -32.9330 -32.9082
   -32.9082 -32.8790 -32.8790 -32.8708 -32.8681 -32.8530 -32.8530 -32.8424
   -32.8424 -32.8323 -25.6314 -25.6310 -25.6310 -25.6254 -25.6249 -25.6249
    10.6178  12.2004  14.2697  14.3948  14.4354  14.4354  14.4640  14.4640
    14.5207  14.6327  14.7530  14.9045  15.2486  15.3921  15.4566  15.5941
    15.9784  16.1107  16.1107  16.1709  16.2915  16.2915  16.5726  16.8183
    16.8539  16.8539  16.8641  16.8641  16.9971  17.2136  17.2136  17.2947
    17.3435  17.5456  17.5760  17.5760  17.7272  17.7867  17.7867  17.8785
    17.8785  17.9477  17.9535  17.9535  18.0472  18.0472  18.0656  18.4095
    18.5649  18.8060  18.8422  18.8422  19.0146  19.0151  19.0616  19.0616
    19.4014  19.5693  19.5693  19.6715  19.7999  19.8228  19.8909  19.9513
    19.9595  19.9595  19.9892  20.0245  20.0299  20.0299  20.1341  20.1768
    20.2105  20.2304  20.2381  20.2723  20.3251  20.4826  20.6832  20.6832
    20.7010  20.7582  20.8101  20.8101  20.8170  20.9171  20.9171

          k = 0.0000 0.0000-0.4976 (  9658 PWs)   bands (ev):

   -67.1088 -67.1088 -67.0946 -67.0946 -67.0945 -67.0945 -67.0889 -67.0889
   -66.8623 -66.8623 -66.8597 -66.8597 -66.8571 -66.8570 -54.3046 -54.3042
   -33.3917 -33.3917 -33.3702 -33.3702 -33.3701 -33.3701 -33.3152 -33.3151
   -33.2511 -33.2511 -33.2403 -33.2403 -33.2403 -33.2403 -33.2320 -33.2319
   -33.2039 -33.2039 -33.2038 -33.2038 -33.1167 -33.1166 -33.0964 -33.0964
   -32.9983 -32.9983 -32.9886 -32.9886 -32.9886 -32.9886 -32.9019 -32.9019
   -32.8715 -32.8715 -32.8715 -32.8715 -32.8658 -32.8658 -32.8658 -32.8658
   -32.8487 -32.8487 -25.6292 -25.6285 -25.6285 -25.6279 -25.6273 -25.6273
    11.3049  11.3053  14.3756  14.3763  14.4982  14.4982  14.4982  14.4982
    14.6918  14.6921  15.1500  15.1506  15.1591  15.1596  15.6170  15.6172
    15.7627  15.7632  16.2075  16.2075  16.2076  16.2076  16.8933  16.8940
    17.0009  17.0011  17.0261  17.0261  17.0266  17.0266  17.3161  17.3170
    17.3907  17.3907  17.3909  17.3909  17.4596  17.4596  17.4597  17.4597
    17.4876  17.4882  17.9012  17.9012  17.9016  17.9016  18.2804  18.2808
    18.7685  18.7702  19.1741  19.1745  19.2590  19.2590  19.2600  19.2600
    19.4472  19.4475  19.5330  19.5330  19.5332  19.5332  19.8563  19.8564
    19.9385  19.9390  20.1084  20.1084  20.1859  20.1860  20.2320  20.2322
    20.3347  20.3348  20.3680  20.3680  20.3685  20.3685  20.4144  20.4145
    20.4386  20.4391  20.9135  20.9135  20.9136  20.9136  20.9804

          k = 0.0000 0.1659 0.1659 (  9681 PWs)   bands (ev):

   -67.1166 -67.0990 -67.0983 -67.0968 -67.0926 -67.0918 -67.0918 -67.0867
   -66.8644 -66.8639 -66.8600 -66.8595 -66.8569 -66.8538 -54.3048 -54.3040
   -33.4038 -33.3992 -33.3985 -33.3839 -33.3420 -33.3374 -33.3328 -33.3041
   -33.3014 -33.2959 -33.2917 -33.2514 -33.2364 -33.2299 -33.2068 -33.1977
   -33.1671 -33.1645 -33.1426 -33.1380 -33.1301 -33.1055 -33.0987 -33.0962
   -33.0584 -33.0368 -33.0313 -32.9673 -32.9627 -32.9622 -32.9464 -32.9338
   -32.9312 -32.8858 -32.8851 -32.8770 -32.8618 -32.8466 -32.8405 -32.8317
   -32.8294 -32.8220 -25.6341 -25.6325 -25.6312 -25.6250 -25.6234 -25.6221
    10.3323  13.3062  13.3070  14.2753  14.2886  14.3790  14.4718  14.4946
    14.5122  14.5281  14.8307  14.9521  15.0501  15.3126  15.3255  15.8767
    16.0526  16.0572  16.3229  16.3587  16.3858  16.4259  16.4536  16.5766
    16.6434  16.6787  16.7582  16.7843  16.8539  17.1962  17.1969  17.4738
    17.5036  17.7513  17.7979  17.8447  17.9031  17.9703  18.0010  18.0227
    18.0330  18.1525  18.2116  18.2767  18.2996  18.3129  18.3255  18.3588
    18.3946  18.4686  18.5848  18.6181  18.7390  18.7729  19.1181  19.1957
    19.2152  19.3175  19.5393  19.6649  19.6972  19.7433  19.7923  19.8228
    19.8664  19.9398  20.0165  20.0243  20.0957  20.1009  20.1587  20.2217
    20.2314  20.2395  20.2593  20.3052  20.3457  20.3716  20.5444  20.5888
    20.6313  20.6415  20.7345  20.9240  20.9703  21.0167  21.2257

          k = 0.0000 0.1659 0.3317 (  9689 PWs)   bands (ev):

   -67.1131 -67.1026 -67.0973 -67.0957 -67.0938 -67.0929 -67.0907 -67.0878
   -66.8633 -66.8619 -66.8608 -66.8593 -66.8573 -66.8558 -54.3047 -54.3042
   -33.3983 -33.3866 -33.3865 -33.3850 -33.3535 -33.3490 -33.3273 -33.3100
   -33.2843 -33.2727 -33.2651 -33.2529 -33.2340 -33.2226 -33.2203 -33.2111
   -33.1969 -33.1946 -33.1717 -33.1536 -33.1323 -33.1079 -33.1066 -33.0997
   -33.0343 -33.0188 -33.0061 -32.9820 -32.9753 -32.9704 -32.9308 -32.9049
   -32.9012 -32.8848 -32.8778 -32.8727 -32.8605 -32.8551 -32.8491 -32.8454
   -32.8452 -32.8293 -25.6334 -25.6306 -25.6289 -25.6276 -25.6253 -25.6231
    10.7569  12.3142  13.5497  14.1098  14.4643  14.5072  14.5496  14.5856
    14.7669  14.7971  15.0066  15.0882  15.2990  15.4477  15.5093  15.6113
    15.9577  16.0974  16.1762  16.2187  16.3160  16.3380  16.5519  16.5826
    16.7641  16.8165  16.8196  16.8817  17.0589  17.0623  17.0861  17.2105
    17.3365  17.3952  17.5881  17.6337  17.6408  17.6723  17.7371  17.7466
    17.7793  17.8325  17.8426  17.8597  17.8629  17.9181  18.2514  18.5761
    18.6522  18.7805  18.8060  18.8488  19.0203  19.0292  19.0446  19.1318
    19.3118  19.4812  19.5636  19.5951  19.7364  19.8093  19.8390  19.8626
    19.8831  19.8934  19.9173  19.9863  20.1183  20.1597  20.1648  20.1876
    20.1992  20.2418  20.2583  20.3345  20.3504  20.3589  20.4564  20.4690
    20.5522  20.5595  20.5872  20.8833  21.0210  21.0916  21.3264

          k = 0.0000 0.1659-0.4976 (  9690 PWs)   bands (ev):

   -67.1079 -67.1079 -67.0956 -67.0956 -67.0943 -67.0943 -67.0893 -67.0893
   -66.8621 -66.8620 -66.8598 -66.8597 -66.8574 -66.8573 -54.3046 -54.3042
   -33.3917 -33.3917 -33.3698 -33.3697 -33.3669 -33.3668 -33.3184 -33.3184
   -33.2591 -33.2591 -33.2438 -33.2437 -33.2374 -33.2374 -33.2296 -33.2296
   -33.2005 -33.2004 -33.1851 -33.1850 -33.1207 -33.1206 -33.1035 -33.1035
   -33.0039 -33.0039 -32.9969 -32.9969 -32.9849 -32.9849 -32.9099 -32.9098
   -32.8743 -32.8742 -32.8703 -32.8703 -32.8665 -32.8665 -32.8575 -32.8575
   -32.8431 -32.8431 -25.6314 -25.6313 -25.6286 -25.6273 -25.6254 -25.6253
    11.4344  11.4347  13.8541  13.8543  14.5807  14.5807  14.5934  14.5939
    15.0351  15.0355  15.1983  15.1989  15.2235  15.2240  15.6493  15.6495
    15.8077  15.8081  16.2229  16.2230  16.2447  16.2447  16.7699  16.7700
    16.8144  16.8149  16.9928  16.9933  17.0275  17.0278  17.1934  17.1937
    17.2637  17.2644  17.3598  17.3600  17.4176  17.4178  17.4500  17.4502
    17.5649  17.5652  17.7244  17.7248  17.8467  17.8471  18.4840  18.4844
    18.8302  18.8316  19.1252  19.1256  19.1648  19.1653  19.2063  19.2070
    19.3562  19.3566  19.4250  19.4252  19.5258  19.5260  19.8350  19.8352
    19.9256  19.9257  20.0747  20.0752  20.1084  20.1085  20.1791  20.1792
    20.2844  20.2845  20.2981  20.2982  20.3784  20.3786  20.4249  20.4251
    20.5180  20.5181  20.6601  20.6601  21.1727  21.1727  21.2099

          k = 0.0000 0.3317 0.3317 (  9653 PWs)   bands (ev):

   -67.1098 -67.1018 -67.0997 -67.0956 -67.0948 -67.0916 -67.0916 -67.0887
   -66.8621 -66.8611 -66.8605 -66.8594 -66.8577 -66.8570 -54.3046 -54.3042
   -33.3954 -33.3884 -33.3784 -33.3732 -33.3592 -33.3468 -33.3330 -33.3172
   -33.2789 -33.2589 -33.2586 -33.2550 -33.2408 -33.2325 -33.2099 -33.2080
   -33.2006 -33.1851 -33.1769 -33.1394 -33.1367 -33.1182 -33.1157 -33.1108
   -33.0415 -33.0186 -32.9956 -32.9936 -32.9902 -32.9718 -32.9283 -32.9052
   -32.8919 -32.8852 -32.8739 -32.8609 -32.8605 -32.8586 -32.8538 -32.8467
   -32.8414 -32.8290 -25.6342 -25.6313 -25.6295 -25.6262 -25.6255 -25.6224
    11.1648  12.6133  12.6626  13.6406  14.6673  14.6795  14.7180  14.8281
    14.9194  14.9698  15.2405  15.3455  15.4513  15.5862  15.5958  15.6452
    15.8856  16.0478  16.1437  16.3491  16.3546  16.3670  16.3920  16.5154
    16.5583  16.6847  16.8432  16.8628  16.8866  16.9217  17.0590  17.0751
    17.1823  17.2419  17.2840  17.4383  17.4503  17.4586  17.5200  17.5253
    17.5745  17.6672  17.6698  17.6768  17.8175  18.0933  18.3295  18.5227
    18.7982  18.9197  18.9579  18.9683  18.9914  19.0145  19.2013  19.2362
    19.3093  19.3174  19.3411  19.3993  19.5433  19.6466  19.7506  19.7723
    19.8620  19.8782  19.9847  20.0248  20.0669  20.0898  20.0993  20.1816
    20.1825  20.2110  20.2575  20.2944  20.3319  20.3697  20.4042  20.4293
    20.4954  20.6286  20.6395  20.9350  21.3167  21.3534  22.0258

          k = 0.0000 0.3317-0.4976 (  9694 PWs)   bands (ev):

   -67.1055 -67.1055 -67.0981 -67.0981 -67.0933 -67.0933 -67.0903 -67.0903
   -66.8611 -66.8611 -66.8597 -66.8597 -66.8583 -66.8583 -54.3046 -54.3042
   -33.3918 -33.3917 -33.3680 -33.3680 -33.3583 -33.3582 -33.3267 -33.3267
   -33.2733 -33.2732 -33.2486 -33.2486 -33.2307 -33.2307 -33.2167 -33.2166
   -33.1925 -33.1924 -33.1566 -33.1566 -33.1288 -33.1287 -33.1187 -33.1187
   -33.0220 -33.0220 -33.0098 -33.0097 -32.9779 -32.9778 -32.9207 -32.9207
   -32.8756 -32.8756 -32.8679 -32.8679 -32.8676 -32.8676 -32.8464 -32.8464
   -32.8351 -32.8351 -25.6336 -25.6335 -25.6286 -25.6273 -25.6235 -25.6234
    11.8102  11.8106  13.1133  13.1136  14.7695  14.7695  14.8493  14.8499
    15.2373  15.2378  15.3108  15.3114  15.4677  15.4682  15.7008  15.7010
    15.8907  15.8909  16.1770  16.1770  16.3252  16.3252  16.4805  16.4807
    16.6845  16.6847  16.7887  16.7889  16.8890  16.8892  16.9519  16.9520
    17.0780  17.0787  17.2359  17.2360  17.3060  17.3064  17.4886  17.4890
    17.5808  17.5810  17.7332  17.7334  17.7343  17.7343  18.6813  18.6814
    18.8361  18.8364  18.8771  18.8776  19.1219  19.1227  19.1818  19.1822
    19.1993  19.1994  19.4303  19.4308  19.6842  19.6846  19.6849  19.6850
    19.7817  19.7818  19.8881  19.8888  20.0603  20.0603  20.1572  20.1573
    20.2027  20.2029  20.2545  20.2546  20.2932  20.2933  20.4562  20.4563
    20.5852  20.5853  20.8452  20.8454  21.7104  21.7105  21.7261

          k = 0.0000-0.4976-0.4976 (  9684 PWs)   bands (ev):

   -67.1032 -67.1032 -67.1006 -67.1005 -67.0917 -67.0917 -67.0917 -67.0917
   -66.8599 -66.8599 -66.8597 -66.8596 -66.8594 -66.8594 -54.3046 -54.3042
   -33.3919 -33.3918 -33.3668 -33.3668 -33.3517 -33.3516 -33.3330 -33.3330
   -33.2804 -33.2802 -33.2486 -33.2486 -33.2269 -33.2269 -33.2111 -33.2111
   -33.1876 -33.1874 -33.1412 -33.1412 -33.1316 -33.1315 -33.1285 -33.1285
   -33.0361 -33.0361 -33.0138 -33.0138 -32.9746 -32.9746 -32.9252 -32.9252
   -32.8754 -32.8753 -32.8684 -32.8684 -32.8665 -32.8665 -32.8421 -32.8421
   -32.8319 -32.8319 -25.6343 -25.6343 -25.6286 -25.6273 -25.6228 -25.6228
    12.3611  12.3618  12.4278  12.4278  14.8767  14.8767  15.0107  15.0115
    15.3857  15.3857  15.4167  15.4175  15.5615  15.5620  15.6836  15.6847
    15.8928  15.8928  16.0469  16.0469  16.3670  16.3672  16.4021  16.4021
    16.6614  16.6620  16.6841  16.6841  16.7332  16.7333  16.8019  16.8019
    17.1019  17.1031  17.1779  17.1779  17.2151  17.2151  17.3700  17.3706
    17.5975  17.5980  17.6553  17.6553  18.0597  18.0597  18.2946  18.2946
    18.8699  18.8701  19.0583  19.0583  19.0801  19.0801  19.1765  19.1776
    19.2068  19.2068  19.3625  19.3631  19.6652  19.6652  19.7115  19.7115
    19.7246  19.7260  19.8271  19.8271  20.1056  20.1059  20.1152  20.1155
    20.1413  20.1413  20.1499  20.1499  20.2894  20.2895  20.4567  20.4567
    20.6627  20.6627  20.9124  20.9126  22.2853  22.2862  22.3191

          k = 0.1659 0.1659 0.1659 (  9717 PWs)   bands (ev):

   -67.1155 -67.0986 -67.0986 -67.0976 -67.0923 -67.0923 -67.0922 -67.0871
   -66.8637 -66.8637 -66.8599 -66.8599 -66.8571 -66.8545 -54.3047 -54.3041
   -33.4008 -33.3950 -33.3950 -33.3844 -33.3426 -33.3376 -33.3376 -33.3063
   -33.2973 -33.2847 -33.2847 -33.2461 -33.2461 -33.2158 -33.2129 -33.2129
   -33.1797 -33.1554 -33.1554 -33.1380 -33.1380 -33.1129 -33.1006 -33.1006
   -33.0597 -33.0237 -33.0237 -32.9693 -32.9693 -32.9650 -32.9348 -32.9348
   -32.9157 -32.8884 -32.8733 -32.8733 -32.8722 -32.8446 -32.8446 -32.8354
   -32.8354 -32.8238 -25.6334 -25.6334 -25.6296 -25.6266 -25.6230 -25.6230
    10.4752  13.3958  13.3958  13.4112  14.3581  14.3581  14.4754  14.6217
    14.6217  14.9289  14.9858  14.9858  15.1718  15.3774  15.3774  15.8460
    16.0698  16.0698  16.3456  16.3619  16.3619  16.4215  16.4846  16.4846
    16.6075  16.6075  16.7737  16.8467  16.8467  16.9450  17.3426  17.3426
    17.3852  17.6024  17.7562  17.7562  17.8589  17.8589  17.8969  17.8969
    17.9573  18.0858  18.0951  18.0951  18.1239  18.1239  18.2049  18.2235
    18.4803  18.4803  18.6988  18.6988  18.8594  18.9068  19.2382  19.2382
    19.3488  19.3488  19.4117  19.6415  19.7259  19.7259  19.7878  19.8225
    19.8883  19.9847  19.9847  20.0430  20.0430  20.0920  20.0920  20.2043
    20.2043  20.2246  20.2246  20.3038  20.3876  20.3876  20.6236  20.6236
    20.6272  20.6272  20.6292  20.6835  21.0321  21.0804  21.0804

          k = 0.1659 0.1659 0.3317 (  9689 PWs)   bands (ev):

   -67.1119 -67.1020 -67.0972 -67.0966 -67.0935 -67.0933 -67.0912 -67.0881
   -66.8629 -66.8618 -66.8606 -66.8594 -66.8574 -66.8563 -54.3046 -54.3042
   -33.3957 -33.3864 -33.3833 -33.3827 -33.3517 -33.3503 -33.3309 -33.3125
   -33.2812 -33.2666 -33.2587 -33.2503 -33.2367 -33.2307 -33.2301 -33.2018
   -33.1953 -33.1901 -33.1665 -33.1495 -33.1430 -33.1160 -33.1123 -33.1057
   -33.0399 -33.0111 -33.0023 -32.9835 -32.9781 -32.9750 -32.9254 -32.9085
   -32.8912 -32.8910 -32.8809 -32.8639 -32.8571 -32.8570 -32.8500 -32.8491
   -32.8441 -32.8302 -25.6333 -25.6312 -25.6296 -25.6269 -25.6251 -25.6233
    10.8951  12.4292  13.6352  13.6692  14.1923  14.2631  14.7211  14.7884
    14.8682  15.0209  15.1502  15.2316  15.3562  15.5083  15.5658  15.6455
    15.9642  16.1319  16.1846  16.2118  16.3356  16.3769  16.4587  16.5409
    16.6917  16.7571  16.8349  16.8736  16.8771  17.0319  17.1007  17.2188
    17.2346  17.3078  17.4508  17.5078  17.5589  17.6120  17.6554  17.6616
    17.7043  17.7057  17.7069  17.7586  17.7968  17.8424  18.4034  18.4174
    18.6951  18.8048  18.8670  18.9596  19.0828  19.1289  19.1554  19.2305
    19.2624  19.3119  19.5193  19.5538  19.7423  19.7526  19.7932  19.8413
    19.8708  19.9213  20.0397  20.0644  20.0749  20.1147  20.1300  20.1544
    20.2122  20.2424  20.2675  20.3069  20.3410  20.4163  20.4344  20.4423
    20.5891  20.6044  20.6496  20.6890  20.7606  20.7780  21.8172

          k = 0.1659 0.1659-0.4976 (  9658 PWs)   bands (ev):

   -67.1070 -67.1070 -67.0954 -67.0953 -67.0949 -67.0949 -67.0896 -67.0896
   -66.8617 -66.8616 -66.8597 -66.8596 -66.8576 -66.8576 -54.3046 -54.3042
   -33.3906 -33.3905 -33.3671 -33.3670 -33.3662 -33.3661 -33.3215 -33.3214
   -33.2562 -33.2562 -33.2533 -33.2532 -33.2310 -33.2309 -33.2259 -33.2258
   -33.2021 -33.2021 -33.1720 -33.1719 -33.1279 -33.1279 -33.1119 -33.1119
   -33.0082 -33.0082 -32.9958 -32.9957 -32.9855 -32.9855 -32.9100 -32.9100
   -32.8797 -32.8797 -32.8667 -32.8667 -32.8665 -32.8665 -32.8530 -32.8529
   -32.8417 -32.8417 -25.6319 -25.6319 -25.6287 -25.6274 -25.6247 -25.6246
    11.5638  11.5642  13.9372  13.9376  13.9978  13.9980  14.9481  14.9486
    15.1314  15.1318  15.1836  15.1841  15.3740  15.3744  15.6895  15.6897
    15.8575  15.8579  16.2456  16.2456  16.2652  16.2652  16.6329  16.6331
    16.8146  16.8147  16.9024  16.9030  16.9993  16.9998  17.0679  17.0681
    17.1997  17.2002  17.2490  17.2492  17.4291  17.4292  17.4370  17.4370
    17.4947  17.4948  17.6588  17.6591  17.7384  17.7388  18.6461  18.6464
    18.8281  18.8284  18.9009  18.9022  19.1215  19.1222  19.2855  19.2858
    19.2860  19.2867  19.5740  19.5743  19.5922  19.5925  19.8244  19.8246
    19.9307  19.9309  20.0405  20.0405  20.1343  20.1344  20.1929  20.1932
    20.2708  20.2708  20.3061  20.3064  20.3298  20.3299  20.4857  20.4861
    20.5658  20.5658  20.5749  20.5750  20.6199  20.6200  22.1973

          k = 0.1659 0.3317 0.3317 (  9671 PWs)   bands (ev):

   -67.1089 -67.1011 -67.0993 -67.0955 -67.0952 -67.0925 -67.0923 -67.0893
   -66.8616 -66.8610 -66.8603 -66.8596 -66.8580 -66.8574 -54.3046 -54.3042
   -33.3918 -33.3868 -33.3758 -33.3726 -33.3567 -33.3475 -33.3366 -33.3194
   -33.2728 -33.2596 -33.2550 -33.2426 -33.2425 -33.2361 -33.2179 -33.2099
   -33.1973 -33.1734 -33.1701 -33.1545 -33.1434 -33.1287 -33.1242 -33.1196
   -33.0434 -33.0048 -32.9985 -32.9895 -32.9874 -32.9749 -32.9201 -32.9030
   -32.8980 -32.8775 -32.8769 -32.8651 -32.8567 -32.8559 -32.8547 -32.8473
   -32.8442 -32.8325 -25.6334 -25.6316 -25.6302 -25.6260 -25.6251 -25.6233
    11.2996  12.7351  12.7763  13.7623  13.9256  14.4959  14.6224  15.0221
    15.0649  15.1667  15.4178  15.4197  15.4805  15.6453  15.6647  15.7114
    15.9233  16.0632  16.1926  16.2492  16.3399  16.3576  16.4253  16.4788
    16.5849  16.6967  16.7254  16.7650  16.9078  17.0037  17.0112  17.0642
    17.0753  17.1298  17.2158  17.3214  17.3274  17.3855  17.4433  17.4841
    17.5138  17.5347  17.5483  17.6238  17.6910  17.9178  18.0586  18.6696
    18.8075  18.9310  18.9667  19.0342  19.0812  19.0989  19.2265  19.2502
    19.4084  19.4457  19.4818  19.4938  19.6023  19.7251  19.8025  19.8530
    19.8747  19.9142  19.9552  20.0355  20.0534  20.0704  20.1525  20.1727
    20.2109  20.2227  20.2643  20.2890  20.3456  20.3619  20.3949  20.4064
    20.4350  20.5307  20.5346  20.6717  20.7508  21.3588  21.3906

          k = 0.1659 0.3317-0.4976 (  9694 PWs)   bands (ev):

   -67.1048 -67.1048 -67.0976 -67.0976 -67.0940 -67.0940 -67.0909 -67.0908
   -66.8608 -66.8608 -66.8597 -66.8597 -66.8585 -66.8585 -54.3046 -54.3042
   -33.3888 -33.3888 -33.3656 -33.3655 -33.3584 -33.3584 -33.3292 -33.3292
   -33.2678 -33.2677 -33.2474 -33.2473 -33.2252 -33.2251 -33.2209 -33.2208
   -33.1917 -33.1917 -33.1542 -33.1541 -33.1418 -33.1417 -33.1296 -33.1296
   -33.0254 -33.0254 -32.9983 -32.9983 -32.9771 -32.9771 -32.9137 -32.9137
   -32.8796 -32.8796 -32.8673 -32.8673 -32.8659 -32.8659 -32.8477 -32.8477
   -32.8380 -32.8380 -25.6331 -25.6331 -25.6288 -25.6275 -25.6239 -25.6238
    11.9388  11.9392  13.2345  13.2347  14.2708  14.2711  14.9957  14.9962
    15.2178  15.2184  15.3573  15.3578  15.6569  15.6572  15.7725  15.7728
    15.9576  15.9577  16.2065  16.2065  16.3104  16.3105  16.4224  16.4226
    16.6982  16.6984  16.7719  16.7722  16.8296  16.8298  16.9509  16.9515
    16.9940  16.9944  17.1539  17.1541  17.2969  17.2971  17.4302  17.4303
    17.4714  17.4718  17.5154  17.5155  17.6593  17.6595  18.3267  18.3270
    18.9486  18.9488  19.0399  19.0408  19.1575  19.1584  19.2903  19.2908
    19.4052  19.4057  19.5192  19.5195  19.7299  19.7300  19.7947  19.7950
    19.8311  19.8314  19.9341  19.9346  20.0558  20.0559  20.1385  20.1386
    20.1944  20.1945  20.2467  20.2467  20.2872  20.2875  20.4135  20.4136
    20.4833  20.4833  20.6935  20.6935  20.9595  20.9597  22.1100

          k = 0.1659-0.4976-0.4976 (  9676 PWs)   bands (ev):

   -67.1024 -67.1024 -67.1000 -67.1000 -67.0925 -67.0925 -67.0923 -67.0922
   -66.8598 -66.8598 -66.8597 -66.8596 -66.8595 -66.8595 -54.3046 -54.3042
   -33.3882 -33.3881 -33.3646 -33.3646 -33.3516 -33.3515 -33.3354 -33.3354
   -33.2742 -33.2741 -33.2431 -33.2431 -33.2200 -33.2200 -33.2200 -33.2199
   -33.1837 -33.1836 -33.1498 -33.1498 -33.1483 -33.1482 -33.1361 -33.1361
   -33.0367 -33.0366 -32.9997 -32.9997 -32.9719 -32.9719 -32.9168 -32.9168
   -32.8763 -32.8762 -32.8678 -32.8678 -32.8675 -32.8675 -32.8457 -32.8457
   -32.8359 -32.8359 -25.6335 -25.6335 -25.6287 -25.6274 -25.6235 -25.6235
    12.4917  12.4924  12.5499  12.5499  14.6000  14.6000  14.7646  14.7653
    15.3031  15.3038  15.5656  15.5656  15.6911  15.6922  15.9024  15.9029
    15.9859  15.9859  16.0564  16.0564  16.3216  16.3218  16.4159  16.4159
    16.6203  16.6206  16.6873  16.6873  16.7447  16.7447  16.8038  16.8041
    17.0162  17.0174  17.0931  17.0931  17.2269  17.2269  17.3309  17.3314
    17.4791  17.4791  17.4858  17.4863  17.8226  17.8226  17.9606  17.9609
    19.0958  19.0966  19.1563  19.1563  19.2085  19.2096  19.2933  19.2940
    19.3853  19.3853  19.5470  19.5475  19.6878  19.6878  19.7526  19.7539
    19.7725  19.7725  19.8741  19.8741  20.0933  20.0934  20.1108  20.1108
    20.1164  20.1167  20.1390  20.1390  20.2601  20.2604  20.4172  20.4172
    20.5227  20.5227  20.7511  20.7512  21.5016  21.5021  21.5342

          k = 0.3317 0.3317 0.3317 (  9708 PWs)   bands (ev):

   -67.1063 -67.0993 -67.0993 -67.0970 -67.0943 -67.0943 -67.0934 -67.0908
   -66.8607 -66.8607 -66.8599 -66.8599 -66.8586 -66.8581 -54.3046 -54.3042
   -33.3852 -33.3843 -33.3683 -33.3683 -33.3535 -33.3460 -33.3460 -33.3258
   -33.2564 -33.2514 -33.2514 -33.2482 -33.2482 -33.2178 -33.2178 -33.2071
   -33.1892 -33.1892 -33.1585 -33.1578 -33.1578 -33.1496 -33.1417 -33.1417
   -33.0435 -33.0147 -32.9828 -32.9828 -32.9781 -32.9781 -32.9019 -32.9019
   -32.9004 -32.8770 -32.8697 -32.8668 -32.8668 -32.8523 -32.8523 -32.8490
   -32.8490 -32.8395 -25.6320 -25.6315 -25.6315 -25.6254 -25.6254 -25.6247
    11.6933  13.0728  13.0989  13.0989  14.0777  14.0777  14.1906  15.1694
    15.2483  15.2483  15.4943  15.4943  15.7012  15.7380  15.8551  15.8551
    16.1019  16.1390  16.1390  16.2979  16.2979  16.3857  16.3857  16.4145
    16.5234  16.6614  16.6614  16.8019  16.8019  16.8869  16.9102  17.0680
    17.0680  17.0684  17.0684  17.0968  17.1125  17.2057  17.2057  17.2750
    17.3619  17.3619  17.4797  17.4797  17.5798  17.5798  17.6718  18.2530
    18.9765  19.1099  19.1099  19.2121  19.2121  19.2863  19.2863  19.4779
    19.5122  19.6541  19.6541  19.6581  19.8162  19.8162  19.8505  19.8590
    19.9433  19.9433  19.9900  19.9900  20.0795  20.0795  20.0827  20.0827
    20.1493  20.1493  20.1728  20.2313  20.3115  20.3253  20.3253  20.4093
    20.4093  20.4153  20.4153  20.4892  20.8433  20.8464  20.8464

          k = 0.3317 0.3317-0.4976 (  9696 PWs)   bands (ev):

   -67.1026 -67.1026 -67.0969 -67.0969 -67.0957 -67.0957 -67.0923 -67.0923
   -66.8603 -66.8603 -66.8597 -66.8596 -66.8590 -66.8589 -54.3046 -54.3042
   -33.3830 -33.3829 -33.3594 -33.3594 -33.3575 -33.3575 -33.3357 -33.3357
   -33.2561 -33.2559 -33.2470 -33.2469 -33.2248 -33.2247 -33.2108 -33.2108
   -33.1869 -33.1868 -33.1681 -33.1680 -33.1539 -33.1539 -33.1520 -33.1520
   -33.0336 -33.0335 -32.9799 -32.9799 -32.9729 -32.9729 -32.9010 -32.9010
   -32.8831 -32.8830 -32.8667 -32.8667 -32.8663 -32.8663 -32.8505 -32.8505
   -32.8445 -32.8445 -25.6321 -25.6320 -25.6291 -25.6278 -25.6249 -25.6249
    12.3114  12.3117  13.5693  13.5697  13.5904  13.5906  14.6345  14.6349
    15.4059  15.4066  15.5164  15.5171  15.8586  15.8590  15.9701  15.9704
    16.1068  16.1069  16.2733  16.2733  16.2836  16.2837  16.3441  16.3441
    16.6885  16.6890  16.7028  16.7032  16.7861  16.7867  16.8550  16.8559
    16.9837  16.9837  17.0271  17.0274  17.1879  17.1883  17.2221  17.2222
    17.2732  17.2733  17.3532  17.3533  17.4163  17.4168  17.8074  17.8078
    19.1957  19.1968  19.2338  19.2347  19.2505  19.2508  19.5325  19.5333
    19.5916  19.5919  19.7155  19.7158  19.8273  19.8279  19.8634  19.8635
    19.8874  19.8878  20.0210  20.0213  20.0738  20.0740  20.1230  20.1234
    20.1636  20.1637  20.2247  20.2248  20.2883  20.2886  20.3418  20.3420
    20.4174  20.4179  20.4289  20.4291  20.4510  20.4512  21.4753

          k = 0.3317-0.4976-0.4976 (  9692 PWs)   bands (ev):

   -67.1004 -67.1004 -67.0987 -67.0986 -67.0947 -67.0947 -67.0937 -67.0937
   -66.8597 -66.8597 -66.8596 -66.8596 -66.8595 -66.8595 -54.3046 -54.3042
   -33.3801 -33.3800 -33.3588 -33.3588 -33.3510 -33.3509 -33.3419 -33.3419
   -33.2578 -33.2576 -33.2354 -33.2352 -33.2269 -33.2269 -33.2016 -33.2016
   -33.1807 -33.1807 -33.1792 -33.1792 -33.1732 -33.1732 -33.1541 -33.1541
   -33.0378 -33.0378 -32.9753 -32.9753 -32.9664 -32.9664 -32.8976 -32.8976
   -32.8783 -32.8782 -32.8707 -32.8707 -32.8656 -32.8656 -32.8542 -32.8542
   -32.8468 -32.8468 -25.6315 -25.6315 -25.6290 -25.6278 -25.6256 -25.6256
    12.8690  12.8696  12.9016  12.9016  14.0487  14.0487  14.1308  14.1315
    15.5039  15.5047  15.7064  15.7075  15.8347  15.8347  16.0655  16.0655
    16.1834  16.1835  16.2422  16.2422  16.3171  16.3174  16.4681  16.4681
    16.5801  16.5804  16.6772  16.6772  16.7157  16.7157  16.8922  16.8934
    16.9287  16.9290  16.9880  16.9880  17.0928  17.0928  17.1851  17.1851
    17.2263  17.2268  17.2447  17.2452  17.3799  17.3799  17.4432  17.4439
    19.2673  19.2684  19.2840  19.2850  19.4582  19.4582  19.5708  19.5718
    19.7440  19.7440  19.8451  19.8463  19.8574  19.8574  19.9411  19.9416
    19.9511  19.9511  19.9893  19.9893  19.9938  19.9938  20.0463  20.0466
    20.0948  20.0948  20.1184  20.1187  20.1890  20.1896  20.2100  20.2100
    20.3311  20.3311  20.4080  20.4082  20.9075  20.9081  20.9143

          k =-0.4976-0.4976-0.4976 (  9808 PWs)   bands (ev):

   -67.0977 -67.0977 -67.0977 -67.0977 -67.0977 -67.0977 -67.0950 -67.0950
   -66.8599 -66.8599 -66.8599 -66.8598 -66.8598 -66.8598 -54.3046 -54.3043
   -33.3757 -33.3756 -33.3507 -33.3507 -33.3507 -33.3507 -33.3507 -33.3507
   -33.2434 -33.2434 -33.2432 -33.2432 -33.2023 -33.2023 -33.2023 -33.2022
   -33.2022 -33.2022 -33.1777 -33.1777 -33.1777 -33.1776 -33.1776 -33.1776
   -33.0386 -33.0385 -32.9637 -32.9637 -32.9636 -32.9636 -32.8795 -32.8795
   -32.8795 -32.8795 -32.8795 -32.8795 -32.8594 -32.8594 -32.8594 -32.8594
   -32.8594 -32.8594 -25.6294 -25.6294 -25.6294 -25.6281 -25.6281 -25.6281
    13.4332  13.4332  13.4332  13.4335  13.4335  13.4335  13.4587  13.4596
    15.7142  15.7142  15.7153  15.7153  16.0154  16.0154  16.0154  16.0158
    16.0158  16.0158  16.5653  16.5653  16.5653  16.5655  16.5655  16.5655
    16.6009  16.6009  16.6009  16.6012  16.6012  16.6012  16.9713  16.9719
    17.0009  17.0009  17.0009  17.0022  17.0022  17.0022  17.0488  17.0488
    17.0488  17.0493  17.0493  17.0493  17.1108  17.1108  17.1112  17.1112
    19.3286  19.3286  19.3296  19.3296  19.7385  19.7385  19.7385  19.7392
    19.7392  19.7392  19.9842  19.9842  19.9842  19.9851  19.9851  19.9851
    20.0092  20.0092  20.0092  20.0096  20.0096  20.0096  20.1132  20.1132
    20.1142  20.1142  20.1527  20.1527  20.1527  20.1530  20.1530  20.1530
    20.3916  20.3916  20.3916  20.3917  20.3917  20.3917  20.4325

     the Fermi energy is    18.6169 ev

!    total energy              =   -5106.05220694 Ry
     total all-electron energy =    -39841.269027 Ry
     estimated scf accuracy    <          5.2E-11 Ry
     smearing contrib. (-TS)   =       0.00362588 Ry
     internal energy E=F+TS    =   -5106.05583282 Ry

     The total energy is F=E-TS. E is the sum of the following terms:
     one-electron contribution =   -1657.70451420 Ry
     hartree contribution      =     987.50036503 Ry
     xc contribution           =    -433.14201320 Ry
     ewald contribution        =   -2695.15111937 Ry
     one-center paw contrib.   =   -1307.55855108 Ry

     total magnetization       =    27.61 Bohr mag/cell
     absolute magnetization    =    35.96 Bohr mag/cell

     convergence has been achieved in  30 iterations

     Forces acting on atoms (cartesian axes, Ry/au):

     atom    1 type  2   force =     0.00000000    0.00000000    0.00000000
     atom    2 type  1   force =     0.00006663    0.00006663    0.00006663
     atom    3 type  1   force =     0.00000000    0.00000000    0.00000000
     atom    4 type  1   force =     0.00006663    0.00006663   -0.00006663
     atom    5 type  1   force =     0.00000000    0.00000000    0.00000000
     atom    6 type  1   force =     0.00006663   -0.00006663    0.00006663
     atom    7 type  1   force =     0.00000000    0.00000000    0.00000000
     atom    8 type  1   force =     0.00006663   -0.00006663   -0.00006663
     atom    9 type  1   force =     0.00000000   -0.00000000    0.00000000
     atom   10 type  1   force =    -0.00006663    0.00006663    0.00006663
     atom   11 type  1   force =     0.00000000    0.00000000    0.00000000
     atom   12 type  1   force =    -0.00006663    0.00006663   -0.00006663
     atom   13 type  1   force =     0.00000000    0.00000000    0.00000000
     atom   14 type  1   force =    -0.00006663   -0.00006663    0.00006663
     atom   15 type  2   force =     0.00000000    0.00000000    0.00000000
     atom   16 type  1   force =    -0.00006663   -0.00006663   -0.00006663

     Total force =     0.000326     Total SCF correction =     0.000029


     Computing stress (Cartesian axis) and pressure

          total   stress  (Ry/bohr**3)                   (kbar)     P=       -0.27
  -0.00000185   0.00000000   0.00000000           -0.27        0.00        0.00
   0.00000000  -0.00000185   0.00000000            0.00       -0.27        0.00
   0.00000000   0.00000000  -0.00000185            0.00        0.00       -0.27


     Writing all to output data dir ./tmp/fecr_fe14cr02_vcr.save/ :
     XML data file, charge density, pseudopotentials, collected wavefunctions
 
     init_run     :     37.00s CPU     25.00s WALL (       2 calls)
     electrons    :   2805.62s CPU   2131.14s WALL (       4 calls)
     update_pot   :     29.67s CPU     16.93s WALL (       2 calls)
     forces       :     11.08s CPU     10.56s WALL (       4 calls)
     stress       :     44.28s CPU     43.82s WALL (       4 calls)

     Called by init_run:
     wfcinit      :      6.07s CPU      6.54s WALL (       2 calls)
     potinit      :     29.64s CPU     17.04s WALL (       2 calls)
     hinit0       :      0.88s CPU      0.86s WALL (       2 calls)

     Called by electrons:
     c_bands      :   1116.60s CPU   1117.29s WALL (     108 calls)
     sum_band     :     99.69s CPU     99.55s WALL (     108 calls)
     v_of_rho     :      2.07s CPU      1.97s WALL (     111 calls)
     newd         :      8.19s CPU      8.21s WALL (     111 calls)
                                        8.21s GPU  (     111 calls)
     PAW_pot      :   1660.86s CPU    948.17s WALL (     113 calls)
     mix_rho      :      3.44s CPU      3.60s WALL (     108 calls)

     Called by c_bands:
     init_us_2    :      6.91s CPU      6.61s WALL (    9120 calls)
     cegterg      :   1059.10s CPU   1059.94s WALL (    4321 calls)

     Called by *egterg:
     cdiaghg      :    285.25s CPU    286.27s WALL (   21722 calls)
                                      286.18s GPU  (   21722 calls)
     h_psi        :    355.20s CPU    355.90s WALL (   21923 calls)
                                      355.62s GPU  (   21923 calls)
     s_psi        :     12.85s CPU     12.96s WALL (   21923 calls)
     g_psi        :      0.08s CPU      1.90s WALL (   17522 calls)
                                        1.84s GPU  (   17522 calls)

     Called by h_psi:
     h_psi:calbec :      0.74s CPU     63.39s WALL (   21923 calls)
                                       63.31s GPU  (   21923 calls)
     vloc_psi     :    203.30s CPU    203.44s WALL (   21923 calls)
                                      203.36s GPU  (   21923 calls)
     add_vuspsi   :     12.38s CPU     87.38s WALL (   21923 calls)
                                       87.29s GPU  (   21923 calls)

     General routines
     calbec       :      9.86s CPU      5.59s WALL (   27123 calls)
     fft          :      1.05s CPU      1.69s WALL (    2931 calls)
                                        0.69s GPU  (    2709 calls)
     ffts         :      0.33s CPU      0.34s WALL (     438 calls)
                                        0.02s GPU  (     216 calls)
     fftw         :      4.42s CPU    204.29s WALL (  265286 calls)
                                      203.50s GPU  (  265286 calls)
     interpolate  :      1.46s CPU      1.46s WALL (     222 calls)
 
     Parallel routines
 
     PWSCF        :  49m27.86s CPU  37m30.61s WALL

 
   This run was terminated on:   1:38:47  12May2026            

=------------------------------------------------------------------------------=
   JOB DONE.
=------------------------------------------------------------------------------=
Warning: ieee_divide_by_zero is signaling
Warning: ieee_inexact is signaling
FORTRAN STOP
