--------------------------------------------------------------------------
WARNING: Open MPI tried to bind a process but failed.  This is a
warning only; your job will continue, though performance may
be degraded.

  Local host:        f65a304cd3fa
  Application name:  /workspace/q-e-qe-7.3.1/bin/pw.x
  Error message:     failed to bind memory
  Location:          ../../../../../orte/mca/rtc/hwloc/rtc_hwloc.c:447

--------------------------------------------------------------------------
[LOG_CAT_ML] You must specify a valid HCA device by setting:
-x HCOLL_MAIN_IB=<dev_name:port> or -x UCX_NET_DEVICES=<dev_name:port>.
If no device was specified for HCOLL (or the calling library), automatic device detection will be run.
In case of unfounded HCA device please contact your system administrator.
[LOG_CAT_ML] You must specify a valid HCA device by setting:
-x HCOLL_MAIN_IB=<dev_name:port> or -x UCX_NET_DEVICES=<dev_name:port>.
If no device was specified for HCOLL (or the calling library), automatic device detection will be run.
In case of unfounded HCA device please contact your system administrator.
[LOG_CAT_ML] You must specify a valid HCA device by setting:
-x HCOLL_MAIN_IB=<dev_name:port> or -x UCX_NET_DEVICES=<dev_name:port>.
If no device was specified for HCOLL (or the calling library), automatic device detection will be run.
In case of unfounded HCA device please contact your system administrator.
[LOG_CAT_ML] You must specify a valid HCA device by setting:
-x HCOLL_MAIN_IB=<dev_name:port> or -x UCX_NET_DEVICES=<dev_name:port>.
If no device was specified for HCOLL (or the calling library), automatic device detection will be run.
In case of unfounded HCA device please contact your system administrator.
[f65a304cd3fa:87695] Error: ../../../../../ompi/mca/coll/hcoll/coll_hcoll_module.c:310 - mca_coll_hcoll_comm_query() Hcol library init failed
[f65a304cd3fa:87693] Error: ../../../../../ompi/mca/coll/hcoll/coll_hcoll_module.c:310 - mca_coll_hcoll_comm_query() Hcol library init failed
[f65a304cd3fa:87692] Error: ../../../../../ompi/mca/coll/hcoll/coll_hcoll_module.c:310 - mca_coll_hcoll_comm_query() Hcol library init failed
[f65a304cd3fa:87694] Error: ../../../../../ompi/mca/coll/hcoll/coll_hcoll_module.c:310 - mca_coll_hcoll_comm_query() Hcol library init failed

     Program PWSCF v.7.3.1 starts on 11May2026 at 10:56:23 

     This program is part of the open-source Quantum ESPRESSO suite
     for quantum simulation of materials; please cite
         "P. Giannozzi et al., J. Phys.:Condens. Matter 21 395502 (2009);
         "P. Giannozzi et al., J. Phys.:Condens. Matter 29 465901 (2017);
         "P. Giannozzi et al., J. Chem. Phys. 152 154105 (2020);
          URL http://www.quantum-espresso.org", 
     in publications or presentations arising from this work. More details at
     http://www.quantum-espresso.org/quote

     Parallel version (MPI & OpenMP), running on      16 processor cores
     Number of MPI processes:                 4
     Threads/MPI process:                     4

     MPI processes distributed on     1 nodes
     35333 MiB available memory on the printing compute node when the environment starts
 
     Reading input from inputs/fecr_fe15cr01_t0.00.in

     Current dimensions of program PWSCF are:
     Max number of different atomic species (ntypx) = 10
     Max number of k-points (npk) =  40000
     Max angular momentum in pseudopotentials (lmaxx) =  4
     file Fe.pbe-spn-kjpaw_psl.1.0.0.UPF: wavefunction(s)  3P 3D renormalized
     file Cr.pbe-spn-kjpaw_psl.1.0.0.UPF: wavefunction(s)  3S 3P 3D renormalized
     Message from routine setup:
     using ibrav=0 with symmetry is DISCOURAGED, use correct ibrav instead
 
     R & G space division:  proc/nbgrp/npool/nimage =       4
     Subspace diagonalization in iterative solution of the eigenvalue problem:
     a serial algorithm will be used

 
     Parallelization info
     --------------------
     sticks:   dense  smooth     PW     G-vecs:    dense   smooth      PW
     Min        1094     548    154                54559    19263    2908
     Max        1100     551    156                54560    19264    2909
     Sum        4389    2201    621               218239    77053   11633
 
     Using Slab Decomposition
 


     bravais-lattice index     =            0
     lattice parameter (alat)  =      10.7110  a.u.
     unit-cell volume          =    1228.8086 (a.u.)^3
     number of atoms/cell      =           16
     number of atomic types    =            2
     number of electrons       =       254.00
     number of Kohn-Sham states=          152
     kinetic-energy cutoff     =      60.0000  Ry
     charge density cutoff     =     480.0000  Ry
     scf convergence threshold =      1.0E-08
     mixing beta               =       0.3000
     number of iterations used =            8  plain     mixing
     Exchange-correlation= SLA  PW   PBX  PBC
                           (   1   4   3   4   0   0   0)

     GPU acceleration is ACTIVE.  1 visible GPUs per MPI rank

     Message from routine print_cuda_info:
     High GPU oversubscription detected. Are you sure this is what you want?

     celldm(1)=  10.710952  celldm(2)=   0.000000  celldm(3)=   0.000000
     celldm(4)=   0.000000  celldm(5)=   0.000000  celldm(6)=   0.000000

     crystal axes: (cart. coord. in units of alat)
               a(1) = (   1.000000   0.000000   0.000000 )  
               a(2) = (   0.000000   1.000000   0.000000 )  
               a(3) = (   0.000000   0.000000   1.000000 )  

     reciprocal axes: (cart. coord. in units 2 pi/alat)
               b(1) = (  1.000000  0.000000  0.000000 )  
               b(2) = (  0.000000  1.000000  0.000000 )  
               b(3) = (  0.000000  0.000000  1.000000 )  


     PseudoPot. # 1 for Fe read from file:
     ./pseudo/Fe.pbe-spn-kjpaw_psl.1.0.0.UPF
     MD5 check sum: fc81f059e5c5069939230b1155715ae8
     Pseudo is Projector augmented-wave + core cor, Zval = 16.0
     Generated using &quot;atomic&quot; code by A. Dal Corso  v.6.3
     Shape of augmentation charge: PSQ
     Using radial grid of 1191 points,  6 beta functions with: 
                l(1) =   0
                l(2) =   0
                l(3) =   1
                l(4) =   1
                l(5) =   2
                l(6) =   2
     Q(r) pseudized with 0 coefficients 


     PseudoPot. # 2 for Cr read from file:
     ./pseudo/Cr.pbe-spn-kjpaw_psl.1.0.0.UPF
     MD5 check sum: 198f1a2427a48552563eee314eba32ba
     Pseudo is Projector augmented-wave + core cor, Zval = 14.0
     Generated using &quot;atomic&quot; code by A. Dal Corso  v.6.3
     Shape of augmentation charge: PSQ
     Using radial grid of 1183 points,  6 beta functions with: 
                l(1) =   0
                l(2) =   0
                l(3) =   1
                l(4) =   1
                l(5) =   2
                l(6) =   2
     Q(r) pseudized with 0 coefficients 


     atomic species   valence    mass     pseudopotential
     Fe               16.00    55.84500     Fe( 1.00)
     Cr               14.00    51.99600     Cr( 1.00)

     Starting magnetic structure 
     atomic species   magnetization
     Fe              0.500
     Cr              0.300

     48 Sym. Ops., with inversion, found



   Cartesian axes

     site n.     atom                  positions (alat units)
         1        Cr     tau(   1) = (   0.0000000   0.0000000   0.0000000  )
         2        Fe     tau(   2) = (   0.2500000   0.2500000   0.2500000  )
         3        Fe     tau(   3) = (   0.0000000   0.0000000   0.5000000  )
         4        Fe     tau(   4) = (   0.2500000   0.2500000   0.7500000  )
         5        Fe     tau(   5) = (   0.0000000   0.5000000   0.0000000  )
         6        Fe     tau(   6) = (   0.2500000   0.7500000   0.2500000  )
         7        Fe     tau(   7) = (   0.0000000   0.5000000   0.5000000  )
         8        Fe     tau(   8) = (   0.2500000   0.7500000   0.7500000  )
         9        Fe     tau(   9) = (   0.5000000   0.0000000   0.0000000  )
        10        Fe     tau(  10) = (   0.7500000   0.2500000   0.2500000  )
        11        Fe     tau(  11) = (   0.5000000   0.0000000   0.5000000  )
        12        Fe     tau(  12) = (   0.7500000   0.2500000   0.7500000  )
        13        Fe     tau(  13) = (   0.5000000   0.5000000   0.0000000  )
        14        Fe     tau(  14) = (   0.7500000   0.7500000   0.2500000  )
        15        Fe     tau(  15) = (   0.5000000   0.5000000   0.5000000  )
        16        Fe     tau(  16) = (   0.7500000   0.7500000   0.7500000  )

     number of k points=    20  Marzari-Vanderbilt smearing, width (Ry)=  0.0200
                       cart. coord. in units 2pi/alat
        k(    1) = (   0.0000000   0.0000000   0.0000000), wk =   0.0046296
        k(    2) = (   0.0000000   0.0000000   0.1666667), wk =   0.0277778
        k(    3) = (   0.0000000   0.0000000   0.3333333), wk =   0.0277778
        k(    4) = (   0.0000000   0.0000000  -0.5000000), wk =   0.0138889
        k(    5) = (   0.0000000   0.1666667   0.1666667), wk =   0.0555556
        k(    6) = (   0.0000000   0.1666667   0.3333333), wk =   0.1111111
        k(    7) = (   0.0000000   0.1666667  -0.5000000), wk =   0.0555556
        k(    8) = (   0.0000000   0.3333333   0.3333333), wk =   0.0555556
        k(    9) = (   0.0000000   0.3333333  -0.5000000), wk =   0.0555556
        k(   10) = (   0.0000000  -0.5000000  -0.5000000), wk =   0.0138889
        k(   11) = (   0.1666667   0.1666667   0.1666667), wk =   0.0370370
        k(   12) = (   0.1666667   0.1666667   0.3333333), wk =   0.1111111
        k(   13) = (   0.1666667   0.1666667  -0.5000000), wk =   0.0555556
        k(   14) = (   0.1666667   0.3333333   0.3333333), wk =   0.1111111
        k(   15) = (   0.1666667   0.3333333  -0.5000000), wk =   0.1111111
        k(   16) = (   0.1666667  -0.5000000  -0.5000000), wk =   0.0277778
        k(   17) = (   0.3333333   0.3333333   0.3333333), wk =   0.0370370
        k(   18) = (   0.3333333   0.3333333  -0.5000000), wk =   0.0555556
        k(   19) = (   0.3333333  -0.5000000  -0.5000000), wk =   0.0277778
        k(   20) = (  -0.5000000  -0.5000000  -0.5000000), wk =   0.0046296

     Dense  grid:   218239 G-vectors     FFT dimensions: (  75,  75,  75)

     Smooth grid:    77053 G-vectors     FFT dimensions: (  54,  54,  54)

     Estimated max dynamical RAM per process >     464.11 MB

     Estimated total dynamical RAM >       1.81 GB

     Check: negative core charge=   -0.000003
     Generating pointlists ...
     new r_m :   0.1786 (alat units)  1.9132 (a.u.) for type    1
     new r_m :   0.1786 (alat units)  1.9132 (a.u.) for type    2

     Initial potential from superposition of free atoms

     starting charge     253.9927, renormalised to     254.0000
[f65a304cd3fa:87688] 3 more processes have sent help message help-orte-odls-default.txt / memory not bound
[f65a304cd3fa:87688] Set MCA parameter "orte_base_help_aggregate" to 0 to see all help / error messages
     Starting wfcs are  160 randomized atomic wfcs
     Checking if some PAW data can be deallocated... 

     total cpu time spent up to now is       23.6 secs

     Self-consistent Calculation

     iteration #  1     ecut=    60.00 Ry     beta= 0.30
     Davidson diagonalization with overlap
     ethr =  1.00E-02,  avg # of iterations =  3.1

     total cpu time spent up to now is       73.9 secs

     total energy              =   -5182.08209505 Ry
     estimated scf accuracy    <      11.17088145 Ry

     total magnetization       =    49.99 Bohr mag/cell
     absolute magnetization    =    51.70 Bohr mag/cell

     iteration #  2     ecut=    60.00 Ry     beta= 0.30
     Davidson diagonalization with overlap
     ethr =  4.40E-03,  avg # of iterations =  7.3

     total cpu time spent up to now is      132.9 secs

     total energy              =   -5183.02739748 Ry
     estimated scf accuracy    <      22.16580190 Ry

     total magnetization       =    44.46 Bohr mag/cell
     absolute magnetization    =    45.82 Bohr mag/cell

     iteration #  3     ecut=    60.00 Ry     beta= 0.30
     Davidson diagonalization with overlap
     ethr =  4.40E-03,  avg # of iterations =  3.7

     total cpu time spent up to now is      179.3 secs

     total energy              =   -5183.96496057 Ry
     estimated scf accuracy    <       6.89042337 Ry

     total magnetization       =    46.71 Bohr mag/cell
     absolute magnetization    =    48.12 Bohr mag/cell

     iteration #  4     ecut=    60.00 Ry     beta= 0.30
     Davidson diagonalization with overlap
     ethr =  2.71E-03,  avg # of iterations =  5.8

     negative rho (up, down):  0.000E+00 2.434E-03

     total cpu time spent up to now is      235.1 secs

     total energy              =   -5186.93865220 Ry
     estimated scf accuracy    <      15.04794374 Ry

     total magnetization       =    48.22 Bohr mag/cell
     absolute magnetization    =    49.66 Bohr mag/cell

     iteration #  5     ecut=    60.00 Ry     beta= 0.30
     Davidson diagonalization with overlap
     ethr =  2.71E-03,  avg # of iterations =  2.6

     negative rho (up, down):  0.000E+00 2.494E-03

     total cpu time spent up to now is      278.8 secs

     total energy              =   -5187.26161830 Ry
     estimated scf accuracy    <      20.11567390 Ry

     total magnetization       =    39.19 Bohr mag/cell
     absolute magnetization    =    41.49 Bohr mag/cell

     iteration #  6     ecut=    60.00 Ry     beta= 0.30
     Davidson diagonalization with overlap
     ethr =  2.71E-03,  avg # of iterations =  1.0

     negative rho (up, down):  0.000E+00 2.450E-03

     total cpu time spent up to now is      316.9 secs

     total energy              =   -5187.14144574 Ry
     estimated scf accuracy    <      10.84039921 Ry

     total magnetization       =    38.79 Bohr mag/cell
     absolute magnetization    =    40.92 Bohr mag/cell

     iteration #  7     ecut=    60.00 Ry     beta= 0.30
     Davidson diagonalization with overlap
     ethr =  2.71E-03,  avg # of iterations =  1.0

     negative rho (up, down):  0.000E+00 2.381E-03

     total cpu time spent up to now is      355.1 secs

     total energy              =   -5187.00349258 Ry
     estimated scf accuracy    <       5.94794833 Ry

     total magnetization       =    37.85 Bohr mag/cell
     absolute magnetization    =    40.03 Bohr mag/cell

     iteration #  8     ecut=    60.00 Ry     beta= 0.30
     Davidson diagonalization with overlap
     ethr =  2.34E-03,  avg # of iterations =  1.0

     negative rho (up, down):  0.000E+00 2.272E-03

     total cpu time spent up to now is      393.1 secs

     total energy              =   -5187.05428579 Ry
     estimated scf accuracy    <       1.36551797 Ry

     total magnetization       =    35.94 Bohr mag/cell
     absolute magnetization    =    38.31 Bohr mag/cell

     iteration #  9     ecut=    60.00 Ry     beta= 0.30
     Davidson diagonalization with overlap
     ethr =  5.38E-04,  avg # of iterations =  1.3

     negative rho (up, down):  0.000E+00 2.184E-03

     total cpu time spent up to now is      431.9 secs

     total energy              =   -5187.07081712 Ry
     estimated scf accuracy    <       0.83978685 Ry

     total magnetization       =    35.02 Bohr mag/cell
     absolute magnetization    =    37.44 Bohr mag/cell

     iteration # 10     ecut=    60.00 Ry     beta= 0.30
     Davidson diagonalization with overlap
     ethr =  3.31E-04,  avg # of iterations =  1.1

     negative rho (up, down):  0.000E+00 1.108E-03

     total cpu time spent up to now is      470.5 secs

     total energy              =   -5186.95892300 Ry
     estimated scf accuracy    <       0.91881992 Ry

     total magnetization       =    34.74 Bohr mag/cell
     absolute magnetization    =    37.13 Bohr mag/cell

     iteration # 11     ecut=    60.00 Ry     beta= 0.30
     Davidson diagonalization with overlap
     ethr =  3.31E-04,  avg # of iterations =  3.1

     negative rho (up, down):  0.000E+00 2.620E-04

     total cpu time spent up to now is      515.4 secs

     total energy              =   -5187.09858234 Ry
     estimated scf accuracy    <       1.10074774 Ry

     total magnetization       =    31.82 Bohr mag/cell
     absolute magnetization    =    35.43 Bohr mag/cell

     iteration # 12     ecut=    60.00 Ry     beta= 0.30
     Davidson diagonalization with overlap
     ethr =  3.31E-04,  avg # of iterations =  1.0

     negative rho (up, down):  0.000E+00 3.659E-05

     total cpu time spent up to now is      553.4 secs

     total energy              =   -5187.09804522 Ry
     estimated scf accuracy    <       0.38915401 Ry

     total magnetization       =    32.17 Bohr mag/cell
     absolute magnetization    =    35.66 Bohr mag/cell

     iteration # 13     ecut=    60.00 Ry     beta= 0.30
     Davidson diagonalization with overlap
     ethr =  1.53E-04,  avg # of iterations =  1.2

     total cpu time spent up to now is      592.0 secs

     total energy              =   -5187.10855402 Ry
     estimated scf accuracy    <       0.07054286 Ry

     total magnetization       =    31.89 Bohr mag/cell
     absolute magnetization    =    35.40 Bohr mag/cell

     iteration # 14     ecut=    60.00 Ry     beta= 0.30
     Davidson diagonalization with overlap
     ethr =  2.78E-05,  avg # of iterations =  3.3

     total cpu time spent up to now is      637.1 secs

     total energy              =   -5187.10907267 Ry
     estimated scf accuracy    <       0.07106020 Ry

     total magnetization       =    31.79 Bohr mag/cell
     absolute magnetization    =    35.42 Bohr mag/cell

     iteration # 15     ecut=    60.00 Ry     beta= 0.30
     Davidson diagonalization with overlap
     ethr =  2.78E-05,  avg # of iterations =  1.6

     total cpu time spent up to now is      678.3 secs

     total energy              =   -5187.11401099 Ry
     estimated scf accuracy    <       0.00956881 Ry

     total magnetization       =    31.46 Bohr mag/cell
     absolute magnetization    =    35.46 Bohr mag/cell

     iteration # 16     ecut=    60.00 Ry     beta= 0.30
     Davidson diagonalization with overlap
     ethr =  3.77E-06,  avg # of iterations =  6.7

     total cpu time spent up to now is      738.1 secs

     total energy              =   -5187.11484587 Ry
     estimated scf accuracy    <       0.00394515 Ry

     total magnetization       =    31.48 Bohr mag/cell
     absolute magnetization    =    35.77 Bohr mag/cell

     iteration # 17     ecut=    60.00 Ry     beta= 0.30
     Davidson diagonalization with overlap
     ethr =  1.55E-06,  avg # of iterations =  3.0

     total cpu time spent up to now is      783.2 secs

     total energy              =   -5187.11632407 Ry
     estimated scf accuracy    <       0.00712633 Ry

     total magnetization       =    31.50 Bohr mag/cell
     absolute magnetization    =    35.69 Bohr mag/cell

     iteration # 18     ecut=    60.00 Ry     beta= 0.30
     Davidson diagonalization with overlap
     ethr =  1.55E-06,  avg # of iterations =  3.7

     total cpu time spent up to now is      830.5 secs

     total energy              =   -5187.11761303 Ry
     estimated scf accuracy    <       0.00277739 Ry

     total magnetization       =    31.51 Bohr mag/cell
     absolute magnetization    =    35.97 Bohr mag/cell

     iteration # 19     ecut=    60.00 Ry     beta= 0.30
     Davidson diagonalization with overlap
     ethr =  1.09E-06,  avg # of iterations =  3.6

     total cpu time spent up to now is      877.6 secs

     total energy              =   -5187.11781141 Ry
     estimated scf accuracy    <       0.00269701 Ry

     total magnetization       =    31.52 Bohr mag/cell
     absolute magnetization    =    36.15 Bohr mag/cell

     iteration # 20     ecut=    60.00 Ry     beta= 0.30
     Davidson diagonalization with overlap
     ethr =  1.06E-06,  avg # of iterations =  2.1

     total cpu time spent up to now is      920.1 secs

     total energy              =   -5187.11826626 Ry
     estimated scf accuracy    <       0.00031678 Ry

     total magnetization       =    31.50 Bohr mag/cell
     absolute magnetization    =    36.26 Bohr mag/cell

     iteration # 21     ecut=    60.00 Ry     beta= 0.30
     Davidson diagonalization with overlap
     ethr =  1.25E-07,  avg # of iterations =  5.1

     total cpu time spent up to now is      976.1 secs

     total energy              =   -5187.11841190 Ry
     estimated scf accuracy    <       0.00016442 Ry

     total magnetization       =    31.55 Bohr mag/cell
     absolute magnetization    =    36.42 Bohr mag/cell

     iteration # 22     ecut=    60.00 Ry     beta= 0.30
     Davidson diagonalization with overlap
     ethr =  6.47E-08,  avg # of iterations =  4.0

     total cpu time spent up to now is     1028.6 secs

     total energy              =   -5187.11850661 Ry
     estimated scf accuracy    <       0.00003272 Ry

     total magnetization       =    31.55 Bohr mag/cell
     absolute magnetization    =    36.53 Bohr mag/cell

     iteration # 23     ecut=    60.00 Ry     beta= 0.30
     Davidson diagonalization with overlap
     ethr =  1.29E-08,  avg # of iterations =  4.7

     total cpu time spent up to now is     1085.2 secs

     total energy              =   -5187.11852567 Ry
     estimated scf accuracy    <       0.00002445 Ry

     total magnetization       =    31.55 Bohr mag/cell
     absolute magnetization    =    36.57 Bohr mag/cell

     iteration # 24     ecut=    60.00 Ry     beta= 0.30
     Davidson diagonalization with overlap
     ethr =  9.62E-09,  avg # of iterations =  1.9

     total cpu time spent up to now is     1126.4 secs

     total energy              =   -5187.11851964 Ry
     estimated scf accuracy    <       0.00001423 Ry

     total magnetization       =    31.56 Bohr mag/cell
     absolute magnetization    =    36.58 Bohr mag/cell

     iteration # 25     ecut=    60.00 Ry     beta= 0.30
     Davidson diagonalization with overlap
     ethr =  5.60E-09,  avg # of iterations =  5.4

     total cpu time spent up to now is     1185.4 secs

     total energy              =   -5187.11854025 Ry
     estimated scf accuracy    <       0.00000632 Ry

     total magnetization       =    31.55 Bohr mag/cell
     absolute magnetization    =    36.63 Bohr mag/cell

     iteration # 26     ecut=    60.00 Ry     beta= 0.30
     Davidson diagonalization with overlap
     ethr =  2.49E-09,  avg # of iterations =  2.8

     total cpu time spent up to now is     1231.2 secs

     total energy              =   -5187.11854128 Ry
     estimated scf accuracy    <       0.00000303 Ry

     total magnetization       =    31.55 Bohr mag/cell
     absolute magnetization    =    36.63 Bohr mag/cell

     iteration # 27     ecut=    60.00 Ry     beta= 0.30
     Davidson diagonalization with overlap
     ethr =  1.19E-09,  avg # of iterations =  4.7

     total cpu time spent up to now is     1288.6 secs

     total energy              =   -5187.11854237 Ry
     estimated scf accuracy    <       0.00000301 Ry

     total magnetization       =    31.55 Bohr mag/cell
     absolute magnetization    =    36.63 Bohr mag/cell

     iteration # 28     ecut=    60.00 Ry     beta= 0.30
     Davidson diagonalization with overlap
     ethr =  1.18E-09,  avg # of iterations =  1.8

     total cpu time spent up to now is     1329.2 secs

     total energy              =   -5187.11854213 Ry
     estimated scf accuracy    <       0.00000222 Ry

     total magnetization       =    31.55 Bohr mag/cell
     absolute magnetization    =    36.63 Bohr mag/cell

     iteration # 29     ecut=    60.00 Ry     beta= 0.30
     Davidson diagonalization with overlap
     ethr =  8.75E-10,  avg # of iterations =  2.9

     total cpu time spent up to now is     1373.4 secs

     total energy              =   -5187.11854247 Ry
     estimated scf accuracy    <       0.00000181 Ry

     total magnetization       =    31.55 Bohr mag/cell
     absolute magnetization    =    36.63 Bohr mag/cell

     iteration # 30     ecut=    60.00 Ry     beta= 0.30
     Davidson diagonalization with overlap
     ethr =  7.11E-10,  avg # of iterations =  2.7

     total cpu time spent up to now is     1417.0 secs

     total energy              =   -5187.11854267 Ry
     estimated scf accuracy    <       0.00000062 Ry

     total magnetization       =    31.55 Bohr mag/cell
     absolute magnetization    =    36.63 Bohr mag/cell

     iteration # 31     ecut=    60.00 Ry     beta= 0.30
     Davidson diagonalization with overlap
     ethr =  2.44E-10,  avg # of iterations =  3.1

     total cpu time spent up to now is     1462.8 secs

     total energy              =   -5187.11854270 Ry
     estimated scf accuracy    <       0.00000017 Ry

     total magnetization       =    31.55 Bohr mag/cell
     absolute magnetization    =    36.63 Bohr mag/cell

     iteration # 32     ecut=    60.00 Ry     beta= 0.30
     Davidson diagonalization with overlap
     ethr =  6.85E-11,  avg # of iterations =  3.8

     total cpu time spent up to now is     1512.5 secs

     total energy              =   -5187.11854269 Ry
     estimated scf accuracy    <       0.00000017 Ry

     total magnetization       =    31.55 Bohr mag/cell
     absolute magnetization    =    36.63 Bohr mag/cell

     iteration # 33     ecut=    60.00 Ry     beta= 0.30
     Davidson diagonalization with overlap
     ethr =  6.57E-11,  avg # of iterations =  4.2

     total cpu time spent up to now is     1567.5 secs

     total energy              =   -5187.11854281 Ry
     estimated scf accuracy    <       0.00000017 Ry

     total magnetization       =    31.55 Bohr mag/cell
     absolute magnetization    =    36.63 Bohr mag/cell

     iteration # 34     ecut=    60.00 Ry     beta= 0.30
     Davidson diagonalization with overlap
     ethr =  6.56E-11,  avg # of iterations =  2.3

     total cpu time spent up to now is     1613.1 secs

     total energy              =   -5187.11854284 Ry
     estimated scf accuracy    <       0.00000002 Ry

     total magnetization       =    31.55 Bohr mag/cell
     absolute magnetization    =    36.63 Bohr mag/cell

     iteration # 35     ecut=    60.00 Ry     beta= 0.30
     Davidson diagonalization with overlap
     ethr =  7.73E-12,  avg # of iterations =  5.0
 
     Magnetic moment per site  (integrated on atomic sphere of radius R)
     atom   1 (R=0.179)  charge= 12.0948  magn= -1.4924
     atom   2 (R=0.179)  charge= 14.4038  magn=  2.2175
     atom   3 (R=0.179)  charge= 14.4026  magn=  2.1930
     atom   4 (R=0.179)  charge= 14.4038  magn=  2.2175
     atom   5 (R=0.179)  charge= 14.4026  magn=  2.1930
     atom   6 (R=0.179)  charge= 14.4038  magn=  2.2175
     atom   7 (R=0.179)  charge= 14.3922  magn=  2.3469
     atom   8 (R=0.179)  charge= 14.4038  magn=  2.2175
     atom   9 (R=0.179)  charge= 14.4026  magn=  2.1930
     atom  10 (R=0.179)  charge= 14.4038  magn=  2.2175
     atom  11 (R=0.179)  charge= 14.3922  magn=  2.3469
     atom  12 (R=0.179)  charge= 14.4038  magn=  2.2175
     atom  13 (R=0.179)  charge= 14.3922  magn=  2.3469
     atom  14 (R=0.179)  charge= 14.4038  magn=  2.2175
     atom  15 (R=0.179)  charge= 14.3955  magn=  2.5281
     atom  16 (R=0.179)  charge= 14.4038  magn=  2.2175

     total cpu time spent up to now is     1670.1 secs

     End of self-consistent calculation

 ------ SPIN UP ------------


          k = 0.0000 0.0000 0.0000 (  9771 PWs)   bands (ev):

   -69.7398 -69.6976 -69.6699 -69.6699 -69.6684 -69.6684 -69.6684 -69.6632
   -69.6632 -69.6632 -69.6578 -69.6431 -69.6148 -69.6148 -69.5887 -52.7267
   -35.9340 -35.9340 -35.9340 -35.9172 -35.9172 -35.9172 -35.8194 -35.8194
   -35.8194 -35.7881 -35.7515 -35.7515 -35.7515 -35.7230 -35.7230 -35.7152
   -35.7152 -35.7152 -35.7142 -35.7086 -35.7086 -35.7086 -35.6798 -35.6798
   -35.6798 -35.6769 -35.6769 -35.6769 -35.6539 -35.6539 -35.6539 -35.6483
   -35.6483 -35.6443 -35.6443 -35.6443 -35.5828 -35.5828 -35.5828 -35.5112
   -35.5112 -35.5112 -35.5008 -35.5008 -35.5008 -24.0725 -24.0725 -24.0725
     9.8820  13.4332  13.4332  13.4332  13.4461  13.4461  13.4493  13.5298
    13.5298  13.6749  13.6749  13.6749  13.7118  13.7118  13.8243  14.9817
    14.9817  14.9817  15.0138  15.0138  15.0138  15.1353  15.1353  15.1353
    15.2587  15.2587  15.2587  15.3403  15.3403  15.3403  15.3886  15.5418
    15.5418  16.1056  16.1056  16.1056  16.4884  16.4884  16.4884  16.5179
    16.5179  16.5179  16.5191  16.5191  16.5191  16.8049  16.8049  16.8049
    17.1957  17.2669  17.2669  17.3086  17.3086  17.3331  17.3331  17.3331
    17.3448  17.3984  17.3984  17.4733  17.4733  17.4733  17.5053  17.5069
    17.5069  17.5121  17.5121  17.6746  17.6746  17.6746  18.1955  18.1955
    18.5760  18.5760  18.5760  18.6131  18.6131  18.6131  18.6955  18.7962
    18.7962  18.7962  18.8164  18.8164  18.8164  18.9221  18.9221  18.9221

          k = 0.0000 0.0000 0.1667 (  9635 PWs)   bands (ev):

   -69.7380 -69.6979 -69.6803 -69.6697 -69.6679 -69.6679 -69.6633 -69.6633
   -69.6627 -69.6600 -69.6580 -69.6424 -69.6146 -69.6129 -69.5900 -52.7267
   -35.9284 -35.9284 -35.9277 -35.9090 -35.9090 -35.9085 -35.8235 -35.8164
   -35.8164 -35.7910 -35.7756 -35.7756 -35.7556 -35.7496 -35.7480 -35.7424
   -35.7424 -35.7158 -35.7120 -35.7120 -35.7115 -35.6868 -35.6868 -35.6782
   -35.6754 -35.6673 -35.6593 -35.6593 -35.6534 -35.6511 -35.6485 -35.6354
   -35.6354 -35.6213 -35.6213 -35.6212 -35.5865 -35.5848 -35.5848 -35.5194
   -35.5160 -35.5160 -35.5061 -35.5061 -35.5051 -24.0723 -24.0723 -24.0723
    10.0269  12.9174  13.4754  13.4754  13.4894  13.4975  13.5347  13.5457
    13.5906  13.5972  13.7209  13.7209  13.7608  13.8293  14.1278  14.9144
    14.9613  14.9613  14.9955  15.0052  15.0069  15.0069  15.0438  15.1183
    15.1183  15.1977  15.3105  15.3105  15.3791  15.4637  15.4637  15.5023
    15.9203  16.0988  16.0988  16.1243  16.2795  16.2853  16.2853  16.3637
    16.3637  16.5235  16.6071  16.6505  16.7126  16.7126  16.9683  16.9683
    17.0205  17.1156  17.1156  17.1278  17.2146  17.2503  17.3272  17.3602
    17.3836  17.3836  17.3857  17.4046  17.4315  17.4756  17.4873  17.5031
    17.5067  17.5284  17.5482  17.6889  17.6889  17.8140  17.8744  18.0046
    18.0046  18.1987  18.4434  18.5461  18.5461  18.5678  18.6258  18.6258
    18.7350  18.8785  18.8824  18.9328  18.9328  19.3058  19.3058  19.4072

          k = 0.0000 0.0000 0.3333 (  9606 PWs)   bands (ev):

   -69.7337 -69.7005 -69.6889 -69.6696 -69.6669 -69.6669 -69.6643 -69.6643
   -69.6616 -69.6589 -69.6552 -69.6411 -69.6147 -69.6079 -69.5940 -52.7267
   -35.9153 -35.9153 -35.9117 -35.8858 -35.8858 -35.8844 -35.8365 -35.8153
   -35.8153 -35.8111 -35.8111 -35.8025 -35.7959 -35.7777 -35.7777 -35.7757
   -35.7397 -35.7368 -35.7368 -35.7210 -35.7095 -35.6781 -35.6781 -35.6740
   -35.6583 -35.6534 -35.6523 -35.6495 -35.6417 -35.6417 -35.6333 -35.6058
   -35.6058 -35.5943 -35.5943 -35.5932 -35.5860 -35.5788 -35.5788 -35.5419
   -35.5300 -35.5300 -35.5223 -35.5223 -35.5180 -24.0726 -24.0722 -24.0722
    10.4525  11.9920  13.5875  13.5875  13.6042  13.6046  13.7567  13.7657
    13.7791  13.7791  13.8064  13.8210  13.8368  13.8912  14.1702  14.4662
    14.6675  14.6901  14.9099  14.9099  14.9954  14.9954  15.2259  15.2650
    15.2650  15.3151  15.3846  15.3846  15.4121  15.5580  15.8304  15.8304
    15.8820  15.9186  15.9186  16.0041  16.1007  16.1007  16.2826  16.2826
    16.3281  16.3626  16.4132  16.4132  16.4401  16.6376  16.7628  16.8672
    16.8947  16.9112  16.9112  17.0812  17.0964  17.0964  17.2179  17.2179
    17.2367  17.3317  17.4090  17.4274  17.4338  17.4641  17.4641  17.4823
    17.5000  17.5072  17.5127  17.6456  17.9025  17.9045  17.9584  17.9584
    18.0318  18.2397  18.3167  18.3167  18.3425  18.4346  18.5554  18.7204
    18.7204  18.8876  18.8891  18.9288  18.9288  19.3407  19.3407  19.5691

          k = 0.0000 0.0000-0.5000 (  9658 PWs)   bands (ev):

   -69.7308 -69.7034 -69.6913 -69.6695 -69.6656 -69.6656 -69.6656 -69.6656
   -69.6604 -69.6604 -69.6540 -69.6406 -69.6147 -69.6036 -69.5980 -52.7267
   -35.9066 -35.9066 -35.8994 -35.8572 -35.8520 -35.8520 -35.8503 -35.8503
   -35.8486 -35.8314 -35.8222 -35.8222 -35.8096 -35.7819 -35.7819 -35.7793
   -35.7516 -35.7516 -35.7298 -35.7294 -35.7093 -35.6766 -35.6766 -35.6671
   -35.6670 -35.6509 -35.6509 -35.6365 -35.6280 -35.6256 -35.6256 -35.6129
   -35.6129 -35.5765 -35.5716 -35.5716 -35.5715 -35.5660 -35.5577 -35.5577
   -35.5436 -35.5436 -35.5412 -35.5412 -35.5298 -24.0728 -24.0723 -24.0723
    11.0984  11.1591  13.6916  13.7037  13.7037  13.7155  13.7390  13.7390
    13.7751  13.8329  13.9652  14.0286  14.0302  14.1306  14.2015  14.2057
    14.2697  14.2781  14.8963  14.8963  14.9832  14.9832  15.4936  15.4945
    15.4945  15.5069  15.5207  15.6028  15.6028  15.7466  15.7466  15.7605
    15.7631  15.7670  15.7764  15.7764  15.7973  16.0840  16.0840  16.1930
    16.1930  16.2052  16.3579  16.3579  16.4002  16.4974  16.4974  16.6065
    16.7160  16.8011  17.0680  17.0732  17.0732  17.0858  17.0882  17.2500
    17.2517  17.2517  17.4385  17.4388  17.4912  17.4914  17.5022  17.5075
    17.5142  17.5170  17.6254  17.6254  17.8866  17.8866  18.1048  18.1973
    18.2450  18.2498  18.2498  18.2527  18.2710  18.2874  18.3066  18.7612
    18.7612  18.8643  18.9028  18.9028  18.9043  19.3236  19.3236  19.5273

          k = 0.0000 0.1667 0.1667 (  9621 PWs)   bands (ev):

   -69.7364 -69.6982 -69.6826 -69.6764 -69.6676 -69.6654 -69.6630 -69.6630
   -69.6610 -69.6584 -69.6578 -69.6420 -69.6136 -69.6121 -69.5914 -52.7267
   -35.9239 -35.9235 -35.9231 -35.9049 -35.9017 -35.8952 -35.8264 -35.8204
   -35.8138 -35.7990 -35.7867 -35.7845 -35.7775 -35.7719 -35.7567 -35.7510
   -35.7251 -35.7185 -35.7106 -35.7105 -35.6981 -35.6927 -35.6908 -35.6807
   -35.6804 -35.6760 -35.6681 -35.6562 -35.6530 -35.6501 -35.6313 -35.6277
   -35.6172 -35.6162 -35.6051 -35.6024 -35.5873 -35.5853 -35.5820 -35.5355
   -35.5205 -35.5142 -35.5126 -35.5109 -35.5045 -24.0724 -24.0723 -24.0723
    10.1699  12.9694  13.0158  13.4259  13.5767  13.5779  13.5877  13.5964
    13.6117  13.6538  13.6630  13.7777  13.8518  14.1586  14.1712  14.8513
    14.8642  14.9071  14.9308  15.0253  15.0296  15.0513  15.0607  15.1004
    15.1059  15.2080  15.2138  15.2981  15.3697  15.4448  15.4806  15.7605
    15.8288  16.0292  16.0936  16.1013  16.1108  16.1926  16.2420  16.4284
    16.5152  16.5913  16.6003  16.6077  16.6385  16.7015  16.8281  16.8521
    17.0029  17.0357  17.0394  17.1038  17.1131  17.1850  17.2392  17.2801
    17.3004  17.3248  17.3274  17.3895  17.3931  17.4187  17.4765  17.4779
    17.5122  17.6053  17.6622  17.7166  17.8360  17.8519  17.9047  17.9306
    17.9512  18.0477  18.1056  18.1134  18.1280  18.4175  18.4494  18.6513
    18.6996  18.8073  18.9869  19.2149  19.3309  19.6688  19.8305  19.8718

          k = 0.0000 0.1667 0.3333 (  9647 PWs)   bands (ev):

   -69.7323 -69.6999 -69.6898 -69.6768 -69.6676 -69.6665 -69.6640 -69.6620
   -69.6594 -69.6593 -69.6539 -69.6412 -69.6133 -69.6080 -69.5952 -52.7267
   -35.9120 -35.9118 -35.9095 -35.8861 -35.8805 -35.8695 -35.8403 -35.8298
   -35.8179 -35.8158 -35.8123 -35.8109 -35.8069 -35.7783 -35.7711 -35.7544
   -35.7481 -35.7314 -35.7220 -35.7174 -35.7065 -35.6912 -35.6776 -35.6745
   -35.6669 -35.6650 -35.6599 -35.6581 -35.6497 -35.6413 -35.6192 -35.6123
   -35.6058 -35.6025 -35.5962 -35.5920 -35.5748 -35.5693 -35.5616 -35.5566
   -35.5331 -35.5292 -35.5245 -35.5200 -35.5113 -24.0726 -24.0724 -24.0723
    10.5898  12.0974  13.1681  13.3959  13.6900  13.7054  13.7864  13.8219
    13.8365  13.8589  13.8659  13.8678  13.9423  14.1599  14.2199  14.4996
    14.6521  14.6721  14.9709  14.9763  15.0290  15.0460  15.0631  15.1908
    15.2230  15.2302  15.3174  15.3478  15.4302  15.7153  15.7174  15.7577
    15.7794  15.9314  15.9438  15.9801  16.0149  16.0569  16.0747  16.1769
    16.2212  16.3472  16.4437  16.5040  16.5997  16.6913  16.7100  16.7467
    16.8835  16.8988  16.9058  16.9112  16.9564  17.0994  17.1275  17.1512
    17.2431  17.3348  17.3418  17.3799  17.4086  17.4115  17.4401  17.5019
    17.5237  17.6115  17.6226  17.6385  17.7658  17.7995  17.8591  17.8694
    17.9032  17.9258  18.0084  18.1066  18.1937  18.2486  18.5896  18.6094
    18.6868  18.8565  19.0689  19.1688  19.4140  19.6678  19.9106  20.0529

          k = 0.0000 0.1667-0.5000 (  9654 PWs)   bands (ev):

   -69.7296 -69.7023 -69.6922 -69.6762 -69.6689 -69.6653 -69.6652 -69.6607
   -69.6607 -69.6589 -69.6526 -69.6407 -69.6133 -69.6039 -69.5988 -52.7267
   -35.9046 -35.9030 -35.8972 -35.8636 -35.8629 -35.8496 -35.8485 -35.8484
   -35.8429 -35.8296 -35.8246 -35.8201 -35.8013 -35.8010 -35.7789 -35.7524
   -35.7467 -35.7379 -35.7351 -35.7277 -35.7055 -35.6869 -35.6773 -35.6747
   -35.6673 -35.6622 -35.6478 -35.6436 -35.6399 -35.6329 -35.6202 -35.6129
   -35.6076 -35.6066 -35.5966 -35.5719 -35.5683 -35.5578 -35.5577 -35.5430
   -35.5409 -35.5375 -35.5348 -35.5346 -35.5213 -24.0728 -24.0724 -24.0723
    11.2238  11.2850  13.3051  13.3462  13.8016  13.8033  13.8407  13.9000
    13.9852  14.0046  14.0156  14.0852  14.0952  14.1854  14.2388  14.2421
    14.3033  14.3110  14.9341  14.9417  15.0095  15.0233  15.3548  15.3731
    15.3893  15.4093  15.4407  15.4439  15.5101  15.5110  15.7584  15.7628
    15.8266  15.8426  15.8553  15.9095  15.9765  15.9964  16.0014  16.0317
    16.0992  16.1719  16.1738  16.1960  16.2564  16.3549  16.6649  16.7459
    16.8183  16.8775  17.0073  17.0289  17.0898  17.0963  17.1295  17.1945
    17.2449  17.2569  17.3776  17.4132  17.4173  17.4741  17.4882  17.5129
    17.5229  17.5269  17.5554  17.5564  17.6556  17.7840  17.8007  17.9074
    17.9090  18.0035  18.0070  18.0934  18.1459  18.3958  18.4446  18.6179
    18.7397  18.9930  19.0528  19.0979  19.5609  19.5621  19.7397  20.1320

          k = 0.0000 0.3333 0.3333 (  9619 PWs)   bands (ev):

   -69.7288 -69.6989 -69.6934 -69.6811 -69.6722 -69.6655 -69.6630 -69.6630
   -69.6603 -69.6540 -69.6520 -69.6410 -69.6103 -69.6072 -69.5981 -52.7267
   -35.9045 -35.9021 -35.9001 -35.8733 -35.8653 -35.8572 -35.8502 -35.8453
   -35.8421 -35.8256 -35.8250 -35.8133 -35.8054 -35.7761 -35.7531 -35.7453
   -35.7389 -35.7334 -35.7175 -35.7062 -35.7044 -35.6985 -35.6839 -35.6815
   -35.6774 -35.6773 -35.6689 -35.6617 -35.6573 -35.6427 -35.6279 -35.6263
   -35.6039 -35.5978 -35.5933 -35.5910 -35.5731 -35.5631 -35.5514 -35.5412
   -35.5333 -35.5327 -35.5309 -35.5179 -35.5070 -24.0726 -24.0726 -24.0722
    10.9898  12.3568  12.4160  13.1308  13.9330  13.9665  13.9717  13.9723
    13.9802  13.9864  14.0420  14.0483  14.1036  14.2083  14.2690  14.5903
    14.6109  14.6754  14.7184  15.0385  15.0476  15.0953  15.0954  15.1397
    15.1409  15.1546  15.2090  15.3405  15.5921  15.5950  15.6439  15.6465
    15.6711  15.7861  15.8418  15.8642  15.8741  15.9300  15.9700  16.0946
    16.1215  16.1524  16.1916  16.2525  16.4501  16.4853  16.6091  16.7435
    16.8947  16.9070  16.9868  17.0193  17.0284  17.0530  17.1643  17.1992
    17.2608  17.2882  17.3125  17.3148  17.3237  17.3483  17.4008  17.4018
    17.4188  17.4947  17.5512  17.5946  17.5953  17.5955  17.6597  17.7369
    17.7774  17.7849  17.8792  17.9094  18.1035  18.4215  18.4418  18.6604
    18.9865  19.0525  19.0967  19.2597  19.7414  20.0294  20.5090  20.5459

          k = 0.0000 0.3333-0.5000 (  9614 PWs)   bands (ev):

   -69.7267 -69.6993 -69.6952 -69.6814 -69.6746 -69.6643 -69.6643 -69.6616
   -69.6616 -69.6526 -69.6509 -69.6408 -69.6095 -69.6044 -69.6012 -52.7267
   -35.9004 -35.8925 -35.8898 -35.8672 -35.8669 -35.8553 -35.8487 -35.8448
   -35.8445 -35.8445 -35.8437 -35.8154 -35.7727 -35.7706 -35.7685 -35.7543
   -35.7466 -35.7207 -35.7146 -35.7109 -35.7008 -35.6974 -35.6914 -35.6787
   -35.6770 -35.6764 -35.6701 -35.6608 -35.6503 -35.6468 -35.6382 -35.6324
   -35.6285 -35.5949 -35.5947 -35.5750 -35.5658 -35.5613 -35.5515 -35.5409
   -35.5401 -35.5252 -35.5246 -35.5197 -35.5088 -24.0728 -24.0726 -24.0722
    11.5842  11.6451  12.7438  12.8023  14.0575  14.0660  14.0797  14.0992
    14.1043  14.1167  14.1394  14.2161  14.3084  14.3260  14.3277  14.3800
    14.3814  14.3882  15.0046  15.0246  15.0330  15.0645  15.0931  15.1106
    15.1440  15.1571  15.1895  15.2893  15.4568  15.4718  15.7247  15.7260
    15.7850  15.7879  15.7918  15.8238  15.8253  15.8380  15.8533  15.8989
    15.9459  15.9633  16.0682  16.1340  16.1411  16.2426  16.9153  16.9170
    16.9519  16.9646  17.0300  17.0437  17.0563  17.0668  17.1412  17.1677
    17.1747  17.2044  17.2386  17.2785  17.3035  17.3485  17.3997  17.4181
    17.4183  17.4516  17.4748  17.4845  17.5557  17.6131  17.6283  17.7064
    17.7424  17.7427  17.7726  17.9396  17.9884  18.3659  18.5928  18.6063
    19.0736  19.1462  19.1970  19.2110  20.1526  20.2153  20.2745  20.3997

          k = 0.0000-0.5000-0.5000 (  9580 PWs)   bands (ev):

   -69.7249 -69.6974 -69.6974 -69.6828 -69.6775 -69.6630 -69.6630 -69.6630
   -69.6630 -69.6503 -69.6503 -69.6409 -69.6054 -69.6047 -69.6047 -52.7267
   -35.8982 -35.8810 -35.8810 -35.8687 -35.8664 -35.8663 -35.8657 -35.8472
   -35.8472 -35.8424 -35.8424 -35.8127 -35.7625 -35.7555 -35.7555 -35.7487
   -35.7376 -35.7088 -35.7073 -35.7073 -35.7040 -35.7040 -35.6914 -35.6825
   -35.6822 -35.6804 -35.6792 -35.6787 -35.6631 -35.6631 -35.6442 -35.6442
   -35.6337 -35.5853 -35.5853 -35.5810 -35.5657 -35.5642 -35.5489 -35.5395
   -35.5395 -35.5209 -35.5209 -35.5140 -35.5037 -24.0727 -24.0727 -24.0721
    12.1242  12.1260  12.1260  12.2503  14.1269  14.1317  14.1317  14.2512
    14.3063  14.3063  14.3150  14.3170  14.3251  14.3586  14.3586  14.4451
    14.6560  14.6569  14.6569  14.7769  14.9983  15.0203  15.0285  15.0285
    15.0363  15.0925  15.0925  15.2687  15.5139  15.5220  15.6099  15.6099
    15.6542  15.6734  15.6734  15.6904  15.6956  15.6956  15.7255  15.8334
    15.9107  15.9107  16.0000  16.2167  16.4478  16.4499  16.5916  16.5916
    17.0509  17.0509  17.0736  17.0916  17.1371  17.1371  17.2431  17.2446
    17.2446  17.2543  17.2565  17.2887  17.2887  17.2914  17.2985  17.3051
    17.3456  17.3514  17.3541  17.3541  17.5063  17.5472  17.5472  17.6979
    17.7050  17.7101  17.7101  17.8979  17.8979  18.2720  18.6624  18.6668
    19.0738  19.2549  19.2645  19.2645  20.6891  20.7218  20.7218  20.7823

          k = 0.1667 0.1667 0.1667 (  9627 PWs)   bands (ev):

   -69.7347 -69.6983 -69.6820 -69.6820 -69.6687 -69.6645 -69.6645 -69.6630
   -69.6588 -69.6570 -69.6570 -69.6417 -69.6121 -69.6121 -69.5927 -52.7267
   -35.9201 -35.9201 -35.9169 -35.9024 -35.8881 -35.8881 -35.8248 -35.8233
   -35.8233 -35.8081 -35.7963 -35.7963 -35.7723 -35.7708 -35.7708 -35.7491
   -35.7204 -35.7204 -35.7204 -35.7173 -35.7173 -35.6920 -35.6877 -35.6877
   -35.6823 -35.6663 -35.6541 -35.6541 -35.6454 -35.6454 -35.6319 -35.6319
   -35.6142 -35.6046 -35.6006 -35.6006 -35.5873 -35.5739 -35.5739 -35.5485
   -35.5198 -35.5198 -35.5144 -35.5144 -35.5066 -24.0724 -24.0724 -24.0723
    10.3117  13.0506  13.0506  13.1182  13.5265  13.5265  13.5502  13.6978
    13.6978  13.7185  13.7251  13.7251  14.2191  14.2191  14.2195  14.7418
    14.8679  14.9176  14.9176  14.9839  14.9839  15.0319  15.0852  15.0852
    15.1742  15.1742  15.1862  15.3736  15.3736  15.3806  15.5990  15.7044
    15.7044  16.0285  16.0285  16.0316  16.0316  16.1321  16.3612  16.4454
    16.4454  16.5242  16.5604  16.5646  16.5646  16.5934  16.7097  16.7097
    16.9080  17.0199  17.0199  17.2038  17.2046  17.2046  17.2681  17.2752
    17.2752  17.3140  17.3140  17.3543  17.4549  17.4549  17.4735  17.4781
    17.4781  17.5011  17.5011  17.5676  17.6285  17.6285  17.8613  17.8613
    17.8665  17.9704  17.9704  18.0184  18.3757  18.3794  18.3794  18.6611
    18.8194  18.8194  19.1595  19.1595  19.6092  19.6556  19.6556  20.1211

          k = 0.1667 0.1667 0.3333 (  9629 PWs)   bands (ev):

   -69.7309 -69.6993 -69.6900 -69.6806 -69.6686 -69.6670 -69.6650 -69.6624
   -69.6598 -69.6558 -69.6524 -69.6411 -69.6120 -69.6079 -69.5962 -52.7267
   -35.9099 -35.9074 -35.9050 -35.8858 -35.8695 -35.8633 -35.8438 -35.8319
   -35.8259 -35.8227 -35.8139 -35.8094 -35.8046 -35.7839 -35.7564 -35.7546
   -35.7482 -35.7410 -35.7270 -35.7166 -35.7014 -35.6981 -35.6930 -35.6811
   -35.6762 -35.6634 -35.6564 -35.6513 -35.6438 -35.6253 -35.6203 -35.6131
   -35.6098 -35.6094 -35.6020 -35.5905 -35.5779 -35.5642 -35.5542 -35.5514
   -35.5344 -35.5286 -35.5275 -35.5173 -35.5132 -24.0726 -24.0724 -24.0723
    10.7262  12.2048  13.2449  13.2816  13.4981  13.5245  13.8362  13.8705
    13.8845  13.8994  13.9032  13.9739  14.2408  14.2597  14.2862  14.5156
    14.6197  14.7529  14.9428  14.9666  15.0206  15.0382  15.0889  15.1133
    15.1730  15.2355  15.3509  15.3796  15.4982  15.5554  15.5807  15.6690
    15.8143  15.8587  15.8677  15.9278  15.9846  16.0051  16.0087  16.0792
    16.1380  16.1646  16.3864  16.4723  16.5410  16.5800  16.6839  16.7111
    16.7190  16.8822  16.8959  17.0144  17.0383  17.1393  17.1568  17.2105
    17.2354  17.3198  17.3500  17.3723  17.3747  17.4027  17.4058  17.4824
    17.5231  17.5446  17.5635  17.6034  17.6107  17.6815  17.6957  17.7324
    17.9348  18.0338  18.0929  18.0944  18.1536  18.3480  18.4255  18.5743
    18.5756  18.9487  19.0951  19.2678  19.4487  19.5561  20.3691  20.4793

          k = 0.1667 0.1667-0.5000 (  9658 PWs)   bands (ev):

   -69.7284 -69.7011 -69.6927 -69.6799 -69.6685 -69.6684 -69.6654 -69.6614
   -69.6608 -69.6554 -69.6509 -69.6408 -69.6120 -69.6041 -69.5996 -52.7267
   -35.9025 -35.8990 -35.8945 -35.8648 -35.8630 -35.8544 -35.8490 -35.8429
   -35.8368 -35.8346 -35.8147 -35.8104 -35.8088 -35.8037 -35.7838 -35.7542
   -35.7436 -35.7418 -35.7262 -35.7165 -35.7084 -35.6975 -35.6974 -35.6802
   -35.6698 -35.6543 -35.6501 -35.6481 -35.6388 -35.6292 -35.6219 -35.6157
   -35.6103 -35.6090 -35.5927 -35.5834 -35.5723 -35.5500 -35.5486 -35.5484
   -35.5435 -35.5338 -35.5318 -35.5250 -35.5213 -24.0728 -24.0724 -24.0724
    11.3498  11.4113  13.4115  13.4218  13.4220  13.4944  14.0734  14.0898
    14.0943  14.0954  14.0985  14.1146  14.1672  14.2368  14.2476  14.3045
    14.3177  14.3643  14.9406  15.0047  15.0208  15.0700  15.3095  15.3164
    15.3173  15.3452  15.3697  15.3854  15.4153  15.4859  15.7365  15.7439
    15.7802  15.8083  15.8712  15.8900  15.8927  15.9179  15.9385  15.9600
    15.9642  16.0121  16.0460  16.0648  16.1603  16.1795  16.8328  16.8727
    16.8878  16.9403  17.0302  17.0350  17.0751  17.0762  17.0914  17.1214
    17.1618  17.1923  17.2311  17.3912  17.4072  17.4496  17.4679  17.4833
    17.5135  17.5500  17.5680  17.6564  17.6761  17.6943  17.6949  17.6978
    17.7315  17.9623  18.2736  18.2948  18.3470  18.3476  18.3738  18.3763
    18.3983  18.9322  19.0570  19.3270  19.3543  19.5400  20.6135  20.7489

          k = 0.1667 0.3333 0.3333 (  9651 PWs)   bands (ev):

   -69.7278 -69.6983 -69.6925 -69.6843 -69.6719 -69.6675 -69.6658 -69.6626
   -69.6604 -69.6514 -69.6501 -69.6411 -69.6095 -69.6072 -69.5989 -52.7267
   -35.9015 -35.8984 -35.8946 -35.8734 -35.8562 -35.8540 -35.8516 -35.8403
   -35.8382 -35.8304 -35.8193 -35.8091 -35.8049 -35.7863 -35.7627 -35.7443
   -35.7428 -35.7365 -35.7365 -35.7153 -35.7148 -35.7121 -35.7034 -35.6985
   -35.6702 -35.6590 -35.6516 -35.6423 -35.6418 -35.6368 -35.6330 -35.6188
   -35.6046 -35.5998 -35.5944 -35.5910 -35.5837 -35.5546 -35.5489 -35.5402
   -35.5371 -35.5304 -35.5303 -35.5204 -35.5120 -24.0727 -24.0726 -24.0724
    11.1228  12.4710  12.5293  13.2517  13.5077  13.8183  13.8412  14.0101
    14.0747  14.0872  14.1461  14.1496  14.3062  14.3541  14.4350  14.6141
    14.6563  14.6991  14.7023  14.9055  15.0220  15.0904  15.1331  15.1540
    15.1966  15.2041  15.2827  15.3656  15.3874  15.5561  15.5611  15.5679
    15.6262  15.7045  15.7466  15.7663  15.8290  15.8626  15.8769  15.9094
    15.9410  16.0391  16.0745  16.1124  16.2443  16.3078  16.3665  16.8724
    16.9218  16.9459  16.9903  17.0600  17.1443  17.1591  17.2001  17.2334
    17.2443  17.2966  17.3015  17.3072  17.3490  17.3713  17.4175  17.4253
    17.4726  17.4984  17.5118  17.5460  17.5750  17.5980  17.6392  17.6594
    17.7741  17.9440  18.0319  18.0784  18.2704  18.3155  18.4008  18.4874
    18.7057  19.0058  19.2043  19.2074  19.5023  19.8893  20.0049  20.9377

          k = 0.1667 0.3333-0.5000 (  9654 PWs)   bands (ev):

   -69.7258 -69.6983 -69.6946 -69.6842 -69.6742 -69.6673 -69.6661 -69.6627
   -69.6608 -69.6502 -69.6487 -69.6411 -69.6089 -69.6046 -69.6018 -52.7267
   -35.8968 -35.8892 -35.8866 -35.8633 -35.8623 -35.8524 -35.8495 -35.8444
   -35.8438 -35.8356 -35.8282 -35.8123 -35.7897 -35.7786 -35.7714 -35.7555
   -35.7494 -35.7443 -35.7252 -35.7218 -35.7163 -35.7075 -35.7016 -35.6968
   -35.6692 -35.6662 -35.6575 -35.6491 -35.6394 -35.6336 -35.6301 -35.6221
   -35.6179 -35.5957 -35.5940 -35.5766 -35.5734 -35.5543 -35.5528 -35.5418
   -35.5415 -35.5271 -35.5244 -35.5238 -35.5129 -24.0728 -24.0727 -24.0724
    11.7105  11.7714  12.8661  12.9228  13.7198  13.7603  14.1636  14.1901
    14.2107  14.2563  14.2925  14.3102  14.3344  14.3458  14.3625  14.4289
    14.4429  14.4932  15.0134  15.0336  15.0510  15.0671  15.0819  15.0822
    15.1188  15.2121  15.2254  15.2845  15.4158  15.4424  15.6135  15.6226
    15.6631  15.6816  15.6933  15.7083  15.7238  15.7315  15.7516  15.7747
    15.8228  15.8304  15.9067  15.9803  15.9892  16.1042  16.6329  16.6638
    17.0342  17.0705  17.1056  17.1168  17.1382  17.1573  17.1624  17.1908
    17.2334  17.2360  17.2636  17.3369  17.3636  17.3933  17.4030  17.4545
    17.4582  17.4810  17.4842  17.5490  17.5674  17.6118  17.6131  17.7127
    17.7129  17.8351  17.9452  18.0765  18.0907  18.4347  18.4393  18.4822
    18.8395  18.9943  19.1311  19.2683  19.6101  19.6480  20.6219  20.7336

          k = 0.1667-0.5000-0.5000 (  9628 PWs)   bands (ev):

   -69.7242 -69.6964 -69.6964 -69.6854 -69.6772 -69.6664 -69.6664 -69.6636
   -69.6607 -69.6479 -69.6479 -69.6414 -69.6053 -69.6048 -69.6048 -52.7267
   -35.8939 -35.8788 -35.8788 -35.8625 -35.8599 -35.8596 -35.8592 -35.8456
   -35.8456 -35.8329 -35.8329 -35.8129 -35.7813 -35.7609 -35.7609 -35.7526
   -35.7391 -35.7332 -35.7317 -35.7317 -35.7292 -35.7256 -35.7103 -35.7103
   -35.6732 -35.6578 -35.6457 -35.6457 -35.6413 -35.6368 -35.6368 -35.6365
   -35.6309 -35.5823 -35.5823 -35.5808 -35.5726 -35.5608 -35.5507 -35.5417
   -35.5417 -35.5244 -35.5244 -35.5198 -35.5091 -24.0727 -24.0727 -24.0724
    12.2504  12.2517  12.2517  12.3756  14.0758  14.0913  14.0913  14.1596
    14.2178  14.2216  14.2216  14.3405  14.5551  14.5643  14.5643  14.6131
    14.6751  14.6767  14.6767  14.7835  14.9578  14.9769  14.9769  15.0124
    15.1057  15.1443  15.1443  15.2724  15.4758  15.4758  15.4921  15.4930
    15.4937  15.5207  15.5766  15.5766  15.6233  15.6233  15.6643  15.6987
    15.7912  15.7912  15.8503  16.0153  16.1858  16.2709  16.3049  16.3049
    17.1489  17.1535  17.1535  17.2332  17.2371  17.2408  17.2408  17.2883
    17.3073  17.3073  17.3287  17.3432  17.3483  17.3483  17.3547  17.3730
    17.4086  17.4086  17.4622  17.5106  17.5330  17.5431  17.5431  17.6763
    17.7309  17.7309  17.7531  17.9751  17.9751  18.4058  18.4844  18.5242
    19.0748  19.0748  19.1451  19.2264  19.9187  20.1253  20.1262  20.1262

          k = 0.3333 0.3333 0.3333 (  9690 PWs)   bands (ev):

   -69.7253 -69.6969 -69.6902 -69.6902 -69.6714 -69.6707 -69.6707 -69.6634
   -69.6589 -69.6476 -69.6476 -69.6414 -69.6073 -69.6073 -69.6009 -52.7267
   -35.8909 -35.8909 -35.8845 -35.8628 -35.8505 -35.8484 -35.8484 -35.8288
   -35.8288 -35.8287 -35.8211 -35.8211 -35.7897 -35.7897 -35.7848 -35.7582
   -35.7582 -35.7479 -35.7442 -35.7377 -35.7377 -35.7238 -35.7238 -35.6962
   -35.6637 -35.6510 -35.6446 -35.6446 -35.6340 -35.6099 -35.6099 -35.6041
   -35.6041 -35.5997 -35.5997 -35.5920 -35.5858 -35.5485 -35.5468 -35.5468
   -35.5359 -35.5359 -35.5254 -35.5254 -35.5230 -24.0727 -24.0727 -24.0727
    11.5082  12.7874  12.7874  12.8713  13.5879  13.5879  13.6502  14.2096
    14.2096  14.3213  14.3348  14.3348  14.5557  14.5723  14.5723  14.6213
    14.6883  14.6931  14.6931  14.7147  15.0374  15.0374  15.1487  15.1924
    15.1924  15.2875  15.2875  15.3417  15.3558  15.3558  15.4417  15.4825
    15.5263  15.5263  15.5708  15.5708  15.5964  15.5964  15.6448  15.7240
    15.7240  15.7722  15.7722  15.8785  15.9577  16.0325  16.0325  16.6178
    17.0343  17.0622  17.0622  17.1888  17.2482  17.2482  17.2663  17.2951
    17.2951  17.3359  17.3359  17.3883  17.4153  17.4153  17.4324  17.4458
    17.4458  17.4500  17.5319  17.5319  17.5806  17.6287  17.6287  17.9569
    17.9904  17.9904  18.1034  18.1034  18.1553  18.1702  18.1702  18.6435
    18.6559  18.6559  19.2718  19.2718  19.2948  19.6187  19.6187  20.7290

          k = 0.3333 0.3333-0.5000 (  9648 PWs)   bands (ev):

   -69.7237 -69.6955 -69.6935 -69.6886 -69.6732 -69.6728 -69.6703 -69.6641
   -69.6581 -69.6466 -69.6457 -69.6418 -69.6072 -69.6048 -69.6031 -52.7267
   -35.8867 -35.8817 -35.8787 -35.8517 -35.8509 -35.8463 -35.8421 -35.8364
   -35.8357 -35.8275 -35.8153 -35.8108 -35.8006 -35.7913 -35.7751 -35.7705
   -35.7566 -35.7558 -35.7525 -35.7518 -35.7492 -35.7358 -35.7112 -35.7072
   -35.6657 -35.6493 -35.6422 -35.6395 -35.6324 -35.6115 -35.6067 -35.6024
   -35.5962 -35.5947 -35.5946 -35.5881 -35.5726 -35.5536 -35.5500 -35.5470
   -35.5461 -35.5333 -35.5304 -35.5246 -35.5230 -24.0728 -24.0727 -24.0726
    12.0726  12.1322  13.2062  13.2099  13.2169  13.3273  14.1018  14.1712
    14.3725  14.4174  14.4294  14.4562  14.4778  14.4879  14.5237  14.5763
    14.6289  14.6776  14.9798  14.9906  15.0047  15.0722  15.0730  15.1312
    15.1451  15.1771  15.2769  15.2815  15.3128  15.3462  15.3613  15.3924
    15.3946  15.4362  15.5297  15.5329  15.5524  15.5527  15.5585  15.5783
    15.5857  15.5909  15.6500  15.7604  15.7783  15.8746  16.1975  16.2481
    17.1377  17.1639  17.1769  17.1926  17.2223  17.2268  17.3346  17.3483
    17.3601  17.3761  17.3764  17.4053  17.4215  17.4290  17.4403  17.4447
    17.4526  17.4592  17.4903  17.5004  17.6653  17.7222  17.7417  17.7664
    17.8168  18.0036  18.1290  18.1367  18.2189  18.2351  18.3426  18.4115
    18.4306  18.7781  19.1370  19.2953  19.2993  19.4732  19.9748  20.1362

          k = 0.3333-0.5000-0.5000 (  9668 PWs)   bands (ev):

   -69.7225 -69.6937 -69.6937 -69.6898 -69.6760 -69.6723 -69.6723 -69.6650
   -69.6570 -69.6447 -69.6447 -69.6426 -69.6052 -69.6050 -69.6050 -52.7267
   -35.8815 -35.8736 -35.8736 -35.8443 -35.8437 -35.8421 -35.8406 -35.8337
   -35.8337 -35.8171 -35.8171 -35.8132 -35.8111 -35.7776 -35.7765 -35.7708
   -35.7708 -35.7667 -35.7654 -35.7654 -35.7555 -35.7395 -35.7273 -35.7273
   -35.6554 -35.6386 -35.6386 -35.6317 -35.6297 -35.6084 -35.6084 -35.5999
   -35.5976 -35.5839 -35.5787 -35.5753 -35.5753 -35.5591 -35.5553 -35.5492
   -35.5492 -35.5364 -35.5323 -35.5323 -35.5234 -24.0728 -24.0728 -24.0727
    12.6117  12.6120  12.6120  12.7296  13.6888  13.6991  13.6991  13.8182
    14.4686  14.4714  14.4714  14.5795  14.7279  14.7309  14.7309  14.7970
    14.8204  14.8247  14.8247  14.8835  14.8971  14.9009  14.9009  15.0441
    15.1982  15.2098  15.2098  15.2662  15.2773  15.2773  15.2820  15.2927
    15.3478  15.3478  15.4135  15.4158  15.4303  15.4421  15.4508  15.4508
    15.5683  15.5683  15.5773  15.6556  15.7456  15.9067  15.9067  15.9190
    17.2185  17.2185  17.2225  17.2639  17.2799  17.2799  17.2811  17.3263
    17.3299  17.3386  17.3386  17.4148  17.4343  17.4343  17.5091  17.5317
    17.5740  17.5740  17.5828  17.6797  17.6797  17.7563  17.8059  17.9040
    17.9040  17.9293  17.9505  18.0351  18.0351  18.1383  18.1981  18.5028
    18.7032  18.7032  19.0157  19.2194  19.3194  19.6775  19.6861  19.6861

          k =-0.5000-0.5000-0.5000 (  9568 PWs)   bands (ev):

   -69.7215 -69.6919 -69.6919 -69.6919 -69.6753 -69.6753 -69.6753 -69.6657
   -69.6550 -69.6432 -69.6432 -69.6432 -69.6049 -69.6049 -69.6049 -52.7267
   -35.8705 -35.8705 -35.8705 -35.8304 -35.8282 -35.8282 -35.8195 -35.8195
   -35.8195 -35.8171 -35.8095 -35.8095 -35.8095 -35.8093 -35.8093 -35.7901
   -35.7901 -35.7901 -35.7679 -35.7679 -35.7679 -35.7402 -35.7402 -35.7402
   -35.6410 -35.6358 -35.6358 -35.6358 -35.6172 -35.5928 -35.5928 -35.5928
   -35.5762 -35.5762 -35.5692 -35.5692 -35.5692 -35.5586 -35.5586 -35.5584
   -35.5584 -35.5584 -35.5364 -35.5364 -35.5364 -24.0726 -24.0726 -24.0726
    13.1335  13.1376  13.1376  13.1376  13.1471  13.1471  13.1471  13.4019
    14.7947  14.7947  14.8040  14.8040  14.8040  14.8057  14.8057  14.8057
    14.8106  14.8106  14.8106  14.8112  14.8112  14.8112  15.0624  15.0624
    15.2603  15.2603  15.2603  15.2857  15.2857  15.2857  15.2903  15.2903
    15.2903  15.3102  15.3102  15.3102  15.3152  15.3152  15.3152  15.3283
    15.3309  15.3309  15.3542  15.4108  15.4108  15.7272  15.7272  15.7272
    17.2917  17.2917  17.2927  17.2927  17.2927  17.3107  17.3107  17.3107
    17.3319  17.3319  17.3319  17.3371  17.3371  17.3371  17.7201  17.7201
    17.7949  17.7949  17.7949  17.8036  17.8036  17.8036  17.8459  17.8459
    17.8459  17.8620  17.8620  18.1546  18.1546  18.1546  18.4466  18.4670
    18.4703  18.4703  18.4703  19.2437  19.2437  19.5224  19.5224  19.5224

 ------ SPIN DOWN ----------


          k = 0.0000 0.0000 0.0000 (  9771 PWs)   bands (ev):

   -67.0958 -67.0468 -67.0468 -67.0468 -67.0408 -67.0408 -67.0408 -67.0347
   -67.0269 -67.0269 -66.9974 -66.8929 -66.8929 -66.8805 -66.7177 -54.3030
   -33.3696 -33.3696 -33.3696 -33.3612 -33.3612 -33.3612 -33.2415 -33.2415
   -33.2415 -33.2394 -33.1993 -33.1993 -33.1993 -33.1774 -33.1774 -33.1544
   -33.1450 -33.1450 -33.1450 -33.1253 -33.1253 -33.1253 -33.0983 -33.0983
   -33.0983 -33.0916 -33.0916 -33.0907 -33.0907 -33.0907 -33.0223 -33.0223
   -33.0223 -32.9676 -32.9676 -32.9676 -32.8962 -32.8962 -32.8962 -32.8867
   -32.8867 -32.8867 -32.7998 -32.7998 -32.7998 -25.6263 -25.6263 -25.6263
    10.0034  14.0850  14.0850  14.2352  14.2352  14.2352  14.2528  14.5091
    14.5091  14.5091  14.5717  14.5717  14.6967  15.2102  15.2102  16.1789
    16.1789  16.1789  16.4960  16.4960  16.4960  16.6513  16.6513  16.6513
    16.6883  16.6883  16.6883  17.2617  17.2617  17.5454  17.5454  17.5454
    17.6652  17.8413  17.8413  17.8413  18.2689  18.2689  18.2689  18.3182
    18.3182  18.3182  18.3396  18.3396  18.3396  18.3860  18.3860  18.3860
    18.9289  18.9289  18.9289  18.9350  18.9350  18.9350  19.2327  19.2721
    19.2721  19.2721  19.2830  19.2830  19.5462  19.5462  19.8852  19.8852
    19.8852  19.9085  20.0533  20.0533  20.1558  20.1558  20.2819  20.2819
    20.2819  20.3313  20.3313  20.4059  20.4709  20.4709  20.6978  20.6978
    20.6978  20.9342  20.9342  20.9342  20.9839  20.9839  20.9971  20.9971

          k = 0.0000 0.0000 0.1667 (  9635 PWs)   bands (ev):

   -67.0936 -67.0530 -67.0461 -67.0461 -67.0408 -67.0408 -67.0402 -67.0348
   -67.0265 -67.0218 -66.9978 -66.8926 -66.8919 -66.8810 -66.7174 -54.3030
   -33.3645 -33.3623 -33.3623 -33.3520 -33.3519 -33.3519 -33.2448 -33.2448
   -33.2442 -33.2413 -33.2082 -33.2082 -33.2005 -33.1963 -33.1951 -33.1746
   -33.1746 -33.1563 -33.1450 -33.1450 -33.1237 -33.1197 -33.0977 -33.0949
   -33.0919 -33.0896 -33.0896 -33.0826 -33.0533 -33.0533 -33.0143 -33.0143
   -33.0079 -32.9693 -32.9653 -32.9653 -32.9032 -32.9001 -32.9001 -32.8922
   -32.8922 -32.8903 -32.8003 -32.7996 -32.7996 -25.6262 -25.6261 -25.6261
    10.1493  13.1919  14.1417  14.2717  14.2943  14.2943  14.5382  14.5382
    14.5853  14.5944  14.6087  14.7438  15.0119  15.2799  15.2826  16.1113
    16.1779  16.1779  16.3498  16.5346  16.5346  16.6476  16.6961  16.6961
    16.7539  16.7539  16.7567  16.8362  17.1410  17.3855  17.3855  17.4207
    17.8099  17.8360  17.8360  18.0835  18.0895  18.0895  18.1146  18.1264
    18.1278  18.1278  18.4392  18.4842  18.4842  18.5332  18.5366  18.5394
    18.5394  18.5518  18.6265  18.6265  18.6665  18.6665  18.9202  19.4687
    19.5242  19.5242  19.5345  19.5455  19.6317  19.6393  19.8284  19.8284
    19.8761  19.9125  19.9748  20.0809  20.1546  20.2520  20.2851  20.2940
    20.3281  20.4582  20.5370  20.5370  20.5415  20.5415  20.5533  20.6194
    20.6495  20.6913  20.9261  20.9376  20.9376  20.9462  20.9462  20.9497

          k = 0.0000 0.0000 0.3333 (  9606 PWs)   bands (ev):

   -67.0873 -67.0647 -67.0449 -67.0449 -67.0420 -67.0420 -67.0389 -67.0359
   -67.0264 -67.0149 -66.9993 -66.8926 -66.8898 -66.8828 -66.7173 -54.3030
   -33.3526 -33.3438 -33.3438 -33.3270 -33.3253 -33.3253 -33.2670 -33.2670
   -33.2578 -33.2425 -33.2373 -33.2288 -33.2288 -33.2220 -33.2070 -33.2070
   -33.1850 -33.1668 -33.1668 -33.1623 -33.1195 -33.1029 -33.0964 -33.0947
   -33.0931 -33.0740 -33.0740 -33.0624 -33.0154 -33.0154 -32.9989 -32.9989
   -32.9816 -32.9708 -32.9552 -32.9552 -32.9213 -32.9105 -32.9105 -32.9086
   -32.9086 -32.9006 -32.8015 -32.7995 -32.7995 -25.6265 -25.6261 -25.6261
    10.5792  12.1669  14.2629  14.4133  14.4133  14.4827  14.6110  14.6110
    14.6434  14.6815  14.8787  14.9463  15.3020  15.4823  15.5200  15.8435
    15.9761  16.1880  16.1880  16.3188  16.5407  16.5407  16.7469  16.8457
    16.8457  16.9566  16.9913  17.0207  17.0207  17.2386  17.2386  17.2945
    17.5398  17.6044  17.6044  17.6885  17.7747  17.8303  17.8303  17.8897
    17.8928  17.8928  18.0198  18.0198  18.0248  18.0248  18.1161  18.5715
    18.6038  18.8924  18.9405  18.9405  18.9541  19.0785  19.0785  19.4669
    19.5737  19.6476  19.6476  19.7409  19.8399  19.8439  19.9371  19.9371
    19.9888  19.9910  20.0172  20.1183  20.1581  20.1581  20.1590  20.2020
    20.2374  20.2937  20.3197  20.4577  20.4619  20.5133  20.7209  20.7324
    20.7324  20.7430  20.8374  20.8408  20.8408  20.8533  20.9681  20.9681

          k = 0.0000 0.0000-0.5000 (  9658 PWs)   bands (ev):

   -67.0798 -67.0744 -67.0434 -67.0434 -67.0434 -67.0434 -67.0376 -67.0376
   -67.0264 -67.0120 -67.0006 -66.8926 -66.8884 -66.8845 -66.7174 -54.3030
   -33.3448 -33.3274 -33.3274 -33.2997 -33.2949 -33.2949 -33.2846 -33.2846
   -33.2726 -33.2726 -33.2713 -33.2681 -33.2430 -33.2281 -33.1945 -33.1945
   -33.1853 -33.1853 -33.1728 -33.1726 -33.1123 -33.1123 -33.0948 -33.0948
   -33.0863 -33.0677 -33.0677 -33.0504 -33.0045 -33.0045 -32.9868 -32.9868
   -32.9687 -32.9676 -32.9390 -32.9390 -32.9350 -32.9275 -32.9275 -32.9174
   -32.9174 -32.9080 -32.8021 -32.7995 -32.7995 -25.6268 -25.6261 -25.6261
    11.2633  11.2719  14.3280  14.4697  14.4697  14.6424  14.6603  14.6603
    14.6705  14.6745  15.1272  15.1351  15.5262  15.5647  15.5793  15.6129
    15.7130  15.9790  16.1986  16.1986  16.5255  16.5255  16.8761  16.9745
    17.0330  17.0330  17.2330  17.2834  17.2834  17.3218  17.3227  17.3430
    17.3430  17.3979  17.3979  17.4067  17.4379  17.4483  17.4521  17.4521
    17.5019  17.5019  17.8646  17.8646  17.9969  17.9969  18.2352  18.4038
    18.8012  19.1782  19.2555  19.2555  19.3536  19.3818  19.3914  19.3914
    19.3935  19.4215  19.5391  19.5391  19.6614  19.6614  19.8575  20.0059
    20.0969  20.1100  20.1382  20.1860  20.2714  20.3018  20.3045  20.3373
    20.3449  20.3449  20.3449  20.3732  20.3776  20.4533  20.4568  20.4578
    20.4661  20.4661  20.9154  20.9177  20.9539  20.9539  20.9643  20.9643

          k = 0.0000 0.1667 0.1667 (  9621 PWs)   bands (ev):

   -67.0916 -67.0540 -67.0504 -67.0457 -67.0416 -67.0404 -67.0404 -67.0351
   -67.0236 -67.0200 -66.9984 -66.8922 -66.8915 -66.8817 -66.7174 -54.3030
   -33.3608 -33.3596 -33.3557 -33.3468 -33.3437 -33.3359 -33.2541 -33.2491
   -33.2489 -33.2404 -33.2241 -33.2148 -33.2078 -33.2059 -33.1973 -33.1926
   -33.1629 -33.1582 -33.1442 -33.1439 -33.1320 -33.1241 -33.1079 -33.1011
   -33.0970 -33.0950 -33.0741 -33.0685 -33.0405 -33.0348 -33.0125 -33.0084
   -32.9991 -32.9664 -32.9623 -32.9594 -32.9164 -32.9037 -32.8993 -32.8971
   -32.8968 -32.8903 -32.8004 -32.8001 -32.7996 -25.6263 -25.6262 -25.6261
    10.2936  13.2827  13.2887  14.2524  14.3609  14.4183  14.6044  14.6181
    14.6561  14.7011  14.8228  15.0495  15.0780  15.3507  15.3518  16.0495
    16.1457  16.2049  16.3948  16.4882  16.5890  16.6785  16.6951  16.7180
    16.7345  16.7505  16.7716  16.8339  16.8340  17.1983  17.2558  17.6177
    17.7017  17.7559  17.7893  17.8807  17.9143  17.9675  17.9997  18.1267
    18.1519  18.2309  18.2847  18.2852  18.2956  18.3222  18.3536  18.4149
    18.5057  18.5663  18.6606  18.6876  18.6912  18.7607  19.1496  19.1990
    19.5227  19.5999  19.6658  19.7155  19.7510  19.8149  19.8541  19.8735
    19.8839  19.9101  19.9640  20.0515  20.1732  20.1748  20.2693  20.2879
    20.3117  20.3629  20.3787  20.3853  20.4015  20.4824  20.4860  20.6449
    20.6508  20.7196  20.7578  20.9761  20.9878  21.0299  21.2544  21.4268

          k = 0.0000 0.1667 0.3333 (  9647 PWs)   bands (ev):

   -67.0854 -67.0639 -67.0499 -67.0444 -67.0437 -67.0416 -67.0394 -67.0364
   -67.0225 -67.0144 -67.0003 -66.8920 -66.8898 -66.8835 -66.7174 -54.3030
   -33.3519 -33.3458 -33.3389 -33.3265 -33.3195 -33.3067 -33.2726 -33.2674
   -33.2649 -33.2509 -33.2435 -33.2409 -33.2338 -33.2039 -33.2014 -33.1959
   -33.1905 -33.1641 -33.1605 -33.1537 -33.1282 -33.1097 -33.1064 -33.1025
   -33.0993 -33.0894 -33.0610 -33.0607 -33.0184 -33.0125 -33.0081 -32.9961
   -32.9926 -32.9569 -32.9513 -32.9406 -32.9330 -32.9127 -32.9123 -32.9107
   -32.9019 -32.8967 -32.8014 -32.8001 -32.7994 -25.6266 -25.6263 -25.6261
    10.7186  12.2822  13.5381  14.1493  14.4861  14.5002  14.7004  14.7199
    14.9121  14.9133  15.0237  15.1552  15.3542  15.5451  15.5838  15.8306
    15.9636  16.2207  16.2466  16.3367  16.5441  16.5887  16.7183  16.7629
    16.7931  16.8524  16.9274  16.9360  17.0498  17.0642  17.1082  17.4207
    17.4375  17.5617  17.6079  17.6122  17.6879  17.6935  17.7361  17.7867
    17.7898  17.8208  17.8285  17.8444  17.9335  17.9417  18.3103  18.7255
    18.7836  18.8332  18.9032  18.9485  19.0129  19.0400  19.0739  19.4043
    19.5442  19.6078  19.6421  19.6611  19.7758  19.7838  19.8251  19.9158
    19.9250  20.0698  20.0778  20.1145  20.1449  20.1722  20.1945  20.1985
    20.2942  20.3000  20.3240  20.3721  20.4409  20.4518  20.4666  20.4852
    20.5179  20.5959  20.6672  20.8959  21.0675  21.1073  21.3520  21.3688

          k = 0.0000 0.1667-0.5000 (  9654 PWs)   bands (ev):

   -67.0782 -67.0732 -67.0484 -67.0455 -67.0430 -67.0430 -67.0379 -67.0378
   -67.0223 -67.0113 -67.0015 -66.8920 -66.8884 -66.8849 -66.7174 -54.3030
   -33.3455 -33.3327 -33.3251 -33.3053 -33.2974 -33.2905 -33.2892 -33.2824
   -33.2718 -33.2710 -33.2521 -33.2471 -33.2453 -33.2438 -33.1945 -33.1859
   -33.1841 -33.1713 -33.1713 -33.1675 -33.1187 -33.1178 -33.1071 -33.1027
   -33.0953 -33.0723 -33.0561 -33.0558 -33.0176 -33.0146 -32.9997 -32.9871
   -32.9864 -32.9508 -32.9384 -32.9363 -32.9267 -32.9234 -32.9233 -32.9183
   -32.9069 -32.9054 -32.8020 -32.8001 -32.7994 -25.6268 -25.6263 -25.6262
    11.3949  11.4006  13.8535  13.8747  14.5688  14.5795  14.7497  14.7575
    15.1047  15.1287  15.1657  15.2161  15.5388  15.5783  15.5987  15.6808
    15.7611  16.0008  16.2314  16.2562  16.5425  16.5646  16.7967  16.8119
    16.9505  17.0019  17.1132  17.1224  17.1335  17.1507  17.2217  17.2726
    17.3187  17.3394  17.3887  17.4017  17.4099  17.4136  17.4486  17.4823
    17.5250  17.5368  17.7286  17.7668  17.8216  17.9215  18.5070  18.5851
    18.8538  19.1350  19.1513  19.2120  19.3061  19.3298  19.3670  19.3864
    19.4130  19.4396  19.4513  19.4669  19.5086  19.5577  19.8361  19.9704
    20.0534  20.0552  20.0723  20.0755  20.1450  20.2363  20.2899  20.2955
    20.3056  20.3135  20.3549  20.3805  20.4015  20.4366  20.4628  20.4768
    20.5270  20.5348  20.6626  20.6683  21.1953  21.2046  21.2142  21.2785

          k = 0.0000 0.3333 0.3333 (  9619 PWs)   bands (ev):

   -67.0800 -67.0638 -67.0572 -67.0475 -67.0432 -67.0404 -67.0404 -67.0375
   -67.0169 -67.0124 -67.0023 -66.8907 -66.8893 -66.8849 -66.7174 -54.3030
   -33.3474 -33.3452 -33.3274 -33.3149 -33.3022 -33.2970 -33.2756 -33.2741
   -33.2706 -33.2590 -33.2567 -33.2495 -33.2400 -33.1961 -33.1948 -33.1797
   -33.1779 -33.1675 -33.1525 -33.1450 -33.1421 -33.1219 -33.1148 -33.1135
   -33.1109 -33.1061 -33.0609 -33.0467 -33.0331 -33.0297 -33.0104 -32.9947
   -32.9911 -32.9444 -32.9411 -32.9347 -32.9207 -32.9179 -32.9169 -32.9154
   -32.9002 -32.8922 -32.8014 -32.8011 -32.7991 -25.6266 -25.6265 -25.6261
    11.1276  12.6013  12.6204  13.6501  14.6984  14.7068  14.8892  14.9890
    15.0172  15.0440  15.2736  15.4642  15.4917  15.7075  15.7202  15.7410
    15.8698  16.2837  16.3006  16.3489  16.4684  16.5381  16.6029  16.7053
    16.7376  16.8496  16.8559  16.8758  16.8920  16.9630  17.1418  17.1675
    17.2757  17.4090  17.4204  17.4246  17.4647  17.4818  17.4826  17.5047
    17.5696  17.6251  17.6488  17.6850  17.8397  18.2641  18.3315  18.5899
    18.8647  19.0088  19.0292  19.0351  19.1498  19.2660  19.2784  19.2924
    19.3138  19.3381  19.5883  19.6027  19.6453  19.7291  19.7760  19.7764
    19.8191  20.0287  20.0656  20.0674  20.0844  20.1047  20.2114  20.2301
    20.2701  20.2881  20.3213  20.3479  20.3696  20.3776  20.4272  20.4289
    20.5581  20.5872  20.7763  20.9329  21.3546  21.3826  22.1012  22.1076

          k = 0.0000 0.3333-0.5000 (  9614 PWs)   bands (ev):

   -67.0735 -67.0698 -67.0571 -67.0500 -67.0420 -67.0420 -67.0390 -67.0389
   -67.0152 -67.0101 -67.0042 -66.8904 -66.8882 -66.8862 -66.7173 -54.3030
   -33.3455 -33.3409 -33.3203 -33.3060 -33.3004 -33.2908 -33.2808 -33.2777
   -33.2765 -33.2677 -33.2577 -33.2560 -33.2105 -33.2070 -33.1945 -33.1907
   -33.1661 -33.1654 -33.1620 -33.1462 -33.1328 -33.1293 -33.1234 -33.1204
   -33.1106 -33.0975 -33.0635 -33.0420 -33.0416 -33.0411 -33.0207 -32.9907
   -32.9862 -32.9403 -32.9332 -32.9308 -32.9253 -32.9209 -32.9129 -32.9120
   -32.9014 -32.8926 -32.8019 -32.8012 -32.7989 -25.6267 -25.6265 -25.6260
    11.7754  11.7777  13.0864  13.1106  14.8329  14.8452  14.9566  15.0276
    15.2606  15.2691  15.4792  15.4865  15.5143  15.5526  15.6574  15.8134
    15.8489  16.1037  16.3172  16.4020  16.4396  16.5433  16.6653  16.6798
    16.7443  16.7988  16.8236  16.8515  16.8997  17.0285  17.0625  17.1080
    17.1212  17.1369  17.2271  17.2785  17.2968  17.3083  17.4598  17.4624
    17.5480  17.5727  17.7206  17.7742  17.8110  17.8371  18.7609  18.7722
    18.8867  18.8917  18.9225  19.0026  19.1442  19.1886  19.2042  19.4311
    19.4812  19.5061  19.5722  19.6141  19.6306  19.6393  19.6840  19.6985
    19.7778  19.8944  19.9317  20.0115  20.0235  20.1381  20.2138  20.2471
    20.2791  20.2817  20.3042  20.3056  20.3228  20.3676  20.3844  20.4110
    20.7167  20.7465  20.8217  20.8323  21.7361  21.7492  21.7501  21.7654

          k = 0.0000-0.5000-0.5000 (  9580 PWs)   bands (ev):

   -67.0675 -67.0675 -67.0644 -67.0527 -67.0405 -67.0405 -67.0405 -67.0405
   -67.0095 -67.0095 -67.0082 -66.8882 -66.8881 -66.8881 -66.7173 -54.3030
   -33.3456 -33.3433 -33.3180 -33.3016 -33.2972 -33.2932 -33.2932 -33.2753
   -33.2753 -33.2661 -33.2551 -33.2551 -33.1944 -33.1944 -33.1876 -33.1802
   -33.1608 -33.1482 -33.1443 -33.1443 -33.1419 -33.1419 -33.1353 -33.1306
   -33.1305 -33.1164 -33.0520 -33.0516 -33.0513 -33.0513 -33.0357 -32.9864
   -32.9864 -32.9373 -32.9306 -32.9260 -32.9245 -32.9245 -32.9077 -32.9077
   -32.8998 -32.8869 -32.8017 -32.8017 -32.7987 -25.6266 -25.6266 -25.6260
    12.3397  12.3666  12.3801  12.3801  15.0441  15.0724  15.0724  15.3398
    15.3522  15.3522  15.3587  15.3702  15.5677  15.6662  15.6867  15.8410
    15.8410  16.3698  16.3698  16.3947  16.3947  16.4031  16.5348  16.5904
    16.6592  16.6740  16.6740  16.7006  16.7087  17.0609  17.0609  17.0997
    17.1090  17.1252  17.1252  17.1728  17.2041  17.2041  17.3028  17.3318
    17.5541  17.6379  17.6562  17.6562  18.2224  18.2224  18.2805  18.3054
    18.9000  18.9522  19.0631  19.0631  19.1926  19.2481  19.2481  19.3243
    19.3522  19.4463  19.6906  19.6906  19.7095  19.7095  19.7179  19.7232
    19.7453  19.7653  19.7653  19.8440  20.0478  20.0555  20.1450  20.1450
    20.2097  20.2769  20.2769  20.3007  20.3090  20.3766  20.3766  20.3979
    20.8320  20.8320  20.8578  20.8907  22.3444  22.3507  22.3571  22.3755

          k = 0.1667 0.1667 0.1667 (  9627 PWs)   bands (ev):

   -67.0894 -67.0534 -67.0534 -67.0475 -67.0412 -67.0412 -67.0409 -67.0357
   -67.0198 -67.0198 -66.9991 -66.8915 -66.8915 -66.8824 -66.7174 -54.3030
   -33.3562 -33.3562 -33.3510 -33.3447 -33.3277 -33.3277 -33.2638 -33.2522
   -33.2522 -33.2408 -33.2330 -33.2330 -33.2046 -33.2046 -33.1975 -33.1876
   -33.1601 -33.1584 -33.1584 -33.1524 -33.1524 -33.1215 -33.1137 -33.1003
   -33.1003 -33.0773 -33.0773 -33.0497 -33.0497 -33.0198 -33.0087 -33.0025
   -33.0025 -32.9678 -32.9523 -32.9523 -32.9255 -32.9040 -32.9040 -32.8990
   -32.8990 -32.8924 -32.8004 -32.8000 -32.8000 -25.6263 -25.6263 -25.6262
    10.4367  13.3764  13.3764  13.3935  14.4545  14.4545  14.5395  14.7726
    14.7726  14.9322  15.0999  15.0999  15.1835  15.4197  15.4197  16.0021
    16.2049  16.2049  16.3430  16.5453  16.5453  16.6863  16.6863  16.6910
    16.7358  16.7388  16.7388  16.8308  16.8308  16.9004  17.4642  17.4642
    17.5898  17.5902  17.7929  17.7929  17.8161  17.8161  17.9713  17.9713
    18.0430  18.0633  18.0900  18.0900  18.1812  18.1812  18.2151  18.2711
    18.6426  18.6426  18.8015  18.8015  18.8185  18.8731  19.3705  19.3705
    19.4118  19.5524  19.5524  19.7014  19.8028  19.8028  19.8111  19.8953
    19.9939  19.9939  20.0302  20.0302  20.0545  20.1467  20.1467  20.2681
    20.2681  20.3118  20.3707  20.3707  20.5549  20.5549  20.5880  20.5880
    20.6345  20.6519  20.6812  20.6812  21.0864  21.0955  21.0955  21.7085

          k = 0.1667 0.1667 0.3333 (  9629 PWs)   bands (ev):

   -67.0836 -67.0631 -67.0517 -67.0467 -67.0432 -67.0425 -67.0400 -67.0368
   -67.0195 -67.0137 -67.0009 -66.8915 -66.8897 -66.8840 -66.7174 -54.3030
   -33.3491 -33.3432 -33.3374 -33.3260 -33.3075 -33.3003 -33.2777 -33.2675
   -33.2637 -33.2548 -33.2480 -33.2459 -33.2187 -33.2125 -33.1963 -33.1942
   -33.1842 -33.1727 -33.1642 -33.1470 -33.1435 -33.1267 -33.1142 -33.1075
   -33.0993 -33.0778 -33.0615 -33.0515 -33.0154 -33.0150 -33.0115 -33.0025
   -32.9900 -32.9597 -32.9393 -32.9370 -32.9341 -32.9156 -32.9119 -32.9096
   -32.9004 -32.8985 -32.8013 -32.8000 -32.7998 -25.6266 -25.6263 -25.6262
    10.8571  12.3984  13.6295  13.6544  14.2499  14.3069  14.7988  14.9461
    15.0047  15.1502  15.1915  15.2995  15.4201  15.6090  15.6508  15.8257
    15.9680  16.2085  16.2965  16.3430  16.5534  16.5908  16.6748  16.7048
    16.7884  16.8105  16.8288  16.9189  16.9189  17.0288  17.2457  17.2923
    17.3661  17.4709  17.5034  17.5486  17.6201  17.6207  17.6235  17.6434
    17.6730  17.6850  17.7113  17.7853  17.8425  17.8600  18.4602  18.4798
    18.8346  18.9548  18.9889  19.0462  19.0953  19.1648  19.1829  19.3872
    19.4509  19.4857  19.6306  19.6743  19.7830  19.7854  19.8197  19.8233
    19.8958  20.0762  20.0824  20.1436  20.1518  20.1738  20.2391  20.2652
    20.2949  20.3010  20.3211  20.3255  20.3682  20.4240  20.4373  20.5836
    20.6055  20.6115  20.6849  20.6861  20.7887  20.7893  21.8445  21.9632

          k = 0.1667 0.1667-0.5000 (  9658 PWs)   bands (ev):

   -67.0766 -67.0718 -67.0507 -67.0454 -67.0446 -67.0440 -67.0384 -67.0384
   -67.0193 -67.0107 -67.0024 -66.8915 -66.8884 -66.8853 -66.7174 -54.3030
   -33.3445 -33.3312 -33.3280 -33.3051 -33.2969 -33.2912 -33.2884 -33.2765
   -33.2723 -33.2515 -33.2500 -33.2495 -33.2447 -33.2388 -33.1979 -33.1916
   -33.1846 -33.1818 -33.1620 -33.1483 -33.1353 -33.1281 -33.1231 -33.1135
   -33.0872 -33.0693 -33.0570 -33.0558 -33.0208 -33.0177 -33.0028 -32.9885
   -32.9879 -32.9494 -32.9433 -32.9304 -32.9264 -32.9199 -32.9179 -32.9165
   -32.9051 -32.9043 -32.8019 -32.7999 -32.7997 -25.6268 -25.6263 -25.6262
    11.5263  11.5293  13.9471  13.9638  13.9686  14.0415  15.0482  15.1309
    15.2158  15.2178  15.2269  15.3783  15.4342  15.6419  15.6713  15.7551
    15.8160  16.0217  16.2613  16.3014  16.5698  16.5813  16.6665  16.8247
    16.9133  16.9577  16.9970  17.0279  17.0461  17.0817  17.1241  17.1359
    17.2288  17.2782  17.3333  17.3683  17.4133  17.4135  17.4279  17.4439
    17.4636  17.4747  17.6782  17.6785  17.7076  17.7923  18.7069  18.7488
    18.8570  18.9070  18.9225  19.1345  19.2506  19.2642  19.3777  19.3932
    19.4939  19.5039  19.5312  19.5356  19.5989  19.7155  19.8253  19.9727
    20.0236  20.0316  20.1328  20.1530  20.1802  20.2001  20.2081  20.2432
    20.2799  20.2868  20.2894  20.4089  20.4401  20.5101  20.5128  20.5206
    20.5381  20.5488  20.5897  20.5904  20.6335  20.6445  22.1861  22.1977

          k = 0.1667 0.3333 0.3333 (  9651 PWs)   bands (ev):

   -67.0785 -67.0629 -67.0576 -67.0477 -67.0447 -67.0419 -67.0412 -67.0382
   -67.0150 -67.0119 -67.0029 -66.8904 -66.8893 -66.8853 -66.7174 -54.3030
   -33.3430 -33.3408 -33.3282 -33.3130 -33.2954 -33.2944 -33.2793 -33.2700
   -33.2612 -33.2548 -33.2532 -33.2514 -33.2278 -33.2078 -33.2007 -33.1807
   -33.1796 -33.1710 -33.1673 -33.1557 -33.1511 -33.1460 -33.1292 -33.1261
   -33.1005 -33.0769 -33.0488 -33.0428 -33.0362 -33.0174 -33.0066 -32.9990
   -32.9905 -32.9500 -32.9397 -32.9305 -32.9239 -32.9156 -32.9153 -32.9139
   -32.9025 -32.8967 -32.8012 -32.8009 -32.7996 -25.6266 -25.6266 -25.6263
    11.2626  12.7221  12.7370  13.7718  13.9267  14.5796  14.6404  15.1699
    15.2071  15.3452  15.4500  15.5587  15.6014  15.6453  15.7813  15.8149
    15.9348  16.2354  16.2970  16.3662  16.4430  16.5665  16.6501  16.6526
    16.7198  16.7475  16.8280  16.8927  16.9022  17.0500  17.0820  17.1202
    17.1974  17.2867  17.2960  17.3459  17.3653  17.3760  17.4205  17.4650
    17.5056  17.5062  17.5806  17.5810  17.7188  18.0135  18.0558  18.7490
    18.8559  19.0116  19.0790  19.1934  19.1988  19.2638  19.3773  19.4022
    19.4526  19.4799  19.5953  19.6326  19.7086  19.7674  19.8144  19.8652
    19.9222  20.0196  20.0565  20.0602  20.1019  20.1562  20.2300  20.2343
    20.2953  20.2964  20.3084  20.3444  20.3578  20.3602  20.4229  20.4434
    20.4938  20.4940  20.6257  20.7006  20.7494  21.4005  21.4091  22.3811

          k = 0.1667 0.3333-0.5000 (  9654 PWs)   bands (ev):

   -67.0723 -67.0688 -67.0575 -67.0494 -67.0436 -67.0434 -67.0399 -67.0398
   -67.0137 -67.0095 -67.0046 -66.8901 -66.8883 -66.8865 -66.7174 -54.3030
   -33.3417 -33.3366 -33.3221 -33.3014 -33.2957 -33.2869 -33.2793 -33.2743
   -33.2721 -33.2616 -33.2496 -33.2469 -33.2140 -33.2112 -33.1959 -33.1957
   -33.1853 -33.1821 -33.1583 -33.1486 -33.1483 -33.1476 -33.1388 -33.1371
   -33.1024 -33.0777 -33.0539 -33.0436 -33.0300 -33.0263 -33.0107 -32.9905
   -32.9863 -32.9444 -32.9385 -32.9282 -32.9259 -32.9192 -32.9128 -32.9124
   -32.9042 -32.8964 -32.8016 -32.8009 -32.7994 -25.6267 -25.6266 -25.6263
    11.9032  11.9078  13.2078  13.2327  14.2823  14.3049  15.0162  15.1636
    15.2779  15.4083  15.4576  15.5888  15.6689  15.7401  15.7972  15.9017
    15.9239  16.1211  16.3460  16.3870  16.4068  16.5828  16.6691  16.7049
    16.7327  16.7742  16.7982  16.7984  16.9200  16.9217  17.0304  17.0599
    17.0614  17.0840  17.1552  17.2176  17.2815  17.2968  17.3931  17.4149
    17.4424  17.4550  17.5868  17.6147  17.6504  17.6564  18.3648  18.3860
    19.0275  19.0746  19.0787  19.1757  19.2100  19.3778  19.4431  19.5098
    19.5296  19.6184  19.6397  19.6706  19.6762  19.6831  19.7911  19.8626
    19.8880  19.9219  19.9283  20.0180  20.0440  20.1268  20.1933  20.2395
    20.2470  20.2650  20.3002  20.3011  20.3106  20.3686  20.3779  20.3793
    20.5845  20.6217  20.6692  20.6867  20.9901  20.9901  22.1232  22.1527

          k = 0.1667-0.5000-0.5000 (  9628 PWs)   bands (ev):

   -67.0668 -67.0668 -67.0642 -67.0522 -67.0421 -67.0421 -67.0412 -67.0412
   -67.0089 -67.0089 -67.0080 -66.8882 -66.8882 -66.8882 -66.7174 -54.3030
   -33.3408 -33.3380 -33.3177 -33.2950 -33.2908 -33.2875 -33.2875 -33.2728
   -33.2728 -33.2614 -33.2466 -33.2466 -33.2003 -33.2003 -33.1919 -33.1818
   -33.1794 -33.1684 -33.1654 -33.1631 -33.1631 -33.1546 -33.1477 -33.1477
   -33.1211 -33.0798 -33.0377 -33.0355 -33.0355 -33.0350 -33.0291 -32.9850
   -32.9850 -32.9388 -32.9378 -32.9265 -32.9265 -32.9216 -32.9104 -32.9104
   -32.9037 -32.8924 -32.8014 -32.8014 -32.7992 -25.6267 -25.6267 -25.6262
    12.4667  12.4969  12.5045  12.5045  14.6825  14.6825  14.7408  14.7822
    15.3598  15.6343  15.6343  15.6737  15.7223  15.8607  15.8657  15.9346
    15.9346  16.3702  16.3702  16.4197  16.4230  16.4230  16.5027  16.5477
    16.6388  16.6817  16.6817  16.7322  16.7952  16.9612  16.9612  16.9919
    17.0699  17.1121  17.1121  17.1310  17.1846  17.1846  17.2633  17.2947
    17.4345  17.5154  17.5198  17.5198  17.9153  17.9153  17.9485  17.9610
    19.1132  19.2265  19.2331  19.3156  19.3156  19.4410  19.4410  19.4940
    19.5301  19.5691  19.6917  19.6917  19.7449  19.7556  19.7613  19.7613
    19.7690  19.8232  19.8232  19.8986  20.0463  20.0474  20.1327  20.1327
    20.1965  20.2533  20.2533  20.2668  20.2849  20.3465  20.3465  20.3738
    20.6805  20.6805  20.6977  20.7381  21.5238  21.5540  21.5540  21.5644

          k = 0.3333 0.3333 0.3333 (  9690 PWs)   bands (ev):

   -67.0742 -67.0609 -67.0609 -67.0488 -67.0451 -67.0451 -67.0426 -67.0397
   -67.0111 -67.0111 -67.0041 -66.8894 -66.8894 -66.8863 -66.7175 -54.3030
   -33.3335 -33.3335 -33.3269 -33.3010 -33.2872 -33.2872 -33.2786 -33.2573
   -33.2573 -33.2502 -33.2429 -33.2429 -33.2159 -33.2159 -33.2149 -33.1929
   -33.1929 -33.1894 -33.1728 -33.1728 -33.1728 -33.1535 -33.1535 -33.1424
   -33.1005 -33.0505 -33.0505 -33.0369 -33.0123 -33.0123 -32.9989 -32.9989
   -32.9866 -32.9546 -32.9342 -32.9304 -32.9304 -32.9145 -32.9145 -32.9077
   -32.9076 -32.9076 -32.8008 -32.8004 -32.8004 -25.6267 -25.6267 -25.6266
    11.6575  13.0654  13.0691  13.0691  14.1047  14.1047  14.1692  15.2080
    15.3956  15.3956  15.6982  15.7131  15.7131  15.8943  15.9821  15.9821
    16.0876  16.2372  16.2372  16.4431  16.4431  16.4670  16.6573  16.6573
    16.7009  16.8151  16.8151  16.8572  16.9259  16.9259  17.0192  17.0192
    17.0586  17.0833  17.1573  17.1573  17.1954  17.1954  17.2629  17.2790
    17.3118  17.3118  17.4700  17.4700  17.6209  17.6209  17.6490  18.2977
    19.0730  19.1799  19.1799  19.4235  19.4235  19.4842  19.5594  19.5937
    19.6197  19.6197  19.7732  19.7732  19.8369  19.8369  19.8635  19.8944
    19.9527  19.9527  20.0472  20.0472  20.1081  20.1081  20.2372  20.2463
    20.2463  20.2491  20.2491  20.3095  20.3171  20.3171  20.3378  20.3938
    20.3938  20.4538  20.4551  20.4551  20.8724  20.8741  20.8741  22.1722

          k = 0.3333 0.3333-0.5000 (  9648 PWs)   bands (ev):

   -67.0687 -67.0661 -67.0594 -67.0483 -67.0469 -67.0455 -67.0418 -67.0416
   -67.0106 -67.0083 -67.0056 -66.8893 -66.8882 -66.8872 -66.7174 -54.3030
   -33.3329 -33.3281 -33.3220 -33.2888 -33.2838 -33.2761 -33.2712 -33.2674
   -33.2661 -33.2526 -33.2341 -33.2236 -33.2207 -33.2191 -33.2079 -33.2016
   -33.2016 -33.1918 -33.1895 -33.1793 -33.1778 -33.1696 -33.1487 -33.1487
   -33.1081 -33.0509 -33.0407 -33.0339 -33.0148 -33.0019 -32.9996 -32.9877
   -32.9839 -32.9529 -32.9352 -32.9344 -32.9292 -32.9178 -32.9136 -32.9120
   -32.9103 -32.9047 -32.8009 -32.8003 -32.8001 -25.6267 -25.6266 -25.6266
    12.2744  12.2853  13.5476  13.5651  13.5721  13.5891  14.6312  14.6677
    15.4778  15.5566  15.7883  15.7992  15.8779  16.0215  16.0789  16.1289
    16.1327  16.1782  16.3026  16.4221  16.4474  16.6408  16.6499  16.6580
    16.6735  16.7341  16.7410  16.8124  16.8466  16.8598  16.8909  16.9731
    16.9762  17.0141  17.0872  17.1670  17.1687  17.1742  17.1989  17.2419
    17.2566  17.2695  17.3453  17.3720  17.3811  17.4134  17.8291  17.8446
    19.2217  19.2573  19.4014  19.4430  19.5315  19.5600  19.5801  19.6268
    19.7141  19.7705  19.7967  19.8066  19.8219  19.8266  19.8733  19.9055
    19.9072  19.9890  20.0691  20.0891  20.1380  20.1396  20.1571  20.2072
    20.2270  20.2360  20.2415  20.2793  20.3045  20.3474  20.3543  20.3789
    20.3883  20.4308  20.4549  20.4556  20.4575  20.4601  21.4893  21.5222

          k = 0.3333-0.5000-0.5000 (  9668 PWs)   bands (ev):

   -67.0643 -67.0643 -67.0633 -67.0500 -67.0459 -67.0459 -67.0436 -67.0428
   -67.0078 -67.0078 -67.0075 -66.8882 -66.8882 -66.8882 -66.7174 -54.3030
   -33.3289 -33.3261 -33.3164 -33.2768 -33.2724 -33.2711 -33.2711 -33.2647
   -33.2647 -33.2500 -33.2269 -33.2269 -33.2135 -33.2135 -33.2099 -33.2056
   -33.2039 -33.1978 -33.1978 -33.1970 -33.1949 -33.1785 -33.1636 -33.1636
   -33.1079 -33.0460 -33.0331 -33.0134 -33.0104 -33.0104 -32.9937 -32.9799
   -32.9799 -32.9518 -32.9390 -32.9332 -32.9332 -32.9185 -32.9156 -32.9156
   -32.9125 -32.9064 -32.8007 -32.8007 -32.7999 -25.6268 -25.6268 -25.6266
    12.8356  12.8642  12.8642  12.8729  14.0634  14.0634  14.0936  14.1177
    15.5550  15.6892  15.9243  15.9343  15.9343  16.1912  16.1912  16.2691
    16.2839  16.4243  16.4243  16.4641  16.4851  16.4851  16.4932  16.5071
    16.5823  16.6819  16.6819  16.8480  16.8598  16.9160  16.9355  16.9355
    16.9569  16.9786  16.9786  16.9954  17.0572  17.0572  17.1574  17.1880
    17.1942  17.2652  17.2652  17.2665  17.4076  17.4076  17.4191  17.4231
    19.2993  19.3100  19.6020  19.6590  19.6590  19.7642  19.7642  19.8125
    19.8321  19.8482  19.8558  19.8558  19.8973  19.9073  19.9073  19.9277
    19.9372  19.9372  19.9456  20.0004  20.0074  20.0462  20.0963  20.0963
    20.1540  20.1693  20.1783  20.1783  20.2262  20.2459  20.2459  20.2727
    20.3554  20.3639  20.3639  20.4086  20.9106  20.9418  20.9418  20.9660

          k =-0.5000-0.5000-0.5000 (  9568 PWs)   bands (ev):

   -67.0627 -67.0627 -67.0627 -67.0479 -67.0479 -67.0479 -67.0455 -67.0434
   -67.0069 -67.0069 -67.0069 -66.8879 -66.8879 -66.8879 -66.7172 -54.3030
   -33.3209 -33.3209 -33.3129 -33.2589 -33.2589 -33.2589 -33.2532 -33.2532
   -33.2532 -33.2431 -33.2236 -33.2236 -33.2236 -33.2219 -33.2219 -33.2219
   -33.2217 -33.2217 -33.2088 -33.2088 -33.2088 -33.1779 -33.1779 -33.1779
   -33.1034 -33.0319 -33.0319 -32.9997 -32.9997 -32.9997 -32.9745 -32.9745
   -32.9745 -32.9604 -32.9395 -32.9395 -32.9395 -32.9178 -32.9178 -32.9178
   -32.9175 -32.9175 -32.8002 -32.8002 -32.8002 -25.6266 -25.6266 -25.6266
    13.3945  13.3945  13.3945  13.4143  13.4323  13.4323  13.4323  13.4581
    15.6972  15.6972  16.0495  16.0495  16.0495  16.4862  16.4862  16.4862
    16.4923  16.4923  16.4923  16.5178  16.5178  16.5283  16.5283  16.5283
    16.5971  16.5971  16.5971  16.9028  16.9028  16.9028  16.9186  16.9552
    16.9888  16.9888  16.9888  17.0038  17.0038  17.0038  17.0335  17.0335
    17.0510  17.0510  17.0637  17.0637  17.0637  17.0818  17.0818  17.0818
    19.3621  19.3621  19.8043  19.8043  19.8043  19.9746  19.9746  19.9746
    19.9802  19.9802  19.9802  20.0441  20.0441  20.0469  20.0469  20.0469
    20.0552  20.0552  20.0552  20.0585  20.0585  20.0585  20.0664  20.0664
    20.0785  20.0785  20.0785  20.1047  20.1047  20.1047  20.1358  20.1358
    20.4053  20.4053  20.4053  20.4059  20.4349  20.4525  20.4525  20.4525

     the Fermi energy is    18.4829 ev

!    total energy              =   -5187.11854284 Ry
     total all-electron energy =    -40285.099217 Ry
     estimated scf accuracy    <          9.0E-09 Ry
     smearing contrib. (-TS)   =       0.00503530 Ry
     internal energy E=F+TS    =   -5187.12357815 Ry

     The total energy is F=E-TS. E is the sum of the following terms:
     one-electron contribution =   -1704.67507674 Ry
     hartree contribution      =    1013.24667144 Ry
     xc contribution           =    -438.65578580 Ry
     ewald contribution        =   -2740.94471515 Ry
     one-center paw contrib.   =   -1316.09467190 Ry

     total magnetization       =    31.55 Bohr mag/cell
     absolute magnetization    =    36.63 Bohr mag/cell

     convergence has been achieved in  35 iterations


     Computing stress (Cartesian axis) and pressure

          total   stress  (Ry/bohr**3)                   (kbar)     P=       -0.28
  -0.00000188   0.00000000   0.00000000           -0.28        0.00        0.00
   0.00000000  -0.00000188   0.00000000            0.00       -0.28        0.00
   0.00000000   0.00000000  -0.00000188            0.00        0.00       -0.28


     Writing all to output data dir ./tmp/fecr_fe15cr01_t0.00.save/ :
     XML data file, charge density, pseudopotentials, collected wavefunctions
 
     init_run     :     25.28s CPU     22.94s WALL (       1 calls)
     electrons    :   1721.95s CPU   1646.46s WALL (       1 calls)
     stress       :     42.91s CPU     42.44s WALL (       1 calls)

     Called by init_run:
     wfcinit      :     14.16s CPU     14.93s WALL (       1 calls)
     potinit      :      9.11s CPU      5.93s WALL (       1 calls)
     hinit0       :      1.06s CPU      1.07s WALL (       1 calls)

     Called by electrons:
     c_bands      :   1103.90s CPU   1141.41s WALL (      35 calls)
     sum_band     :    273.45s CPU    280.20s WALL (      35 calls)
     v_of_rho     :      4.16s CPU      4.22s WALL (      36 calls)
     newd         :     32.04s CPU     31.99s WALL (      36 calls)
                                       31.99s GPU  (      36 calls)
     PAW_pot      :    311.33s CPU    188.55s WALL (      36 calls)
     mix_rho      :      6.08s CPU      6.10s WALL (      35 calls)

     Called by c_bands:
     init_us_2    :     77.35s CPU     77.15s WALL (    2880 calls)
     cegterg      :   1010.83s CPU   1048.81s WALL (    1400 calls)

     Called by *egterg:
     cdiaghg      :     32.30s CPU     32.64s WALL (    5855 calls)
                                       29.23s GPU  (    5855 calls)
     h_psi        :    641.43s CPU    681.82s WALL (    5895 calls)
                                      678.82s GPU  (    5895 calls)
     s_psi        :    118.40s CPU    118.42s WALL (    5895 calls)
     g_psi        :      0.04s CPU      3.04s WALL (    4455 calls)
                                        0.11s GPU  (    4455 calls)

     Called by h_psi:
     h_psi:calbec :      9.00s CPU     11.94s WALL (    5895 calls)
                                        8.04s GPU  (    5895 calls)
     vloc_psi     :    497.48s CPU    536.23s WALL (    5895 calls)
                                      532.64s GPU  (    5895 calls)
     add_vuspsi   :    115.43s CPU    119.61s WALL (    5895 calls)
                                      118.22s GPU  (    5895 calls)

     General routines
     calbec       :     11.35s CPU     13.29s WALL (    7335 calls)
     fft          :      2.42s CPU      2.94s WALL (     919 calls)
                                        2.10s GPU  (     847 calls)
     ffts         :      0.38s CPU      0.36s WALL (     142 calls)
                                        0.11s GPU  (      70 calls)
     fftw         :    179.12s CPU    257.40s WALL (   79782 calls)
                                      188.79s GPU  (   79782 calls)
     interpolate  :      0.68s CPU      0.53s WALL (      72 calls)
 
     Parallel routines
 
     PWSCF        :  29m51.48s CPU  28m33.45s WALL

 
   This run was terminated on:  11:24:56  11May2026            

=------------------------------------------------------------------------------=
   JOB DONE.
=------------------------------------------------------------------------------=
Warning: ieee_invalid is signaling
Warning: ieee_divide_by_zero is signaling
Warning: ieee_underflow is signaling
Warning: ieee_inexact is signaling
FORTRAN STOP
Warning: ieee_invalid is signaling
Warning: ieee_underflow is signaling
Warning: ieee_inexact is signaling
FORTRAN STOP
Warning: ieee_invalid is signaling
Warning: ieee_underflow is signaling
Warning: ieee_inexact is signaling
FORTRAN STOP
Warning: ieee_invalid is signaling
Warning: ieee_underflow is signaling
Warning: ieee_inexact is signaling
FORTRAN STOP
