--------------------------------------------------------------------------
WARNING: Open MPI tried to bind a process but failed.  This is a
warning only; your job will continue, though performance may
be degraded.

  Local host:        4b82db919bf5
  Application name:  /root/q-e-qe-7.3.1/bin/pw.x
  Error message:     failed to bind memory
  Location:          ../../../../../orte/mca/rtc/hwloc/rtc_hwloc.c:447

--------------------------------------------------------------------------

     Program PWSCF v.7.3.1 starts on 19May2026 at  5:56:48 

     This program is part of the open-source Quantum ESPRESSO suite
     for quantum simulation of materials; please cite
         "P. Giannozzi et al., J. Phys.:Condens. Matter 21 395502 (2009);
         "P. Giannozzi et al., J. Phys.:Condens. Matter 29 465901 (2017);
         "P. Giannozzi et al., J. Chem. Phys. 152 154105 (2020);
          URL http://www.quantum-espresso.org", 
     in publications or presentations arising from this work. More details at
     http://www.quantum-espresso.org/quote

     Parallel version (MPI & OpenMP), running on       8 processor cores
     Number of MPI processes:                 1
     Threads/MPI process:                     8

     MPI processes distributed on     1 nodes
     238117 MiB available memory on the printing compute node when the environment starts
 
     Reading input from inputs/fecr_fe07cr09_t-0.01.in

     Current dimensions of program PWSCF are:
     Max number of different atomic species (ntypx) = 10
     Max number of k-points (npk) =  40000
     Max angular momentum in pseudopotentials (lmaxx) =  4
     file Fe.pbe-spn-kjpaw_psl.1.0.0.UPF: wavefunction(s)  3P 3D renormalized
     file Cr.pbe-spn-kjpaw_psl.1.0.0.UPF: wavefunction(s)  3S 3P 3D renormalized
     Message from routine setup:
     using ibrav=0 with symmetry is DISCOURAGED, use correct ibrav instead
 
     Subspace diagonalization in iterative solution of the eigenvalue problem:
     a serial algorithm will be used

 
     G-vector sticks info
     --------------------
     sticks:   dense  smooth     PW     G-vecs:    dense   smooth      PW
     Sum        4397    2209    621               215509    76189   11495
 
     Using Slab Decomposition
 


     bravais-lattice index     =            0
     lattice parameter (alat)  =      10.7178  a.u.
     unit-cell volume          =    1212.7293 (a.u.)^3
     number of atoms/cell      =           16
     number of atomic types    =            2
     number of electrons       =       238.00
     number of Kohn-Sham states=          143
     kinetic-energy cutoff     =      60.0000  Ry
     charge density cutoff     =     480.0000  Ry
     scf convergence threshold =      1.0E-08
     mixing beta               =       0.3000
     number of iterations used =            8  plain     mixing
     Exchange-correlation= SLA  PW   PBX  PBC
                           (   1   4   3   4   0   0   0)

     GPU acceleration is ACTIVE.  1 visible GPUs per MPI rank


     celldm(1)=  10.717752  celldm(2)=   0.000000  celldm(3)=   0.000000
     celldm(4)=   0.000000  celldm(5)=   0.000000  celldm(6)=   0.000000

     crystal axes: (cart. coord. in units of alat)
               a(1) = (   1.000000   0.000000   0.000000 )  
               a(2) = (   0.000000   1.000000   0.000000 )  
               a(3) = (   0.000000   0.000000   0.985038 )  

     reciprocal axes: (cart. coord. in units 2 pi/alat)
               b(1) = (  1.000000  0.000000  0.000000 )  
               b(2) = (  0.000000  1.000000  0.000000 )  
               b(3) = (  0.000000  0.000000  1.015190 )  


     PseudoPot. # 1 for Fe read from file:
     ./pseudo/Fe.pbe-spn-kjpaw_psl.1.0.0.UPF
     MD5 check sum: fc81f059e5c5069939230b1155715ae8
     Pseudo is Projector augmented-wave + core cor, Zval = 16.0
     Generated using &quot;atomic&quot; code by A. Dal Corso  v.6.3
     Shape of augmentation charge: PSQ
     Using radial grid of 1191 points,  6 beta functions with: 
                l(1) =   0
                l(2) =   0
                l(3) =   1
                l(4) =   1
                l(5) =   2
                l(6) =   2
     Q(r) pseudized with 0 coefficients 


     PseudoPot. # 2 for Cr read from file:
     ./pseudo/Cr.pbe-spn-kjpaw_psl.1.0.0.UPF
     MD5 check sum: 198f1a2427a48552563eee314eba32ba
     Pseudo is Projector augmented-wave + core cor, Zval = 14.0
     Generated using &quot;atomic&quot; code by A. Dal Corso  v.6.3
     Shape of augmentation charge: PSQ
     Using radial grid of 1183 points,  6 beta functions with: 
                l(1) =   0
                l(2) =   0
                l(3) =   1
                l(4) =   1
                l(5) =   2
                l(6) =   2
     Q(r) pseudized with 0 coefficients 


     atomic species   valence    mass     pseudopotential
     Fe               16.00    55.84500     Fe( 1.00)
     Cr               14.00    51.99600     Cr( 1.00)

     Starting magnetic structure 
     atomic species   magnetization
     Fe              0.500
     Cr              0.300

      2 Sym. Ops., with inversion, found ( 1 have fractional translation)



   Cartesian axes

     site n.     atom                  positions (alat units)
         1        Cr     tau(   1) = (   0.0000000   0.0000000   0.0000000  )
         2        Fe     tau(   2) = (   0.2500000   0.2500000   0.2462594  )
         3        Fe     tau(   3) = (   0.0000000   0.0000000   0.4925188  )
         4        Cr     tau(   4) = (   0.2500000   0.2500000   0.7387781  )
         5        Cr     tau(   5) = (   0.0000000   0.5000000   0.0000000  )
         6        Fe     tau(   6) = (   0.2500000   0.7500000   0.2462594  )
         7        Cr     tau(   7) = (   0.0000000   0.5000000   0.4925188  )
         8        Cr     tau(   8) = (   0.2500000   0.7500000   0.7387781  )
         9        Cr     tau(   9) = (   0.5000000   0.0000000   0.0000000  )
        10        Fe     tau(  10) = (   0.7500000   0.2500000   0.2462594  )
        11        Cr     tau(  11) = (   0.5000000   0.0000000   0.4925188  )
        12        Fe     tau(  12) = (   0.7500000   0.2500000   0.7387781  )
        13        Fe     tau(  13) = (   0.5000000   0.5000000   0.0000000  )
        14        Cr     tau(  14) = (   0.7500000   0.7500000   0.2462594  )
        15        Cr     tau(  15) = (   0.5000000   0.5000000   0.4925188  )
        16        Fe     tau(  16) = (   0.7500000   0.7500000   0.7387781  )

     number of k points=   112  Marzari-Vanderbilt smearing, width (Ry)=  0.0200

     Number of k-points >= 100: set verbosity='high' to print them.

     Dense  grid:   215509 G-vectors     FFT dimensions: (  80,  80,  80)

     Smooth grid:    76189 G-vectors     FFT dimensions: (  54,  54,  54)

     Estimated max dynamical RAM per process >       5.47 GB

     Check: negative core charge=   -0.000003
     Generating pointlists ...
     new r_m :   0.1777 (alat units)  1.9049 (a.u.) for type    1
     new r_m :   0.1777 (alat units)  1.9049 (a.u.) for type    2

     Initial potential from superposition of free atoms

     starting charge     237.9900, renormalised to     238.0000
     Starting wfcs are  160 randomized atomic wfcs
     Checking if some PAW data can be deallocated... 

     total cpu time spent up to now is       31.4 secs

     Self-consistent Calculation

     iteration #  1     ecut=    60.00 Ry     beta= 0.30
     Davidson diagonalization with overlap
     ethr =  1.00E-02,  avg # of iterations =  3.3

     negative rho (up, down):  0.000E+00 1.352E-01

     total cpu time spent up to now is       83.1 secs

     total energy              =   -4531.83349788 Ry
     estimated scf accuracy    <      15.10644452 Ry

     total magnetization       =    47.75 Bohr mag/cell
     absolute magnetization    =    51.22 Bohr mag/cell

     iteration #  2     ecut=    60.00 Ry     beta= 0.30
     Davidson diagonalization with overlap
     ethr =  6.35E-03,  avg # of iterations =  4.9

     negative rho (up, down):  0.000E+00 1.111E-01

     total cpu time spent up to now is      141.1 secs

     total energy              =   -4532.37353663 Ry
     estimated scf accuracy    <      59.93562413 Ry

     total magnetization       =    23.23 Bohr mag/cell
     absolute magnetization    =    24.14 Bohr mag/cell

     iteration #  3     ecut=    60.00 Ry     beta= 0.30
     Davidson diagonalization with overlap
     ethr =  6.35E-03,  avg # of iterations =  2.0

     negative rho (up, down):  0.000E+00 7.226E-02

     total cpu time spent up to now is      186.2 secs

     total energy              =   -4536.07256977 Ry
     estimated scf accuracy    <       3.84655395 Ry

     total magnetization       =    36.70 Bohr mag/cell
     absolute magnetization    =    37.02 Bohr mag/cell

     iteration #  4     ecut=    60.00 Ry     beta= 0.30
     Davidson diagonalization with overlap
     ethr =  1.62E-03,  avg # of iterations =  5.4

     negative rho (up, down):  0.000E+00 6.035E-02

     total cpu time spent up to now is      244.2 secs

     total energy              =   -4536.24499065 Ry
     estimated scf accuracy    <      10.14846807 Ry

     total magnetization       =    32.82 Bohr mag/cell
     absolute magnetization    =    33.38 Bohr mag/cell

     iteration #  5     ecut=    60.00 Ry     beta= 0.30
     Davidson diagonalization with overlap
     ethr =  1.62E-03,  avg # of iterations =  2.0

     negative rho (up, down):  0.000E+00 1.982E-02

     total cpu time spent up to now is      288.6 secs

     total energy              =   -4537.53146058 Ry
     estimated scf accuracy    <       2.78284708 Ry

     total magnetization       =    31.65 Bohr mag/cell
     absolute magnetization    =    32.12 Bohr mag/cell

     iteration #  6     ecut=    60.00 Ry     beta= 0.30
     Davidson diagonalization with overlap
     ethr =  1.17E-03,  avg # of iterations =  3.5

     negative rho (up, down):  0.000E+00 8.311E-03

     total cpu time spent up to now is      339.1 secs

     total energy              =   -4537.64419193 Ry
     estimated scf accuracy    <       8.01522962 Ry

     total magnetization       =    26.93 Bohr mag/cell
     absolute magnetization    =    27.58 Bohr mag/cell

     iteration #  7     ecut=    60.00 Ry     beta= 0.30
     Davidson diagonalization with overlap
     ethr =  1.17E-03,  avg # of iterations =  2.0

     negative rho (up, down):  0.000E+00 2.039E-03

     total cpu time spent up to now is      384.2 secs

     total energy              =   -4538.32109590 Ry
     estimated scf accuracy    <       1.19387036 Ry

     total magnetization       =    22.37 Bohr mag/cell
     absolute magnetization    =    23.55 Bohr mag/cell

     iteration #  8     ecut=    60.00 Ry     beta= 0.30
     Davidson diagonalization with overlap
     ethr =  5.02E-04,  avg # of iterations =  3.7

     negative rho (up, down):  0.000E+00 1.931E-03

     total cpu time spent up to now is      436.3 secs

     total energy              =   -4538.46932481 Ry
     estimated scf accuracy    <       2.20643732 Ry

     total magnetization       =    17.60 Bohr mag/cell
     absolute magnetization    =    19.25 Bohr mag/cell

     iteration #  9     ecut=    60.00 Ry     beta= 0.30
     Davidson diagonalization with overlap
     ethr =  5.02E-04,  avg # of iterations =  1.8

     negative rho (up, down):  0.000E+00 1.725E-03

     total cpu time spent up to now is      479.6 secs

     total energy              =   -4538.58744410 Ry
     estimated scf accuracy    <       0.49486524 Ry

     total magnetization       =    15.61 Bohr mag/cell
     absolute magnetization    =    17.52 Bohr mag/cell

     iteration # 10     ecut=    60.00 Ry     beta= 0.30
     Davidson diagonalization with overlap
     ethr =  2.08E-04,  avg # of iterations =  3.2

     negative rho (up, down):  0.000E+00 1.401E-03

     total cpu time spent up to now is      528.5 secs

     total energy              =   -4538.59639547 Ry
     estimated scf accuracy    <       0.66234854 Ry

     total magnetization       =    14.51 Bohr mag/cell
     absolute magnetization    =    16.50 Bohr mag/cell

     iteration # 11     ecut=    60.00 Ry     beta= 0.30
     Davidson diagonalization with overlap
     ethr =  2.08E-04,  avg # of iterations =  1.2

     negative rho (up, down):  0.000E+00 9.620E-04

     total cpu time spent up to now is      571.1 secs

     total energy              =   -4538.63411835 Ry
     estimated scf accuracy    <       0.16764584 Ry

     total magnetization       =    13.16 Bohr mag/cell
     absolute magnetization    =    15.41 Bohr mag/cell

     iteration # 12     ecut=    60.00 Ry     beta= 0.30
     Davidson diagonalization with overlap
     c_bands:  1 eigenvalues not converged
     c_bands:  1 eigenvalues not converged
     c_bands:  1 eigenvalues not converged
     ethr =  7.04E-05,  avg # of iterations =  3.5

     negative rho (up, down):  0.000E+00 8.600E-04

     total cpu time spent up to now is      621.2 secs

     total energy              =   -4538.63797072 Ry
     estimated scf accuracy    <       0.15750444 Ry

     total magnetization       =    13.60 Bohr mag/cell
     absolute magnetization    =    15.60 Bohr mag/cell

     iteration # 13     ecut=    60.00 Ry     beta= 0.30
     Davidson diagonalization with overlap
     c_bands:  3 eigenvalues not converged
     ethr =  6.62E-05,  avg # of iterations =  1.4

     negative rho (up, down):  0.000E+00 6.037E-04

     total cpu time spent up to now is      662.6 secs

     total energy              =   -4538.64814302 Ry
     estimated scf accuracy    <       0.02294508 Ry

     total magnetization       =    13.42 Bohr mag/cell
     absolute magnetization    =    15.42 Bohr mag/cell

     iteration # 14     ecut=    60.00 Ry     beta= 0.30
     Davidson diagonalization with overlap
     c_bands:  2 eigenvalues not converged
     c_bands:  2 eigenvalues not converged
     c_bands:  1 eigenvalues not converged
     c_bands:  2 eigenvalues not converged
     c_bands:  2 eigenvalues not converged
     c_bands:  3 eigenvalues not converged
     c_bands:  1 eigenvalues not converged
     c_bands:  1 eigenvalues not converged
     c_bands:  3 eigenvalues not converged
     c_bands:  1 eigenvalues not converged
     c_bands:  1 eigenvalues not converged
     c_bands:  1 eigenvalues not converged
     ethr =  9.64E-06,  avg # of iterations = 10.9

     negative rho (up, down):  0.000E+00 4.755E-04

     total cpu time spent up to now is      741.9 secs

     total energy              =   -4538.65129013 Ry
     estimated scf accuracy    <       0.04768731 Ry

     total magnetization       =    13.27 Bohr mag/cell
     absolute magnetization    =    15.17 Bohr mag/cell

     iteration # 15     ecut=    60.00 Ry     beta= 0.30
     Davidson diagonalization with overlap
     ethr =  9.64E-06,  avg # of iterations =  1.9

     negative rho (up, down):  0.000E+00 3.461E-04

     total cpu time spent up to now is      786.9 secs

     total energy              =   -4538.65367050 Ry
     estimated scf accuracy    <       0.02536519 Ry

     total magnetization       =    13.05 Bohr mag/cell
     absolute magnetization    =    14.95 Bohr mag/cell

     iteration # 16     ecut=    60.00 Ry     beta= 0.30
     Davidson diagonalization with overlap
     ethr =  9.64E-06,  avg # of iterations =  1.8

     negative rho (up, down):  0.000E+00 2.639E-04

     total cpu time spent up to now is      830.6 secs

     total energy              =   -4538.65501171 Ry
     estimated scf accuracy    <       0.02452020 Ry

     total magnetization       =    13.28 Bohr mag/cell
     absolute magnetization    =    15.08 Bohr mag/cell

     iteration # 17     ecut=    60.00 Ry     beta= 0.30
     Davidson diagonalization with overlap
     ethr =  9.64E-06,  avg # of iterations =  1.0

     negative rho (up, down):  0.000E+00 2.275E-04

     total cpu time spent up to now is      871.4 secs

     total energy              =   -4538.65705462 Ry
     estimated scf accuracy    <       0.00408897 Ry

     total magnetization       =    12.98 Bohr mag/cell
     absolute magnetization    =    14.87 Bohr mag/cell

     iteration # 18     ecut=    60.00 Ry     beta= 0.30
     Davidson diagonalization with overlap
     c_bands:  1 eigenvalues not converged
     c_bands:  2 eigenvalues not converged
     c_bands:  1 eigenvalues not converged
     c_bands:  1 eigenvalues not converged
     c_bands:  1 eigenvalues not converged
     c_bands:  5 eigenvalues not converged
     ethr =  1.72E-06,  avg # of iterations =  8.7

     negative rho (up, down):  0.000E+00 7.274E-05

     total cpu time spent up to now is      941.5 secs

     total energy              =   -4538.65794560 Ry
     estimated scf accuracy    <       0.02186865 Ry

     total magnetization       =    12.97 Bohr mag/cell
     absolute magnetization    =    14.79 Bohr mag/cell

     iteration # 19     ecut=    60.00 Ry     beta= 0.30
     Davidson diagonalization with overlap
     c_bands:  1 eigenvalues not converged
     ethr =  1.72E-06,  avg # of iterations =  3.7

     negative rho (up, down):  0.000E+00 6.980E-05

     total cpu time spent up to now is      995.1 secs

     total energy              =   -4538.65919872 Ry
     estimated scf accuracy    <       0.00242341 Ry

     total magnetization       =    12.73 Bohr mag/cell
     absolute magnetization    =    14.58 Bohr mag/cell

     iteration # 20     ecut=    60.00 Ry     beta= 0.30
     Davidson diagonalization with overlap
     c_bands:  2 eigenvalues not converged
     ethr =  1.02E-06,  avg # of iterations =  4.5

     negative rho (up, down):  0.000E+00 5.300E-05

     total cpu time spent up to now is     1048.3 secs

     total energy              =   -4538.65951974 Ry
     estimated scf accuracy    <       0.00331113 Ry

     total magnetization       =    12.69 Bohr mag/cell
     absolute magnetization    =    14.53 Bohr mag/cell

     iteration # 21     ecut=    60.00 Ry     beta= 0.30
     Davidson diagonalization with overlap
     ethr =  1.02E-06,  avg # of iterations =  3.8

     negative rho (up, down):  0.000E+00 5.947E-05

     total cpu time spent up to now is     1099.3 secs

     total energy              =   -4538.65952232 Ry
     estimated scf accuracy    <       0.00404165 Ry

     total magnetization       =    12.64 Bohr mag/cell
     absolute magnetization    =    14.46 Bohr mag/cell

     iteration # 22     ecut=    60.00 Ry     beta= 0.30
     Davidson diagonalization with overlap
     ethr =  1.02E-06,  avg # of iterations =  1.9

     negative rho (up, down):  0.000E+00 4.831E-05

     total cpu time spent up to now is     1143.3 secs

     total energy              =   -4538.65966634 Ry
     estimated scf accuracy    <       0.00382833 Ry

     total magnetization       =    12.65 Bohr mag/cell
     absolute magnetization    =    14.45 Bohr mag/cell

     iteration # 23     ecut=    60.00 Ry     beta= 0.30
     Davidson diagonalization with overlap
     ethr =  1.02E-06,  avg # of iterations =  1.2

     negative rho (up, down):  0.000E+00 4.971E-05

     total cpu time spent up to now is     1185.3 secs

     total energy              =   -4538.65983521 Ry
     estimated scf accuracy    <       0.00056306 Ry

     total magnetization       =    12.58 Bohr mag/cell
     absolute magnetization    =    14.39 Bohr mag/cell

     iteration # 24     ecut=    60.00 Ry     beta= 0.30
     Davidson diagonalization with overlap
     ethr =  2.37E-07,  avg # of iterations =  5.6

     negative rho (up, down):  0.000E+00 5.173E-05

     total cpu time spent up to now is     1243.1 secs

     total energy              =   -4538.65983550 Ry
     estimated scf accuracy    <       0.00129645 Ry

     total magnetization       =    12.55 Bohr mag/cell
     absolute magnetization    =    14.35 Bohr mag/cell

     iteration # 25     ecut=    60.00 Ry     beta= 0.30
     Davidson diagonalization with overlap
     ethr =  2.37E-07,  avg # of iterations =  2.0

     negative rho (up, down):  0.000E+00 6.595E-05

     total cpu time spent up to now is     1287.8 secs

     total energy              =   -4538.65985634 Ry
     estimated scf accuracy    <       0.00043441 Ry

     total magnetization       =    12.54 Bohr mag/cell
     absolute magnetization    =    14.33 Bohr mag/cell

     iteration # 26     ecut=    60.00 Ry     beta= 0.30
     Davidson diagonalization with overlap
     ethr =  1.83E-07,  avg # of iterations =  4.1

     negative rho (up, down):  0.000E+00 5.671E-05

     total cpu time spent up to now is     1340.5 secs

     total energy              =   -4538.65986640 Ry
     estimated scf accuracy    <       0.00085301 Ry

     total magnetization       =    12.59 Bohr mag/cell
     absolute magnetization    =    14.36 Bohr mag/cell

     iteration # 27     ecut=    60.00 Ry     beta= 0.30
     Davidson diagonalization with overlap
     ethr =  1.83E-07,  avg # of iterations =  1.8

     negative rho (up, down):  0.000E+00 5.741E-05

     total cpu time spent up to now is     1384.0 secs

     total energy              =   -4538.65991218 Ry
     estimated scf accuracy    <       0.00013693 Ry

     total magnetization       =    12.54 Bohr mag/cell
     absolute magnetization    =    14.31 Bohr mag/cell

     iteration # 28     ecut=    60.00 Ry     beta= 0.30
     Davidson diagonalization with overlap
     c_bands:  1 eigenvalues not converged
     c_bands:  1 eigenvalues not converged
     c_bands:  2 eigenvalues not converged
     c_bands:  1 eigenvalues not converged
     ethr =  5.75E-08,  avg # of iterations =  6.8

     negative rho (up, down):  0.000E+00 5.949E-05

     total cpu time spent up to now is     1447.2 secs

     total energy              =   -4538.65989943 Ry
     estimated scf accuracy    <       0.00080002 Ry

     total magnetization       =    12.53 Bohr mag/cell
     absolute magnetization    =    14.29 Bohr mag/cell

     iteration # 29     ecut=    60.00 Ry     beta= 0.30
     Davidson diagonalization with overlap
     ethr =  5.75E-08,  avg # of iterations =  3.1

     negative rho (up, down):  0.000E+00 6.174E-05

     total cpu time spent up to now is     1495.7 secs

     total energy              =   -4538.65994071 Ry
     estimated scf accuracy    <       0.00010084 Ry

     total magnetization       =    12.54 Bohr mag/cell
     absolute magnetization    =    14.31 Bohr mag/cell

     iteration # 30     ecut=    60.00 Ry     beta= 0.30
     Davidson diagonalization with overlap
     ethr =  4.24E-08,  avg # of iterations =  1.9

     negative rho (up, down):  0.000E+00 6.354E-05

     total cpu time spent up to now is     1539.9 secs

     total energy              =   -4538.65995023 Ry
     estimated scf accuracy    <       0.00010777 Ry

     total magnetization       =    12.54 Bohr mag/cell
     absolute magnetization    =    14.30 Bohr mag/cell

     iteration # 31     ecut=    60.00 Ry     beta= 0.30
     Davidson diagonalization with overlap
     ethr =  4.24E-08,  avg # of iterations =  1.4

     negative rho (up, down):  0.000E+00 6.551E-05

     total cpu time spent up to now is     1581.8 secs

     total energy              =   -4538.65996297 Ry
     estimated scf accuracy    <       0.00003950 Ry

     total magnetization       =    12.53 Bohr mag/cell
     absolute magnetization    =    14.28 Bohr mag/cell

     iteration # 32     ecut=    60.00 Ry     beta= 0.30
     Davidson diagonalization with overlap
     ethr =  1.66E-08,  avg # of iterations =  4.6

     negative rho (up, down):  0.000E+00 6.901E-05

     total cpu time spent up to now is     1635.3 secs

     total energy              =   -4538.65997752 Ry
     estimated scf accuracy    <       0.00009546 Ry

     total magnetization       =    12.53 Bohr mag/cell
     absolute magnetization    =    14.28 Bohr mag/cell

     iteration # 33     ecut=    60.00 Ry     beta= 0.30
     Davidson diagonalization with overlap
     ethr =  1.66E-08,  avg # of iterations =  4.6

     negative rho (up, down):  0.000E+00 7.019E-05

     total cpu time spent up to now is     1688.9 secs

     total energy              =   -4538.65999082 Ry
     estimated scf accuracy    <       0.00002751 Ry

     total magnetization       =    12.53 Bohr mag/cell
     absolute magnetization    =    14.26 Bohr mag/cell

     iteration # 34     ecut=    60.00 Ry     beta= 0.30
     Davidson diagonalization with overlap
     ethr =  1.16E-08,  avg # of iterations =  3.4

     negative rho (up, down):  0.000E+00 7.234E-05

     total cpu time spent up to now is     1738.1 secs

     total energy              =   -4538.66000287 Ry
     estimated scf accuracy    <       0.00002648 Ry

     total magnetization       =    12.53 Bohr mag/cell
     absolute magnetization    =    14.26 Bohr mag/cell

     iteration # 35     ecut=    60.00 Ry     beta= 0.30
     Davidson diagonalization with overlap
     ethr =  1.11E-08,  avg # of iterations =  5.3

     negative rho (up, down):  0.000E+00 7.176E-05

     total cpu time spent up to now is     1794.3 secs

     total energy              =   -4538.66000819 Ry
     estimated scf accuracy    <       0.00004214 Ry

     total magnetization       =    12.52 Bohr mag/cell
     absolute magnetization    =    14.24 Bohr mag/cell

     iteration # 36     ecut=    60.00 Ry     beta= 0.30
     Davidson diagonalization with overlap
     ethr =  1.11E-08,  avg # of iterations =  2.9

     negative rho (up, down):  0.000E+00 7.424E-05

     total cpu time spent up to now is     1841.2 secs

     total energy              =   -4538.66001938 Ry
     estimated scf accuracy    <       0.00004523 Ry

     total magnetization       =    12.52 Bohr mag/cell
     absolute magnetization    =    14.24 Bohr mag/cell

     iteration # 37     ecut=    60.00 Ry     beta= 0.30
     Davidson diagonalization with overlap
     ethr =  1.11E-08,  avg # of iterations =  3.7

     negative rho (up, down):  0.000E+00 7.515E-05

     total cpu time spent up to now is     1891.3 secs

     total energy              =   -4538.66003007 Ry
     estimated scf accuracy    <       0.00002034 Ry

     total magnetization       =    12.52 Bohr mag/cell
     absolute magnetization    =    14.22 Bohr mag/cell

     iteration # 38     ecut=    60.00 Ry     beta= 0.30
     Davidson diagonalization with overlap
     ethr =  8.54E-09,  avg # of iterations =  4.4

     negative rho (up, down):  0.000E+00 7.534E-05

     total cpu time spent up to now is     1943.3 secs

     total energy              =   -4538.66003695 Ry
     estimated scf accuracy    <       0.00002649 Ry

     total magnetization       =    12.51 Bohr mag/cell
     absolute magnetization    =    14.22 Bohr mag/cell

     iteration # 39     ecut=    60.00 Ry     beta= 0.30
     Davidson diagonalization with overlap
     ethr =  8.54E-09,  avg # of iterations =  3.9

     negative rho (up, down):  0.000E+00 7.558E-05

     total cpu time spent up to now is     1993.8 secs

     total energy              =   -4538.66004602 Ry
     estimated scf accuracy    <       0.00004126 Ry

     total magnetization       =    12.51 Bohr mag/cell
     absolute magnetization    =    14.21 Bohr mag/cell

     iteration # 40     ecut=    60.00 Ry     beta= 0.30
     Davidson diagonalization with overlap
     ethr =  8.54E-09,  avg # of iterations =  4.1

     negative rho (up, down):  0.000E+00 7.652E-05

     total cpu time spent up to now is     2045.3 secs

     total energy              =   -4538.66005430 Ry
     estimated scf accuracy    <       0.00002621 Ry

     total magnetization       =    12.51 Bohr mag/cell
     absolute magnetization    =    14.20 Bohr mag/cell

     iteration # 41     ecut=    60.00 Ry     beta= 0.30
     Davidson diagonalization with overlap
     ethr =  8.54E-09,  avg # of iterations =  3.0

     negative rho (up, down):  0.000E+00 7.645E-05

     total cpu time spent up to now is     2093.3 secs

     total energy              =   -4538.66006279 Ry
     estimated scf accuracy    <       0.00001632 Ry

     total magnetization       =    12.50 Bohr mag/cell
     absolute magnetization    =    14.19 Bohr mag/cell

     iteration # 42     ecut=    60.00 Ry     beta= 0.30
     Davidson diagonalization with overlap
     ethr =  6.86E-09,  avg # of iterations =  5.4

     negative rho (up, down):  0.000E+00 7.652E-05

     total cpu time spent up to now is     2149.7 secs

     total energy              =   -4538.66007183 Ry
     estimated scf accuracy    <       0.00002384 Ry

     total magnetization       =    12.50 Bohr mag/cell
     absolute magnetization    =    14.18 Bohr mag/cell

     iteration # 43     ecut=    60.00 Ry     beta= 0.30
     Davidson diagonalization with overlap
     ethr =  6.86E-09,  avg # of iterations =  3.8

     negative rho (up, down):  0.000E+00 7.730E-05

     total cpu time spent up to now is     2200.0 secs

     total energy              =   -4538.66007161 Ry
     estimated scf accuracy    <       0.00001675 Ry

     total magnetization       =    12.49 Bohr mag/cell
     absolute magnetization    =    14.18 Bohr mag/cell

     iteration # 44     ecut=    60.00 Ry     beta= 0.30
     Davidson diagonalization with overlap
     ethr =  6.86E-09,  avg # of iterations =  1.0

     negative rho (up, down):  0.000E+00 7.611E-05

     total cpu time spent up to now is     2240.7 secs

     total energy              =   -4538.66007210 Ry
     estimated scf accuracy    <       0.00001376 Ry

     total magnetization       =    12.50 Bohr mag/cell
     absolute magnetization    =    14.18 Bohr mag/cell

     iteration # 45     ecut=    60.00 Ry     beta= 0.30
     Davidson diagonalization with overlap
     ethr =  5.78E-09,  avg # of iterations =  1.9

     negative rho (up, down):  0.000E+00 7.614E-05

     total cpu time spent up to now is     2284.9 secs

     total energy              =   -4538.66007900 Ry
     estimated scf accuracy    <       0.00002842 Ry

     total magnetization       =    12.50 Bohr mag/cell
     absolute magnetization    =    14.18 Bohr mag/cell

     iteration # 46     ecut=    60.00 Ry     beta= 0.30
     Davidson diagonalization with overlap
     ethr =  5.78E-09,  avg # of iterations =  5.0

     negative rho (up, down):  0.000E+00 7.584E-05

     total cpu time spent up to now is     2339.8 secs

     total energy              =   -4538.66008109 Ry
     estimated scf accuracy    <       0.00001612 Ry

     total magnetization       =    12.49 Bohr mag/cell
     absolute magnetization    =    14.17 Bohr mag/cell

     iteration # 47     ecut=    60.00 Ry     beta= 0.30
     Davidson diagonalization with overlap
     ethr =  5.78E-09,  avg # of iterations =  1.1

     negative rho (up, down):  0.000E+00 7.397E-05

     total cpu time spent up to now is     2381.6 secs

     total energy              =   -4538.66008885 Ry
     estimated scf accuracy    <       0.00001395 Ry

     total magnetization       =    12.49 Bohr mag/cell
     absolute magnetization    =    14.17 Bohr mag/cell

     iteration # 48     ecut=    60.00 Ry     beta= 0.30
     Davidson diagonalization with overlap
     ethr =  5.78E-09,  avg # of iterations =  5.9

     negative rho (up, down):  0.000E+00 7.276E-05

     total cpu time spent up to now is     2446.9 secs

     total energy              =   -4538.66011010 Ry
     estimated scf accuracy    <       0.00003653 Ry

     total magnetization       =    12.48 Bohr mag/cell
     absolute magnetization    =    14.15 Bohr mag/cell

     iteration # 49     ecut=    60.00 Ry     beta= 0.30
     Davidson diagonalization with overlap
     ethr =  5.78E-09,  avg # of iterations =  2.7

     negative rho (up, down):  0.000E+00 7.293E-05

     total cpu time spent up to now is     2494.2 secs

     total energy              =   -4538.66011268 Ry
     estimated scf accuracy    <       0.00001896 Ry

     total magnetization       =    12.48 Bohr mag/cell
     absolute magnetization    =    14.15 Bohr mag/cell

     iteration # 50     ecut=    60.00 Ry     beta= 0.30
     Davidson diagonalization with overlap
     ethr =  5.78E-09,  avg # of iterations =  4.3

     negative rho (up, down):  0.000E+00 7.142E-05

     total cpu time spent up to now is     2547.2 secs

     total energy              =   -4538.66011143 Ry
     estimated scf accuracy    <       0.00006534 Ry

     total magnetization       =    12.48 Bohr mag/cell
     absolute magnetization    =    14.15 Bohr mag/cell

     iteration # 51     ecut=    60.00 Ry     beta= 0.30
     Davidson diagonalization with overlap
     ethr =  5.78E-09,  avg # of iterations =  7.1

     negative rho (up, down):  0.000E+00 7.256E-05

     total cpu time spent up to now is     2616.9 secs

     total energy              =   -4538.66011747 Ry
     estimated scf accuracy    <       0.00001635 Ry

     total magnetization       =    12.47 Bohr mag/cell
     absolute magnetization    =    14.14 Bohr mag/cell

     iteration # 52     ecut=    60.00 Ry     beta= 0.30
     Davidson diagonalization with overlap
     ethr =  5.78E-09,  avg # of iterations =  5.0

     negative rho (up, down):  0.000E+00 7.240E-05

     total cpu time spent up to now is     2673.7 secs

     total energy              =   -4538.66012554 Ry
     estimated scf accuracy    <       0.00003210 Ry

     total magnetization       =    12.47 Bohr mag/cell
     absolute magnetization    =    14.15 Bohr mag/cell

     iteration # 53     ecut=    60.00 Ry     beta= 0.30
     Davidson diagonalization with overlap
     ethr =  5.78E-09,  avg # of iterations =  1.0

     negative rho (up, down):  0.000E+00 7.147E-05

     total cpu time spent up to now is     2715.0 secs

     total energy              =   -4538.66013186 Ry
     estimated scf accuracy    <       0.00001945 Ry

     total magnetization       =    12.47 Bohr mag/cell
     absolute magnetization    =    14.15 Bohr mag/cell

     iteration # 54     ecut=    60.00 Ry     beta= 0.30
     Davidson diagonalization with overlap
     ethr =  5.78E-09,  avg # of iterations =  5.6

     negative rho (up, down):  0.000E+00 7.096E-05

     total cpu time spent up to now is     2773.1 secs

     total energy              =   -4538.66014547 Ry
     estimated scf accuracy    <       0.00001824 Ry

     total magnetization       =    12.47 Bohr mag/cell
     absolute magnetization    =    14.14 Bohr mag/cell

     iteration # 55     ecut=    60.00 Ry     beta= 0.30
     Davidson diagonalization with overlap
     ethr =  5.78E-09,  avg # of iterations =  3.3

     negative rho (up, down):  0.000E+00 6.982E-05

     total cpu time spent up to now is     2822.0 secs

     total energy              =   -4538.66014969 Ry
     estimated scf accuracy    <       0.00001371 Ry

     total magnetization       =    12.46 Bohr mag/cell
     absolute magnetization    =    14.14 Bohr mag/cell

     iteration # 56     ecut=    60.00 Ry     beta= 0.30
     Davidson diagonalization with overlap
     ethr =  5.76E-09,  avg # of iterations =  5.6

     negative rho (up, down):  0.000E+00 7.150E-05

     total cpu time spent up to now is     2884.6 secs

     total energy              =   -4538.66013091 Ry
     estimated scf accuracy    <       0.00003814 Ry

     total magnetization       =    12.45 Bohr mag/cell
     absolute magnetization    =    14.14 Bohr mag/cell

     iteration # 57     ecut=    60.00 Ry     beta= 0.30
     Davidson diagonalization with overlap
     ethr =  5.76E-09,  avg # of iterations =  5.1

     negative rho (up, down):  0.000E+00 7.055E-05

     total cpu time spent up to now is     2945.7 secs

     total energy              =   -4538.66014738 Ry
     estimated scf accuracy    <       0.00001380 Ry

     total magnetization       =    12.46 Bohr mag/cell
     absolute magnetization    =    14.14 Bohr mag/cell

     iteration # 58     ecut=    60.00 Ry     beta= 0.30
     Davidson diagonalization with overlap
     ethr =  5.76E-09,  avg # of iterations =  5.3

     negative rho (up, down):  0.000E+00 7.074E-05

     total cpu time spent up to now is     3007.7 secs

     total energy              =   -4538.66016224 Ry
     estimated scf accuracy    <       0.00001920 Ry

     total magnetization       =    12.45 Bohr mag/cell
     absolute magnetization    =    14.14 Bohr mag/cell

     iteration # 59     ecut=    60.00 Ry     beta= 0.30
     Davidson diagonalization with overlap
     ethr =  5.76E-09,  avg # of iterations =  1.9

     negative rho (up, down):  0.000E+00 6.923E-05

     total cpu time spent up to now is     3051.3 secs

     total energy              =   -4538.66013683 Ry
     estimated scf accuracy    <       0.00001402 Ry

     total magnetization       =    12.46 Bohr mag/cell
     absolute magnetization    =    14.14 Bohr mag/cell

     iteration # 60     ecut=    60.00 Ry     beta= 0.30
     Davidson diagonalization with overlap
     ethr =  5.76E-09,  avg # of iterations =  7.4

     negative rho (up, down):  0.000E+00 7.084E-05

     total cpu time spent up to now is     3124.0 secs

     total energy              =   -4538.66008833 Ry
     estimated scf accuracy    <       0.00002196 Ry

     total magnetization       =    12.44 Bohr mag/cell
     absolute magnetization    =    14.14 Bohr mag/cell

     iteration # 61     ecut=    60.00 Ry     beta= 0.30
     Davidson diagonalization with overlap
     ethr =  5.76E-09,  avg # of iterations =  7.7

     negative rho (up, down):  0.000E+00 7.079E-05

     total cpu time spent up to now is     3197.9 secs

     total energy              =   -4538.66016317 Ry
     estimated scf accuracy    <       0.00004881 Ry

     total magnetization       =    12.46 Bohr mag/cell
     absolute magnetization    =    14.14 Bohr mag/cell

     iteration # 62     ecut=    60.00 Ry     beta= 0.30
     Davidson diagonalization with overlap
     ethr =  5.76E-09,  avg # of iterations =  3.7

     negative rho (up, down):  0.000E+00 7.040E-05

     total cpu time spent up to now is     3248.3 secs

     total energy              =   -4538.66016925 Ry
     estimated scf accuracy    <       0.00002873 Ry

     total magnetization       =    12.45 Bohr mag/cell
     absolute magnetization    =    14.14 Bohr mag/cell

     iteration # 63     ecut=    60.00 Ry     beta= 0.30
     Davidson diagonalization with overlap
     ethr =  5.76E-09,  avg # of iterations =  5.2

     negative rho (up, down):  0.000E+00 6.950E-05

     total cpu time spent up to now is     3306.0 secs

     total energy              =   -4538.66016786 Ry
     estimated scf accuracy    <       0.00001748 Ry

     total magnetization       =    12.45 Bohr mag/cell
     absolute magnetization    =    14.14 Bohr mag/cell

     iteration # 64     ecut=    60.00 Ry     beta= 0.30
     Davidson diagonalization with overlap
     ethr =  5.76E-09,  avg # of iterations =  6.5

     negative rho (up, down):  0.000E+00 6.907E-05

     total cpu time spent up to now is     3374.4 secs

     total energy              =   -4538.66020200 Ry
     estimated scf accuracy    <       0.00002244 Ry

     total magnetization       =    12.43 Bohr mag/cell
     absolute magnetization    =    14.14 Bohr mag/cell

     iteration # 65     ecut=    60.00 Ry     beta= 0.30
     Davidson diagonalization with overlap
     ethr =  5.76E-09,  avg # of iterations =  5.1

     negative rho (up, down):  0.000E+00 6.758E-05

     total cpu time spent up to now is     3431.5 secs

     total energy              =   -4538.66015791 Ry
     estimated scf accuracy    <       0.00002448 Ry

     total magnetization       =    12.43 Bohr mag/cell
     absolute magnetization    =    14.15 Bohr mag/cell

     iteration # 66     ecut=    60.00 Ry     beta= 0.30
     Davidson diagonalization with overlap
     ethr =  5.76E-09,  avg # of iterations =  7.8

     negative rho (up, down):  0.000E+00 6.960E-05

     total cpu time spent up to now is     3506.9 secs

     total energy              =   -4538.66006625 Ry
     estimated scf accuracy    <       0.00004105 Ry

     total magnetization       =    12.41 Bohr mag/cell
     absolute magnetization    =    14.18 Bohr mag/cell

     iteration # 67     ecut=    60.00 Ry     beta= 0.30
     Davidson diagonalization with overlap
     ethr =  5.76E-09,  avg # of iterations =  8.2

     negative rho (up, down):  0.000E+00 6.755E-05

     total cpu time spent up to now is     3586.6 secs

     total energy              =   -4538.66008242 Ry
     estimated scf accuracy    <       0.00003755 Ry

     total magnetization       =    12.44 Bohr mag/cell
     absolute magnetization    =    14.14 Bohr mag/cell

     iteration # 68     ecut=    60.00 Ry     beta= 0.30
     Davidson diagonalization with overlap
     ethr =  5.76E-09,  avg # of iterations =  7.9

     negative rho (up, down):  0.000E+00 6.941E-05

     total cpu time spent up to now is     3665.3 secs

     total energy              =   -4538.66008816 Ry
     estimated scf accuracy    <       0.00002309 Ry

     total magnetization       =    12.41 Bohr mag/cell
     absolute magnetization    =    14.19 Bohr mag/cell

     iteration # 69     ecut=    60.00 Ry     beta= 0.30
     Davidson diagonalization with overlap
     ethr =  5.76E-09,  avg # of iterations =  8.2

     negative rho (up, down):  0.000E+00 6.793E-05

     total cpu time spent up to now is     3744.6 secs

     total energy              =   -4538.66015129 Ry
     estimated scf accuracy    <       0.00002775 Ry

     total magnetization       =    12.43 Bohr mag/cell
     absolute magnetization    =    14.15 Bohr mag/cell

     iteration # 70     ecut=    60.00 Ry     beta= 0.30
     Davidson diagonalization with overlap
     ethr =  5.76E-09,  avg # of iterations =  7.8

     negative rho (up, down):  0.000E+00 6.678E-05

     total cpu time spent up to now is     3819.7 secs

     total energy              =   -4538.66019737 Ry
     estimated scf accuracy    <       0.00001342 Ry

     total magnetization       =    12.41 Bohr mag/cell
     absolute magnetization    =    14.18 Bohr mag/cell

     iteration # 71     ecut=    60.00 Ry     beta= 0.30
     Davidson diagonalization with overlap
     ethr =  5.64E-09,  avg # of iterations =  7.5

     negative rho (up, down):  0.000E+00 6.659E-05

     total cpu time spent up to now is     3893.1 secs

     total energy              =   -4538.66025267 Ry
     estimated scf accuracy    <       0.00002019 Ry

     total magnetization       =    12.39 Bohr mag/cell
     absolute magnetization    =    14.22 Bohr mag/cell

     iteration # 72     ecut=    60.00 Ry     beta= 0.30
     Davidson diagonalization with overlap
     ethr =  5.64E-09,  avg # of iterations =  2.4

     negative rho (up, down):  0.000E+00 6.802E-05

     total cpu time spent up to now is     3939.1 secs

     total energy              =   -4538.66015278 Ry
     estimated scf accuracy    <       0.00001778 Ry

     total magnetization       =    12.39 Bohr mag/cell
     absolute magnetization    =    14.22 Bohr mag/cell

     iteration # 73     ecut=    60.00 Ry     beta= 0.30
     Davidson diagonalization with overlap
     ethr =  5.64E-09,  avg # of iterations =  7.8

     negative rho (up, down):  0.000E+00 6.701E-05

     total cpu time spent up to now is     4014.9 secs

     total energy              =   -4538.66020628 Ry
     estimated scf accuracy    <       0.00003196 Ry

     total magnetization       =    12.41 Bohr mag/cell
     absolute magnetization    =    14.18 Bohr mag/cell

     iteration # 74     ecut=    60.00 Ry     beta= 0.30
     Davidson diagonalization with overlap
     ethr =  5.64E-09,  avg # of iterations =  7.1

     negative rho (up, down):  0.000E+00 6.670E-05

     total cpu time spent up to now is     4085.0 secs

     total energy              =   -4538.66024854 Ry
     estimated scf accuracy    <       0.00001512 Ry

     total magnetization       =    12.40 Bohr mag/cell
     absolute magnetization    =    14.21 Bohr mag/cell

     iteration # 75     ecut=    60.00 Ry     beta= 0.30
     Davidson diagonalization with overlap
     ethr =  5.64E-09,  avg # of iterations =  4.4

     negative rho (up, down):  0.000E+00 6.596E-05

     total cpu time spent up to now is     4139.0 secs

     total energy              =   -4538.66023913 Ry
     estimated scf accuracy    <       0.00001184 Ry

     total magnetization       =    12.39 Bohr mag/cell
     absolute magnetization    =    14.22 Bohr mag/cell

     iteration # 76     ecut=    60.00 Ry     beta= 0.30
     Davidson diagonalization with overlap
     ethr =  4.97E-09,  avg # of iterations =  5.7

     negative rho (up, down):  0.000E+00 6.627E-05

     total cpu time spent up to now is     4203.4 secs

     total energy              =   -4538.66025452 Ry
     estimated scf accuracy    <       0.00000720 Ry

     total magnetization       =    12.38 Bohr mag/cell
     absolute magnetization    =    14.25 Bohr mag/cell

     iteration # 77     ecut=    60.00 Ry     beta= 0.30
     Davidson diagonalization with overlap
     ethr =  3.02E-09,  avg # of iterations =  5.0

     negative rho (up, down):  0.000E+00 6.584E-05

     total cpu time spent up to now is     4259.2 secs

     total energy              =   -4538.66025524 Ry
     estimated scf accuracy    <       0.00002119 Ry

     total magnetization       =    12.39 Bohr mag/cell
     absolute magnetization    =    14.23 Bohr mag/cell

     iteration # 78     ecut=    60.00 Ry     beta= 0.30
     Davidson diagonalization with overlap
     ethr =  3.02E-09,  avg # of iterations =  5.1

     negative rho (up, down):  0.000E+00 6.594E-05

     total cpu time spent up to now is     4319.2 secs

     total energy              =   -4538.66025941 Ry
     estimated scf accuracy    <       0.00000406 Ry

     total magnetization       =    12.38 Bohr mag/cell
     absolute magnetization    =    14.25 Bohr mag/cell

     iteration # 79     ecut=    60.00 Ry     beta= 0.30
     Davidson diagonalization with overlap
     ethr =  1.71E-09,  avg # of iterations =  5.1

     negative rho (up, down):  0.000E+00 6.599E-05

     total cpu time spent up to now is     4377.8 secs

     total energy              =   -4538.66025969 Ry
     estimated scf accuracy    <       0.00003688 Ry

     total magnetization       =    12.38 Bohr mag/cell
     absolute magnetization    =    14.24 Bohr mag/cell

     iteration # 80     ecut=    60.00 Ry     beta= 0.30
     Davidson diagonalization with overlap
     ethr =  1.71E-09,  avg # of iterations =  3.8

     negative rho (up, down):  0.000E+00 6.591E-05

     total cpu time spent up to now is     4428.7 secs

     total energy              =   -4538.66026167 Ry
     estimated scf accuracy    <       0.00000298 Ry

     total magnetization       =    12.38 Bohr mag/cell
     absolute magnetization    =    14.25 Bohr mag/cell

     iteration # 81     ecut=    60.00 Ry     beta= 0.30
     Davidson diagonalization with overlap
     ethr =  1.25E-09,  avg # of iterations =  2.9

     negative rho (up, down):  0.000E+00 6.572E-05

     total cpu time spent up to now is     4476.7 secs

     total energy              =   -4538.66026210 Ry
     estimated scf accuracy    <       0.00000160 Ry

     total magnetization       =    12.38 Bohr mag/cell
     absolute magnetization    =    14.25 Bohr mag/cell

     iteration # 82     ecut=    60.00 Ry     beta= 0.30
     Davidson diagonalization with overlap
     ethr =  6.72E-10,  avg # of iterations =  6.1

     negative rho (up, down):  0.000E+00 6.593E-05

     total cpu time spent up to now is     4541.7 secs

     total energy              =   -4538.66026072 Ry
     estimated scf accuracy    <       0.00000254 Ry

     total magnetization       =    12.38 Bohr mag/cell
     absolute magnetization    =    14.26 Bohr mag/cell

     iteration # 83     ecut=    60.00 Ry     beta= 0.30
     Davidson diagonalization with overlap
     ethr =  6.72E-10,  avg # of iterations =  5.1

     negative rho (up, down):  0.000E+00 6.581E-05

     total cpu time spent up to now is     4600.6 secs

     total energy              =   -4538.66026267 Ry
     estimated scf accuracy    <       0.00000438 Ry

     total magnetization       =    12.38 Bohr mag/cell
     absolute magnetization    =    14.25 Bohr mag/cell

     iteration # 84     ecut=    60.00 Ry     beta= 0.30
     Davidson diagonalization with overlap
     ethr =  6.72E-10,  avg # of iterations =  5.0

     negative rho (up, down):  0.000E+00 6.582E-05

     total cpu time spent up to now is     4654.2 secs

     total energy              =   -4538.66026303 Ry
     estimated scf accuracy    <       0.00000190 Ry

     total magnetization       =    12.38 Bohr mag/cell
     absolute magnetization    =    14.25 Bohr mag/cell

     iteration # 85     ecut=    60.00 Ry     beta= 0.30
     Davidson diagonalization with overlap
     ethr =  6.72E-10,  avg # of iterations =  1.0

     negative rho (up, down):  0.000E+00 6.575E-05

     total cpu time spent up to now is     4695.4 secs

     total energy              =   -4538.66026356 Ry
     estimated scf accuracy    <       0.00000143 Ry

     total magnetization       =    12.38 Bohr mag/cell
     absolute magnetization    =    14.25 Bohr mag/cell

     iteration # 86     ecut=    60.00 Ry     beta= 0.30
     Davidson diagonalization with overlap
     ethr =  6.03E-10,  avg # of iterations =  3.4

     negative rho (up, down):  0.000E+00 6.570E-05

     total cpu time spent up to now is     4745.3 secs

     total energy              =   -4538.66026409 Ry
     estimated scf accuracy    <       0.00000120 Ry

     total magnetization       =    12.38 Bohr mag/cell
     absolute magnetization    =    14.25 Bohr mag/cell

     iteration # 87     ecut=    60.00 Ry     beta= 0.30
     Davidson diagonalization with overlap
     ethr =  5.02E-10,  avg # of iterations =  5.5

     negative rho (up, down):  0.000E+00 6.573E-05

     total cpu time spent up to now is     4801.8 secs

     total energy              =   -4538.66026390 Ry
     estimated scf accuracy    <       0.00000472 Ry

     total magnetization       =    12.38 Bohr mag/cell
     absolute magnetization    =    14.26 Bohr mag/cell

     iteration # 88     ecut=    60.00 Ry     beta= 0.30
     Davidson diagonalization with overlap
     ethr =  5.02E-10,  avg # of iterations =  2.2

     negative rho (up, down):  0.000E+00 6.502E-05

     total cpu time spent up to now is     4846.8 secs

     total energy              =   -4538.66024825 Ry
     estimated scf accuracy    <       0.00000186 Ry

     total magnetization       =    12.38 Bohr mag/cell
     absolute magnetization    =    14.26 Bohr mag/cell

     iteration # 89     ecut=    60.00 Ry     beta= 0.30
     Davidson diagonalization with overlap
     ethr =  5.02E-10,  avg # of iterations = 10.4

     negative rho (up, down):  0.000E+00 6.565E-05

     total cpu time spent up to now is     4937.4 secs

     total energy              =   -4538.66024799 Ry
     estimated scf accuracy    <       0.00000579 Ry

     total magnetization       =    12.37 Bohr mag/cell
     absolute magnetization    =    14.29 Bohr mag/cell

     iteration # 90     ecut=    60.00 Ry     beta= 0.30
     Davidson diagonalization with overlap
     ethr =  5.02E-10,  avg # of iterations =  9.8

     negative rho (up, down):  0.000E+00 6.555E-05

     total cpu time spent up to now is     5024.7 secs

     total energy              =   -4538.66026540 Ry
     estimated scf accuracy    <       0.00000389 Ry

     total magnetization       =    12.38 Bohr mag/cell
     absolute magnetization    =    14.26 Bohr mag/cell

     iteration # 91     ecut=    60.00 Ry     beta= 0.30
     Davidson diagonalization with overlap
     ethr =  5.02E-10,  avg # of iterations =  5.0

     negative rho (up, down):  0.000E+00 6.544E-05

     total cpu time spent up to now is     5080.3 secs

     total energy              =   -4538.66026647 Ry
     estimated scf accuracy    <       0.00000165 Ry

     total magnetization       =    12.37 Bohr mag/cell
     absolute magnetization    =    14.27 Bohr mag/cell

     iteration # 92     ecut=    60.00 Ry     beta= 0.30
     Davidson diagonalization with overlap
     ethr =  5.02E-10,  avg # of iterations =  5.1

     negative rho (up, down):  0.000E+00 6.522E-05

     total cpu time spent up to now is     5138.4 secs

     total energy              =   -4538.66026657 Ry
     estimated scf accuracy    <       0.00000229 Ry

     total magnetization       =    12.37 Bohr mag/cell
     absolute magnetization    =    14.27 Bohr mag/cell

     iteration # 93     ecut=    60.00 Ry     beta= 0.30
     Davidson diagonalization with overlap
     ethr =  5.02E-10,  avg # of iterations =  6.8

     negative rho (up, down):  0.000E+00 6.514E-05

     total cpu time spent up to now is     5207.9 secs

     total energy              =   -4538.66026893 Ry
     estimated scf accuracy    <       0.00000955 Ry

     total magnetization       =    12.37 Bohr mag/cell
     absolute magnetization    =    14.28 Bohr mag/cell

     iteration # 94     ecut=    60.00 Ry     beta= 0.30
     Davidson diagonalization with overlap
     ethr =  5.02E-10,  avg # of iterations =  5.6

     negative rho (up, down):  0.000E+00 6.527E-05

     total cpu time spent up to now is     5268.7 secs

     total energy              =   -4538.66026792 Ry
     estimated scf accuracy    <       0.00000309 Ry

     total magnetization       =    12.37 Bohr mag/cell
     absolute magnetization    =    14.29 Bohr mag/cell

     iteration # 95     ecut=    60.00 Ry     beta= 0.30
     Davidson diagonalization with overlap
     ethr =  5.02E-10,  avg # of iterations =  4.5

     negative rho (up, down):  0.000E+00 6.516E-05

     total cpu time spent up to now is     5325.7 secs

     total energy              =   -4538.66026901 Ry
     estimated scf accuracy    <       0.00000440 Ry

     total magnetization       =    12.37 Bohr mag/cell
     absolute magnetization    =    14.28 Bohr mag/cell

     iteration # 96     ecut=    60.00 Ry     beta= 0.30
     Davidson diagonalization with overlap
     ethr =  5.02E-10,  avg # of iterations =  4.5

     negative rho (up, down):  0.000E+00 6.460E-05

     total cpu time spent up to now is     5380.0 secs

     total energy              =   -4538.66025639 Ry
     estimated scf accuracy    <       0.00000122 Ry

     total magnetization       =    12.37 Bohr mag/cell
     absolute magnetization    =    14.29 Bohr mag/cell

     iteration # 97     ecut=    60.00 Ry     beta= 0.30
     Davidson diagonalization with overlap
     ethr =  5.02E-10,  avg # of iterations =  9.9

     negative rho (up, down):  0.000E+00 6.517E-05

     total cpu time spent up to now is     5467.9 secs

     total energy              =   -4538.66025280 Ry
     estimated scf accuracy    <       0.00000123 Ry

     total magnetization       =    12.35 Bohr mag/cell
     absolute magnetization    =    14.32 Bohr mag/cell

     iteration # 98     ecut=    60.00 Ry     beta= 0.30
     Davidson diagonalization with overlap
     ethr =  5.02E-10,  avg # of iterations =  9.9

     negative rho (up, down):  0.000E+00 6.439E-05

     total cpu time spent up to now is     5555.1 secs

     total energy              =   -4538.66023881 Ry
     estimated scf accuracy    <       0.00000394 Ry

     total magnetization       =    12.37 Bohr mag/cell
     absolute magnetization    =    14.29 Bohr mag/cell

     iteration # 99     ecut=    60.00 Ry     beta= 0.30
     Davidson diagonalization with overlap
     ethr =  5.02E-10,  avg # of iterations = 11.3

     negative rho (up, down):  0.000E+00 6.430E-05

     total cpu time spent up to now is     5649.5 secs

     total energy              =   -4538.66027470 Ry
     estimated scf accuracy    <       0.00000108 Ry

     total magnetization       =    12.35 Bohr mag/cell
     absolute magnetization    =    14.34 Bohr mag/cell

     iteration #100     ecut=    60.00 Ry     beta= 0.30
     Davidson diagonalization with overlap
     ethr =  4.54E-10,  avg # of iterations =  5.3

     negative rho (up, down):  0.000E+00 6.456E-05

     total cpu time spent up to now is     5706.4 secs

     total energy              =   -4538.66026923 Ry
     estimated scf accuracy    <       0.00000130 Ry

     total magnetization       =    12.35 Bohr mag/cell
     absolute magnetization    =    14.34 Bohr mag/cell

     iteration #101     ecut=    60.00 Ry     beta= 0.30
     Davidson diagonalization with overlap
     ethr =  4.54E-10,  avg # of iterations =  7.2

     negative rho (up, down):  0.000E+00 6.446E-05

     total cpu time spent up to now is     5777.9 secs

     total energy              =   -4538.66027347 Ry
     estimated scf accuracy    <       0.00000394 Ry

     total magnetization       =    12.35 Bohr mag/cell
     absolute magnetization    =    14.32 Bohr mag/cell

     iteration #102     ecut=    60.00 Ry     beta= 0.30
     Davidson diagonalization with overlap
     ethr =  4.54E-10,  avg # of iterations =  5.1

     negative rho (up, down):  0.000E+00 6.409E-05

     total cpu time spent up to now is     5835.9 secs

     total energy              =   -4538.66026760 Ry
     estimated scf accuracy    <       0.00000154 Ry

     total magnetization       =    12.35 Bohr mag/cell
     absolute magnetization    =    14.33 Bohr mag/cell

     iteration #103     ecut=    60.00 Ry     beta= 0.30
     Davidson diagonalization with overlap
     ethr =  4.54E-10,  avg # of iterations =  8.2

     negative rho (up, down):  0.000E+00 6.403E-05

     total cpu time spent up to now is     5914.6 secs

     total energy              =   -4538.66027567 Ry
     estimated scf accuracy    <       0.00000058 Ry

     total magnetization       =    12.34 Bohr mag/cell
     absolute magnetization    =    14.36 Bohr mag/cell

     iteration #104     ecut=    60.00 Ry     beta= 0.30
     Davidson diagonalization with overlap
     ethr =  2.44E-10,  avg # of iterations =  5.2

     negative rho (up, down):  0.000E+00 6.387E-05

     total cpu time spent up to now is     5971.4 secs

     total energy              =   -4538.66027505 Ry
     estimated scf accuracy    <       0.00000026 Ry

     total magnetization       =    12.34 Bohr mag/cell
     absolute magnetization    =    14.36 Bohr mag/cell

     iteration #105     ecut=    60.00 Ry     beta= 0.30
     Davidson diagonalization with overlap
     ethr =  1.08E-10,  avg # of iterations =  8.2

     negative rho (up, down):  0.000E+00 6.409E-05

     total cpu time spent up to now is     6047.8 secs

     total energy              =   -4538.66027276 Ry
     estimated scf accuracy    <       0.00000140 Ry

     total magnetization       =    12.34 Bohr mag/cell
     absolute magnetization    =    14.37 Bohr mag/cell

     iteration #106     ecut=    60.00 Ry     beta= 0.30
     Davidson diagonalization with overlap
     ethr =  1.08E-10,  avg # of iterations =  9.2

     negative rho (up, down):  0.000E+00 6.401E-05

     total cpu time spent up to now is     6131.7 secs

     total energy              =   -4538.66027547 Ry
     estimated scf accuracy    <       0.00000095 Ry

     total magnetization       =    12.34 Bohr mag/cell
     absolute magnetization    =    14.36 Bohr mag/cell

     iteration #107     ecut=    60.00 Ry     beta= 0.30
     Davidson diagonalization with overlap
     ethr =  1.08E-10,  avg # of iterations =  5.6

     negative rho (up, down):  0.000E+00 6.375E-05

     total cpu time spent up to now is     6196.2 secs

     total energy              =   -4538.66027352 Ry
     estimated scf accuracy    <       0.00000013 Ry

     total magnetization       =    12.34 Bohr mag/cell
     absolute magnetization    =    14.36 Bohr mag/cell

     iteration #108     ecut=    60.00 Ry     beta= 0.30
     Davidson diagonalization with overlap
     ethr =  5.44E-11,  avg # of iterations = 10.7

     negative rho (up, down):  0.000E+00 6.397E-05

     total cpu time spent up to now is     6288.4 secs

     total energy              =   -4538.66027356 Ry
     estimated scf accuracy    <       0.00000087 Ry

     total magnetization       =    12.34 Bohr mag/cell
     absolute magnetization    =    14.38 Bohr mag/cell

     iteration #109     ecut=    60.00 Ry     beta= 0.30
     Davidson diagonalization with overlap
     ethr =  5.44E-11,  avg # of iterations = 10.4

     negative rho (up, down):  0.000E+00 6.397E-05

     total cpu time spent up to now is     6378.6 secs

     total energy              =   -4538.66027601 Ry
     estimated scf accuracy    <       0.00000014 Ry

     total magnetization       =    12.34 Bohr mag/cell
     absolute magnetization    =    14.36 Bohr mag/cell

     iteration #110     ecut=    60.00 Ry     beta= 0.30
     Davidson diagonalization with overlap
     ethr =  5.44E-11,  avg # of iterations =  1.0

     negative rho (up, down):  0.000E+00 6.388E-05

     total cpu time spent up to now is     6418.7 secs

     total energy              =   -4538.66027593 Ry
     estimated scf accuracy    <       0.00000007 Ry

     total magnetization       =    12.34 Bohr mag/cell
     absolute magnetization    =    14.36 Bohr mag/cell

     iteration #111     ecut=    60.00 Ry     beta= 0.30
     Davidson diagonalization with overlap
     ethr =  2.89E-11,  avg # of iterations =  7.1

     negative rho (up, down):  0.000E+00 6.388E-05

     total cpu time spent up to now is     6489.0 secs

     total energy              =   -4538.66027615 Ry
     estimated scf accuracy    <       0.00000015 Ry

     total magnetization       =    12.34 Bohr mag/cell
     absolute magnetization    =    14.37 Bohr mag/cell

     iteration #112     ecut=    60.00 Ry     beta= 0.30
     Davidson diagonalization with overlap
     ethr =  2.89E-11,  avg # of iterations =  2.0

     negative rho (up, down):  0.000E+00 6.386E-05

     total cpu time spent up to now is     6532.5 secs

     total energy              =   -4538.66027616 Ry
     estimated scf accuracy    <       0.00000013 Ry

     total magnetization       =    12.34 Bohr mag/cell
     absolute magnetization    =    14.37 Bohr mag/cell

     iteration #113     ecut=    60.00 Ry     beta= 0.30
     Davidson diagonalization with overlap
     ethr =  2.89E-11,  avg # of iterations =  1.4

     negative rho (up, down):  0.000E+00 6.386E-05

     total cpu time spent up to now is     6575.4 secs

     total energy              =   -4538.66027617 Ry
     estimated scf accuracy    <       0.00000010 Ry

     total magnetization       =    12.34 Bohr mag/cell
     absolute magnetization    =    14.37 Bohr mag/cell

     iteration #114     ecut=    60.00 Ry     beta= 0.30
     Davidson diagonalization with overlap
     ethr =  2.89E-11,  avg # of iterations =  1.9

     negative rho (up, down):  0.000E+00 6.362E-05

     total cpu time spent up to now is     6619.7 secs

     total energy              =   -4538.66027522 Ry
     estimated scf accuracy    <       0.00000009 Ry

     total magnetization       =    12.34 Bohr mag/cell
     absolute magnetization    =    14.37 Bohr mag/cell

     iteration #115     ecut=    60.00 Ry     beta= 0.30
     Davidson diagonalization with overlap
     ethr =  2.89E-11,  avg # of iterations = 10.4

     negative rho (up, down):  0.000E+00 6.365E-05

     total cpu time spent up to now is     6710.4 secs

     total energy              =   -4538.66027636 Ry
     estimated scf accuracy    <       0.00000019 Ry

     total magnetization       =    12.34 Bohr mag/cell
     absolute magnetization    =    14.38 Bohr mag/cell

     iteration #116     ecut=    60.00 Ry     beta= 0.30
     Davidson diagonalization with overlap
     ethr =  2.89E-11,  avg # of iterations =  4.7

     negative rho (up, down):  0.000E+00 6.377E-05

     total cpu time spent up to now is     6766.8 secs

     total energy              =   -4538.66027595 Ry
     estimated scf accuracy    <       0.00000030 Ry

     total magnetization       =    12.34 Bohr mag/cell
     absolute magnetization    =    14.38 Bohr mag/cell

     iteration #117     ecut=    60.00 Ry     beta= 0.30
     Davidson diagonalization with overlap
     ethr =  2.89E-11,  avg # of iterations =  7.9

     negative rho (up, down):  0.000E+00 6.351E-05

     total cpu time spent up to now is     6842.1 secs

     total energy              =   -4538.66027515 Ry
     estimated scf accuracy    <       0.00000018 Ry

     total magnetization       =    12.34 Bohr mag/cell
     absolute magnetization    =    14.37 Bohr mag/cell

     iteration #118     ecut=    60.00 Ry     beta= 0.30
     Davidson diagonalization with overlap
     ethr =  2.89E-11,  avg # of iterations = 10.5

     negative rho (up, down):  0.000E+00 6.353E-05

     total cpu time spent up to now is     6932.3 secs

     total energy              =   -4538.66027646 Ry
     estimated scf accuracy    <       0.00000007 Ry

     total magnetization       =    12.33 Bohr mag/cell
     absolute magnetization    =    14.38 Bohr mag/cell

     iteration #119     ecut=    60.00 Ry     beta= 0.30
     Davidson diagonalization with overlap
     ethr =  2.89E-11,  avg # of iterations =  3.1

     negative rho (up, down):  0.000E+00 6.363E-05

     total cpu time spent up to now is     6981.1 secs

     total energy              =   -4538.66027615 Ry
     estimated scf accuracy    <       0.00000007 Ry

     total magnetization       =    12.33 Bohr mag/cell
     absolute magnetization    =    14.38 Bohr mag/cell

     iteration #120     ecut=    60.00 Ry     beta= 0.30
     Davidson diagonalization with overlap
     ethr =  2.82E-11,  avg # of iterations =  7.2

     negative rho (up, down):  0.000E+00 6.336E-05

     total cpu time spent up to now is     7052.7 secs

     total energy              =   -4538.66027524 Ry
     estimated scf accuracy    <       0.00000036 Ry

     total magnetization       =    12.34 Bohr mag/cell
     absolute magnetization    =    14.38 Bohr mag/cell

     iteration #121     ecut=    60.00 Ry     beta= 0.30
     Davidson diagonalization with overlap
     ethr =  2.82E-11,  avg # of iterations = 10.6

     negative rho (up, down):  0.000E+00 6.342E-05

     total cpu time spent up to now is     7143.6 secs

     total energy              =   -4538.66027645 Ry
     estimated scf accuracy    <       0.00000008 Ry

     total magnetization       =    12.33 Bohr mag/cell
     absolute magnetization    =    14.39 Bohr mag/cell

     iteration #122     ecut=    60.00 Ry     beta= 0.30
     Davidson diagonalization with overlap
     ethr =  2.82E-11,  avg # of iterations =  5.2

     negative rho (up, down):  0.000E+00 6.344E-05

     total cpu time spent up to now is     7203.2 secs

     total energy              =   -4538.66027650 Ry
     estimated scf accuracy    <       0.00000013 Ry

     total magnetization       =    12.33 Bohr mag/cell
     absolute magnetization    =    14.38 Bohr mag/cell

     iteration #123     ecut=    60.00 Ry     beta= 0.30
     Davidson diagonalization with overlap
     ethr =  2.82E-11,  avg # of iterations =  3.7

     negative rho (up, down):  0.000E+00 6.345E-05

     total cpu time spent up to now is     7253.9 secs

     total energy              =   -4538.66027650 Ry
     estimated scf accuracy    <       0.00000004 Ry

     total magnetization       =    12.33 Bohr mag/cell
     absolute magnetization    =    14.38 Bohr mag/cell

     iteration #124     ecut=    60.00 Ry     beta= 0.30
     Davidson diagonalization with overlap
     ethr =  1.80E-11,  avg # of iterations =  4.5

     negative rho (up, down):  0.000E+00 6.344E-05

     total cpu time spent up to now is     7306.4 secs

     total energy              =   -4538.66027651 Ry
     estimated scf accuracy    <       0.00000004 Ry

     total magnetization       =    12.33 Bohr mag/cell
     absolute magnetization    =    14.38 Bohr mag/cell

     iteration #125     ecut=    60.00 Ry     beta= 0.30
     Davidson diagonalization with overlap
     ethr =  1.79E-11,  avg # of iterations =  1.0

     negative rho (up, down):  0.000E+00 6.336E-05

     total cpu time spent up to now is     7347.7 secs

     total energy              =   -4538.66027646 Ry
     estimated scf accuracy    <       0.00000002 Ry

     total magnetization       =    12.33 Bohr mag/cell
     absolute magnetization    =    14.38 Bohr mag/cell

     iteration #126     ecut=    60.00 Ry     beta= 0.30
     Davidson diagonalization with overlap
     ethr =  6.83E-12,  avg # of iterations =  7.4

     negative rho (up, down):  0.000E+00 6.339E-05

     total cpu time spent up to now is     7420.9 secs

     total energy              =   -4538.66027652 Ry
     estimated scf accuracy    <       0.00000005 Ry

     total magnetization       =    12.33 Bohr mag/cell
     absolute magnetization    =    14.39 Bohr mag/cell

     iteration #127     ecut=    60.00 Ry     beta= 0.30
     Davidson diagonalization with overlap
     ethr =  6.83E-12,  avg # of iterations =  5.0

     negative rho (up, down):  0.000E+00 6.336E-05

     total cpu time spent up to now is     7478.7 secs

     total energy              =   -4538.66027653 Ry
     estimated scf accuracy    <       0.00000003 Ry

     total magnetization       =    12.33 Bohr mag/cell
     absolute magnetization    =    14.38 Bohr mag/cell

     iteration #128     ecut=    60.00 Ry     beta= 0.30
     Davidson diagonalization with overlap
     ethr =  6.83E-12,  avg # of iterations =  5.0

     negative rho (up, down):  0.000E+00 6.338E-05

     total cpu time spent up to now is     7536.8 secs

     total energy              =   -4538.66027653 Ry
     estimated scf accuracy    <       0.00000001 Ry

     total magnetization       =    12.33 Bohr mag/cell
     absolute magnetization    =    14.39 Bohr mag/cell

     iteration #129     ecut=    60.00 Ry     beta= 0.30
     Davidson diagonalization with overlap
     ethr =  5.32E-12,  avg # of iterations =  5.0

     negative rho (up, down):  0.000E+00 6.333E-05

     total cpu time spent up to now is     7593.5 secs

     total energy              =   -4538.66027653 Ry
     estimated scf accuracy    <       0.00000003 Ry

     total magnetization       =    12.33 Bohr mag/cell
     absolute magnetization    =    14.39 Bohr mag/cell

     iteration #130     ecut=    60.00 Ry     beta= 0.30
     Davidson diagonalization with overlap
     ethr =  5.32E-12,  avg # of iterations =  5.9

     negative rho (up, down):  0.000E+00 6.330E-05

     total cpu time spent up to now is     7659.7 secs

     total energy              =   -4538.66027654 Ry
     estimated scf accuracy    <       0.00000004 Ry

     total magnetization       =    12.33 Bohr mag/cell
     absolute magnetization    =    14.39 Bohr mag/cell

     iteration #131     ecut=    60.00 Ry     beta= 0.30
     Davidson diagonalization with overlap
     ethr =  5.32E-12,  avg # of iterations =  5.3

     negative rho (up, down):  0.000E+00 6.323E-05

     total cpu time spent up to now is     7721.4 secs

     total energy              =   -4538.66027651 Ry
     estimated scf accuracy    <       0.00000001 Ry

     total magnetization       =    12.33 Bohr mag/cell
     absolute magnetization    =    14.39 Bohr mag/cell

     iteration #132     ecut=    60.00 Ry     beta= 0.30
     Davidson diagonalization with overlap
     ethr =  5.32E-12,  avg # of iterations =  7.7

     negative rho (up, down):  0.000E+00 6.324E-05
 
     Magnetic moment per site  (integrated on atomic sphere of radius R)
     atom   1 (R=0.178)  charge= 12.1432  magn= -0.0724
     atom   2 (R=0.178)  charge= 14.4464  magn=  1.7678
     atom   3 (R=0.178)  charge= 14.4231  magn=  1.9017
     atom   4 (R=0.178)  charge= 12.1739  magn=  0.1247
     atom   5 (R=0.178)  charge= 12.1449  magn= -0.0241
     atom   6 (R=0.178)  charge= 14.4497  magn=  1.7280
     atom   7 (R=0.178)  charge= 12.1456  magn=  0.0140
     atom   8 (R=0.178)  charge= 12.1745  magn=  0.0470
     atom   9 (R=0.178)  charge= 12.1456  magn=  0.0140
     atom  10 (R=0.178)  charge= 14.4438  magn=  1.7443
     atom  11 (R=0.178)  charge= 12.1449  magn= -0.0241
     atom  12 (R=0.178)  charge= 14.4457  magn=  1.7542
     atom  13 (R=0.178)  charge= 14.4231  magn=  1.9017
     atom  14 (R=0.178)  charge= 12.1720  magn=  0.1403
     atom  15 (R=0.178)  charge= 12.1432  magn= -0.0724
     atom  16 (R=0.178)  charge= 14.4497  magn=  1.7220

     total cpu time spent up to now is     7797.5 secs

     End of self-consistent calculation

     Number of k-points >= 100: set verbosity='high' to print the bands.

     the Fermi energy is    19.6326 ev

!    total energy              =   -4538.66027657 Ry
     total all-electron energy =    -36734.530115 Ry
     estimated scf accuracy    <          4.2E-09 Ry
     smearing contrib. (-TS)   =      -0.00480884 Ry
     internal energy E=F+TS    =   -4538.65546773 Ry

     The total energy is F=E-TS. E is the sum of the following terms:
     one-electron contribution =   -1254.91033167 Ry
     hartree contribution      =     779.47403885 Ry
     xc contribution           =    -394.69590470 Ry
     ewald contribution        =   -2420.73834531 Ry
     one-center paw contrib.   =   -1247.78492490 Ry

     total magnetization       =    12.33 Bohr mag/cell
     absolute magnetization    =    14.39 Bohr mag/cell

     convergence has been achieved in 132 iterations


     Computing stress (Cartesian axis) and pressure


     negative rho (up, down):  0.000E+00 6.324E-05
          total   stress  (Ry/bohr**3)                   (kbar)     P=       18.39
   0.00003743   0.00003636   0.00015046            5.51        5.35       22.13
   0.00003636   0.00014725   0.00003634            5.35       21.66        5.35
   0.00015046   0.00003634   0.00019033           22.13        5.35       28.00


     Writing all to output data dir ./tmp/fecr_fe07cr09_t-0.01.save/ :
     XML data file, charge density, pseudopotentials, collected wavefunctions
 
     init_run     :     40.55s CPU     30.90s WALL (       1 calls)
     electrons    :   9329.13s CPU   7766.16s WALL (       1 calls)
     stress       :     33.41s CPU     33.06s WALL (       1 calls)

     Called by init_run:
     wfcinit      :     10.19s CPU     12.34s WALL (       1 calls)
     potinit      :     29.47s CPU     17.56s WALL (       1 calls)
     hinit0       :      0.56s CPU      0.56s WALL (       1 calls)

     Called by electrons:
     c_bands      :   5037.10s CPU   5051.85s WALL (     132 calls)
     sum_band     :    413.79s CPU    414.14s WALL (     132 calls)
     v_of_rho     :      7.68s CPU      6.42s WALL (     133 calls)
     newd         :      5.21s CPU      5.24s WALL (     133 calls)
                                        5.24s GPU  (     133 calls)
     PAW_pot      :   3884.95s CPU   2296.22s WALL (     133 calls)
     mix_rho      :      4.42s CPU      4.45s WALL (     132 calls)

     Called by c_bands:
     init_us_2    :     34.83s CPU     33.06s WALL (   59584 calls)
     cegterg      :   4600.65s CPU   4615.21s WALL (   29568 calls)

     Called by *egterg:
     cdiaghg      :   1624.28s CPU   1636.50s WALL (  176757 calls)
                                     1635.76s GPU  (  176757 calls)
     h_psi        :   1365.80s CPU   1373.55s WALL (  176981 calls)
                                     1372.23s GPU  (  176981 calls)
     s_psi        :     90.44s CPU     91.74s WALL (  176981 calls)
     g_psi        :      0.81s CPU      8.22s WALL (  147189 calls)
                                        7.78s GPU  (  147189 calls)

     Called by h_psi:
     h_psi:calbec :      6.42s CPU    287.78s WALL (  176981 calls)
                                      287.11s GPU  (  176981 calls)
     vloc_psi     :    721.36s CPU    719.98s WALL (  176981 calls)
                                      719.38s GPU  (  176981 calls)
     add_vuspsi   :     88.12s CPU    356.25s WALL (  176981 calls)
                                      355.61s GPU  (  176981 calls)

     General routines
     calbec       :      7.60s CPU      7.89s WALL (  206773 calls)
     fft          :      3.19s CPU      3.46s WALL (    3344 calls)
                                        0.33s GPU  (    3078 calls)
     ffts         :      0.50s CPU      0.51s WALL (     530 calls)
                                        0.01s GPU  (     264 calls)
     fftw         :     39.93s CPU    668.03s WALL ( 1843880 calls)
                                      663.66s GPU  ( 1843880 calls)
     interpolate  :      3.85s CPU      3.86s WALL (     266 calls)
 
     Parallel routines
 
     PWSCF        :      2h36m CPU      2h10m WALL

 
   This run was terminated on:   8: 7:30  19May2026            

=------------------------------------------------------------------------------=
   JOB DONE.
=------------------------------------------------------------------------------=
Warning: ieee_divide_by_zero is signaling
Warning: ieee_inexact is signaling
FORTRAN STOP
