--------------------------------------------------------------------------
WARNING: Open MPI tried to bind a process but failed.  This is a
warning only; your job will continue, though performance may
be degraded.

  Local host:        4b82db919bf5
  Application name:  /root/q-e-qe-7.3.1/bin/pw.x
  Error message:     failed to bind memory
  Location:          ../../../../../orte/mca/rtc/hwloc/rtc_hwloc.c:447

--------------------------------------------------------------------------

     Program PWSCF v.7.3.1 starts on 16May2026 at  9:17:28 

     This program is part of the open-source Quantum ESPRESSO suite
     for quantum simulation of materials; please cite
         "P. Giannozzi et al., J. Phys.:Condens. Matter 21 395502 (2009);
         "P. Giannozzi et al., J. Phys.:Condens. Matter 29 465901 (2017);
         "P. Giannozzi et al., J. Chem. Phys. 152 154105 (2020);
          URL http://www.quantum-espresso.org", 
     in publications or presentations arising from this work. More details at
     http://www.quantum-espresso.org/quote

     Parallel version (MPI & OpenMP), running on       8 processor cores
     Number of MPI processes:                 1
     Threads/MPI process:                     8

     MPI processes distributed on     1 nodes
     19654 MiB available memory on the printing compute node when the environment starts
 
     Reading input from inputs/fecr_fe09cr07_h0.01.in

     Current dimensions of program PWSCF are:
     Max number of different atomic species (ntypx) = 10
     Max number of k-points (npk) =  40000
     Max angular momentum in pseudopotentials (lmaxx) =  4
     file Fe.pbe-spn-kjpaw_psl.1.0.0.UPF: wavefunction(s)  3P 3D renormalized
     file Cr.pbe-spn-kjpaw_psl.1.0.0.UPF: wavefunction(s)  3S 3P 3D renormalized
     Message from routine setup:
     using ibrav=0 with symmetry is DISCOURAGED, use correct ibrav instead
 
     Subspace diagonalization in iterative solution of the eigenvalue problem:
     a serial algorithm will be used

 
     G-vector sticks info
     --------------------
     sticks:   dense  smooth     PW     G-vecs:    dense   smooth      PW
     Sum        4509    2249    641               229231    80989   12197
 
     Using Slab Decomposition
 


     bravais-lattice index     =            0
     lattice parameter (alat)  =      10.8907  a.u.
     unit-cell volume          =    1291.7095 (a.u.)^3
     number of atoms/cell      =           16
     number of atomic types    =            2
     number of electrons       =       242.00
     number of Kohn-Sham states=          145
     kinetic-energy cutoff     =      60.0000  Ry
     charge density cutoff     =     480.0000  Ry
     scf convergence threshold =      1.0E-08
     mixing beta               =       0.3000
     number of iterations used =            8  plain     mixing
     Exchange-correlation= SLA  PW   PBX  PBC
                           (   1   4   3   4   0   0   0)

     GPU acceleration is ACTIVE.  1 visible GPUs per MPI rank


     celldm(1)=  10.890679  celldm(2)=   0.000000  celldm(3)=   0.000000
     celldm(4)=   0.000000  celldm(5)=   0.000000  celldm(6)=   0.000000

     crystal axes: (cart. coord. in units of alat)
               a(1) = (   1.000000   0.000000   0.000000 )  
               a(2) = (   0.000000   1.000000   0.000000 )  
               a(3) = (   0.000000   0.000000   1.000000 )  

     reciprocal axes: (cart. coord. in units 2 pi/alat)
               b(1) = (  1.000000  0.000000  0.000000 )  
               b(2) = (  0.000000  1.000000  0.000000 )  
               b(3) = (  0.000000  0.000000  1.000000 )  


     PseudoPot. # 1 for Fe read from file:
     ./pseudo/Fe.pbe-spn-kjpaw_psl.1.0.0.UPF
     MD5 check sum: fc81f059e5c5069939230b1155715ae8
     Pseudo is Projector augmented-wave + core cor, Zval = 16.0
     Generated using &quot;atomic&quot; code by A. Dal Corso  v.6.3
     Shape of augmentation charge: PSQ
     Using radial grid of 1191 points,  6 beta functions with: 
                l(1) =   0
                l(2) =   0
                l(3) =   1
                l(4) =   1
                l(5) =   2
                l(6) =   2
     Q(r) pseudized with 0 coefficients 


     PseudoPot. # 2 for Cr read from file:
     ./pseudo/Cr.pbe-spn-kjpaw_psl.1.0.0.UPF
     MD5 check sum: 198f1a2427a48552563eee314eba32ba
     Pseudo is Projector augmented-wave + core cor, Zval = 14.0
     Generated using &quot;atomic&quot; code by A. Dal Corso  v.6.3
     Shape of augmentation charge: PSQ
     Using radial grid of 1183 points,  6 beta functions with: 
                l(1) =   0
                l(2) =   0
                l(3) =   1
                l(4) =   1
                l(5) =   2
                l(6) =   2
     Q(r) pseudized with 0 coefficients 


     atomic species   valence    mass     pseudopotential
     Fe               16.00    55.84500     Fe( 1.00)
     Cr               14.00    51.99600     Cr( 1.00)

     Starting magnetic structure 
     atomic species   magnetization
     Fe              0.500
     Cr              0.300

      4 Sym. Ops., with inversion, found ( 2 have fractional translation)



   Cartesian axes

     site n.     atom                  positions (alat units)
         1        Cr     tau(   1) = (   0.0000000   0.0000000   0.0000000  )
         2        Fe     tau(   2) = (   0.2500000   0.2500000   0.2500000  )
         3        Fe     tau(   3) = (   0.0000000   0.0000000   0.5000000  )
         4        Cr     tau(   4) = (   0.2500000   0.2500000   0.7500000  )
         5        Cr     tau(   5) = (   0.0000000   0.5000000   0.0000000  )
         6        Fe     tau(   6) = (   0.2500000   0.7500000   0.2500000  )
         7        Cr     tau(   7) = (   0.0000000   0.5000000   0.5000000  )
         8        Fe     tau(   8) = (   0.2500000   0.7500000   0.7500000  )
         9        Cr     tau(   9) = (   0.5000000   0.0000000   0.0000000  )
        10        Fe     tau(  10) = (   0.7500000   0.2500000   0.2500000  )
        11        Fe     tau(  11) = (   0.5000000   0.0000000   0.5000000  )
        12        Fe     tau(  12) = (   0.7500000   0.2500000   0.7500000  )
        13        Fe     tau(  13) = (   0.5000000   0.5000000   0.0000000  )
        14        Cr     tau(  14) = (   0.7500000   0.7500000   0.2500000  )
        15        Cr     tau(  15) = (   0.5000000   0.5000000   0.5000000  )
        16        Fe     tau(  16) = (   0.7500000   0.7500000   0.7500000  )

     number of k points=    68  Marzari-Vanderbilt smearing, width (Ry)=  0.0200
                       cart. coord. in units 2pi/alat
        k(    1) = (   0.0000000   0.0000000   0.0000000), wk =   0.0046296
        k(    2) = (   0.0000000   0.0000000   0.1666667), wk =   0.0185185
        k(    3) = (   0.0000000   0.0000000   0.3333333), wk =   0.0185185
        k(    4) = (   0.0000000   0.0000000  -0.5000000), wk =   0.0092593
        k(    5) = (   0.0000000   0.1666667   0.1666667), wk =   0.0092593
        k(    6) = (   0.0000000   0.1666667   0.3333333), wk =   0.0185185
        k(    7) = (   0.0000000   0.1666667  -0.5000000), wk =   0.0185185
        k(    8) = (   0.0000000   0.3333333   0.3333333), wk =   0.0092593
        k(    9) = (   0.0000000   0.3333333  -0.5000000), wk =   0.0185185
        k(   10) = (   0.0000000  -0.5000000  -0.5000000), wk =   0.0046296
        k(   11) = (   0.1666667   0.1666667   0.1666667), wk =   0.0092593
        k(   12) = (   0.1666667   0.1666667   0.3333333), wk =   0.0185185
        k(   13) = (   0.1666667   0.1666667  -0.5000000), wk =   0.0185185
        k(   14) = (   0.1666667   0.3333333   0.3333333), wk =   0.0092593
        k(   15) = (   0.1666667   0.3333333  -0.5000000), wk =   0.0185185
        k(   16) = (   0.1666667  -0.5000000  -0.5000000), wk =   0.0092593
        k(   17) = (   0.3333333   0.3333333   0.3333333), wk =   0.0092593
        k(   18) = (   0.3333333   0.3333333  -0.5000000), wk =   0.0185185
        k(   19) = (   0.3333333  -0.5000000  -0.5000000), wk =   0.0092593
        k(   20) = (  -0.5000000  -0.5000000  -0.5000000), wk =   0.0046296
        k(   21) = (   0.1666667   0.0000000   0.0000000), wk =   0.0092593
        k(   22) = (   0.3333333   0.0000000   0.0000000), wk =   0.0092593
        k(   23) = (  -0.5000000   0.0000000   0.0000000), wk =   0.0046296
        k(   24) = (   0.1666667   0.0000000  -0.1666667), wk =   0.0185185
        k(   25) = (  -0.1666667   0.0000000  -0.1666667), wk =   0.0185185
        k(   26) = (   0.0000000  -0.1666667   0.1666667), wk =   0.0092593
        k(   27) = (   0.1666667   0.0000000  -0.3333333), wk =   0.0185185
        k(   28) = (  -0.1666667   0.0000000  -0.3333333), wk =   0.0185185
        k(   29) = (   0.3333333  -0.1666667   0.0000000), wk =   0.0185185
        k(   30) = (  -0.3333333  -0.1666667   0.0000000), wk =   0.0185185
        k(   31) = (   0.0000000  -0.1666667   0.3333333), wk =   0.0185185
        k(   32) = (   0.1666667   0.0000000   0.5000000), wk =   0.0185185
        k(   33) = (  -0.5000000  -0.1666667   0.0000000), wk =   0.0185185
        k(   34) = (   0.3333333   0.0000000  -0.3333333), wk =   0.0185185
        k(   35) = (  -0.3333333   0.0000000  -0.3333333), wk =   0.0185185
        k(   36) = (   0.0000000  -0.3333333   0.3333333), wk =   0.0092593
        k(   37) = (   0.3333333   0.0000000   0.5000000), wk =   0.0185185
        k(   38) = (  -0.5000000  -0.3333333   0.0000000), wk =   0.0185185
        k(   39) = (  -0.5000000   0.0000000   0.5000000), wk =   0.0092593
        k(   40) = (   0.1666667   0.1666667  -0.1666667), wk =   0.0185185
        k(   41) = (  -0.1666667   0.1666667   0.1666667), wk =   0.0092593
        k(   42) = (   0.1666667   0.1666667  -0.3333333), wk =   0.0185185
        k(   43) = (   0.1666667  -0.1666667   0.3333333), wk =   0.0185185
        k(   44) = (  -0.1666667   0.1666667   0.3333333), wk =   0.0185185
        k(   45) = (   0.3333333  -0.1666667   0.1666667), wk =   0.0185185
        k(   46) = (  -0.3333333  -0.1666667  -0.1666667), wk =   0.0092593
        k(   47) = (  -0.3333333   0.1666667   0.1666667), wk =   0.0092593
        k(   48) = (   0.1666667  -0.1666667  -0.5000000), wk =   0.0185185
        k(   49) = (  -0.5000000  -0.1666667   0.1666667), wk =   0.0092593
        k(   50) = (   0.5000000  -0.1666667  -0.1666667), wk =   0.0092593
        k(   51) = (   0.3333333   0.1666667  -0.3333333), wk =   0.0185185
        k(   52) = (  -0.3333333  -0.1666667  -0.3333333), wk =   0.0185185
        k(   53) = (   0.3333333  -0.1666667   0.3333333), wk =   0.0185185
        k(   54) = (  -0.3333333   0.1666667   0.3333333), wk =   0.0185185
        k(   55) = (  -0.1666667   0.3333333   0.3333333), wk =   0.0092593
        k(   56) = (  -0.1666667  -0.3333333   0.3333333), wk =   0.0185185
        k(   57) = (   0.3333333   0.1666667   0.5000000), wk =   0.0185185
        k(   58) = (   0.3333333  -0.1666667  -0.5000000), wk =   0.0185185
        k(   59) = (  -0.5000000  -0.3333333   0.1666667), wk =   0.0185185
        k(   60) = (   0.5000000  -0.3333333  -0.1666667), wk =   0.0185185
        k(   61) = (  -0.1666667  -0.5000000   0.3333333), wk =   0.0185185
        k(   62) = (  -0.5000000   0.1666667   0.5000000), wk =   0.0185185
        k(   63) = (   0.3333333   0.3333333  -0.3333333), wk =   0.0185185
        k(   64) = (  -0.3333333   0.3333333   0.3333333), wk =   0.0092593
        k(   65) = (   0.3333333  -0.3333333  -0.5000000), wk =   0.0185185
        k(   66) = (  -0.5000000  -0.3333333   0.3333333), wk =   0.0092593
        k(   67) = (   0.5000000  -0.3333333  -0.3333333), wk =   0.0092593
        k(   68) = (  -0.5000000   0.3333333   0.5000000), wk =   0.0185185

     Dense  grid:   229231 G-vectors     FFT dimensions: (  75,  80,  80)

     Smooth grid:    80989 G-vectors     FFT dimensions: (  54,  54,  54)

     Estimated max dynamical RAM per process >       3.96 GB

     Check: negative core charge=   -0.000003
     Generating pointlists ...
     new r_m :   0.1786 (alat units)  1.9453 (a.u.) for type    1
     new r_m :   0.1786 (alat units)  1.9453 (a.u.) for type    2

     Initial potential from superposition of free atoms

     starting charge     241.9907, renormalised to     242.0000
     Starting wfcs are  160 randomized atomic wfcs
     Checking if some PAW data can be deallocated... 

     total cpu time spent up to now is       58.9 secs

     Self-consistent Calculation

     iteration #  1     ecut=    60.00 Ry     beta= 0.30
     Davidson diagonalization with overlap
     ethr =  1.00E-02,  avg # of iterations =  3.8

     negative rho (up, down):  0.000E+00 7.292E-01

     total cpu time spent up to now is      155.1 secs

     total energy              =   -4690.10472200 Ry
     estimated scf accuracy    <      52.10133013 Ry

     total magnetization       =    48.01 Bohr mag/cell
     absolute magnetization    =    58.48 Bohr mag/cell

     iteration #  2     ecut=    60.00 Ry     beta= 0.30
     Davidson diagonalization with overlap
     ethr =  1.00E-02,  avg # of iterations =  4.3

     negative rho (up, down):  0.000E+00 6.064E-01

     total cpu time spent up to now is      250.9 secs

     total energy              =   -4688.24255130 Ry
     estimated scf accuracy    <      86.77118145 Ry

     total magnetization       =    18.62 Bohr mag/cell
     absolute magnetization    =    19.67 Bohr mag/cell

     iteration #  3     ecut=    60.00 Ry     beta= 0.30
     Davidson diagonalization with overlap
     ethr =  1.00E-02,  avg # of iterations =  2.5

     negative rho (up, down):  0.000E+00 4.428E-01

     total cpu time spent up to now is      340.2 secs

     total energy              =   -4696.72289189 Ry
     estimated scf accuracy    <      20.74350502 Ry

     total magnetization       =    42.64 Bohr mag/cell
     absolute magnetization    =    43.30 Bohr mag/cell

     iteration #  4     ecut=    60.00 Ry     beta= 0.30
     Davidson diagonalization with overlap
     ethr =  8.57E-03,  avg # of iterations =  1.6

     negative rho (up, down):  0.000E+00 3.763E-01

     total cpu time spent up to now is      414.0 secs

     total energy              =   -4698.15113075 Ry
     estimated scf accuracy    <      11.25762227 Ry

     total magnetization       =    35.13 Bohr mag/cell
     absolute magnetization    =    35.89 Bohr mag/cell

     iteration #  5     ecut=    60.00 Ry     beta= 0.30
     Davidson diagonalization with overlap
     ethr =  4.65E-03,  avg # of iterations =  1.3

     negative rho (up, down):  0.000E+00 2.302E-01

     total cpu time spent up to now is      489.0 secs

     total energy              =   -4699.06503522 Ry
     estimated scf accuracy    <       6.08855610 Ry

     total magnetization       =    34.82 Bohr mag/cell
     absolute magnetization    =    35.41 Bohr mag/cell

     iteration #  6     ecut=    60.00 Ry     beta= 0.30
     Davidson diagonalization with overlap
     ethr =  2.52E-03,  avg # of iterations =  2.5

     negative rho (up, down):  0.000E+00 9.609E-03

     total cpu time spent up to now is      573.2 secs

     total energy              =   -4699.62656968 Ry
     estimated scf accuracy    <      12.00447650 Ry

     total magnetization       =    32.42 Bohr mag/cell
     absolute magnetization    =    33.49 Bohr mag/cell

     iteration #  7     ecut=    60.00 Ry     beta= 0.30
     Davidson diagonalization with overlap
     ethr =  2.52E-03,  avg # of iterations =  2.7

     negative rho (up, down):  0.000E+00 2.852E-03

     total cpu time spent up to now is      662.6 secs

     total energy              =   -4700.16450691 Ry
     estimated scf accuracy    <       6.16196699 Ry

     total magnetization       =    26.64 Bohr mag/cell
     absolute magnetization    =    28.16 Bohr mag/cell

     iteration #  8     ecut=    60.00 Ry     beta= 0.30
     Davidson diagonalization with overlap
     ethr =  2.52E-03,  avg # of iterations =  1.1

     negative rho (up, down):  0.000E+00 2.814E-03

     total cpu time spent up to now is      739.7 secs

     total energy              =   -4700.42140225 Ry
     estimated scf accuracy    <       1.11232695 Ry

     total magnetization       =    26.89 Bohr mag/cell
     absolute magnetization    =    28.56 Bohr mag/cell

     iteration #  9     ecut=    60.00 Ry     beta= 0.30
     Davidson diagonalization with overlap
     ethr =  4.60E-04,  avg # of iterations =  4.2

     negative rho (up, down):  0.000E+00 2.789E-03

     total cpu time spent up to now is      836.9 secs

     total energy              =   -4700.48864450 Ry
     estimated scf accuracy    <       0.78512345 Ry

     total magnetization       =    25.51 Bohr mag/cell
     absolute magnetization    =    27.34 Bohr mag/cell

     iteration # 10     ecut=    60.00 Ry     beta= 0.30
     Davidson diagonalization with overlap
     ethr =  3.24E-04,  avg # of iterations =  1.9

     negative rho (up, down):  0.000E+00 2.518E-03

     total cpu time spent up to now is      918.4 secs

     total energy              =   -4700.57290951 Ry
     estimated scf accuracy    <       0.98788745 Ry

     total magnetization       =    24.92 Bohr mag/cell
     absolute magnetization    =    26.82 Bohr mag/cell

     iteration # 11     ecut=    60.00 Ry     beta= 0.30
     Davidson diagonalization with overlap
     ethr =  3.24E-04,  avg # of iterations =  1.3

     negative rho (up, down):  0.000E+00 1.973E-03

     total cpu time spent up to now is      995.4 secs

     total energy              =   -4700.61102334 Ry
     estimated scf accuracy    <       0.89031368 Ry

     total magnetization       =    21.94 Bohr mag/cell
     absolute magnetization    =    24.44 Bohr mag/cell

     iteration # 12     ecut=    60.00 Ry     beta= 0.30
     Davidson diagonalization with overlap
     ethr =  3.24E-04,  avg # of iterations =  1.5

     negative rho (up, down):  0.000E+00 1.717E-03

     total cpu time spent up to now is     1068.2 secs

     total energy              =   -4700.66115239 Ry
     estimated scf accuracy    <       0.31127721 Ry

     total magnetization       =    20.40 Bohr mag/cell
     absolute magnetization    =    23.27 Bohr mag/cell

     iteration # 13     ecut=    60.00 Ry     beta= 0.30
     Davidson diagonalization with overlap
     ethr =  1.29E-04,  avg # of iterations =  3.0

     negative rho (up, down):  0.000E+00 1.223E-03

     total cpu time spent up to now is     1156.1 secs

     total energy              =   -4700.68958557 Ry
     estimated scf accuracy    <       0.09816137 Ry

     total magnetization       =    20.14 Bohr mag/cell
     absolute magnetization    =    22.85 Bohr mag/cell

     iteration # 14     ecut=    60.00 Ry     beta= 0.30
     Davidson diagonalization with overlap
     c_bands:  2 eigenvalues not converged
     c_bands:  1 eigenvalues not converged
     c_bands:  1 eigenvalues not converged
     c_bands:  1 eigenvalues not converged
     ethr =  4.06E-05,  avg # of iterations =  8.3

     negative rho (up, down):  0.000E+00 9.114E-04

     total cpu time spent up to now is     1282.4 secs

     total energy              =   -4700.69998286 Ry
     estimated scf accuracy    <       0.18625060 Ry

     total magnetization       =    19.80 Bohr mag/cell
     absolute magnetization    =    22.46 Bohr mag/cell

     iteration # 15     ecut=    60.00 Ry     beta= 0.30
     Davidson diagonalization with overlap
     ethr =  4.06E-05,  avg # of iterations =  1.8

     negative rho (up, down):  0.000E+00 6.014E-04

     total cpu time spent up to now is     1358.4 secs

     total energy              =   -4700.71329734 Ry
     estimated scf accuracy    <       0.06687581 Ry

     total magnetization       =    19.65 Bohr mag/cell
     absolute magnetization    =    22.28 Bohr mag/cell

     iteration # 16     ecut=    60.00 Ry     beta= 0.30
     Davidson diagonalization with overlap
     c_bands:  1 eigenvalues not converged
     ethr =  2.76E-05,  avg # of iterations =  3.5

     negative rho (up, down):  0.000E+00 3.257E-04

     total cpu time spent up to now is     1452.6 secs

     total energy              =   -4700.72106737 Ry
     estimated scf accuracy    <       0.07779186 Ry

     total magnetization       =    18.70 Bohr mag/cell
     absolute magnetization    =    21.74 Bohr mag/cell

     iteration # 17     ecut=    60.00 Ry     beta= 0.30
     Davidson diagonalization with overlap
     c_bands:  2 eigenvalues not converged
     ethr =  2.76E-05,  avg # of iterations =  1.4

     negative rho (up, down):  0.000E+00 1.983E-04

     total cpu time spent up to now is     1529.5 secs

     total energy              =   -4700.72714023 Ry
     estimated scf accuracy    <       0.03166348 Ry

     total magnetization       =    17.92 Bohr mag/cell
     absolute magnetization    =    21.16 Bohr mag/cell

     iteration # 18     ecut=    60.00 Ry     beta= 0.30
     Davidson diagonalization with overlap
     c_bands:  3 eigenvalues not converged
     c_bands:  1 eigenvalues not converged
     c_bands:  2 eigenvalues not converged
     c_bands:  1 eigenvalues not converged
     c_bands:  2 eigenvalues not converged
     c_bands:  2 eigenvalues not converged
     c_bands:  3 eigenvalues not converged
     ethr =  1.31E-05,  avg # of iterations =  5.7

     negative rho (up, down):  0.000E+00 2.530E-04

     total cpu time spent up to now is     1633.8 secs

     total energy              =   -4700.72764456 Ry
     estimated scf accuracy    <       0.01510675 Ry

     total magnetization       =    17.70 Bohr mag/cell
     absolute magnetization    =    21.02 Bohr mag/cell

     iteration # 19     ecut=    60.00 Ry     beta= 0.30
     Davidson diagonalization with overlap
     c_bands:  1 eigenvalues not converged
     c_bands:  2 eigenvalues not converged
     c_bands:  1 eigenvalues not converged
     c_bands:  2 eigenvalues not converged
     c_bands:  2 eigenvalues not converged
     c_bands:  1 eigenvalues not converged
     c_bands:  1 eigenvalues not converged
     c_bands:  1 eigenvalues not converged
     ethr =  6.24E-06,  avg # of iterations =  7.3

     negative rho (up, down):  0.000E+00 1.574E-04

     total cpu time spent up to now is     1739.3 secs

     total energy              =   -4700.72894738 Ry
     estimated scf accuracy    <       0.03316356 Ry

     total magnetization       =    17.92 Bohr mag/cell
     absolute magnetization    =    21.00 Bohr mag/cell

     iteration # 20     ecut=    60.00 Ry     beta= 0.30
     Davidson diagonalization with overlap
     ethr =  6.24E-06,  avg # of iterations =  1.5

     negative rho (up, down):  0.000E+00 1.362E-04

     total cpu time spent up to now is     1817.4 secs

     total energy              =   -4700.73115472 Ry
     estimated scf accuracy    <       0.00175976 Ry

     total magnetization       =    17.63 Bohr mag/cell
     absolute magnetization    =    20.97 Bohr mag/cell

     iteration # 21     ecut=    60.00 Ry     beta= 0.30
     Davidson diagonalization with overlap
     c_bands:  1 eigenvalues not converged
     c_bands:  2 eigenvalues not converged
     c_bands:  2 eigenvalues not converged
     c_bands:  2 eigenvalues not converged
     ethr =  7.27E-07,  avg # of iterations = 10.3

     negative rho (up, down):  0.000E+00 1.068E-04

     total cpu time spent up to now is     1951.9 secs

     total energy              =   -4700.73163809 Ry
     estimated scf accuracy    <       0.00736853 Ry

     total magnetization       =    17.56 Bohr mag/cell
     absolute magnetization    =    20.96 Bohr mag/cell

     iteration # 22     ecut=    60.00 Ry     beta= 0.30
     Davidson diagonalization with overlap
     c_bands:  1 eigenvalues not converged
     c_bands:  3 eigenvalues not converged
     ethr =  7.27E-07,  avg # of iterations =  2.4

     negative rho (up, down):  0.000E+00 8.883E-05

     total cpu time spent up to now is     2014.0 secs

     total energy              =   -4700.73233379 Ry
     estimated scf accuracy    <       0.00154847 Ry

     total magnetization       =    17.47 Bohr mag/cell
     absolute magnetization    =    20.94 Bohr mag/cell

     iteration # 23     ecut=    60.00 Ry     beta= 0.30
     Davidson diagonalization with overlap
     c_bands:  1 eigenvalues not converged
     ethr =  6.40E-07,  avg # of iterations =  3.4

     negative rho (up, down):  0.000E+00 8.940E-05

     total cpu time spent up to now is     2109.9 secs

     total energy              =   -4700.73294808 Ry
     estimated scf accuracy    <       0.00179952 Ry

     total magnetization       =    17.40 Bohr mag/cell
     absolute magnetization    =    20.94 Bohr mag/cell

     iteration # 24     ecut=    60.00 Ry     beta= 0.30
     Davidson diagonalization with overlap
     ethr =  6.40E-07,  avg # of iterations =  5.2

     negative rho (up, down):  0.000E+00 8.594E-05

     total cpu time spent up to now is     2216.0 secs

     total energy              =   -4700.73325930 Ry
     estimated scf accuracy    <       0.00207208 Ry

     total magnetization       =    17.39 Bohr mag/cell
     absolute magnetization    =    21.04 Bohr mag/cell

     iteration # 25     ecut=    60.00 Ry     beta= 0.30
     Davidson diagonalization with overlap
     ethr =  6.40E-07,  avg # of iterations =  2.3

     negative rho (up, down):  0.000E+00 8.544E-05

     total cpu time spent up to now is     2290.2 secs

     total energy              =   -4700.73357296 Ry
     estimated scf accuracy    <       0.00239829 Ry

     total magnetization       =    17.27 Bohr mag/cell
     absolute magnetization    =    21.04 Bohr mag/cell

     iteration # 26     ecut=    60.00 Ry     beta= 0.30
     Davidson diagonalization with overlap
     ethr =  6.40E-07,  avg # of iterations =  2.6

     negative rho (up, down):  0.000E+00 8.512E-05

     total cpu time spent up to now is     2375.9 secs

     total energy              =   -4700.73383016 Ry
     estimated scf accuracy    <       0.00174774 Ry

     total magnetization       =    17.23 Bohr mag/cell
     absolute magnetization    =    21.10 Bohr mag/cell

     iteration # 27     ecut=    60.00 Ry     beta= 0.30
     Davidson diagonalization with overlap
     ethr =  6.40E-07,  avg # of iterations =  1.9

     negative rho (up, down):  0.000E+00 8.547E-05

     total cpu time spent up to now is     2452.0 secs

     total energy              =   -4700.73404114 Ry
     estimated scf accuracy    <       0.00065423 Ry

     total magnetization       =    17.21 Bohr mag/cell
     absolute magnetization    =    21.14 Bohr mag/cell

     iteration # 28     ecut=    60.00 Ry     beta= 0.30
     Davidson diagonalization with overlap
     ethr =  2.70E-07,  avg # of iterations =  6.5

     negative rho (up, down):  0.000E+00 1.165E-04

     total cpu time spent up to now is     2555.3 secs

     total energy              =   -4700.73443465 Ry
     estimated scf accuracy    <       0.00096829 Ry

     total magnetization       =    17.18 Bohr mag/cell
     absolute magnetization    =    21.20 Bohr mag/cell

     iteration # 29     ecut=    60.00 Ry     beta= 0.30
     Davidson diagonalization with overlap
     ethr =  2.70E-07,  avg # of iterations =  6.5

     negative rho (up, down):  0.000E+00 8.885E-05

     total cpu time spent up to now is     2663.7 secs

     total energy              =   -4700.73444806 Ry
     estimated scf accuracy    <       0.00253049 Ry

     total magnetization       =    17.19 Bohr mag/cell
     absolute magnetization    =    21.47 Bohr mag/cell

     iteration # 30     ecut=    60.00 Ry     beta= 0.30
     Davidson diagonalization with overlap
     ethr =  2.70E-07,  avg # of iterations =  1.8

     negative rho (up, down):  0.000E+00 8.955E-05

     total cpu time spent up to now is     2745.4 secs

     total energy              =   -4700.73461597 Ry
     estimated scf accuracy    <       0.00052422 Ry

     total magnetization       =    17.13 Bohr mag/cell
     absolute magnetization    =    21.39 Bohr mag/cell

     iteration # 31     ecut=    60.00 Ry     beta= 0.30
     Davidson diagonalization with overlap
     ethr =  2.17E-07,  avg # of iterations =  1.0

     negative rho (up, down):  0.000E+00 9.169E-05

     total cpu time spent up to now is     2820.5 secs

     total energy              =   -4700.73413609 Ry
     estimated scf accuracy    <       0.00058479 Ry

     total magnetization       =    17.12 Bohr mag/cell
     absolute magnetization    =    21.40 Bohr mag/cell

     iteration # 32     ecut=    60.00 Ry     beta= 0.30
     Davidson diagonalization with overlap
     ethr =  2.17E-07,  avg # of iterations =  4.6

     negative rho (up, down):  0.000E+00 9.514E-05

     total cpu time spent up to now is     2915.0 secs

     total energy              =   -4700.73453803 Ry
     estimated scf accuracy    <       0.00097732 Ry

     total magnetization       =    17.21 Bohr mag/cell
     absolute magnetization    =    21.29 Bohr mag/cell

     iteration # 33     ecut=    60.00 Ry     beta= 0.30
     Davidson diagonalization with overlap
     ethr =  2.17E-07,  avg # of iterations =  3.3

     negative rho (up, down):  0.000E+00 1.169E-04

     total cpu time spent up to now is     3005.9 secs

     total energy              =   -4700.73463319 Ry
     estimated scf accuracy    <       0.00061713 Ry

     total magnetization       =    17.15 Bohr mag/cell
     absolute magnetization    =    21.41 Bohr mag/cell

     iteration # 34     ecut=    60.00 Ry     beta= 0.30
     Davidson diagonalization with overlap
     ethr =  2.17E-07,  avg # of iterations =  3.2

     negative rho (up, down):  0.000E+00 1.349E-04

     total cpu time spent up to now is     3095.5 secs

     total energy              =   -4700.73450509 Ry
     estimated scf accuracy    <       0.00150005 Ry

     total magnetization       =    17.18 Bohr mag/cell
     absolute magnetization    =    21.43 Bohr mag/cell

     iteration # 35     ecut=    60.00 Ry     beta= 0.30
     Davidson diagonalization with overlap
     ethr =  2.17E-07,  avg # of iterations =  2.5

     negative rho (up, down):  0.000E+00 1.364E-04

     total cpu time spent up to now is     3185.2 secs

     total energy              =   -4700.73452493 Ry
     estimated scf accuracy    <       0.00156321 Ry

     total magnetization       =    17.24 Bohr mag/cell
     absolute magnetization    =    21.44 Bohr mag/cell

     iteration # 36     ecut=    60.00 Ry     beta= 0.30
     Davidson diagonalization with overlap
     ethr =  2.17E-07,  avg # of iterations =  1.6

     negative rho (up, down):  0.000E+00 1.496E-04

     total cpu time spent up to now is     3265.1 secs

     total energy              =   -4700.73482413 Ry
     estimated scf accuracy    <       0.00124048 Ry

     total magnetization       =    17.25 Bohr mag/cell
     absolute magnetization    =    21.44 Bohr mag/cell

     iteration # 37     ecut=    60.00 Ry     beta= 0.30
     Davidson diagonalization with overlap
     ethr =  2.17E-07,  avg # of iterations =  4.4

     negative rho (up, down):  0.000E+00 1.652E-04

     total cpu time spent up to now is     3361.5 secs

     total energy              =   -4700.73507372 Ry
     estimated scf accuracy    <       0.00171401 Ry

     total magnetization       =    17.17 Bohr mag/cell
     absolute magnetization    =    21.61 Bohr mag/cell

     iteration # 38     ecut=    60.00 Ry     beta= 0.30
     Davidson diagonalization with overlap
     ethr =  2.17E-07,  avg # of iterations =  3.1

     negative rho (up, down):  0.000E+00 1.704E-04

     total cpu time spent up to now is     3448.0 secs

     total energy              =   -4700.73521892 Ry
     estimated scf accuracy    <       0.00076242 Ry

     total magnetization       =    17.19 Bohr mag/cell
     absolute magnetization    =    21.70 Bohr mag/cell

     iteration # 39     ecut=    60.00 Ry     beta= 0.30
     Davidson diagonalization with overlap
     ethr =  2.17E-07,  avg # of iterations =  1.1

     negative rho (up, down):  0.000E+00 1.679E-04

     total cpu time spent up to now is     3521.4 secs

     total energy              =   -4700.73542210 Ry
     estimated scf accuracy    <       0.00055479 Ry

     total magnetization       =    17.18 Bohr mag/cell
     absolute magnetization    =    21.75 Bohr mag/cell

     iteration # 40     ecut=    60.00 Ry     beta= 0.30
     Davidson diagonalization with overlap
     ethr =  2.17E-07,  avg # of iterations =  6.0

     negative rho (up, down):  0.000E+00 1.997E-04

     total cpu time spent up to now is     3630.6 secs

     total energy              =   -4700.73574285 Ry
     estimated scf accuracy    <       0.00167167 Ry

     total magnetization       =    17.10 Bohr mag/cell
     absolute magnetization    =    21.92 Bohr mag/cell

     iteration # 41     ecut=    60.00 Ry     beta= 0.30
     Davidson diagonalization with overlap
     ethr =  2.17E-07,  avg # of iterations =  5.8

     negative rho (up, down):  0.000E+00 1.938E-04

     total cpu time spent up to now is     3774.9 secs

     total energy              =   -4700.73595892 Ry
     estimated scf accuracy    <       0.00112039 Ry

     total magnetization       =    17.08 Bohr mag/cell
     absolute magnetization    =    22.20 Bohr mag/cell

     iteration # 42     ecut=    60.00 Ry     beta= 0.30
     Davidson diagonalization with overlap
     ethr =  2.17E-07,  avg # of iterations =  1.1

     negative rho (up, down):  0.000E+00 2.040E-04

     total cpu time spent up to now is     3876.4 secs

     total energy              =   -4700.73611941 Ry
     estimated scf accuracy    <       0.00037171 Ry

     total magnetization       =    17.09 Bohr mag/cell
     absolute magnetization    =    22.19 Bohr mag/cell

     iteration # 43     ecut=    60.00 Ry     beta= 0.30
     Davidson diagonalization with overlap
     ethr =  1.54E-07,  avg # of iterations =  1.8

     negative rho (up, down):  0.000E+00 1.940E-04

     total cpu time spent up to now is     3985.0 secs

     total energy              =   -4700.73624088 Ry
     estimated scf accuracy    <       0.00030186 Ry

     total magnetization       =    17.08 Bohr mag/cell
     absolute magnetization    =    22.28 Bohr mag/cell

     iteration # 44     ecut=    60.00 Ry     beta= 0.30
     Davidson diagonalization with overlap
     ethr =  1.25E-07,  avg # of iterations =  3.3

     negative rho (up, down):  0.000E+00 2.079E-04

     total cpu time spent up to now is     4104.6 secs

     total energy              =   -4700.73639070 Ry
     estimated scf accuracy    <       0.00064930 Ry

     total magnetization       =    17.05 Bohr mag/cell
     absolute magnetization    =    22.33 Bohr mag/cell

     iteration # 45     ecut=    60.00 Ry     beta= 0.30
     Davidson diagonalization with overlap
     ethr =  1.25E-07,  avg # of iterations =  6.3

     negative rho (up, down):  0.000E+00 2.351E-04

     total cpu time spent up to now is     4264.2 secs

     total energy              =   -4700.73646273 Ry
     estimated scf accuracy    <       0.00092519 Ry

     total magnetization       =    17.02 Bohr mag/cell
     absolute magnetization    =    22.55 Bohr mag/cell

     iteration # 46     ecut=    60.00 Ry     beta= 0.30
     Davidson diagonalization with overlap
     ethr =  1.25E-07,  avg # of iterations =  7.7

     negative rho (up, down):  0.000E+00 2.457E-04

     total cpu time spent up to now is     4442.5 secs

     total energy              =   -4700.73725589 Ry
     estimated scf accuracy    <       0.00115356 Ry

     total magnetization       =    16.94 Bohr mag/cell
     absolute magnetization    =    23.01 Bohr mag/cell

     iteration # 47     ecut=    60.00 Ry     beta= 0.30
     Davidson diagonalization with overlap
     ethr =  1.25E-07,  avg # of iterations =  5.8

     negative rho (up, down):  0.000E+00 2.430E-04

     total cpu time spent up to now is     4595.6 secs

     total energy              =   -4700.73735766 Ry
     estimated scf accuracy    <       0.00050920 Ry

     total magnetization       =    16.89 Bohr mag/cell
     absolute magnetization    =    23.20 Bohr mag/cell

     iteration # 48     ecut=    60.00 Ry     beta= 0.30
     Davidson diagonalization with overlap
     ethr =  1.25E-07,  avg # of iterations =  1.0

     negative rho (up, down):  0.000E+00 2.443E-04

     total cpu time spent up to now is     4694.0 secs

     total energy              =   -4700.73740021 Ry
     estimated scf accuracy    <       0.00052187 Ry

     total magnetization       =    16.91 Bohr mag/cell
     absolute magnetization    =    23.18 Bohr mag/cell

     iteration # 49     ecut=    60.00 Ry     beta= 0.30
     Davidson diagonalization with overlap
     ethr =  1.25E-07,  avg # of iterations =  1.1

     negative rho (up, down):  0.000E+00 2.598E-04

     total cpu time spent up to now is     4799.1 secs

     total energy              =   -4700.73746387 Ry
     estimated scf accuracy    <       0.00043688 Ry

     total magnetization       =    16.90 Bohr mag/cell
     absolute magnetization    =    23.21 Bohr mag/cell

     iteration # 50     ecut=    60.00 Ry     beta= 0.30
     Davidson diagonalization with overlap
     ethr =  1.25E-07,  avg # of iterations =  6.1

     negative rho (up, down):  0.000E+00 2.465E-04

     total cpu time spent up to now is     4963.2 secs

     total energy              =   -4700.73729608 Ry
     estimated scf accuracy    <       0.00059114 Ry

     total magnetization       =    16.85 Bohr mag/cell
     absolute magnetization    =    23.46 Bohr mag/cell

     iteration # 51     ecut=    60.00 Ry     beta= 0.30
     Davidson diagonalization with overlap
     ethr =  1.25E-07,  avg # of iterations =  5.1

     negative rho (up, down):  0.000E+00 2.125E-04

     total cpu time spent up to now is     5103.1 secs

     total energy              =   -4700.73541453 Ry
     estimated scf accuracy    <       0.00069026 Ry

     total magnetization       =    16.89 Bohr mag/cell
     absolute magnetization    =    23.25 Bohr mag/cell

     iteration # 52     ecut=    60.00 Ry     beta= 0.30
     Davidson diagonalization with overlap
     c_bands:  1 eigenvalues not converged
     ethr =  1.25E-07,  avg # of iterations =  8.7

     negative rho (up, down):  0.000E+00 2.289E-04

     total cpu time spent up to now is     5300.5 secs

     total energy              =   -4700.73671133 Ry
     estimated scf accuracy    <       0.00048865 Ry

     total magnetization       =    17.02 Bohr mag/cell
     absolute magnetization    =    22.64 Bohr mag/cell

     iteration # 53     ecut=    60.00 Ry     beta= 0.30
     Davidson diagonalization with overlap
     ethr =  1.25E-07,  avg # of iterations =  6.2

     negative rho (up, down):  0.000E+00 2.422E-04

     total cpu time spent up to now is     5469.7 secs

     total energy              =   -4700.73715414 Ry
     estimated scf accuracy    <       0.00027225 Ry

     total magnetization       =    16.93 Bohr mag/cell
     absolute magnetization    =    23.04 Bohr mag/cell

     iteration # 54     ecut=    60.00 Ry     beta= 0.30
     Davidson diagonalization with overlap
     ethr =  1.13E-07,  avg # of iterations =  7.1

     negative rho (up, down):  0.000E+00 2.526E-04

     total cpu time spent up to now is     5653.3 secs

     total energy              =   -4700.73766680 Ry
     estimated scf accuracy    <       0.00050807 Ry

     total magnetization       =    16.84 Bohr mag/cell
     absolute magnetization    =    23.50 Bohr mag/cell

     iteration # 55     ecut=    60.00 Ry     beta= 0.30
     Davidson diagonalization with overlap
     ethr =  1.13E-07,  avg # of iterations =  7.1

     negative rho (up, down):  0.000E+00 2.561E-04

     total cpu time spent up to now is     5826.4 secs

     total energy              =   -4700.73832092 Ry
     estimated scf accuracy    <       0.00033291 Ry

     total magnetization       =    16.73 Bohr mag/cell
     absolute magnetization    =    23.93 Bohr mag/cell

     iteration # 56     ecut=    60.00 Ry     beta= 0.30
     Davidson diagonalization with overlap
     ethr =  1.13E-07,  avg # of iterations =  5.2

     negative rho (up, down):  0.000E+00 2.601E-04

     total cpu time spent up to now is     5964.2 secs

     total energy              =   -4700.73845953 Ry
     estimated scf accuracy    <       0.00025144 Ry

     total magnetization       =    16.69 Bohr mag/cell
     absolute magnetization    =    24.08 Bohr mag/cell

     iteration # 57     ecut=    60.00 Ry     beta= 0.30
     Davidson diagonalization with overlap
     c_bands:  2 eigenvalues not converged
     ethr =  1.04E-07,  avg # of iterations =  6.4

     negative rho (up, down):  0.000E+00 2.567E-04

     total cpu time spent up to now is     6121.2 secs

     total energy              =   -4700.73843499 Ry
     estimated scf accuracy    <       0.00041300 Ry

     total magnetization       =    16.65 Bohr mag/cell
     absolute magnetization    =    24.28 Bohr mag/cell

     iteration # 58     ecut=    60.00 Ry     beta= 0.30
     Davidson diagonalization with overlap
     ethr =  1.04E-07,  avg # of iterations =  3.3

     negative rho (up, down):  0.000E+00 2.560E-04

     total cpu time spent up to now is     6246.9 secs

     total energy              =   -4700.73842389 Ry
     estimated scf accuracy    <       0.00076844 Ry

     total magnetization       =    16.68 Bohr mag/cell
     absolute magnetization    =    24.17 Bohr mag/cell

     iteration # 59     ecut=    60.00 Ry     beta= 0.30
     Davidson diagonalization with overlap
     ethr =  1.04E-07,  avg # of iterations =  2.7

     negative rho (up, down):  0.000E+00 2.680E-04

     total cpu time spent up to now is     6368.3 secs

     total energy              =   -4700.73818058 Ry
     estimated scf accuracy    <       0.00040257 Ry

     total magnetization       =    16.69 Bohr mag/cell
     absolute magnetization    =    24.14 Bohr mag/cell

     iteration # 60     ecut=    60.00 Ry     beta= 0.30
     Davidson diagonalization with overlap
     ethr =  1.04E-07,  avg # of iterations =  7.3

     negative rho (up, down):  0.000E+00 2.790E-04

     total cpu time spent up to now is     6561.5 secs

     total energy              =   -4700.73865456 Ry
     estimated scf accuracy    <       0.00014179 Ry

     total magnetization       =    16.57 Bohr mag/cell
     absolute magnetization    =    24.63 Bohr mag/cell

     iteration # 61     ecut=    60.00 Ry     beta= 0.30
     Davidson diagonalization with overlap
     ethr =  5.86E-08,  avg # of iterations =  8.6

     negative rho (up, down):  0.000E+00 2.789E-04

     total cpu time spent up to now is     6758.0 secs

     total energy              =   -4700.73916531 Ry
     estimated scf accuracy    <       0.00015848 Ry

     total magnetization       =    16.47 Bohr mag/cell
     absolute magnetization    =    25.04 Bohr mag/cell

     iteration # 62     ecut=    60.00 Ry     beta= 0.30
     Davidson diagonalization with overlap
     ethr =  5.86E-08,  avg # of iterations =  2.7

     negative rho (up, down):  0.000E+00 2.880E-04

     total cpu time spent up to now is     6874.7 secs

     total energy              =   -4700.73899593 Ry
     estimated scf accuracy    <       0.00028280 Ry

     total magnetization       =    16.47 Bohr mag/cell
     absolute magnetization    =    25.02 Bohr mag/cell

     iteration # 63     ecut=    60.00 Ry     beta= 0.30
     Davidson diagonalization with overlap
     ethr =  5.86E-08,  avg # of iterations =  7.3

     negative rho (up, down):  0.000E+00 2.915E-04

     total cpu time spent up to now is     7049.6 secs

     total energy              =   -4700.73934517 Ry
     estimated scf accuracy    <       0.00012931 Ry

     total magnetization       =    16.39 Bohr mag/cell
     absolute magnetization    =    25.38 Bohr mag/cell

     iteration # 64     ecut=    60.00 Ry     beta= 0.30
     Davidson diagonalization with overlap
     c_bands:  1 eigenvalues not converged
     ethr =  5.34E-08,  avg # of iterations =  5.8

     negative rho (up, down):  0.000E+00 2.902E-04

     total cpu time spent up to now is     7193.5 secs

     total energy              =   -4700.73935507 Ry
     estimated scf accuracy    <       0.00013005 Ry

     total magnetization       =    16.36 Bohr mag/cell
     absolute magnetization    =    25.51 Bohr mag/cell

     iteration # 65     ecut=    60.00 Ry     beta= 0.30
     Davidson diagonalization with overlap
     ethr =  5.34E-08,  avg # of iterations =  5.3

     negative rho (up, down):  0.000E+00 3.002E-04

     total cpu time spent up to now is     7329.9 secs

     total energy              =   -4700.73908972 Ry
     estimated scf accuracy    <       0.00017046 Ry

     total magnetization       =    16.38 Bohr mag/cell
     absolute magnetization    =    25.41 Bohr mag/cell

     iteration # 66     ecut=    60.00 Ry     beta= 0.30
     Davidson diagonalization with overlap
     ethr =  5.34E-08,  avg # of iterations =  7.3

     negative rho (up, down):  0.000E+00 2.984E-04

     total cpu time spent up to now is     7518.9 secs

     total energy              =   -4700.73948852 Ry
     estimated scf accuracy    <       0.00025136 Ry

     total magnetization       =    16.29 Bohr mag/cell
     absolute magnetization    =    25.79 Bohr mag/cell

     iteration # 67     ecut=    60.00 Ry     beta= 0.30
     Davidson diagonalization with overlap
     ethr =  5.34E-08,  avg # of iterations =  2.9

     negative rho (up, down):  0.000E+00 3.044E-04

     total cpu time spent up to now is     7638.2 secs

     total energy              =   -4700.73944285 Ry
     estimated scf accuracy    <       0.00014860 Ry

     total magnetization       =    16.30 Bohr mag/cell
     absolute magnetization    =    25.74 Bohr mag/cell

     iteration # 68     ecut=    60.00 Ry     beta= 0.30
     Davidson diagonalization with overlap
     ethr =  5.34E-08,  avg # of iterations =  5.9

     negative rho (up, down):  0.000E+00 3.035E-04

     total cpu time spent up to now is     7794.7 secs

     total energy              =   -4700.73956571 Ry
     estimated scf accuracy    <       0.00011703 Ry

     total magnetization       =    16.25 Bohr mag/cell
     absolute magnetization    =    25.93 Bohr mag/cell

     iteration # 69     ecut=    60.00 Ry     beta= 0.30
     Davidson diagonalization with overlap
     ethr =  4.84E-08,  avg # of iterations =  2.6

     negative rho (up, down):  0.000E+00 3.134E-04

     total cpu time spent up to now is     7911.5 secs

     total energy              =   -4700.73927268 Ry
     estimated scf accuracy    <       0.00022094 Ry

     total magnetization       =    16.27 Bohr mag/cell
     absolute magnetization    =    25.91 Bohr mag/cell

     iteration # 70     ecut=    60.00 Ry     beta= 0.30
     Davidson diagonalization with overlap
     ethr =  4.84E-08,  avg # of iterations =  7.8

     negative rho (up, down):  0.000E+00 3.129E-04

     total cpu time spent up to now is     8110.0 secs

     total energy              =   -4700.73963907 Ry
     estimated scf accuracy    <       0.00003911 Ry

     total magnetization       =    16.18 Bohr mag/cell
     absolute magnetization    =    26.25 Bohr mag/cell

     iteration # 71     ecut=    60.00 Ry     beta= 0.30
     Davidson diagonalization with overlap
     ethr =  1.62E-08,  avg # of iterations =  3.9

     negative rho (up, down):  0.000E+00 3.131E-04

     total cpu time spent up to now is     8233.4 secs

     total energy              =   -4700.73964045 Ry
     estimated scf accuracy    <       0.00005009 Ry

     total magnetization       =    16.17 Bohr mag/cell
     absolute magnetization    =    26.26 Bohr mag/cell

     iteration # 72     ecut=    60.00 Ry     beta= 0.30
     Davidson diagonalization with overlap
     ethr =  1.62E-08,  avg # of iterations =  2.5

     negative rho (up, down):  0.000E+00 3.120E-04

     total cpu time spent up to now is     8350.7 secs

     total energy              =   -4700.73965266 Ry
     estimated scf accuracy    <       0.00008475 Ry

     total magnetization       =    16.17 Bohr mag/cell
     absolute magnetization    =    26.26 Bohr mag/cell

     iteration # 73     ecut=    60.00 Ry     beta= 0.30
     Davidson diagonalization with overlap
     ethr =  1.62E-08,  avg # of iterations =  3.6

     negative rho (up, down):  0.000E+00 3.120E-04

     total cpu time spent up to now is     8478.7 secs

     total energy              =   -4700.73966004 Ry
     estimated scf accuracy    <       0.00010604 Ry

     total magnetization       =    16.17 Bohr mag/cell
     absolute magnetization    =    26.24 Bohr mag/cell

     iteration # 74     ecut=    60.00 Ry     beta= 0.30
     Davidson diagonalization with overlap
     ethr =  1.62E-08,  avg # of iterations =  4.2

     negative rho (up, down):  0.000E+00 3.154E-04

     total cpu time spent up to now is     8609.5 secs

     total energy              =   -4700.73957709 Ry
     estimated scf accuracy    <       0.00005683 Ry

     total magnetization       =    16.17 Bohr mag/cell
     absolute magnetization    =    26.28 Bohr mag/cell

     iteration # 75     ecut=    60.00 Ry     beta= 0.30
     Davidson diagonalization with overlap
     ethr =  1.62E-08,  avg # of iterations =  7.7

     negative rho (up, down):  0.000E+00 3.085E-04

     total cpu time spent up to now is     8796.5 secs

     total energy              =   -4700.73959473 Ry
     estimated scf accuracy    <       0.00016868 Ry

     total magnetization       =    16.12 Bohr mag/cell
     absolute magnetization    =    26.44 Bohr mag/cell

     iteration # 76     ecut=    60.00 Ry     beta= 0.30
     Davidson diagonalization with overlap
     ethr =  1.62E-08,  avg # of iterations =  7.2

     negative rho (up, down):  0.000E+00 3.119E-04

     total cpu time spent up to now is     8988.7 secs

     total energy              =   -4700.73964172 Ry
     estimated scf accuracy    <       0.00010226 Ry

     total magnetization       =    16.18 Bohr mag/cell
     absolute magnetization    =    26.26 Bohr mag/cell

     iteration # 77     ecut=    60.00 Ry     beta= 0.30
     Davidson diagonalization with overlap
     ethr =  1.62E-08,  avg # of iterations =  6.8

     negative rho (up, down):  0.000E+00 3.093E-04

     total cpu time spent up to now is     9158.0 secs

     total energy              =   -4700.73968946 Ry
     estimated scf accuracy    <       0.00007879 Ry

     total magnetization       =    16.14 Bohr mag/cell
     absolute magnetization    =    26.39 Bohr mag/cell

     iteration # 78     ecut=    60.00 Ry     beta= 0.30
     Davidson diagonalization with overlap
     ethr =  1.62E-08,  avg # of iterations =  4.8

     negative rho (up, down):  0.000E+00 3.099E-04

     total cpu time spent up to now is     9293.0 secs

     total energy              =   -4700.73970195 Ry
     estimated scf accuracy    <       0.00007256 Ry

     total magnetization       =    16.16 Bohr mag/cell
     absolute magnetization    =    26.32 Bohr mag/cell

     iteration # 79     ecut=    60.00 Ry     beta= 0.30
     Davidson diagonalization with overlap
     ethr =  1.62E-08,  avg # of iterations =  2.8

     negative rho (up, down):  0.000E+00 3.103E-04

     total cpu time spent up to now is     9393.9 secs

     total energy              =   -4700.73968901 Ry
     estimated scf accuracy    <       0.00003864 Ry

     total magnetization       =    16.15 Bohr mag/cell
     absolute magnetization    =    26.34 Bohr mag/cell

     iteration # 80     ecut=    60.00 Ry     beta= 0.30
     Davidson diagonalization with overlap
     ethr =  1.60E-08,  avg # of iterations =  5.3

     negative rho (up, down):  0.000E+00 3.096E-04

     total cpu time spent up to now is     9536.3 secs

     total energy              =   -4700.73970197 Ry
     estimated scf accuracy    <       0.00005762 Ry

     total magnetization       =    16.15 Bohr mag/cell
     absolute magnetization    =    26.32 Bohr mag/cell

     iteration # 81     ecut=    60.00 Ry     beta= 0.30
     Davidson diagonalization with overlap
     ethr =  1.60E-08,  avg # of iterations =  1.8

     negative rho (up, down):  0.000E+00 3.085E-04

     total cpu time spent up to now is     9640.9 secs

     total energy              =   -4700.73970610 Ry
     estimated scf accuracy    <       0.00001740 Ry

     total magnetization       =    16.15 Bohr mag/cell
     absolute magnetization    =    26.32 Bohr mag/cell

     iteration # 82     ecut=    60.00 Ry     beta= 0.30
     Davidson diagonalization with overlap
     ethr =  7.19E-09,  avg # of iterations =  5.8

     negative rho (up, down):  0.000E+00 3.085E-04

     total cpu time spent up to now is     9782.3 secs

     total energy              =   -4700.73970949 Ry
     estimated scf accuracy    <       0.00001824 Ry

     total magnetization       =    16.16 Bohr mag/cell
     absolute magnetization    =    26.33 Bohr mag/cell

     iteration # 83     ecut=    60.00 Ry     beta= 0.30
     Davidson diagonalization with overlap
     ethr =  7.19E-09,  avg # of iterations =  1.7

     negative rho (up, down):  0.000E+00 3.090E-04

     total cpu time spent up to now is     9887.5 secs

     total energy              =   -4700.73970791 Ry
     estimated scf accuracy    <       0.00001778 Ry

     total magnetization       =    16.16 Bohr mag/cell
     absolute magnetization    =    26.33 Bohr mag/cell

     iteration # 84     ecut=    60.00 Ry     beta= 0.30
     Davidson diagonalization with overlap
     ethr =  7.19E-09,  avg # of iterations =  1.8

     negative rho (up, down):  0.000E+00 3.084E-04

     total cpu time spent up to now is    10003.6 secs

     total energy              =   -4700.73971057 Ry
     estimated scf accuracy    <       0.00000932 Ry

     total magnetization       =    16.16 Bohr mag/cell
     absolute magnetization    =    26.32 Bohr mag/cell

     iteration # 85     ecut=    60.00 Ry     beta= 0.30
     Davidson diagonalization with overlap
     ethr =  3.85E-09,  avg # of iterations =  2.1

     negative rho (up, down):  0.000E+00 3.082E-04

     total cpu time spent up to now is    10109.5 secs

     total energy              =   -4700.73971162 Ry
     estimated scf accuracy    <       0.00001057 Ry

     total magnetization       =    16.16 Bohr mag/cell
     absolute magnetization    =    26.32 Bohr mag/cell

     iteration # 86     ecut=    60.00 Ry     beta= 0.30
     Davidson diagonalization with overlap
     ethr =  3.85E-09,  avg # of iterations =  1.3

     negative rho (up, down):  0.000E+00 3.079E-04

     total cpu time spent up to now is    10217.7 secs

     total energy              =   -4700.73971242 Ry
     estimated scf accuracy    <       0.00000434 Ry

     total magnetization       =    16.16 Bohr mag/cell
     absolute magnetization    =    26.32 Bohr mag/cell

     iteration # 87     ecut=    60.00 Ry     beta= 0.30
     Davidson diagonalization with overlap
     ethr =  1.79E-09,  avg # of iterations =  5.0

     negative rho (up, down):  0.000E+00 3.075E-04

     total cpu time spent up to now is    10353.1 secs

     total energy              =   -4700.73971319 Ry
     estimated scf accuracy    <       0.00000798 Ry

     total magnetization       =    16.16 Bohr mag/cell
     absolute magnetization    =    26.32 Bohr mag/cell

     iteration # 88     ecut=    60.00 Ry     beta= 0.30
     Davidson diagonalization with overlap
     ethr =  1.79E-09,  avg # of iterations =  4.0

     negative rho (up, down):  0.000E+00 3.079E-04

     total cpu time spent up to now is    10490.8 secs

     total energy              =   -4700.73971231 Ry
     estimated scf accuracy    <       0.00000529 Ry

     total magnetization       =    16.16 Bohr mag/cell
     absolute magnetization    =    26.31 Bohr mag/cell

     iteration # 89     ecut=    60.00 Ry     beta= 0.30
     Davidson diagonalization with overlap
     ethr =  1.79E-09,  avg # of iterations =  4.1

     negative rho (up, down):  0.000E+00 3.062E-04

     total cpu time spent up to now is    10607.9 secs

     total energy              =   -4700.73970943 Ry
     estimated scf accuracy    <       0.00000786 Ry

     total magnetization       =    16.16 Bohr mag/cell
     absolute magnetization    =    26.32 Bohr mag/cell

     iteration # 90     ecut=    60.00 Ry     beta= 0.30
     Davidson diagonalization with overlap
     ethr =  1.79E-09,  avg # of iterations =  6.1

     negative rho (up, down):  0.000E+00 3.072E-04

     total cpu time spent up to now is    10778.6 secs

     total energy              =   -4700.73971213 Ry
     estimated scf accuracy    <       0.00000828 Ry

     total magnetization       =    16.16 Bohr mag/cell
     absolute magnetization    =    26.30 Bohr mag/cell

     iteration # 91     ecut=    60.00 Ry     beta= 0.30
     Davidson diagonalization with overlap
     ethr =  1.79E-09,  avg # of iterations =  5.3

     negative rho (up, down):  0.000E+00 3.068E-04

     total cpu time spent up to now is    10925.2 secs

     total energy              =   -4700.73971489 Ry
     estimated scf accuracy    <       0.00000417 Ry

     total magnetization       =    16.16 Bohr mag/cell
     absolute magnetization    =    26.31 Bohr mag/cell

     iteration # 92     ecut=    60.00 Ry     beta= 0.30
     Davidson diagonalization with overlap
     ethr =  1.72E-09,  avg # of iterations =  1.9

     negative rho (up, down):  0.000E+00 3.067E-04

     total cpu time spent up to now is    11034.4 secs

     total energy              =   -4700.73971544 Ry
     estimated scf accuracy    <       0.00000101 Ry

     total magnetization       =    16.16 Bohr mag/cell
     absolute magnetization    =    26.30 Bohr mag/cell

     iteration # 93     ecut=    60.00 Ry     beta= 0.30
     Davidson diagonalization with overlap
     ethr =  4.18E-10,  avg # of iterations =  5.4

     negative rho (up, down):  0.000E+00 3.064E-04

     total cpu time spent up to now is    11174.9 secs

     total energy              =   -4700.73971550 Ry
     estimated scf accuracy    <       0.00000229 Ry

     total magnetization       =    16.16 Bohr mag/cell
     absolute magnetization    =    26.30 Bohr mag/cell

     iteration # 94     ecut=    60.00 Ry     beta= 0.30
     Davidson diagonalization with overlap
     ethr =  4.18E-10,  avg # of iterations =  5.8

     negative rho (up, down):  0.000E+00 3.063E-04

     total cpu time spent up to now is    11332.2 secs

     total energy              =   -4700.73971562 Ry
     estimated scf accuracy    <       0.00001049 Ry

     total magnetization       =    16.16 Bohr mag/cell
     absolute magnetization    =    26.30 Bohr mag/cell

     iteration # 95     ecut=    60.00 Ry     beta= 0.30
     Davidson diagonalization with overlap
     ethr =  4.18E-10,  avg # of iterations =  5.2

     negative rho (up, down):  0.000E+00 3.065E-04

     total cpu time spent up to now is    11477.5 secs

     total energy              =   -4700.73971573 Ry
     estimated scf accuracy    <       0.00000090 Ry

     total magnetization       =    16.16 Bohr mag/cell
     absolute magnetization    =    26.30 Bohr mag/cell

     iteration # 96     ecut=    60.00 Ry     beta= 0.30
     Davidson diagonalization with overlap
     ethr =  3.74E-10,  avg # of iterations =  4.6

     negative rho (up, down):  0.000E+00 3.065E-04

     total cpu time spent up to now is    11617.5 secs

     total energy              =   -4700.73971601 Ry
     estimated scf accuracy    <       0.00000119 Ry

     total magnetization       =    16.16 Bohr mag/cell
     absolute magnetization    =    26.30 Bohr mag/cell

     iteration # 97     ecut=    60.00 Ry     beta= 0.30
     Davidson diagonalization with overlap
     ethr =  3.74E-10,  avg # of iterations =  2.1

     negative rho (up, down):  0.000E+00 3.065E-04

     total cpu time spent up to now is    11727.6 secs

     total energy              =   -4700.73971601 Ry
     estimated scf accuracy    <       0.00000073 Ry

     total magnetization       =    16.16 Bohr mag/cell
     absolute magnetization    =    26.30 Bohr mag/cell

     iteration # 98     ecut=    60.00 Ry     beta= 0.30
     Davidson diagonalization with overlap
     ethr =  3.00E-10,  avg # of iterations =  1.7

     negative rho (up, down):  0.000E+00 3.065E-04

     total cpu time spent up to now is    11828.2 secs

     total energy              =   -4700.73971614 Ry
     estimated scf accuracy    <       0.00000052 Ry

     total magnetization       =    16.16 Bohr mag/cell
     absolute magnetization    =    26.30 Bohr mag/cell

     iteration # 99     ecut=    60.00 Ry     beta= 0.30
     Davidson diagonalization with overlap
     ethr =  2.16E-10,  avg # of iterations =  3.8

     negative rho (up, down):  0.000E+00 3.063E-04

     total cpu time spent up to now is    11952.8 secs

     total energy              =   -4700.73971619 Ry
     estimated scf accuracy    <       0.00000089 Ry

     total magnetization       =    16.16 Bohr mag/cell
     absolute magnetization    =    26.30 Bohr mag/cell

     iteration #100     ecut=    60.00 Ry     beta= 0.30
     Davidson diagonalization with overlap
     ethr =  2.16E-10,  avg # of iterations =  5.6

     negative rho (up, down):  0.000E+00 3.063E-04

     total cpu time spent up to now is    12097.3 secs

     total energy              =   -4700.73971644 Ry
     estimated scf accuracy    <       0.00000033 Ry

     total magnetization       =    16.16 Bohr mag/cell
     absolute magnetization    =    26.29 Bohr mag/cell

     iteration #101     ecut=    60.00 Ry     beta= 0.30
     Davidson diagonalization with overlap
     ethr =  1.35E-10,  avg # of iterations =  3.8

     negative rho (up, down):  0.000E+00 3.063E-04

     total cpu time spent up to now is    12232.1 secs

     total energy              =   -4700.73971641 Ry
     estimated scf accuracy    <       0.00000127 Ry

     total magnetization       =    16.16 Bohr mag/cell
     absolute magnetization    =    26.29 Bohr mag/cell

     iteration #102     ecut=    60.00 Ry     beta= 0.30
     Davidson diagonalization with overlap
     ethr =  1.35E-10,  avg # of iterations =  2.2

     negative rho (up, down):  0.000E+00 3.063E-04

     total cpu time spent up to now is    12345.9 secs

     total energy              =   -4700.73971643 Ry
     estimated scf accuracy    <       0.00000052 Ry

     total magnetization       =    16.17 Bohr mag/cell
     absolute magnetization    =    26.29 Bohr mag/cell

     iteration #103     ecut=    60.00 Ry     beta= 0.30
     Davidson diagonalization with overlap
     ethr =  1.35E-10,  avg # of iterations =  5.5

     negative rho (up, down):  0.000E+00 3.063E-04

     total cpu time spent up to now is    12497.1 secs

     total energy              =   -4700.73971660 Ry
     estimated scf accuracy    <       0.00000023 Ry

     total magnetization       =    16.17 Bohr mag/cell
     absolute magnetization    =    26.29 Bohr mag/cell

     iteration #104     ecut=    60.00 Ry     beta= 0.30
     Davidson diagonalization with overlap
     ethr =  9.46E-11,  avg # of iterations =  4.5

     negative rho (up, down):  0.000E+00 3.063E-04

     total cpu time spent up to now is    12629.6 secs

     total energy              =   -4700.73971659 Ry
     estimated scf accuracy    <       0.00000118 Ry

     total magnetization       =    16.17 Bohr mag/cell
     absolute magnetization    =    26.29 Bohr mag/cell

     iteration #105     ecut=    60.00 Ry     beta= 0.30
     Davidson diagonalization with overlap
     ethr =  9.46E-11,  avg # of iterations =  2.8

     negative rho (up, down):  0.000E+00 3.063E-04

     total cpu time spent up to now is    12744.2 secs

     total energy              =   -4700.73971657 Ry
     estimated scf accuracy    <       0.00000017 Ry

     total magnetization       =    16.17 Bohr mag/cell
     absolute magnetization    =    26.28 Bohr mag/cell

     iteration #106     ecut=    60.00 Ry     beta= 0.30
     Davidson diagonalization with overlap
     ethr =  6.82E-11,  avg # of iterations =  6.0

     negative rho (up, down):  0.000E+00 3.063E-04

     total cpu time spent up to now is    12907.0 secs

     total energy              =   -4700.73971686 Ry
     estimated scf accuracy    <       0.00000034 Ry

     total magnetization       =    16.17 Bohr mag/cell
     absolute magnetization    =    26.28 Bohr mag/cell

     iteration #107     ecut=    60.00 Ry     beta= 0.30
     Davidson diagonalization with overlap
     ethr =  6.82E-11,  avg # of iterations =  1.8

     negative rho (up, down):  0.000E+00 3.063E-04

     total cpu time spent up to now is    13018.2 secs

     total energy              =   -4700.73971688 Ry
     estimated scf accuracy    <       0.00000019 Ry

     total magnetization       =    16.17 Bohr mag/cell
     absolute magnetization    =    26.28 Bohr mag/cell

     iteration #108     ecut=    60.00 Ry     beta= 0.30
     Davidson diagonalization with overlap
     ethr =  6.82E-11,  avg # of iterations =  4.6

     negative rho (up, down):  0.000E+00 3.063E-04

     total cpu time spent up to now is    13162.4 secs

     total energy              =   -4700.73971693 Ry
     estimated scf accuracy    <       0.00000017 Ry

     total magnetization       =    16.17 Bohr mag/cell
     absolute magnetization    =    26.27 Bohr mag/cell

     iteration #109     ecut=    60.00 Ry     beta= 0.30
     Davidson diagonalization with overlap
     ethr =  6.82E-11,  avg # of iterations =  3.3

     negative rho (up, down):  0.000E+00 3.063E-04

     total cpu time spent up to now is    13279.4 secs

     total energy              =   -4700.73971697 Ry
     estimated scf accuracy    <       0.00000014 Ry

     total magnetization       =    16.17 Bohr mag/cell
     absolute magnetization    =    26.27 Bohr mag/cell

     iteration #110     ecut=    60.00 Ry     beta= 0.30
     Davidson diagonalization with overlap
     ethr =  5.95E-11,  avg # of iterations =  5.4

     negative rho (up, down):  0.000E+00 3.063E-04

     total cpu time spent up to now is    13429.6 secs

     total energy              =   -4700.73971704 Ry
     estimated scf accuracy    <       0.00000007 Ry

     total magnetization       =    16.17 Bohr mag/cell
     absolute magnetization    =    26.27 Bohr mag/cell

     iteration #111     ecut=    60.00 Ry     beta= 0.30
     Davidson diagonalization with overlap
     ethr =  3.00E-11,  avg # of iterations =  5.7

     negative rho (up, down):  0.000E+00 3.063E-04

     total cpu time spent up to now is    13581.6 secs

     total energy              =   -4700.73971639 Ry
     estimated scf accuracy    <       0.00000022 Ry

     total magnetization       =    16.17 Bohr mag/cell
     absolute magnetization    =    26.27 Bohr mag/cell

     iteration #112     ecut=    60.00 Ry     beta= 0.30
     Davidson diagonalization with overlap
     ethr =  3.00E-11,  avg # of iterations = 10.9

     negative rho (up, down):  0.000E+00 3.063E-04

     total cpu time spent up to now is    13817.6 secs

     total energy              =   -4700.73971718 Ry
     estimated scf accuracy    <       0.00000027 Ry

     total magnetization       =    16.18 Bohr mag/cell
     absolute magnetization    =    26.25 Bohr mag/cell

     iteration #113     ecut=    60.00 Ry     beta= 0.30
     Davidson diagonalization with overlap
     ethr =  3.00E-11,  avg # of iterations =  5.8

     negative rho (up, down):  0.000E+00 3.063E-04

     total cpu time spent up to now is    13988.0 secs

     total energy              =   -4700.73971715 Ry
     estimated scf accuracy    <       0.00000031 Ry

     total magnetization       =    16.18 Bohr mag/cell
     absolute magnetization    =    26.25 Bohr mag/cell

     iteration #114     ecut=    60.00 Ry     beta= 0.30
     Davidson diagonalization with overlap
     ethr =  3.00E-11,  avg # of iterations =  7.0

     negative rho (up, down):  0.000E+00 3.063E-04

     total cpu time spent up to now is    14163.0 secs

     total energy              =   -4700.73971728 Ry
     estimated scf accuracy    <       0.00000019 Ry

     total magnetization       =    16.18 Bohr mag/cell
     absolute magnetization    =    26.25 Bohr mag/cell

     iteration #115     ecut=    60.00 Ry     beta= 0.30
     Davidson diagonalization with overlap
     ethr =  3.00E-11,  avg # of iterations =  4.8

     negative rho (up, down):  0.000E+00 3.063E-04

     total cpu time spent up to now is    14296.4 secs

     total energy              =   -4700.73971722 Ry
     estimated scf accuracy    <       0.00000016 Ry

     total magnetization       =    16.18 Bohr mag/cell
     absolute magnetization    =    26.25 Bohr mag/cell

     iteration #116     ecut=    60.00 Ry     beta= 0.30
     Davidson diagonalization with overlap
     ethr =  3.00E-11,  avg # of iterations =  5.8

     negative rho (up, down):  0.000E+00 3.063E-04

     total cpu time spent up to now is    14469.7 secs

     total energy              =   -4700.73971720 Ry
     estimated scf accuracy    <       0.00000016 Ry

     total magnetization       =    16.18 Bohr mag/cell
     absolute magnetization    =    26.25 Bohr mag/cell

     iteration #117     ecut=    60.00 Ry     beta= 0.30
     Davidson diagonalization with overlap
     ethr =  3.00E-11,  avg # of iterations =  6.1

     negative rho (up, down):  0.000E+00 3.062E-04

     total cpu time spent up to now is    14635.5 secs

     total energy              =   -4700.73971733 Ry
     estimated scf accuracy    <       0.00000006 Ry

     total magnetization       =    16.18 Bohr mag/cell
     absolute magnetization    =    26.24 Bohr mag/cell

     iteration #118     ecut=    60.00 Ry     beta= 0.30
     Davidson diagonalization with overlap
     ethr =  2.32E-11,  avg # of iterations =  4.8

     negative rho (up, down):  0.000E+00 3.062E-04

     total cpu time spent up to now is    14766.2 secs

     total energy              =   -4700.73971733 Ry
     estimated scf accuracy    <       0.00000013 Ry

     total magnetization       =    16.18 Bohr mag/cell
     absolute magnetization    =    26.25 Bohr mag/cell

     iteration #119     ecut=    60.00 Ry     beta= 0.30
     Davidson diagonalization with overlap
     ethr =  2.32E-11,  avg # of iterations =  5.1

     negative rho (up, down):  0.000E+00 3.062E-04

     total cpu time spent up to now is    14903.9 secs

     total energy              =   -4700.73971733 Ry
     estimated scf accuracy    <       0.00000004 Ry

     total magnetization       =    16.18 Bohr mag/cell
     absolute magnetization    =    26.24 Bohr mag/cell

     iteration #120     ecut=    60.00 Ry     beta= 0.30
     Davidson diagonalization with overlap
     ethr =  1.51E-11,  avg # of iterations =  4.7

     negative rho (up, down):  0.000E+00 3.062E-04

     total cpu time spent up to now is    15039.3 secs

     total energy              =   -4700.73971731 Ry
     estimated scf accuracy    <       0.00000004 Ry

     total magnetization       =    16.18 Bohr mag/cell
     absolute magnetization    =    26.25 Bohr mag/cell

     iteration #121     ecut=    60.00 Ry     beta= 0.30
     Davidson diagonalization with overlap
     ethr =  1.51E-11,  avg # of iterations =  5.8

     negative rho (up, down):  0.000E+00 3.062E-04

     total cpu time spent up to now is    15201.8 secs

     total energy              =   -4700.73971733 Ry
     estimated scf accuracy    <       0.00000005 Ry

     total magnetization       =    16.18 Bohr mag/cell
     absolute magnetization    =    26.24 Bohr mag/cell

     iteration #122     ecut=    60.00 Ry     beta= 0.30
     Davidson diagonalization with overlap
     ethr =  1.51E-11,  avg # of iterations =  5.5

     negative rho (up, down):  0.000E+00 3.062E-04

     total cpu time spent up to now is    15355.5 secs

     total energy              =   -4700.73971735 Ry
     estimated scf accuracy    <       0.00000010 Ry

     total magnetization       =    16.18 Bohr mag/cell
     absolute magnetization    =    26.24 Bohr mag/cell

     iteration #123     ecut=    60.00 Ry     beta= 0.30
     Davidson diagonalization with overlap
     ethr =  1.51E-11,  avg # of iterations =  5.6

     negative rho (up, down):  0.000E+00 3.062E-04

     total cpu time spent up to now is    15488.9 secs

     total energy              =   -4700.73971736 Ry
     estimated scf accuracy    <       0.00000003 Ry

     total magnetization       =    16.18 Bohr mag/cell
     absolute magnetization    =    26.24 Bohr mag/cell

     iteration #124     ecut=    60.00 Ry     beta= 0.30
     Davidson diagonalization with overlap
     ethr =  1.14E-11,  avg # of iterations =  1.2

     negative rho (up, down):  0.000E+00 3.062E-04

     total cpu time spent up to now is    15597.4 secs

     total energy              =   -4700.73971736 Ry
     estimated scf accuracy    <       0.00000002 Ry

     total magnetization       =    16.18 Bohr mag/cell
     absolute magnetization    =    26.24 Bohr mag/cell

     iteration #125     ecut=    60.00 Ry     beta= 0.30
     Davidson diagonalization with overlap
     ethr =  8.46E-12,  avg # of iterations =  5.0

     negative rho (up, down):  0.000E+00 3.061E-04

     total cpu time spent up to now is    15737.2 secs

     total energy              =   -4700.73971734 Ry
     estimated scf accuracy    <       0.00000013 Ry

     total magnetization       =    16.18 Bohr mag/cell
     absolute magnetization    =    26.24 Bohr mag/cell

     iteration #126     ecut=    60.00 Ry     beta= 0.30
     Davidson diagonalization with overlap
     ethr =  8.46E-12,  avg # of iterations =  6.0

     negative rho (up, down):  0.000E+00 3.061E-04

     total cpu time spent up to now is    15901.2 secs

     total energy              =   -4700.73971736 Ry
     estimated scf accuracy    <       0.00000001 Ry

     total magnetization       =    16.18 Bohr mag/cell
     absolute magnetization    =    26.24 Bohr mag/cell

     iteration #127     ecut=    60.00 Ry     beta= 0.30
     Davidson diagonalization with overlap
     ethr =  4.28E-12,  avg # of iterations =  6.0

     negative rho (up, down):  0.000E+00 3.061E-04

     total cpu time spent up to now is    16061.2 secs

     total energy              =   -4700.73971736 Ry
     estimated scf accuracy    <       0.00000003 Ry

     total magnetization       =    16.18 Bohr mag/cell
     absolute magnetization    =    26.24 Bohr mag/cell

     iteration #128     ecut=    60.00 Ry     beta= 0.30
     Davidson diagonalization with overlap
     ethr =  4.28E-12,  avg # of iterations =  5.9

     negative rho (up, down):  0.000E+00 3.060E-04
 
     Magnetic moment per site  (integrated on atomic sphere of radius R)
     atom   1 (R=0.179)  charge= 12.1847  magn= -0.8318
     atom   2 (R=0.179)  charge= 14.4752  magn=  2.1283
     atom   3 (R=0.179)  charge= 14.4653  magn=  2.1473
     atom   4 (R=0.179)  charge= 12.2168  magn=  0.8327
     atom   5 (R=0.179)  charge= 12.1882  magn= -0.4263
     atom   6 (R=0.179)  charge= 14.4746  magn=  2.1447
     atom   7 (R=0.179)  charge= 12.1847  magn= -0.8318
     atom   8 (R=0.179)  charge= 14.4752  magn=  2.1283
     atom   9 (R=0.179)  charge= 12.1767  magn= -0.9995
     atom  10 (R=0.179)  charge= 14.4752  magn=  2.1283
     atom  11 (R=0.179)  charge= 14.4663  magn=  2.3112
     atom  12 (R=0.179)  charge= 14.4746  magn=  2.1447
     atom  13 (R=0.179)  charge= 14.4719  magn=  2.0140
     atom  14 (R=0.179)  charge= 12.2168  magn=  0.8327
     atom  15 (R=0.179)  charge= 12.1767  magn= -0.9995
     atom  16 (R=0.179)  charge= 14.4752  magn=  2.1283

     total cpu time spent up to now is    16222.4 secs

     End of self-consistent calculation

     Number of k-points >= 100: set verbosity='high' to print the bands.

     the Fermi energy is    18.1093 ev

!    total energy              =   -4700.73971737 Ry
     total all-electron energy =    -37622.137265 Ry
     estimated scf accuracy    <          5.1E-09 Ry
     smearing contrib. (-TS)   =      -0.00261859 Ry
     internal energy E=F+TS    =   -4700.73709878 Ry

     The total energy is F=E-TS. E is the sum of the following terms:
     one-electron contribution =   -1446.07738862 Ry
     hartree contribution      =     865.82898380 Ry
     xc contribution           =    -405.09016287 Ry
     ewald contribution        =   -2450.56234986 Ry
     one-center paw contrib.   =   -1264.83618123 Ry

     total magnetization       =    16.18 Bohr mag/cell
     absolute magnetization    =    26.24 Bohr mag/cell

     convergence has been achieved in 128 iterations


     Computing stress (Cartesian axis) and pressure


     negative rho (up, down):  0.000E+00 3.060E-04
          total   stress  (Ry/bohr**3)                   (kbar)     P=      -92.21
  -0.00055061   0.00006160   0.00006160          -81.00        9.06        9.06
   0.00006160  -0.00066494   0.00010387            9.06      -97.82       15.28
   0.00006160   0.00010387  -0.00066494            9.06       15.28      -97.82


     Writing all to output data dir ./tmp/fecr_fe09cr07_h0.01.save/ :
     XML data file, charge density, pseudopotentials, collected wavefunctions
 
     init_run     :     49.74s CPU     56.09s WALL (       1 calls)
     electrons    :  10367.13s CPU  16163.60s WALL (       1 calls)
     stress       :     52.53s CPU    115.94s WALL (       1 calls)

     Called by init_run:
     wfcinit      :     15.46s CPU     17.86s WALL (       1 calls)
     potinit      :     32.74s CPU     31.16s WALL (       1 calls)
     hinit0       :      0.90s CPU      4.20s WALL (       1 calls)

     Called by electrons:
     c_bands      :   5486.89s CPU  10491.30s WALL (     128 calls)
     sum_band     :    690.57s CPU   1351.60s WALL (     128 calls)
     v_of_rho     :     10.78s CPU     15.40s WALL (     129 calls)
     newd         :     19.52s CPU     33.69s WALL (     129 calls)
                                       33.67s GPU  (     129 calls)
     PAW_pot      :   4177.14s CPU   4265.27s WALL (     129 calls)
     mix_rho      :      9.70s CPU     21.79s WALL (     128 calls)

     Called by c_bands:
     init_us_2    :    263.68s CPU    425.22s WALL (   35088 calls)
     cegterg      :   4985.09s CPU   9512.10s WALL (   17409 calls)

     Called by *egterg:
     cdiaghg      :    844.72s CPU   1921.49s WALL (   93034 calls)
                                     1897.60s GPU  (   93034 calls)
     h_psi        :   2231.90s CPU   4128.69s WALL (   93170 calls)
                                     4101.19s GPU  (   93170 calls)
     s_psi        :    406.66s CPU    650.35s WALL (   93170 calls)
     g_psi        :      0.60s CPU     31.69s WALL (   75625 calls)
                                        4.69s GPU  (   75625 calls)

     Called by h_psi:
     h_psi:calbec :      4.78s CPU    315.98s WALL (   93170 calls)
                                      172.14s GPU  (   93170 calls)
     vloc_psi     :   1429.91s CPU   2685.68s WALL (   93170 calls)
                                     2665.19s GPU  (   93170 calls)
     add_vuspsi   :    422.27s CPU   1011.44s WALL (   93170 calls)
                                      830.67s GPU  (   93170 calls)

     General routines
     calbec       :      5.43s CPU      9.72s WALL (  110714 calls)
     fft          :      2.77s CPU      8.86s WALL (    3244 calls)
                                        0.31s GPU  (    2986 calls)
     ffts         :      0.77s CPU      2.31s WALL (     514 calls)
                                        0.03s GPU  (     256 calls)
     fftw         :     21.28s CPU    778.65s WALL ( 1073458 calls)
                                      386.99s GPU  ( 1073458 calls)
     interpolate  :      3.76s CPU     11.10s WALL (     258 calls)
 
     Parallel routines
 
     PWSCF        :      2h54m CPU      4h32m WALL

 
   This run was terminated on:  13:50: 8  16May2026            

=------------------------------------------------------------------------------=
   JOB DONE.
=------------------------------------------------------------------------------=
Warning: ieee_invalid is signaling
Warning: ieee_divide_by_zero is signaling
Warning: ieee_inexact is signaling
FORTRAN STOP
