--------------------------------------------------------------------------
WARNING: Open MPI tried to bind a process but failed.  This is a
warning only; your job will continue, though performance may
be degraded.

  Local host:        4b82db919bf5
  Application name:  /root/q-e-qe-7.3.1/bin/pw.x
  Error message:     failed to bind memory
  Location:          ../../../../../orte/mca/rtc/hwloc/rtc_hwloc.c:447

--------------------------------------------------------------------------

     Program PWSCF v.7.3.1 starts on 19May2026 at 16:52:42 

     This program is part of the open-source Quantum ESPRESSO suite
     for quantum simulation of materials; please cite
         "P. Giannozzi et al., J. Phys.:Condens. Matter 21 395502 (2009);
         "P. Giannozzi et al., J. Phys.:Condens. Matter 29 465901 (2017);
         "P. Giannozzi et al., J. Chem. Phys. 152 154105 (2020);
          URL http://www.quantum-espresso.org", 
     in publications or presentations arising from this work. More details at
     http://www.quantum-espresso.org/quote

     Parallel version (MPI & OpenMP), running on       8 processor cores
     Number of MPI processes:                 1
     Threads/MPI process:                     8

     MPI processes distributed on     1 nodes
     217742 MiB available memory on the printing compute node when the environment starts
 
     Reading input from inputs/fecr_fe06cr10_vcr.in

     Current dimensions of program PWSCF are:
     Max number of different atomic species (ntypx) = 10
     Max number of k-points (npk) =  40000
     Max angular momentum in pseudopotentials (lmaxx) =  4
     file Fe.pbe-spn-kjpaw_psl.1.0.0.UPF: wavefunction(s)  3P 3D renormalized
     file Cr.pbe-spn-kjpaw_psl.1.0.0.UPF: wavefunction(s)  3S 3P 3D renormalized
     Found identity + ( -0.5000 -0.5000 -0.5000) symmetry
     This is a supercell, fractional translations are disabled
     Message from routine setup:
     using ibrav=0 with symmetry is DISCOURAGED, use correct ibrav instead
 
     Subspace diagonalization in iterative solution of the eigenvalue problem:
     a serial algorithm will be used

 
     G-vector sticks info
     --------------------
     sticks:   dense  smooth     PW     G-vecs:    dense   smooth      PW
     Sum        4373    2185    621               216895    76813   11633
 
     Using Slab Decomposition
 


     bravais-lattice index     =            0
     lattice parameter (alat)  =      10.6866  a.u.
     unit-cell volume          =    1220.4351 (a.u.)^3
     number of atoms/cell      =           16
     number of atomic types    =            2
     number of electrons       =       236.00
     number of Kohn-Sham states=          142
     kinetic-energy cutoff     =      60.0000  Ry
     charge density cutoff     =     480.0000  Ry
     scf convergence threshold =      1.0E-08
     mixing beta               =       0.3000
     number of iterations used =            8  plain     mixing
     energy convergence thresh.=      1.0E-04
     force convergence thresh. =      1.0E-04
     press convergence thresh. =      5.0E-01
     Exchange-correlation= SLA  PW   PBX  PBC
                           (   1   4   3   4   0   0   0)
     nstep                     =           50


     GPU acceleration is ACTIVE.  1 visible GPUs per MPI rank


     celldm(1)=  10.686568  celldm(2)=   0.000000  celldm(3)=   0.000000
     celldm(4)=   0.000000  celldm(5)=   0.000000  celldm(6)=   0.000000

     crystal axes: (cart. coord. in units of alat)
               a(1) = (   1.000000   0.000000   0.000000 )  
               a(2) = (   0.000000   1.000000   0.000000 )  
               a(3) = (   0.000000   0.000000   1.000000 )  

     reciprocal axes: (cart. coord. in units 2 pi/alat)
               b(1) = (  1.000000  0.000000  0.000000 )  
               b(2) = (  0.000000  1.000000  0.000000 )  
               b(3) = (  0.000000  0.000000  1.000000 )  


     PseudoPot. # 1 for Fe read from file:
     ./pseudo/Fe.pbe-spn-kjpaw_psl.1.0.0.UPF
     MD5 check sum: fc81f059e5c5069939230b1155715ae8
     Pseudo is Projector augmented-wave + core cor, Zval = 16.0
     Generated using &quot;atomic&quot; code by A. Dal Corso  v.6.3
     Shape of augmentation charge: PSQ
     Using radial grid of 1191 points,  6 beta functions with: 
                l(1) =   0
                l(2) =   0
                l(3) =   1
                l(4) =   1
                l(5) =   2
                l(6) =   2
     Q(r) pseudized with 0 coefficients 


     PseudoPot. # 2 for Cr read from file:
     ./pseudo/Cr.pbe-spn-kjpaw_psl.1.0.0.UPF
     MD5 check sum: 198f1a2427a48552563eee314eba32ba
     Pseudo is Projector augmented-wave + core cor, Zval = 14.0
     Generated using &quot;atomic&quot; code by A. Dal Corso  v.6.3
     Shape of augmentation charge: PSQ
     Using radial grid of 1183 points,  6 beta functions with: 
                l(1) =   0
                l(2) =   0
                l(3) =   1
                l(4) =   1
                l(5) =   2
                l(6) =   2
     Q(r) pseudized with 0 coefficients 


     atomic species   valence    mass     pseudopotential
     Fe               16.00    55.84500     Fe( 1.00)
     Cr               14.00    51.99600     Cr( 1.00)

     Starting magnetic structure 
     atomic species   magnetization
     Fe              0.500
     Cr              0.300

      4 Sym. Ops., with inversion, found



   Cartesian axes

     site n.     atom                  positions (alat units)
         1        Cr     tau(   1) = (   0.0000000   0.0000000   0.0000000  )
         2        Fe     tau(   2) = (   0.2500000   0.2500000   0.2500000  )
         3        Fe     tau(   3) = (   0.0000000   0.0000000   0.5000000  )
         4        Cr     tau(   4) = (   0.2500000   0.2500000   0.7500000  )
         5        Cr     tau(   5) = (   0.0000000   0.5000000   0.0000000  )
         6        Fe     tau(   6) = (   0.2500000   0.7500000   0.2500000  )
         7        Cr     tau(   7) = (   0.0000000   0.5000000   0.5000000  )
         8        Cr     tau(   8) = (   0.2500000   0.7500000   0.7500000  )
         9        Cr     tau(   9) = (   0.5000000   0.0000000   0.0000000  )
        10        Cr     tau(  10) = (   0.7500000   0.2500000   0.2500000  )
        11        Cr     tau(  11) = (   0.5000000   0.0000000   0.5000000  )
        12        Fe     tau(  12) = (   0.7500000   0.2500000   0.7500000  )
        13        Fe     tau(  13) = (   0.5000000   0.5000000   0.0000000  )
        14        Cr     tau(  14) = (   0.7500000   0.7500000   0.2500000  )
        15        Cr     tau(  15) = (   0.5000000   0.5000000   0.5000000  )
        16        Fe     tau(  16) = (   0.7500000   0.7500000   0.7500000  )

     number of k points=    80  Marzari-Vanderbilt smearing, width (Ry)=  0.0200
                       cart. coord. in units 2pi/alat
        k(    1) = (   0.0000000   0.0000000   0.0000000), wk =   0.0046296
        k(    2) = (   0.0000000   0.0000000   0.1666667), wk =   0.0092593
        k(    3) = (   0.0000000   0.0000000   0.3333333), wk =   0.0092593
        k(    4) = (   0.0000000   0.0000000  -0.5000000), wk =   0.0046296
        k(    5) = (   0.0000000   0.1666667   0.1666667), wk =   0.0185185
        k(    6) = (   0.0000000   0.1666667   0.3333333), wk =   0.0185185
        k(    7) = (   0.0000000   0.1666667  -0.5000000), wk =   0.0092593
        k(    8) = (   0.0000000   0.3333333   0.3333333), wk =   0.0185185
        k(    9) = (   0.0000000   0.3333333  -0.5000000), wk =   0.0092593
        k(   10) = (   0.0000000  -0.5000000  -0.5000000), wk =   0.0046296
        k(   11) = (   0.1666667   0.1666667   0.1666667), wk =   0.0185185
        k(   12) = (   0.1666667   0.1666667   0.3333333), wk =   0.0185185
        k(   13) = (   0.1666667   0.1666667  -0.5000000), wk =   0.0185185
        k(   14) = (   0.1666667   0.3333333   0.3333333), wk =   0.0185185
        k(   15) = (   0.1666667   0.3333333  -0.5000000), wk =   0.0185185
        k(   16) = (   0.1666667  -0.5000000  -0.5000000), wk =   0.0092593
        k(   17) = (   0.3333333   0.3333333   0.3333333), wk =   0.0185185
        k(   18) = (   0.3333333   0.3333333  -0.5000000), wk =   0.0185185
        k(   19) = (   0.3333333  -0.5000000  -0.5000000), wk =   0.0092593
        k(   20) = (  -0.5000000  -0.5000000  -0.5000000), wk =   0.0046296
        k(   21) = (   0.1666667   0.0000000   0.0000000), wk =   0.0092593
        k(   22) = (   0.0000000   0.1666667   0.0000000), wk =   0.0092593
        k(   23) = (   0.3333333   0.0000000   0.0000000), wk =   0.0092593
        k(   24) = (   0.0000000   0.3333333   0.0000000), wk =   0.0092593
        k(   25) = (  -0.5000000   0.0000000   0.0000000), wk =   0.0046296
        k(   26) = (   0.0000000  -0.5000000   0.0000000), wk =   0.0046296
        k(   27) = (   0.1666667   0.0000000  -0.1666667), wk =   0.0092593
        k(   28) = (  -0.1666667   0.0000000  -0.1666667), wk =   0.0092593
        k(   29) = (   0.1666667  -0.1666667   0.0000000), wk =   0.0185185
        k(   30) = (   0.1666667   0.0000000  -0.3333333), wk =   0.0092593
        k(   31) = (  -0.1666667   0.0000000  -0.3333333), wk =   0.0092593
        k(   32) = (   0.3333333  -0.1666667   0.0000000), wk =   0.0185185
        k(   33) = (   0.0000000   0.3333333   0.1666667), wk =   0.0185185
        k(   34) = (   0.1666667   0.3333333   0.0000000), wk =   0.0185185
        k(   35) = (   0.3333333   0.0000000   0.1666667), wk =   0.0092593
        k(   36) = (   0.3333333   0.0000000  -0.1666667), wk =   0.0092593
        k(   37) = (   0.1666667   0.0000000   0.5000000), wk =   0.0092593
        k(   38) = (  -0.5000000  -0.1666667   0.0000000), wk =   0.0092593
        k(   39) = (   0.0000000  -0.5000000   0.1666667), wk =   0.0092593
        k(   40) = (   0.1666667  -0.5000000   0.0000000), wk =   0.0092593
        k(   41) = (  -0.5000000   0.0000000   0.1666667), wk =   0.0092593
        k(   42) = (   0.3333333   0.0000000  -0.3333333), wk =   0.0092593
        k(   43) = (  -0.3333333   0.0000000  -0.3333333), wk =   0.0092593
        k(   44) = (   0.3333333  -0.3333333   0.0000000), wk =   0.0185185
        k(   45) = (   0.3333333   0.0000000   0.5000000), wk =   0.0092593
        k(   46) = (  -0.5000000  -0.3333333   0.0000000), wk =   0.0092593
        k(   47) = (   0.0000000  -0.5000000   0.3333333), wk =   0.0092593
        k(   48) = (   0.3333333  -0.5000000   0.0000000), wk =   0.0092593
        k(   49) = (  -0.5000000   0.0000000   0.3333333), wk =   0.0092593
        k(   50) = (  -0.5000000   0.0000000   0.5000000), wk =   0.0046296
        k(   51) = (  -0.5000000   0.5000000   0.0000000), wk =   0.0046296
        k(   52) = (   0.1666667   0.1666667  -0.1666667), wk =   0.0185185
        k(   53) = (   0.1666667   0.1666667  -0.3333333), wk =   0.0185185
        k(   54) = (   0.3333333  -0.1666667   0.1666667), wk =   0.0185185
        k(   55) = (   0.3333333   0.1666667  -0.1666667), wk =   0.0185185
        k(   56) = (  -0.1666667   0.3333333   0.1666667), wk =   0.0185185
        k(   57) = (  -0.1666667  -0.3333333  -0.1666667), wk =   0.0185185
        k(   58) = (  -0.5000000  -0.1666667   0.1666667), wk =   0.0185185
        k(   59) = (  -0.1666667  -0.5000000   0.1666667), wk =   0.0092593
        k(   60) = (  -0.1666667   0.5000000  -0.1666667), wk =   0.0092593
        k(   61) = (   0.3333333   0.1666667  -0.3333333), wk =   0.0185185
        k(   62) = (  -0.3333333  -0.1666667  -0.3333333), wk =   0.0185185
        k(   63) = (   0.3333333  -0.3333333   0.1666667), wk =   0.0185185
        k(   64) = (   0.3333333   0.3333333  -0.1666667), wk =   0.0185185
        k(   65) = (  -0.1666667   0.3333333   0.3333333), wk =   0.0185185
        k(   66) = (   0.3333333   0.1666667   0.5000000), wk =   0.0185185
        k(   67) = (  -0.5000000  -0.3333333   0.1666667), wk =   0.0185185
        k(   68) = (  -0.1666667  -0.5000000   0.3333333), wk =   0.0092593
        k(   69) = (  -0.1666667   0.5000000  -0.3333333), wk =   0.0092593
        k(   70) = (   0.3333333  -0.5000000   0.1666667), wk =   0.0092593
        k(   71) = (   0.3333333   0.5000000  -0.1666667), wk =   0.0092593
        k(   72) = (  -0.5000000   0.1666667   0.3333333), wk =   0.0185185
        k(   73) = (  -0.5000000   0.1666667   0.5000000), wk =   0.0092593
        k(   74) = (  -0.5000000   0.5000000   0.1666667), wk =   0.0092593
        k(   75) = (   0.3333333   0.3333333  -0.3333333), wk =   0.0185185
        k(   76) = (  -0.5000000  -0.3333333   0.3333333), wk =   0.0185185
        k(   77) = (  -0.3333333  -0.5000000   0.3333333), wk =   0.0092593
        k(   78) = (  -0.3333333   0.5000000  -0.3333333), wk =   0.0092593
        k(   79) = (  -0.5000000   0.3333333   0.5000000), wk =   0.0092593
        k(   80) = (  -0.5000000   0.5000000   0.3333333), wk =   0.0092593

     Dense  grid:   216895 G-vectors     FFT dimensions: (  75,  75,  75)

     Smooth grid:    76813 G-vectors     FFT dimensions: (  54,  54,  54)

     Estimated max dynamical RAM per process >       4.21 GB

     Check: negative core charge=   -0.000003
     Generating pointlists ...
     new r_m :   0.1786 (alat units)  1.9088 (a.u.) for type    1
     new r_m :   0.1786 (alat units)  1.9088 (a.u.) for type    2

     Initial potential from superposition of free atoms

     starting charge     235.9896, renormalised to     236.0000
     Starting wfcs are  160 randomized atomic wfcs
     Checking if some PAW data can be deallocated... 

     total cpu time spent up to now is       28.7 secs

     Self-consistent Calculation

     iteration #  1     ecut=    60.00 Ry     beta= 0.30
     Davidson diagonalization with overlap
     ethr =  1.00E-02,  avg # of iterations =  5.2

     negative rho (up, down):  1.671E-01 1.727E+00

     total cpu time spent up to now is       75.7 secs

     total energy              =   -4442.68401669 Ry
     estimated scf accuracy    <     238.33493641 Ry

     total magnetization       =    46.90 Bohr mag/cell
     absolute magnetization    =    65.72 Bohr mag/cell

     iteration #  2     ecut=    60.00 Ry     beta= 0.30
     Davidson diagonalization with overlap
     ethr =  1.00E-02,  avg # of iterations =  5.3

     negative rho (up, down):  1.199E-01 1.303E+00

     total cpu time spent up to now is      121.6 secs

     total energy              =   -4444.30178701 Ry
     estimated scf accuracy    <      74.40547110 Ry

     total magnetization       =    23.52 Bohr mag/cell
     absolute magnetization    =    24.25 Bohr mag/cell

     iteration #  3     ecut=    60.00 Ry     beta= 0.30
     Davidson diagonalization with overlap
     ethr =  1.00E-02,  avg # of iterations =  5.8

     negative rho (up, down):  9.365E-02 1.139E+00

     total cpu time spent up to now is      172.1 secs

     total energy              =   -4445.54944700 Ry
     estimated scf accuracy    <     148.20094558 Ry

     total magnetization       =    23.06 Bohr mag/cell
     absolute magnetization    =    23.42 Bohr mag/cell

     iteration #  4     ecut=    60.00 Ry     beta= 0.30
     Davidson diagonalization with overlap
     ethr =  1.00E-02,  avg # of iterations =  3.3

     negative rho (up, down):  7.902E-02 1.037E+00

     total cpu time spent up to now is      214.6 secs

     total energy              =   -4453.87895013 Ry
     estimated scf accuracy    <      18.97081164 Ry

     total magnetization       =    24.39 Bohr mag/cell
     absolute magnetization    =    25.40 Bohr mag/cell

     iteration #  5     ecut=    60.00 Ry     beta= 0.30
     Davidson diagonalization with overlap
     ethr =  8.04E-03,  avg # of iterations =  3.2

     negative rho (up, down):  3.852E-02 6.961E-01

     total cpu time spent up to now is      254.3 secs

     total energy              =   -4455.45195342 Ry
     estimated scf accuracy    <      16.77484946 Ry

     total magnetization       =    25.44 Bohr mag/cell
     absolute magnetization    =    26.14 Bohr mag/cell

     iteration #  6     ecut=    60.00 Ry     beta= 0.30
     Davidson diagonalization with overlap
     ethr =  7.11E-03,  avg # of iterations =  2.5

     negative rho (up, down):  1.051E-02 3.867E-01

     total cpu time spent up to now is      292.7 secs

     total energy              =   -4455.99302998 Ry
     estimated scf accuracy    <      15.09169725 Ry

     total magnetization       =    24.72 Bohr mag/cell
     absolute magnetization    =    25.41 Bohr mag/cell

     iteration #  7     ecut=    60.00 Ry     beta= 0.30
     Davidson diagonalization with overlap
     ethr =  6.39E-03,  avg # of iterations =  1.3

     negative rho (up, down):  2.898E-03 2.344E-01

     total cpu time spent up to now is      327.1 secs

     total energy              =   -4456.85082953 Ry
     estimated scf accuracy    <       7.25736150 Ry

     total magnetization       =    22.23 Bohr mag/cell
     absolute magnetization    =    22.98 Bohr mag/cell

     iteration #  8     ecut=    60.00 Ry     beta= 0.30
     Davidson diagonalization with overlap
     ethr =  3.08E-03,  avg # of iterations =  1.3

     negative rho (up, down):  0.000E+00 9.018E-02

     total cpu time spent up to now is      363.0 secs

     total energy              =   -4457.12990002 Ry
     estimated scf accuracy    <       3.51470450 Ry

     total magnetization       =    19.78 Bohr mag/cell
     absolute magnetization    =    20.77 Bohr mag/cell

     iteration #  9     ecut=    60.00 Ry     beta= 0.30
     Davidson diagonalization with overlap
     ethr =  1.49E-03,  avg # of iterations =  1.9

     negative rho (up, down):  0.000E+00 1.052E-02

     total cpu time spent up to now is      400.2 secs

     total energy              =   -4457.34511402 Ry
     estimated scf accuracy    <       3.20252203 Ry

     total magnetization       =    18.50 Bohr mag/cell
     absolute magnetization    =    19.62 Bohr mag/cell

     iteration # 10     ecut=    60.00 Ry     beta= 0.30
     Davidson diagonalization with overlap
     ethr =  1.36E-03,  avg # of iterations =  1.8

     negative rho (up, down):  0.000E+00 4.279E-04

     total cpu time spent up to now is      436.9 secs

     total energy              =   -4457.42653608 Ry
     estimated scf accuracy    <       2.85115360 Ry

     total magnetization       =    16.74 Bohr mag/cell
     absolute magnetization    =    18.07 Bohr mag/cell

     iteration # 11     ecut=    60.00 Ry     beta= 0.30
     Davidson diagonalization with overlap
     ethr =  1.21E-03,  avg # of iterations =  1.2

     negative rho (up, down):  0.000E+00 2.696E-04

     total cpu time spent up to now is      471.9 secs

     total energy              =   -4457.52491356 Ry
     estimated scf accuracy    <       0.40992150 Ry

     total magnetization       =    14.69 Bohr mag/cell
     absolute magnetization    =    16.39 Bohr mag/cell

     iteration # 12     ecut=    60.00 Ry     beta= 0.30
     Davidson diagonalization with overlap
     c_bands:  1 eigenvalues not converged
     c_bands:  2 eigenvalues not converged
     ethr =  1.74E-04,  avg # of iterations =  8.9

     negative rho (up, down):  0.000E+00 1.158E-04

     total cpu time spent up to now is      526.9 secs

     total energy              =   -4457.56293116 Ry
     estimated scf accuracy    <       0.53950781 Ry

     total magnetization       =    13.98 Bohr mag/cell
     absolute magnetization    =    15.54 Bohr mag/cell

     iteration # 13     ecut=    60.00 Ry     beta= 0.30
     Davidson diagonalization with overlap
     ethr =  1.74E-04,  avg # of iterations =  1.4

     total cpu time spent up to now is      562.2 secs

     total energy              =   -4457.59084337 Ry
     estimated scf accuracy    <       0.08329542 Ry

     total magnetization       =    13.51 Bohr mag/cell
     absolute magnetization    =    15.06 Bohr mag/cell

     iteration # 14     ecut=    60.00 Ry     beta= 0.30
     Davidson diagonalization with overlap
     c_bands:  3 eigenvalues not converged
     ethr =  3.53E-05,  avg # of iterations =  8.0

     total cpu time spent up to now is      615.3 secs

     total energy              =   -4457.59911809 Ry
     estimated scf accuracy    <       0.16271268 Ry

     total magnetization       =    13.09 Bohr mag/cell
     absolute magnetization    =    14.62 Bohr mag/cell

     iteration # 15     ecut=    60.00 Ry     beta= 0.30
     Davidson diagonalization with overlap
     ethr =  3.53E-05,  avg # of iterations =  2.5

     total cpu time spent up to now is      653.7 secs

     total energy              =   -4457.60557499 Ry
     estimated scf accuracy    <       0.13581620 Ry

     total magnetization       =    12.94 Bohr mag/cell
     absolute magnetization    =    14.53 Bohr mag/cell

     iteration # 16     ecut=    60.00 Ry     beta= 0.30
     Davidson diagonalization with overlap
     ethr =  3.53E-05,  avg # of iterations =  2.4

     total cpu time spent up to now is      691.9 secs

     total energy              =   -4457.60948106 Ry
     estimated scf accuracy    <       0.08890049 Ry

     total magnetization       =    12.54 Bohr mag/cell
     absolute magnetization    =    14.12 Bohr mag/cell

     iteration # 17     ecut=    60.00 Ry     beta= 0.30
     Davidson diagonalization with overlap
     ethr =  3.53E-05,  avg # of iterations =  1.1

     total cpu time spent up to now is      726.6 secs

     total energy              =   -4457.62077512 Ry
     estimated scf accuracy    <       0.04514283 Ry

     total magnetization       =    12.52 Bohr mag/cell
     absolute magnetization    =    14.03 Bohr mag/cell

     iteration # 18     ecut=    60.00 Ry     beta= 0.30
     Davidson diagonalization with overlap
     ethr =  1.91E-05,  avg # of iterations =  2.6

     total cpu time spent up to now is      765.6 secs

     total energy              =   -4457.62578270 Ry
     estimated scf accuracy    <       0.06198593 Ry

     total magnetization       =    11.64 Bohr mag/cell
     absolute magnetization    =    13.34 Bohr mag/cell

     iteration # 19     ecut=    60.00 Ry     beta= 0.30
     Davidson diagonalization with overlap
     ethr =  1.91E-05,  avg # of iterations =  1.6

     total cpu time spent up to now is      801.7 secs

     total energy              =   -4457.62862956 Ry
     estimated scf accuracy    <       0.03182945 Ry

     total magnetization       =    11.26 Bohr mag/cell
     absolute magnetization    =    13.02 Bohr mag/cell

     iteration # 20     ecut=    60.00 Ry     beta= 0.30
     Davidson diagonalization with overlap
     ethr =  1.35E-05,  avg # of iterations =  2.5

     total cpu time spent up to now is      840.2 secs

     total energy              =   -4457.62971498 Ry
     estimated scf accuracy    <       0.02699742 Ry

     total magnetization       =    11.18 Bohr mag/cell
     absolute magnetization    =    12.92 Bohr mag/cell

     iteration # 21     ecut=    60.00 Ry     beta= 0.30
     Davidson diagonalization with overlap
     ethr =  1.14E-05,  avg # of iterations =  1.2

     total cpu time spent up to now is      875.5 secs

     total energy              =   -4457.63074667 Ry
     estimated scf accuracy    <       0.00431292 Ry

     total magnetization       =    11.07 Bohr mag/cell
     absolute magnetization    =    12.83 Bohr mag/cell

     iteration # 22     ecut=    60.00 Ry     beta= 0.30
     Davidson diagonalization with overlap
     c_bands:  1 eigenvalues not converged
     c_bands:  1 eigenvalues not converged
     c_bands:  1 eigenvalues not converged
     c_bands:  1 eigenvalues not converged
     c_bands:  3 eigenvalues not converged
     c_bands:  1 eigenvalues not converged
     ethr =  1.83E-06,  avg # of iterations = 10.0

     total cpu time spent up to now is      931.4 secs

     total energy              =   -4457.63117708 Ry
     estimated scf accuracy    <       0.00157859 Ry

     total magnetization       =    11.06 Bohr mag/cell
     absolute magnetization    =    12.80 Bohr mag/cell

     iteration # 23     ecut=    60.00 Ry     beta= 0.30
     Davidson diagonalization with overlap
     c_bands:  2 eigenvalues not converged
     ethr =  6.69E-07,  avg # of iterations =  4.9

     total cpu time spent up to now is      975.8 secs

     total energy              =   -4457.63129475 Ry
     estimated scf accuracy    <       0.00085977 Ry

     total magnetization       =    10.89 Bohr mag/cell
     absolute magnetization    =    12.66 Bohr mag/cell

     iteration # 24     ecut=    60.00 Ry     beta= 0.30
     Davidson diagonalization with overlap
     ethr =  3.64E-07,  avg # of iterations =  6.8

     total cpu time spent up to now is     1026.6 secs

     total energy              =   -4457.63115136 Ry
     estimated scf accuracy    <       0.01004030 Ry

     total magnetization       =    10.88 Bohr mag/cell
     absolute magnetization    =    12.63 Bohr mag/cell

     iteration # 25     ecut=    60.00 Ry     beta= 0.30
     Davidson diagonalization with overlap
     ethr =  3.64E-07,  avg # of iterations =  5.4

     total cpu time spent up to now is     1071.7 secs

     total energy              =   -4457.63156369 Ry
     estimated scf accuracy    <       0.00034979 Ry

     total magnetization       =    10.85 Bohr mag/cell
     absolute magnetization    =    12.61 Bohr mag/cell

     iteration # 26     ecut=    60.00 Ry     beta= 0.30
     Davidson diagonalization with overlap
     ethr =  1.48E-07,  avg # of iterations =  4.9

     total cpu time spent up to now is     1116.3 secs

     total energy              =   -4457.63160630 Ry
     estimated scf accuracy    <       0.00102466 Ry

     total magnetization       =    10.85 Bohr mag/cell
     absolute magnetization    =    12.59 Bohr mag/cell

     iteration # 27     ecut=    60.00 Ry     beta= 0.30
     Davidson diagonalization with overlap
     ethr =  1.48E-07,  avg # of iterations =  3.0

     total cpu time spent up to now is     1156.2 secs

     total energy              =   -4457.63167191 Ry
     estimated scf accuracy    <       0.00036406 Ry

     total magnetization       =    10.79 Bohr mag/cell
     absolute magnetization    =    12.54 Bohr mag/cell

     iteration # 28     ecut=    60.00 Ry     beta= 0.30
     Davidson diagonalization with overlap
     ethr =  1.48E-07,  avg # of iterations =  1.7

     total cpu time spent up to now is     1192.9 secs

     total energy              =   -4457.63170464 Ry
     estimated scf accuracy    <       0.00013970 Ry

     total magnetization       =    10.76 Bohr mag/cell
     absolute magnetization    =    12.52 Bohr mag/cell

     iteration # 29     ecut=    60.00 Ry     beta= 0.30
     Davidson diagonalization with overlap
     ethr =  5.92E-08,  avg # of iterations =  4.8

     total cpu time spent up to now is     1237.7 secs

     total energy              =   -4457.63172009 Ry
     estimated scf accuracy    <       0.00037314 Ry

     total magnetization       =    10.76 Bohr mag/cell
     absolute magnetization    =    12.51 Bohr mag/cell

     iteration # 30     ecut=    60.00 Ry     beta= 0.30
     Davidson diagonalization with overlap
     ethr =  5.92E-08,  avg # of iterations =  3.3

     total cpu time spent up to now is     1278.8 secs

     total energy              =   -4457.63176167 Ry
     estimated scf accuracy    <       0.00010870 Ry

     total magnetization       =    10.75 Bohr mag/cell
     absolute magnetization    =    12.49 Bohr mag/cell

     iteration # 31     ecut=    60.00 Ry     beta= 0.30
     Davidson diagonalization with overlap
     ethr =  4.61E-08,  avg # of iterations =  4.3

     total cpu time spent up to now is     1321.2 secs

     total energy              =   -4457.63175123 Ry
     estimated scf accuracy    <       0.00010390 Ry

     total magnetization       =    10.77 Bohr mag/cell
     absolute magnetization    =    12.48 Bohr mag/cell

     iteration # 32     ecut=    60.00 Ry     beta= 0.30
     Davidson diagonalization with overlap
     ethr =  4.40E-08,  avg # of iterations =  3.3

     total cpu time spent up to now is     1362.1 secs

     total energy              =   -4457.63177753 Ry
     estimated scf accuracy    <       0.00013384 Ry

     total magnetization       =    10.75 Bohr mag/cell
     absolute magnetization    =    12.47 Bohr mag/cell

     iteration # 33     ecut=    60.00 Ry     beta= 0.30
     Davidson diagonalization with overlap
     ethr =  4.40E-08,  avg # of iterations =  3.6

     total cpu time spent up to now is     1403.3 secs

     total energy              =   -4457.63178535 Ry
     estimated scf accuracy    <       0.00004676 Ry

     total magnetization       =    10.75 Bohr mag/cell
     absolute magnetization    =    12.45 Bohr mag/cell

     iteration # 34     ecut=    60.00 Ry     beta= 0.30
     Davidson diagonalization with overlap
     ethr =  1.98E-08,  avg # of iterations =  4.1

     total cpu time spent up to now is     1446.0 secs

     total energy              =   -4457.63179597 Ry
     estimated scf accuracy    <       0.00010360 Ry

     total magnetization       =    10.76 Bohr mag/cell
     absolute magnetization    =    12.46 Bohr mag/cell

     iteration # 35     ecut=    60.00 Ry     beta= 0.30
     Davidson diagonalization with overlap
     ethr =  1.98E-08,  avg # of iterations =  4.9

     total cpu time spent up to now is     1489.2 secs

     total energy              =   -4457.63181417 Ry
     estimated scf accuracy    <       0.00001655 Ry

     total magnetization       =    10.76 Bohr mag/cell
     absolute magnetization    =    12.44 Bohr mag/cell

     iteration # 36     ecut=    60.00 Ry     beta= 0.30
     Davidson diagonalization with overlap
     ethr =  7.01E-09,  avg # of iterations =  5.7

     total cpu time spent up to now is     1536.8 secs

     total energy              =   -4457.63182035 Ry
     estimated scf accuracy    <       0.00005231 Ry

     total magnetization       =    10.76 Bohr mag/cell
     absolute magnetization    =    12.44 Bohr mag/cell

     iteration # 37     ecut=    60.00 Ry     beta= 0.30
     Davidson diagonalization with overlap
     ethr =  7.01E-09,  avg # of iterations =  4.4

     total cpu time spent up to now is     1579.0 secs

     total energy              =   -4457.63182432 Ry
     estimated scf accuracy    <       0.00002008 Ry

     total magnetization       =    10.77 Bohr mag/cell
     absolute magnetization    =    12.43 Bohr mag/cell

     iteration # 38     ecut=    60.00 Ry     beta= 0.30
     Davidson diagonalization with overlap
     ethr =  7.01E-09,  avg # of iterations =  1.8

     total cpu time spent up to now is     1615.3 secs

     total energy              =   -4457.63182434 Ry
     estimated scf accuracy    <       0.00001225 Ry

     total magnetization       =    10.77 Bohr mag/cell
     absolute magnetization    =    12.43 Bohr mag/cell

     iteration # 39     ecut=    60.00 Ry     beta= 0.30
     Davidson diagonalization with overlap
     ethr =  5.19E-09,  avg # of iterations =  6.8

     total cpu time spent up to now is     1669.3 secs

     total energy              =   -4457.63183898 Ry
     estimated scf accuracy    <       0.00003742 Ry

     total magnetization       =    10.78 Bohr mag/cell
     absolute magnetization    =    12.41 Bohr mag/cell

     iteration # 40     ecut=    60.00 Ry     beta= 0.30
     Davidson diagonalization with overlap
     ethr =  5.19E-09,  avg # of iterations =  2.7

     total cpu time spent up to now is     1707.9 secs

     total energy              =   -4457.63184181 Ry
     estimated scf accuracy    <       0.00001868 Ry

     total magnetization       =    10.78 Bohr mag/cell
     absolute magnetization    =    12.41 Bohr mag/cell

     iteration # 41     ecut=    60.00 Ry     beta= 0.30
     Davidson diagonalization with overlap
     ethr =  5.19E-09,  avg # of iterations =  2.2

     total cpu time spent up to now is     1745.0 secs

     total energy              =   -4457.63184516 Ry
     estimated scf accuracy    <       0.00000793 Ry

     total magnetization       =    10.78 Bohr mag/cell
     absolute magnetization    =    12.41 Bohr mag/cell

     iteration # 42     ecut=    60.00 Ry     beta= 0.30
     Davidson diagonalization with overlap
     ethr =  3.36E-09,  avg # of iterations =  4.1

     total cpu time spent up to now is     1788.7 secs

     total energy              =   -4457.63184638 Ry
     estimated scf accuracy    <       0.00001622 Ry

     total magnetization       =    10.79 Bohr mag/cell
     absolute magnetization    =    12.41 Bohr mag/cell

     iteration # 43     ecut=    60.00 Ry     beta= 0.30
     Davidson diagonalization with overlap
     ethr =  3.36E-09,  avg # of iterations =  4.4

     total cpu time spent up to now is     1831.9 secs

     total energy              =   -4457.63184902 Ry
     estimated scf accuracy    <       0.00001164 Ry

     total magnetization       =    10.79 Bohr mag/cell
     absolute magnetization    =    12.41 Bohr mag/cell

     iteration # 44     ecut=    60.00 Ry     beta= 0.30
     Davidson diagonalization with overlap
     ethr =  3.36E-09,  avg # of iterations =  3.3

     total cpu time spent up to now is     1872.2 secs

     total energy              =   -4457.63185072 Ry
     estimated scf accuracy    <       0.00001102 Ry

     total magnetization       =    10.79 Bohr mag/cell
     absolute magnetization    =    12.40 Bohr mag/cell

     iteration # 45     ecut=    60.00 Ry     beta= 0.30
     Davidson diagonalization with overlap
     ethr =  3.36E-09,  avg # of iterations =  1.8

     total cpu time spent up to now is     1909.6 secs

     total energy              =   -4457.63185185 Ry
     estimated scf accuracy    <       0.00000603 Ry

     total magnetization       =    10.79 Bohr mag/cell
     absolute magnetization    =    12.40 Bohr mag/cell

     iteration # 46     ecut=    60.00 Ry     beta= 0.30
     Davidson diagonalization with overlap
     ethr =  2.56E-09,  avg # of iterations =  2.5

     total cpu time spent up to now is     1948.6 secs

     total energy              =   -4457.63185069 Ry
     estimated scf accuracy    <       0.00000955 Ry

     total magnetization       =    10.79 Bohr mag/cell
     absolute magnetization    =    12.40 Bohr mag/cell

     iteration # 47     ecut=    60.00 Ry     beta= 0.30
     Davidson diagonalization with overlap
     ethr =  2.56E-09,  avg # of iterations =  2.4

     total cpu time spent up to now is     1987.0 secs

     total energy              =   -4457.63185295 Ry
     estimated scf accuracy    <       0.00000783 Ry

     total magnetization       =    10.79 Bohr mag/cell
     absolute magnetization    =    12.41 Bohr mag/cell

     iteration # 48     ecut=    60.00 Ry     beta= 0.30
     Davidson diagonalization with overlap
     ethr =  2.56E-09,  avg # of iterations =  5.6

     total cpu time spent up to now is     2035.3 secs

     total energy              =   -4457.63185637 Ry
     estimated scf accuracy    <       0.00000352 Ry

     total magnetization       =    10.80 Bohr mag/cell
     absolute magnetization    =    12.40 Bohr mag/cell

     iteration # 49     ecut=    60.00 Ry     beta= 0.30
     Davidson diagonalization with overlap
     ethr =  1.49E-09,  avg # of iterations =  1.8

     total cpu time spent up to now is     2072.1 secs

     total energy              =   -4457.63185665 Ry
     estimated scf accuracy    <       0.00000462 Ry

     total magnetization       =    10.80 Bohr mag/cell
     absolute magnetization    =    12.40 Bohr mag/cell

     iteration # 50     ecut=    60.00 Ry     beta= 0.30
     Davidson diagonalization with overlap
     ethr =  1.49E-09,  avg # of iterations =  1.1

     total cpu time spent up to now is     2106.8 secs

     total energy              =   -4457.63185619 Ry
     estimated scf accuracy    <       0.00000426 Ry

     total magnetization       =    10.80 Bohr mag/cell
     absolute magnetization    =    12.40 Bohr mag/cell

     iteration # 51     ecut=    60.00 Ry     beta= 0.30
     Davidson diagonalization with overlap
     ethr =  1.49E-09,  avg # of iterations =  1.2

     total cpu time spent up to now is     2141.2 secs

     total energy              =   -4457.63185881 Ry
     estimated scf accuracy    <       0.00000481 Ry

     total magnetization       =    10.80 Bohr mag/cell
     absolute magnetization    =    12.40 Bohr mag/cell

     iteration # 52     ecut=    60.00 Ry     beta= 0.30
     Davidson diagonalization with overlap
     ethr =  1.49E-09,  avg # of iterations =  5.1

     total cpu time spent up to now is     2185.7 secs

     total energy              =   -4457.63186199 Ry
     estimated scf accuracy    <       0.00000652 Ry

     total magnetization       =    10.80 Bohr mag/cell
     absolute magnetization    =    12.40 Bohr mag/cell

     iteration # 53     ecut=    60.00 Ry     beta= 0.30
     Davidson diagonalization with overlap
     ethr =  1.49E-09,  avg # of iterations =  5.2

     total cpu time spent up to now is     2231.6 secs

     total energy              =   -4457.63185903 Ry
     estimated scf accuracy    <       0.00001090 Ry

     total magnetization       =    10.80 Bohr mag/cell
     absolute magnetization    =    12.39 Bohr mag/cell

     iteration # 54     ecut=    60.00 Ry     beta= 0.30
     Davidson diagonalization with overlap
     ethr =  1.49E-09,  avg # of iterations =  7.5

     total cpu time spent up to now is     2288.4 secs

     total energy              =   -4457.63187510 Ry
     estimated scf accuracy    <       0.00000967 Ry

     total magnetization       =    10.81 Bohr mag/cell
     absolute magnetization    =    12.38 Bohr mag/cell

     iteration # 55     ecut=    60.00 Ry     beta= 0.30
     Davidson diagonalization with overlap
     ethr =  1.49E-09,  avg # of iterations =  4.6

     total cpu time spent up to now is     2333.2 secs

     total energy              =   -4457.63187521 Ry
     estimated scf accuracy    <       0.00001475 Ry

     total magnetization       =    10.82 Bohr mag/cell
     absolute magnetization    =    12.38 Bohr mag/cell

     iteration # 56     ecut=    60.00 Ry     beta= 0.30
     Davidson diagonalization with overlap
     ethr =  1.49E-09,  avg # of iterations =  4.5

     total cpu time spent up to now is     2374.8 secs

     total energy              =   -4457.63187296 Ry
     estimated scf accuracy    <       0.00001186 Ry

     total magnetization       =    10.82 Bohr mag/cell
     absolute magnetization    =    12.38 Bohr mag/cell

     iteration # 57     ecut=    60.00 Ry     beta= 0.30
     Davidson diagonalization with overlap
     ethr =  1.49E-09,  avg # of iterations =  4.5

     total cpu time spent up to now is     2418.3 secs

     total energy              =   -4457.63187375 Ry
     estimated scf accuracy    <       0.00001039 Ry

     total magnetization       =    10.82 Bohr mag/cell
     absolute magnetization    =    12.38 Bohr mag/cell

     iteration # 58     ecut=    60.00 Ry     beta= 0.30
     Davidson diagonalization with overlap
     ethr =  1.49E-09,  avg # of iterations =  1.2

     total cpu time spent up to now is     2453.5 secs

     total energy              =   -4457.63187282 Ry
     estimated scf accuracy    <       0.00000607 Ry

     total magnetization       =    10.82 Bohr mag/cell
     absolute magnetization    =    12.38 Bohr mag/cell

     iteration # 59     ecut=    60.00 Ry     beta= 0.30
     Davidson diagonalization with overlap
     ethr =  1.49E-09,  avg # of iterations =  2.7

     total cpu time spent up to now is     2492.5 secs

     total energy              =   -4457.63186987 Ry
     estimated scf accuracy    <       0.00000822 Ry

     total magnetization       =    10.82 Bohr mag/cell
     absolute magnetization    =    12.38 Bohr mag/cell

     iteration # 60     ecut=    60.00 Ry     beta= 0.30
     Davidson diagonalization with overlap
     ethr =  1.49E-09,  avg # of iterations =  5.8

     total cpu time spent up to now is     2541.0 secs

     total energy              =   -4457.63186882 Ry
     estimated scf accuracy    <       0.00003345 Ry

     total magnetization       =    10.81 Bohr mag/cell
     absolute magnetization    =    12.39 Bohr mag/cell

     iteration # 61     ecut=    60.00 Ry     beta= 0.30
     Davidson diagonalization with overlap
     ethr =  1.49E-09,  avg # of iterations =  5.0

     total cpu time spent up to now is     2585.2 secs

     total energy              =   -4457.63187119 Ry
     estimated scf accuracy    <       0.00000439 Ry

     total magnetization       =    10.81 Bohr mag/cell
     absolute magnetization    =    12.39 Bohr mag/cell

     iteration # 62     ecut=    60.00 Ry     beta= 0.30
     Davidson diagonalization with overlap
     ethr =  1.49E-09,  avg # of iterations =  2.8

     total cpu time spent up to now is     2624.2 secs

     total energy              =   -4457.63187220 Ry
     estimated scf accuracy    <       0.00000481 Ry

     total magnetization       =    10.81 Bohr mag/cell
     absolute magnetization    =    12.38 Bohr mag/cell

     iteration # 63     ecut=    60.00 Ry     beta= 0.30
     Davidson diagonalization with overlap
     ethr =  1.49E-09,  avg # of iterations =  3.0

     total cpu time spent up to now is     2663.4 secs

     total energy              =   -4457.63185214 Ry
     estimated scf accuracy    <       0.00000436 Ry

     total magnetization       =    10.81 Bohr mag/cell
     absolute magnetization    =    12.38 Bohr mag/cell

     iteration # 64     ecut=    60.00 Ry     beta= 0.30
     Davidson diagonalization with overlap
     ethr =  1.49E-09,  avg # of iterations =  8.9

     total cpu time spent up to now is     2726.8 secs

     total energy              =   -4457.63188853 Ry
     estimated scf accuracy    <       0.00001007 Ry

     total magnetization       =    10.82 Bohr mag/cell
     absolute magnetization    =    12.37 Bohr mag/cell

     iteration # 65     ecut=    60.00 Ry     beta= 0.30
     Davidson diagonalization with overlap
     ethr =  1.49E-09,  avg # of iterations =  1.0

     total cpu time spent up to now is     2760.8 secs

     total energy              =   -4457.63188876 Ry
     estimated scf accuracy    <       0.00000920 Ry

     total magnetization       =    10.82 Bohr mag/cell
     absolute magnetization    =    12.37 Bohr mag/cell

     iteration # 66     ecut=    60.00 Ry     beta= 0.30
     Davidson diagonalization with overlap
     ethr =  1.49E-09,  avg # of iterations =  5.8

     total cpu time spent up to now is     2812.6 secs

     total energy              =   -4457.63189325 Ry
     estimated scf accuracy    <       0.00002212 Ry

     total magnetization       =    10.82 Bohr mag/cell
     absolute magnetization    =    12.37 Bohr mag/cell

     iteration # 67     ecut=    60.00 Ry     beta= 0.30
     Davidson diagonalization with overlap
     ethr =  1.49E-09,  avg # of iterations =  2.1

     total cpu time spent up to now is     2850.4 secs

     total energy              =   -4457.63186215 Ry
     estimated scf accuracy    <       0.00000704 Ry

     total magnetization       =    10.82 Bohr mag/cell
     absolute magnetization    =    12.37 Bohr mag/cell

     iteration # 68     ecut=    60.00 Ry     beta= 0.30
     Davidson diagonalization with overlap
     ethr =  1.49E-09,  avg # of iterations =  7.7

     total cpu time spent up to now is     2908.8 secs

     total energy              =   -4457.63187829 Ry
     estimated scf accuracy    <       0.00002286 Ry

     total magnetization       =    10.81 Bohr mag/cell
     absolute magnetization    =    12.37 Bohr mag/cell

     iteration # 69     ecut=    60.00 Ry     beta= 0.30
     Davidson diagonalization with overlap
     ethr =  1.49E-09,  avg # of iterations =  5.3

     total cpu time spent up to now is     2954.1 secs

     total energy              =   -4457.63187662 Ry
     estimated scf accuracy    <       0.00000752 Ry

     total magnetization       =    10.81 Bohr mag/cell
     absolute magnetization    =    12.37 Bohr mag/cell

     iteration # 70     ecut=    60.00 Ry     beta= 0.30
     Davidson diagonalization with overlap
     ethr =  1.49E-09,  avg # of iterations =  6.6

     total cpu time spent up to now is     3008.3 secs

     total energy              =   -4457.63187630 Ry
     estimated scf accuracy    <       0.00001710 Ry

     total magnetization       =    10.82 Bohr mag/cell
     absolute magnetization    =    12.37 Bohr mag/cell

     iteration # 71     ecut=    60.00 Ry     beta= 0.30
     Davidson diagonalization with overlap
     ethr =  1.49E-09,  avg # of iterations =  5.3

     total cpu time spent up to now is     3057.6 secs

     total energy              =   -4457.63188105 Ry
     estimated scf accuracy    <       0.00000630 Ry

     total magnetization       =    10.82 Bohr mag/cell
     absolute magnetization    =    12.37 Bohr mag/cell

     iteration # 72     ecut=    60.00 Ry     beta= 0.30
     Davidson diagonalization with overlap
     ethr =  1.49E-09,  avg # of iterations =  6.3

     total cpu time spent up to now is     3110.1 secs

     total energy              =   -4457.63187897 Ry
     estimated scf accuracy    <       0.00000782 Ry

     total magnetization       =    10.82 Bohr mag/cell
     absolute magnetization    =    12.37 Bohr mag/cell

     iteration # 73     ecut=    60.00 Ry     beta= 0.30
     Davidson diagonalization with overlap
     ethr =  1.49E-09,  avg # of iterations =  8.3

     total cpu time spent up to now is     3171.0 secs

     total energy              =   -4457.63190379 Ry
     estimated scf accuracy    <       0.00001623 Ry

     total magnetization       =    10.83 Bohr mag/cell
     absolute magnetization    =    12.36 Bohr mag/cell

     iteration # 74     ecut=    60.00 Ry     beta= 0.30
     Davidson diagonalization with overlap
     ethr =  1.49E-09,  avg # of iterations =  3.7

     total cpu time spent up to now is     3212.2 secs

     total energy              =   -4457.63190190 Ry
     estimated scf accuracy    <       0.00000482 Ry

     total magnetization       =    10.83 Bohr mag/cell
     absolute magnetization    =    12.36 Bohr mag/cell

     iteration # 75     ecut=    60.00 Ry     beta= 0.30
     Davidson diagonalization with overlap
     ethr =  1.49E-09,  avg # of iterations =  7.0

     total cpu time spent up to now is     3267.1 secs

     total energy              =   -4457.63185940 Ry
     estimated scf accuracy    <       0.00000658 Ry

     total magnetization       =    10.84 Bohr mag/cell
     absolute magnetization    =    12.36 Bohr mag/cell

     iteration # 76     ecut=    60.00 Ry     beta= 0.30
     Davidson diagonalization with overlap
     ethr =  1.49E-09,  avg # of iterations =  8.3

     total cpu time spent up to now is     3329.2 secs

     total energy              =   -4457.63188814 Ry
     estimated scf accuracy    <       0.00002978 Ry

     total magnetization       =    10.82 Bohr mag/cell
     absolute magnetization    =    12.36 Bohr mag/cell

     iteration # 77     ecut=    60.00 Ry     beta= 0.30
     Davidson diagonalization with overlap
     ethr =  1.49E-09,  avg # of iterations =  7.3

     total cpu time spent up to now is     3385.6 secs

     total energy              =   -4457.63190010 Ry
     estimated scf accuracy    <       0.00001333 Ry

     total magnetization       =    10.83 Bohr mag/cell
     absolute magnetization    =    12.36 Bohr mag/cell

     iteration # 78     ecut=    60.00 Ry     beta= 0.30
     Davidson diagonalization with overlap
     ethr =  1.49E-09,  avg # of iterations =  7.6

     total cpu time spent up to now is     3443.2 secs

     total energy              =   -4457.63191433 Ry
     estimated scf accuracy    <       0.00001006 Ry

     total magnetization       =    10.84 Bohr mag/cell
     absolute magnetization    =    12.36 Bohr mag/cell

     iteration # 79     ecut=    60.00 Ry     beta= 0.30
     Davidson diagonalization with overlap
     ethr =  1.49E-09,  avg # of iterations =  3.7

     total cpu time spent up to now is     3484.3 secs

     total energy              =   -4457.63191166 Ry
     estimated scf accuracy    <       0.00000463 Ry

     total magnetization       =    10.84 Bohr mag/cell
     absolute magnetization    =    12.36 Bohr mag/cell

     iteration # 80     ecut=    60.00 Ry     beta= 0.30
     Davidson diagonalization with overlap
     ethr =  1.49E-09,  avg # of iterations =  6.5

     total cpu time spent up to now is     3537.7 secs

     total energy              =   -4457.63190159 Ry
     estimated scf accuracy    <       0.00000344 Ry

     total magnetization       =    10.84 Bohr mag/cell
     absolute magnetization    =    12.37 Bohr mag/cell

     iteration # 81     ecut=    60.00 Ry     beta= 0.30
     Davidson diagonalization with overlap
     ethr =  1.46E-09,  avg # of iterations =  6.7

     total cpu time spent up to now is     3592.1 secs

     total energy              =   -4457.63190634 Ry
     estimated scf accuracy    <       0.00000575 Ry

     total magnetization       =    10.84 Bohr mag/cell
     absolute magnetization    =    12.36 Bohr mag/cell

     iteration # 82     ecut=    60.00 Ry     beta= 0.30
     Davidson diagonalization with overlap
     ethr =  1.46E-09,  avg # of iterations =  5.3

     total cpu time spent up to now is     3640.2 secs

     total energy              =   -4457.63191092 Ry
     estimated scf accuracy    <       0.00000655 Ry

     total magnetization       =    10.83 Bohr mag/cell
     absolute magnetization    =    12.36 Bohr mag/cell

     iteration # 83     ecut=    60.00 Ry     beta= 0.30
     Davidson diagonalization with overlap
     ethr =  1.46E-09,  avg # of iterations =  5.0

     total cpu time spent up to now is     3683.8 secs

     total energy              =   -4457.63191270 Ry
     estimated scf accuracy    <       0.00000226 Ry

     total magnetization       =    10.83 Bohr mag/cell
     absolute magnetization    =    12.36 Bohr mag/cell

     iteration # 84     ecut=    60.00 Ry     beta= 0.30
     Davidson diagonalization with overlap
     ethr =  9.59E-10,  avg # of iterations =  2.8

     total cpu time spent up to now is     3723.6 secs

     total energy              =   -4457.63191251 Ry
     estimated scf accuracy    <       0.00000149 Ry

     total magnetization       =    10.83 Bohr mag/cell
     absolute magnetization    =    12.36 Bohr mag/cell

     iteration # 85     ecut=    60.00 Ry     beta= 0.30
     Davidson diagonalization with overlap
     ethr =  6.32E-10,  avg # of iterations =  2.3

     total cpu time spent up to now is     3761.5 secs

     total energy              =   -4457.63190877 Ry
     estimated scf accuracy    <       0.00000325 Ry

     total magnetization       =    10.83 Bohr mag/cell
     absolute magnetization    =    12.36 Bohr mag/cell

     iteration # 86     ecut=    60.00 Ry     beta= 0.30
     Davidson diagonalization with overlap
     ethr =  6.32E-10,  avg # of iterations =  5.4

     total cpu time spent up to now is     3808.8 secs

     total energy              =   -4457.63190900 Ry
     estimated scf accuracy    <       0.00000652 Ry

     total magnetization       =    10.83 Bohr mag/cell
     absolute magnetization    =    12.36 Bohr mag/cell

     iteration # 87     ecut=    60.00 Ry     beta= 0.30
     Davidson diagonalization with overlap
     ethr =  6.32E-10,  avg # of iterations =  4.0

     total cpu time spent up to now is     3850.7 secs

     total energy              =   -4457.63190305 Ry
     estimated scf accuracy    <       0.00000472 Ry

     total magnetization       =    10.83 Bohr mag/cell
     absolute magnetization    =    12.36 Bohr mag/cell

     iteration # 88     ecut=    60.00 Ry     beta= 0.30
     Davidson diagonalization with overlap
     ethr =  6.32E-10,  avg # of iterations =  6.1

     total cpu time spent up to now is     3903.3 secs

     total energy              =   -4457.63190550 Ry
     estimated scf accuracy    <       0.00000334 Ry

     total magnetization       =    10.83 Bohr mag/cell
     absolute magnetization    =    12.36 Bohr mag/cell

     iteration # 89     ecut=    60.00 Ry     beta= 0.30
     Davidson diagonalization with overlap
     ethr =  6.32E-10,  avg # of iterations =  7.2

     total cpu time spent up to now is     3958.5 secs

     total energy              =   -4457.63191099 Ry
     estimated scf accuracy    <       0.00000761 Ry

     total magnetization       =    10.83 Bohr mag/cell
     absolute magnetization    =    12.36 Bohr mag/cell

     iteration # 90     ecut=    60.00 Ry     beta= 0.30
     Davidson diagonalization with overlap
     ethr =  6.32E-10,  avg # of iterations =  6.3

     total cpu time spent up to now is     4011.8 secs

     total energy              =   -4457.63191534 Ry
     estimated scf accuracy    <       0.00000395 Ry

     total magnetization       =    10.84 Bohr mag/cell
     absolute magnetization    =    12.36 Bohr mag/cell

     iteration # 91     ecut=    60.00 Ry     beta= 0.30
     Davidson diagonalization with overlap
     ethr =  6.32E-10,  avg # of iterations =  5.0

     total cpu time spent up to now is     4055.1 secs

     total energy              =   -4457.63191289 Ry
     estimated scf accuracy    <       0.00000230 Ry

     total magnetization       =    10.84 Bohr mag/cell
     absolute magnetization    =    12.36 Bohr mag/cell

     iteration # 92     ecut=    60.00 Ry     beta= 0.30
     Davidson diagonalization with overlap
     ethr =  6.32E-10,  avg # of iterations =  7.6

     total cpu time spent up to now is     4113.1 secs

     total energy              =   -4457.63191333 Ry
     estimated scf accuracy    <       0.00000242 Ry

     total magnetization       =    10.84 Bohr mag/cell
     absolute magnetization    =    12.37 Bohr mag/cell

     iteration # 93     ecut=    60.00 Ry     beta= 0.30
     Davidson diagonalization with overlap
     ethr =  6.32E-10,  avg # of iterations =  6.1

     total cpu time spent up to now is     4164.5 secs

     total energy              =   -4457.63190228 Ry
     estimated scf accuracy    <       0.00000250 Ry

     total magnetization       =    10.84 Bohr mag/cell
     absolute magnetization    =    12.37 Bohr mag/cell

     iteration # 94     ecut=    60.00 Ry     beta= 0.30
     Davidson diagonalization with overlap
     ethr =  6.32E-10,  avg # of iterations =  9.4

     total cpu time spent up to now is     4229.8 secs

     total energy              =   -4457.63192584 Ry
     estimated scf accuracy    <       0.00000309 Ry

     total magnetization       =    10.85 Bohr mag/cell
     absolute magnetization    =    12.38 Bohr mag/cell

     iteration # 95     ecut=    60.00 Ry     beta= 0.30
     Davidson diagonalization with overlap
     ethr =  6.32E-10,  avg # of iterations =  1.3

     total cpu time spent up to now is     4265.2 secs

     total energy              =   -4457.63192324 Ry
     estimated scf accuracy    <       0.00000198 Ry

     total magnetization       =    10.84 Bohr mag/cell
     absolute magnetization    =    12.37 Bohr mag/cell

     iteration # 96     ecut=    60.00 Ry     beta= 0.30
     Davidson diagonalization with overlap
     ethr =  6.32E-10,  avg # of iterations =  5.9

     total cpu time spent up to now is     4313.3 secs

     total energy              =   -4457.63192423 Ry
     estimated scf accuracy    <       0.00000417 Ry

     total magnetization       =    10.84 Bohr mag/cell
     absolute magnetization    =    12.37 Bohr mag/cell

     iteration # 97     ecut=    60.00 Ry     beta= 0.30
     Davidson diagonalization with overlap
     ethr =  6.32E-10,  avg # of iterations =  2.2

     total cpu time spent up to now is     4351.0 secs

     total energy              =   -4457.63192364 Ry
     estimated scf accuracy    <       0.00000309 Ry

     total magnetization       =    10.84 Bohr mag/cell
     absolute magnetization    =    12.37 Bohr mag/cell

     iteration # 98     ecut=    60.00 Ry     beta= 0.30
     Davidson diagonalization with overlap
     ethr =  6.32E-10,  avg # of iterations =  2.3

     total cpu time spent up to now is     4389.1 secs

     total energy              =   -4457.63192470 Ry
     estimated scf accuracy    <       0.00000200 Ry

     total magnetization       =    10.84 Bohr mag/cell
     absolute magnetization    =    12.37 Bohr mag/cell

     iteration # 99     ecut=    60.00 Ry     beta= 0.30
     Davidson diagonalization with overlap
     ethr =  6.32E-10,  avg # of iterations =  3.4

     total cpu time spent up to now is     4429.6 secs

     total energy              =   -4457.63192563 Ry
     estimated scf accuracy    <       0.00000238 Ry

     total magnetization       =    10.84 Bohr mag/cell
     absolute magnetization    =    12.37 Bohr mag/cell

     iteration #100     ecut=    60.00 Ry     beta= 0.30
     Davidson diagonalization with overlap
     ethr =  6.32E-10,  avg # of iterations =  5.8

     total cpu time spent up to now is     4480.0 secs

     total energy              =   -4457.63192751 Ry
     estimated scf accuracy    <       0.00000895 Ry

     total magnetization       =    10.84 Bohr mag/cell
     absolute magnetization    =    12.37 Bohr mag/cell

     iteration #101     ecut=    60.00 Ry     beta= 0.30
     Davidson diagonalization with overlap
     ethr =  6.32E-10,  avg # of iterations =  5.2

     total cpu time spent up to now is     4528.2 secs

     total energy              =   -4457.63190866 Ry
     estimated scf accuracy    <       0.00000396 Ry

     total magnetization       =    10.84 Bohr mag/cell
     absolute magnetization    =    12.38 Bohr mag/cell

     iteration #102     ecut=    60.00 Ry     beta= 0.30
     Davidson diagonalization with overlap
     ethr =  6.32E-10,  avg # of iterations = 10.4

     total cpu time spent up to now is     4597.0 secs

     total energy              =   -4457.63193685 Ry
     estimated scf accuracy    <       0.00000710 Ry

     total magnetization       =    10.85 Bohr mag/cell
     absolute magnetization    =    12.39 Bohr mag/cell

     iteration #103     ecut=    60.00 Ry     beta= 0.30
     Davidson diagonalization with overlap
     ethr =  6.32E-10,  avg # of iterations =  5.5

     total cpu time spent up to now is     4645.3 secs

     total energy              =   -4457.63192961 Ry
     estimated scf accuracy    <       0.00001287 Ry

     total magnetization       =    10.85 Bohr mag/cell
     absolute magnetization    =    12.39 Bohr mag/cell

     iteration #104     ecut=    60.00 Ry     beta= 0.30
     Davidson diagonalization with overlap
     ethr =  6.32E-10,  avg # of iterations =  7.2

     total cpu time spent up to now is     4701.9 secs

     total energy              =   -4457.63191511 Ry
     estimated scf accuracy    <       0.00000614 Ry

     total magnetization       =    10.85 Bohr mag/cell
     absolute magnetization    =    12.38 Bohr mag/cell

     iteration #105     ecut=    60.00 Ry     beta= 0.30
     Davidson diagonalization with overlap
     ethr =  6.32E-10,  avg # of iterations = 10.0

     total cpu time spent up to now is     4770.0 secs

     total energy              =   -4457.63193408 Ry
     estimated scf accuracy    <       0.00000555 Ry

     total magnetization       =    10.85 Bohr mag/cell
     absolute magnetization    =    12.40 Bohr mag/cell

     iteration #106     ecut=    60.00 Ry     beta= 0.30
     Davidson diagonalization with overlap
     ethr =  6.32E-10,  avg # of iterations =  7.7

     total cpu time spent up to now is     4827.5 secs

     total energy              =   -4457.63191055 Ry
     estimated scf accuracy    <       0.00002133 Ry

     total magnetization       =    10.85 Bohr mag/cell
     absolute magnetization    =    12.39 Bohr mag/cell

     iteration #107     ecut=    60.00 Ry     beta= 0.30
     Davidson diagonalization with overlap
     ethr =  6.32E-10,  avg # of iterations = 10.8

     total cpu time spent up to now is     4897.4 secs

     total energy              =   -4457.63187255 Ry
     estimated scf accuracy    <       0.00000347 Ry

     total magnetization       =    10.85 Bohr mag/cell
     absolute magnetization    =    12.42 Bohr mag/cell

     iteration #108     ecut=    60.00 Ry     beta= 0.30
     Davidson diagonalization with overlap
     ethr =  6.32E-10,  avg # of iterations = 11.4

     total cpu time spent up to now is     4970.4 secs

     total energy              =   -4457.63192897 Ry
     estimated scf accuracy    <       0.00000298 Ry

     total magnetization       =    10.85 Bohr mag/cell
     absolute magnetization    =    12.39 Bohr mag/cell

     iteration #109     ecut=    60.00 Ry     beta= 0.30
     Davidson diagonalization with overlap
     ethr =  6.32E-10,  avg # of iterations =  8.3

     total cpu time spent up to now is     5031.2 secs

     total energy              =   -4457.63191808 Ry
     estimated scf accuracy    <       0.00000160 Ry

     total magnetization       =    10.85 Bohr mag/cell
     absolute magnetization    =    12.40 Bohr mag/cell

     iteration #110     ecut=    60.00 Ry     beta= 0.30
     Davidson diagonalization with overlap
     ethr =  6.32E-10,  avg # of iterations = 10.5

     total cpu time spent up to now is     5100.2 secs

     total energy              =   -4457.63189927 Ry
     estimated scf accuracy    <       0.00000152 Ry

     total magnetization       =    10.85 Bohr mag/cell
     absolute magnetization    =    12.42 Bohr mag/cell

     iteration #111     ecut=    60.00 Ry     beta= 0.30
     Davidson diagonalization with overlap
     ethr =  6.32E-10,  avg # of iterations = 11.0

     total cpu time spent up to now is     5171.4 secs

     total energy              =   -4457.63190304 Ry
     estimated scf accuracy    <       0.00000261 Ry

     total magnetization       =    10.85 Bohr mag/cell
     absolute magnetization    =    12.39 Bohr mag/cell

     iteration #112     ecut=    60.00 Ry     beta= 0.30
     Davidson diagonalization with overlap
     ethr =  6.32E-10,  avg # of iterations = 11.0

     total cpu time spent up to now is     5242.0 secs

     total energy              =   -4457.63194440 Ry
     estimated scf accuracy    <       0.00000181 Ry

     total magnetization       =    10.86 Bohr mag/cell
     absolute magnetization    =    12.42 Bohr mag/cell

     iteration #113     ecut=    60.00 Ry     beta= 0.30
     Davidson diagonalization with overlap
     ethr =  6.32E-10,  avg # of iterations =  7.5

     total cpu time spent up to now is     5300.3 secs

     total energy              =   -4457.63195230 Ry
     estimated scf accuracy    <       0.00000122 Ry

     total magnetization       =    10.86 Bohr mag/cell
     absolute magnetization    =    12.44 Bohr mag/cell

     iteration #114     ecut=    60.00 Ry     beta= 0.30
     Davidson diagonalization with overlap
     ethr =  5.16E-10,  avg # of iterations =  5.1

     total cpu time spent up to now is     5346.2 secs

     total energy              =   -4457.63195256 Ry
     estimated scf accuracy    <       0.00000338 Ry

     total magnetization       =    10.86 Bohr mag/cell
     absolute magnetization    =    12.44 Bohr mag/cell

     iteration #115     ecut=    60.00 Ry     beta= 0.30
     Davidson diagonalization with overlap
     ethr =  5.16E-10,  avg # of iterations =  2.8

     total cpu time spent up to now is     5385.3 secs

     total energy              =   -4457.63193644 Ry
     estimated scf accuracy    <       0.00000164 Ry

     total magnetization       =    10.86 Bohr mag/cell
     absolute magnetization    =    12.44 Bohr mag/cell

     iteration #116     ecut=    60.00 Ry     beta= 0.30
     Davidson diagonalization with overlap
     ethr =  5.16E-10,  avg # of iterations =  9.9

     total cpu time spent up to now is     5452.4 secs

     total energy              =   -4457.63192962 Ry
     estimated scf accuracy    <       0.00000069 Ry

     total magnetization       =    10.86 Bohr mag/cell
     absolute magnetization    =    12.47 Bohr mag/cell

     iteration #117     ecut=    60.00 Ry     beta= 0.30
     Davidson diagonalization with overlap
     ethr =  2.94E-10,  avg # of iterations = 10.8

     total cpu time spent up to now is     5523.6 secs

     total energy              =   -4457.63189927 Ry
     estimated scf accuracy    <       0.00000140 Ry

     total magnetization       =    10.86 Bohr mag/cell
     absolute magnetization    =    12.44 Bohr mag/cell

     iteration #118     ecut=    60.00 Ry     beta= 0.30
     Davidson diagonalization with overlap
     ethr =  2.94E-10,  avg # of iterations = 11.9

     total cpu time spent up to now is     5599.3 secs

     total energy              =   -4457.63194766 Ry
     estimated scf accuracy    <       0.00000118 Ry

     total magnetization       =    10.87 Bohr mag/cell
     absolute magnetization    =    12.50 Bohr mag/cell

     iteration #119     ecut=    60.00 Ry     beta= 0.30
     Davidson diagonalization with overlap
     ethr =  2.94E-10,  avg # of iterations =  9.0

     total cpu time spent up to now is     5664.3 secs

     total energy              =   -4457.63195450 Ry
     estimated scf accuracy    <       0.00000145 Ry

     total magnetization       =    10.86 Bohr mag/cell
     absolute magnetization    =    12.47 Bohr mag/cell

     iteration #120     ecut=    60.00 Ry     beta= 0.30
     Davidson diagonalization with overlap
     ethr =  2.94E-10,  avg # of iterations =  6.1

     total cpu time spent up to now is     5715.1 secs

     total energy              =   -4457.63195272 Ry
     estimated scf accuracy    <       0.00000068 Ry

     total magnetization       =    10.86 Bohr mag/cell
     absolute magnetization    =    12.47 Bohr mag/cell

     iteration #121     ecut=    60.00 Ry     beta= 0.30
     Davidson diagonalization with overlap
     ethr =  2.87E-10,  avg # of iterations =  7.7

     total cpu time spent up to now is     5773.3 secs

     total energy              =   -4457.63195759 Ry
     estimated scf accuracy    <       0.00000067 Ry

     total magnetization       =    10.86 Bohr mag/cell
     absolute magnetization    =    12.48 Bohr mag/cell

     iteration #122     ecut=    60.00 Ry     beta= 0.30
     Davidson diagonalization with overlap
     ethr =  2.83E-10,  avg # of iterations =  4.3

     total cpu time spent up to now is     5816.2 secs

     total energy              =   -4457.63195704 Ry
     estimated scf accuracy    <       0.00000084 Ry

     total magnetization       =    10.86 Bohr mag/cell
     absolute magnetization    =    12.48 Bohr mag/cell

     iteration #123     ecut=    60.00 Ry     beta= 0.30
     Davidson diagonalization with overlap
     ethr =  2.83E-10,  avg # of iterations =  6.3

     total cpu time spent up to now is     5868.9 secs

     total energy              =   -4457.63195773 Ry
     estimated scf accuracy    <       0.00000068 Ry

     total magnetization       =    10.87 Bohr mag/cell
     absolute magnetization    =    12.49 Bohr mag/cell

     iteration #124     ecut=    60.00 Ry     beta= 0.30
     Davidson diagonalization with overlap
     ethr =  2.83E-10,  avg # of iterations =  6.0

     total cpu time spent up to now is     5922.4 secs

     total energy              =   -4457.63195763 Ry
     estimated scf accuracy    <       0.00000163 Ry

     total magnetization       =    10.87 Bohr mag/cell
     absolute magnetization    =    12.50 Bohr mag/cell

     iteration #125     ecut=    60.00 Ry     beta= 0.30
     Davidson diagonalization with overlap
     ethr =  2.83E-10,  avg # of iterations =  7.2

     total cpu time spent up to now is     5979.3 secs

     total energy              =   -4457.63195640 Ry
     estimated scf accuracy    <       0.00000135 Ry

     total magnetization       =    10.87 Bohr mag/cell
     absolute magnetization    =    12.52 Bohr mag/cell

     iteration #126     ecut=    60.00 Ry     beta= 0.30
     Davidson diagonalization with overlap
     ethr =  2.83E-10,  avg # of iterations =  6.9

     total cpu time spent up to now is     6033.6 secs

     total energy              =   -4457.63195931 Ry
     estimated scf accuracy    <       0.00000054 Ry

     total magnetization       =    10.87 Bohr mag/cell
     absolute magnetization    =    12.50 Bohr mag/cell

     iteration #127     ecut=    60.00 Ry     beta= 0.30
     Davidson diagonalization with overlap
     ethr =  2.29E-10,  avg # of iterations =  5.1

     total cpu time spent up to now is     6080.3 secs

     total energy              =   -4457.63195950 Ry
     estimated scf accuracy    <       0.00000174 Ry

     total magnetization       =    10.87 Bohr mag/cell
     absolute magnetization    =    12.51 Bohr mag/cell

     iteration #128     ecut=    60.00 Ry     beta= 0.30
     Davidson diagonalization with overlap
     ethr =  2.29E-10,  avg # of iterations =  5.1

     total cpu time spent up to now is     6127.9 secs

     total energy              =   -4457.63195983 Ry
     estimated scf accuracy    <       0.00000056 Ry

     total magnetization       =    10.87 Bohr mag/cell
     absolute magnetization    =    12.51 Bohr mag/cell

     iteration #129     ecut=    60.00 Ry     beta= 0.30
     Davidson diagonalization with overlap
     ethr =  2.29E-10,  avg # of iterations =  5.2

     total cpu time spent up to now is     6176.6 secs

     total energy              =   -4457.63195566 Ry
     estimated scf accuracy    <       0.00000119 Ry

     total magnetization       =    10.87 Bohr mag/cell
     absolute magnetization    =    12.52 Bohr mag/cell

     iteration #130     ecut=    60.00 Ry     beta= 0.30
     Davidson diagonalization with overlap
     ethr =  2.29E-10,  avg # of iterations =  7.7

     total cpu time spent up to now is     6235.2 secs

     total energy              =   -4457.63195909 Ry
     estimated scf accuracy    <       0.00000055 Ry

     total magnetization       =    10.87 Bohr mag/cell
     absolute magnetization    =    12.50 Bohr mag/cell

     iteration #131     ecut=    60.00 Ry     beta= 0.30
     Davidson diagonalization with overlap
     ethr =  2.29E-10,  avg # of iterations =  5.4

     total cpu time spent up to now is     6284.6 secs

     total energy              =   -4457.63196000 Ry
     estimated scf accuracy    <       0.00000030 Ry

     total magnetization       =    10.87 Bohr mag/cell
     absolute magnetization    =    12.51 Bohr mag/cell

     iteration #132     ecut=    60.00 Ry     beta= 0.30
     Davidson diagonalization with overlap
     ethr =  1.28E-10,  avg # of iterations =  1.2

     total cpu time spent up to now is     6319.8 secs

     total energy              =   -4457.63196001 Ry
     estimated scf accuracy    <       0.00000023 Ry

     total magnetization       =    10.87 Bohr mag/cell
     absolute magnetization    =    12.51 Bohr mag/cell

     iteration #133     ecut=    60.00 Ry     beta= 0.30
     Davidson diagonalization with overlap
     ethr =  9.57E-11,  avg # of iterations =  1.3

     total cpu time spent up to now is     6354.6 secs

     total energy              =   -4457.63195977 Ry
     estimated scf accuracy    <       0.00000020 Ry

     total magnetization       =    10.87 Bohr mag/cell
     absolute magnetization    =    12.51 Bohr mag/cell

     iteration #134     ecut=    60.00 Ry     beta= 0.30
     Davidson diagonalization with overlap
     ethr =  8.43E-11,  avg # of iterations =  7.1

     total cpu time spent up to now is     6409.9 secs

     total energy              =   -4457.63196049 Ry
     estimated scf accuracy    <       0.00000060 Ry

     total magnetization       =    10.87 Bohr mag/cell
     absolute magnetization    =    12.52 Bohr mag/cell

     iteration #135     ecut=    60.00 Ry     beta= 0.30
     Davidson diagonalization with overlap
     ethr =  8.43E-11,  avg # of iterations =  2.7

     total cpu time spent up to now is     6448.6 secs

     total energy              =   -4457.63195963 Ry
     estimated scf accuracy    <       0.00000041 Ry

     total magnetization       =    10.87 Bohr mag/cell
     absolute magnetization    =    12.52 Bohr mag/cell

     iteration #136     ecut=    60.00 Ry     beta= 0.30
     Davidson diagonalization with overlap
     ethr =  8.43E-11,  avg # of iterations =  6.6

     total cpu time spent up to now is     6502.7 secs

     total energy              =   -4457.63195999 Ry
     estimated scf accuracy    <       0.00000038 Ry

     total magnetization       =    10.87 Bohr mag/cell
     absolute magnetization    =    12.51 Bohr mag/cell

     iteration #137     ecut=    60.00 Ry     beta= 0.30
     Davidson diagonalization with overlap
     ethr =  8.43E-11,  avg # of iterations =  6.1

     total cpu time spent up to now is     6555.1 secs

     total energy              =   -4457.63196034 Ry
     estimated scf accuracy    <       0.00000052 Ry

     total magnetization       =    10.87 Bohr mag/cell
     absolute magnetization    =    12.52 Bohr mag/cell

     iteration #138     ecut=    60.00 Ry     beta= 0.30
     Davidson diagonalization with overlap
     ethr =  8.43E-11,  avg # of iterations =  5.0

     total cpu time spent up to now is     6599.8 secs

     total energy              =   -4457.63196037 Ry
     estimated scf accuracy    <       0.00000029 Ry

     total magnetization       =    10.87 Bohr mag/cell
     absolute magnetization    =    12.52 Bohr mag/cell

     iteration #139     ecut=    60.00 Ry     beta= 0.30
     Davidson diagonalization with overlap
     ethr =  8.43E-11,  avg # of iterations =  5.5

     total cpu time spent up to now is     6649.8 secs

     total energy              =   -4457.63195966 Ry
     estimated scf accuracy    <       0.00000044 Ry

     total magnetization       =    10.87 Bohr mag/cell
     absolute magnetization    =    12.52 Bohr mag/cell

     iteration #140     ecut=    60.00 Ry     beta= 0.30
     Davidson diagonalization with overlap
     ethr =  8.43E-11,  avg # of iterations =  6.9

     total cpu time spent up to now is     6704.1 secs

     total energy              =   -4457.63196034 Ry
     estimated scf accuracy    <       0.00000062 Ry

     total magnetization       =    10.87 Bohr mag/cell
     absolute magnetization    =    12.52 Bohr mag/cell

     iteration #141     ecut=    60.00 Ry     beta= 0.30
     Davidson diagonalization with overlap
     ethr =  8.43E-11,  avg # of iterations =  5.2

     total cpu time spent up to now is     6752.1 secs

     total energy              =   -4457.63196062 Ry
     estimated scf accuracy    <       0.00000034 Ry

     total magnetization       =    10.87 Bohr mag/cell
     absolute magnetization    =    12.52 Bohr mag/cell

     iteration #142     ecut=    60.00 Ry     beta= 0.30
     Davidson diagonalization with overlap
     ethr =  8.43E-11,  avg # of iterations =  3.6

     total cpu time spent up to now is     6793.0 secs

     total energy              =   -4457.63196070 Ry
     estimated scf accuracy    <       0.00000027 Ry

     total magnetization       =    10.87 Bohr mag/cell
     absolute magnetization    =    12.52 Bohr mag/cell

     iteration #143     ecut=    60.00 Ry     beta= 0.30
     Davidson diagonalization with overlap
     ethr =  8.43E-11,  avg # of iterations =  5.8

     total cpu time spent up to now is     6840.7 secs

     total energy              =   -4457.63196081 Ry
     estimated scf accuracy    <       0.00000036 Ry

     total magnetization       =    10.87 Bohr mag/cell
     absolute magnetization    =    12.53 Bohr mag/cell

     iteration #144     ecut=    60.00 Ry     beta= 0.30
     Davidson diagonalization with overlap
     ethr =  8.43E-11,  avg # of iterations =  5.3

     total cpu time spent up to now is     6890.5 secs

     total energy              =   -4457.63196114 Ry
     estimated scf accuracy    <       0.00000061 Ry

     total magnetization       =    10.87 Bohr mag/cell
     absolute magnetization    =    12.53 Bohr mag/cell

     iteration #145     ecut=    60.00 Ry     beta= 0.30
     Davidson diagonalization with overlap
     ethr =  8.43E-11,  avg # of iterations =  3.9

     total cpu time spent up to now is     6932.3 secs

     total energy              =   -4457.63196005 Ry
     estimated scf accuracy    <       0.00000029 Ry

     total magnetization       =    10.87 Bohr mag/cell
     absolute magnetization    =    12.53 Bohr mag/cell

     iteration #146     ecut=    60.00 Ry     beta= 0.30
     Davidson diagonalization with overlap
     ethr =  8.43E-11,  avg # of iterations =  6.8

     total cpu time spent up to now is     6986.4 secs

     total energy              =   -4457.63195907 Ry
     estimated scf accuracy    <       0.00000073 Ry

     total magnetization       =    10.87 Bohr mag/cell
     absolute magnetization    =    12.53 Bohr mag/cell

     iteration #147     ecut=    60.00 Ry     beta= 0.30
     Davidson diagonalization with overlap
     ethr =  8.43E-11,  avg # of iterations =  9.2

     total cpu time spent up to now is     7050.2 secs

     total energy              =   -4457.63195947 Ry
     estimated scf accuracy    <       0.00000019 Ry

     total magnetization       =    10.87 Bohr mag/cell
     absolute magnetization    =    12.54 Bohr mag/cell

     iteration #148     ecut=    60.00 Ry     beta= 0.30
     Davidson diagonalization with overlap
     ethr =  8.21E-11,  avg # of iterations =  8.2

     total cpu time spent up to now is     7110.3 secs

     total energy              =   -4457.63196062 Ry
     estimated scf accuracy    <       0.00000081 Ry

     total magnetization       =    10.87 Bohr mag/cell
     absolute magnetization    =    12.53 Bohr mag/cell

     iteration #149     ecut=    60.00 Ry     beta= 0.30
     Davidson diagonalization with overlap
     ethr =  8.21E-11,  avg # of iterations =  7.0

     total cpu time spent up to now is     7165.6 secs

     total energy              =   -4457.63196134 Ry
     estimated scf accuracy    <       0.00000018 Ry

     total magnetization       =    10.87 Bohr mag/cell
     absolute magnetization    =    12.54 Bohr mag/cell

     iteration #150     ecut=    60.00 Ry     beta= 0.30
     Davidson diagonalization with overlap
     ethr =  7.72E-11,  avg # of iterations =  4.9

     total cpu time spent up to now is     7210.3 secs

     total energy              =   -4457.63196140 Ry
     estimated scf accuracy    <       0.00000056 Ry

     total magnetization       =    10.87 Bohr mag/cell
     absolute magnetization    =    12.54 Bohr mag/cell

     iteration #151     ecut=    60.00 Ry     beta= 0.30
     Davidson diagonalization with overlap
     ethr =  7.72E-11,  avg # of iterations =  4.0

     total cpu time spent up to now is     7252.7 secs

     total energy              =   -4457.63196127 Ry
     estimated scf accuracy    <       0.00000014 Ry

     total magnetization       =    10.87 Bohr mag/cell
     absolute magnetization    =    12.54 Bohr mag/cell

     iteration #152     ecut=    60.00 Ry     beta= 0.30
     Davidson diagonalization with overlap
     ethr =  6.00E-11,  avg # of iterations =  4.6

     total cpu time spent up to now is     7296.9 secs

     total energy              =   -4457.63196123 Ry
     estimated scf accuracy    <       0.00000013 Ry

     total magnetization       =    10.87 Bohr mag/cell
     absolute magnetization    =    12.54 Bohr mag/cell

     iteration #153     ecut=    60.00 Ry     beta= 0.30
     Davidson diagonalization with overlap
     ethr =  5.47E-11,  avg # of iterations =  4.5

     total cpu time spent up to now is     7339.7 secs

     total energy              =   -4457.63196123 Ry
     estimated scf accuracy    <       0.00000009 Ry

     total magnetization       =    10.87 Bohr mag/cell
     absolute magnetization    =    12.53 Bohr mag/cell

     iteration #154     ecut=    60.00 Ry     beta= 0.30
     Davidson diagonalization with overlap
     ethr =  3.93E-11,  avg # of iterations =  5.9

     total cpu time spent up to now is     7391.5 secs

     total energy              =   -4457.63196141 Ry
     estimated scf accuracy    <       0.00000023 Ry

     total magnetization       =    10.87 Bohr mag/cell
     absolute magnetization    =    12.54 Bohr mag/cell

     iteration #155     ecut=    60.00 Ry     beta= 0.30
     Davidson diagonalization with overlap
     ethr =  3.93E-11,  avg # of iterations =  4.0

     total cpu time spent up to now is     7432.5 secs

     total energy              =   -4457.63196145 Ry
     estimated scf accuracy    <       0.00000009 Ry

     total magnetization       =    10.87 Bohr mag/cell
     absolute magnetization    =    12.54 Bohr mag/cell

     iteration #156     ecut=    60.00 Ry     beta= 0.30
     Davidson diagonalization with overlap
     ethr =  3.81E-11,  avg # of iterations =  1.2

     total cpu time spent up to now is     7467.7 secs

     total energy              =   -4457.63196149 Ry
     estimated scf accuracy    <       0.00000011 Ry

     total magnetization       =    10.87 Bohr mag/cell
     absolute magnetization    =    12.54 Bohr mag/cell

     iteration #157     ecut=    60.00 Ry     beta= 0.30
     Davidson diagonalization with overlap
     ethr =  3.81E-11,  avg # of iterations =  3.2

     total cpu time spent up to now is     7507.4 secs

     total energy              =   -4457.63195979 Ry
     estimated scf accuracy    <       0.00000008 Ry

     total magnetization       =    10.87 Bohr mag/cell
     absolute magnetization    =    12.54 Bohr mag/cell

     iteration #158     ecut=    60.00 Ry     beta= 0.30
     Davidson diagonalization with overlap
     ethr =  3.21E-11,  avg # of iterations = 11.2

     total cpu time spent up to now is     7579.1 secs

     total energy              =   -4457.63196191 Ry
     estimated scf accuracy    <       0.00000026 Ry

     total magnetization       =    10.87 Bohr mag/cell
     absolute magnetization    =    12.55 Bohr mag/cell

     iteration #159     ecut=    60.00 Ry     beta= 0.30
     Davidson diagonalization with overlap
     ethr =  3.21E-11,  avg # of iterations =  7.2

     total cpu time spent up to now is     7635.1 secs

     total energy              =   -4457.63196221 Ry
     estimated scf accuracy    <       0.00000010 Ry

     total magnetization       =    10.87 Bohr mag/cell
     absolute magnetization    =    12.56 Bohr mag/cell

     iteration #160     ecut=    60.00 Ry     beta= 0.30
     Davidson diagonalization with overlap
     ethr =  3.21E-11,  avg # of iterations =  3.8

     total cpu time spent up to now is     7675.8 secs

     total energy              =   -4457.63196221 Ry
     estimated scf accuracy    <       0.00000024 Ry

     total magnetization       =    10.87 Bohr mag/cell
     absolute magnetization    =    12.56 Bohr mag/cell

     iteration #161     ecut=    60.00 Ry     beta= 0.30
     Davidson diagonalization with overlap
     ethr =  3.21E-11,  avg # of iterations =  2.0

     total cpu time spent up to now is     7713.2 secs

     total energy              =   -4457.63196137 Ry
     estimated scf accuracy    <       0.00000009 Ry

     total magnetization       =    10.87 Bohr mag/cell
     absolute magnetization    =    12.56 Bohr mag/cell

     iteration #162     ecut=    60.00 Ry     beta= 0.30
     Davidson diagonalization with overlap
     ethr =  3.21E-11,  avg # of iterations =  8.5

     total cpu time spent up to now is     7774.9 secs

     total energy              =   -4457.63196201 Ry
     estimated scf accuracy    <       0.00000015 Ry

     total magnetization       =    10.87 Bohr mag/cell
     absolute magnetization    =    12.55 Bohr mag/cell

     iteration #163     ecut=    60.00 Ry     beta= 0.30
     Davidson diagonalization with overlap
     ethr =  3.21E-11,  avg # of iterations =  3.7

     total cpu time spent up to now is     7816.1 secs

     total energy              =   -4457.63196104 Ry
     estimated scf accuracy    <       0.00000012 Ry

     total magnetization       =    10.87 Bohr mag/cell
     absolute magnetization    =    12.55 Bohr mag/cell

     iteration #164     ecut=    60.00 Ry     beta= 0.30
     Davidson diagonalization with overlap
     ethr =  3.21E-11,  avg # of iterations = 10.1

     total cpu time spent up to now is     7884.8 secs

     total energy              =   -4457.63196126 Ry
     estimated scf accuracy    <       0.00000021 Ry

     total magnetization       =    10.87 Bohr mag/cell
     absolute magnetization    =    12.56 Bohr mag/cell

     iteration #165     ecut=    60.00 Ry     beta= 0.30
     Davidson diagonalization with overlap
     ethr =  3.21E-11,  avg # of iterations =  8.8

     total cpu time spent up to now is     7948.3 secs

     total energy              =   -4457.63196193 Ry
     estimated scf accuracy    <       0.00000020 Ry

     total magnetization       =    10.87 Bohr mag/cell
     absolute magnetization    =    12.56 Bohr mag/cell

     iteration #166     ecut=    60.00 Ry     beta= 0.30
     Davidson diagonalization with overlap
     ethr =  3.21E-11,  avg # of iterations =  5.6

     total cpu time spent up to now is     7997.4 secs

     total energy              =   -4457.63196187 Ry
     estimated scf accuracy    <       0.00000013 Ry

     total magnetization       =    10.87 Bohr mag/cell
     absolute magnetization    =    12.55 Bohr mag/cell

     iteration #167     ecut=    60.00 Ry     beta= 0.30
     Davidson diagonalization with overlap
     ethr =  3.21E-11,  avg # of iterations =  7.0

     total cpu time spent up to now is     8052.1 secs

     total energy              =   -4457.63196218 Ry
     estimated scf accuracy    <       0.00000018 Ry

     total magnetization       =    10.87 Bohr mag/cell
     absolute magnetization    =    12.56 Bohr mag/cell

     iteration #168     ecut=    60.00 Ry     beta= 0.30
     Davidson diagonalization with overlap
     ethr =  3.21E-11,  avg # of iterations =  1.9

     total cpu time spent up to now is     8089.3 secs

     total energy              =   -4457.63196220 Ry
     estimated scf accuracy    <       0.00000007 Ry

     total magnetization       =    10.87 Bohr mag/cell
     absolute magnetization    =    12.56 Bohr mag/cell

     iteration #169     ecut=    60.00 Ry     beta= 0.30
     Davidson diagonalization with overlap
     ethr =  2.90E-11,  avg # of iterations =  3.9

     total cpu time spent up to now is     8131.1 secs

     total energy              =   -4457.63196221 Ry
     estimated scf accuracy    <       0.00000018 Ry

     total magnetization       =    10.87 Bohr mag/cell
     absolute magnetization    =    12.56 Bohr mag/cell

     iteration #170     ecut=    60.00 Ry     beta= 0.30
     Davidson diagonalization with overlap
     ethr =  2.90E-11,  avg # of iterations =  3.4

     total cpu time spent up to now is     8172.1 secs

     total energy              =   -4457.63196223 Ry
     estimated scf accuracy    <       0.00000010 Ry

     total magnetization       =    10.87 Bohr mag/cell
     absolute magnetization    =    12.56 Bohr mag/cell

     iteration #171     ecut=    60.00 Ry     beta= 0.30
     Davidson diagonalization with overlap
     ethr =  2.90E-11,  avg # of iterations =  5.4

     total cpu time spent up to now is     8219.2 secs

     total energy              =   -4457.63196226 Ry
     estimated scf accuracy    <       0.00000018 Ry

     total magnetization       =    10.87 Bohr mag/cell
     absolute magnetization    =    12.56 Bohr mag/cell

     iteration #172     ecut=    60.00 Ry     beta= 0.30
     Davidson diagonalization with overlap
     ethr =  2.90E-11,  avg # of iterations =  1.6

     total cpu time spent up to now is     8255.6 secs

     total energy              =   -4457.63196226 Ry
     estimated scf accuracy    <       0.00000007 Ry

     total magnetization       =    10.87 Bohr mag/cell
     absolute magnetization    =    12.56 Bohr mag/cell

     iteration #173     ecut=    60.00 Ry     beta= 0.30
     Davidson diagonalization with overlap
     ethr =  2.90E-11,  avg # of iterations =  1.0

     total cpu time spent up to now is     8290.1 secs

     total energy              =   -4457.63196228 Ry
     estimated scf accuracy    <       0.00000005 Ry

     total magnetization       =    10.87 Bohr mag/cell
     absolute magnetization    =    12.56 Bohr mag/cell

     iteration #174     ecut=    60.00 Ry     beta= 0.30
     Davidson diagonalization with overlap
     ethr =  2.21E-11,  avg # of iterations =  5.1

     total cpu time spent up to now is     8334.3 secs

     total energy              =   -4457.63196223 Ry
     estimated scf accuracy    <       0.00000012 Ry

     total magnetization       =    10.87 Bohr mag/cell
     absolute magnetization    =    12.56 Bohr mag/cell

     iteration #175     ecut=    60.00 Ry     beta= 0.30
     Davidson diagonalization with overlap
     ethr =  2.21E-11,  avg # of iterations =  5.2

     total cpu time spent up to now is     8379.3 secs

     total energy              =   -4457.63196224 Ry
     estimated scf accuracy    <       0.00000017 Ry

     total magnetization       =    10.87 Bohr mag/cell
     absolute magnetization    =    12.56 Bohr mag/cell

     iteration #176     ecut=    60.00 Ry     beta= 0.30
     Davidson diagonalization with overlap
     ethr =  2.21E-11,  avg # of iterations =  2.3

     total cpu time spent up to now is     8417.1 secs

     total energy              =   -4457.63196225 Ry
     estimated scf accuracy    <       0.00000004 Ry

     total magnetization       =    10.87 Bohr mag/cell
     absolute magnetization    =    12.56 Bohr mag/cell

     iteration #177     ecut=    60.00 Ry     beta= 0.30
     Davidson diagonalization with overlap
     ethr =  1.86E-11,  avg # of iterations =  2.0

     total cpu time spent up to now is     8455.3 secs

     total energy              =   -4457.63196226 Ry
     estimated scf accuracy    <       0.00000007 Ry

     total magnetization       =    10.87 Bohr mag/cell
     absolute magnetization    =    12.56 Bohr mag/cell

     iteration #178     ecut=    60.00 Ry     beta= 0.30
     Davidson diagonalization with overlap
     ethr =  1.86E-11,  avg # of iterations =  2.1

     total cpu time spent up to now is     8492.4 secs

     total energy              =   -4457.63196227 Ry
     estimated scf accuracy    <       0.00000007 Ry

     total magnetization       =    10.87 Bohr mag/cell
     absolute magnetization    =    12.56 Bohr mag/cell

     iteration #179     ecut=    60.00 Ry     beta= 0.30
     Davidson diagonalization with overlap
     ethr =  1.86E-11,  avg # of iterations =  2.8

     total cpu time spent up to now is     8531.6 secs

     total energy              =   -4457.63196228 Ry
     estimated scf accuracy    <       0.00000006 Ry

     total magnetization       =    10.87 Bohr mag/cell
     absolute magnetization    =    12.56 Bohr mag/cell

     iteration #180     ecut=    60.00 Ry     beta= 0.30
     Davidson diagonalization with overlap
     ethr =  1.86E-11,  avg # of iterations =  3.8

     total cpu time spent up to now is     8572.8 secs

     total energy              =   -4457.63196230 Ry
     estimated scf accuracy    <       0.00000008 Ry

     total magnetization       =    10.87 Bohr mag/cell
     absolute magnetization    =    12.56 Bohr mag/cell

     iteration #181     ecut=    60.00 Ry     beta= 0.30
     Davidson diagonalization with overlap
     ethr =  1.86E-11,  avg # of iterations =  5.2

     total cpu time spent up to now is     8617.4 secs

     total energy              =   -4457.63196228 Ry
     estimated scf accuracy    <       0.00000009 Ry

     total magnetization       =    10.87 Bohr mag/cell
     absolute magnetization    =    12.56 Bohr mag/cell

     iteration #182     ecut=    60.00 Ry     beta= 0.30
     Davidson diagonalization with overlap
     ethr =  1.86E-11,  avg # of iterations =  7.0

     total cpu time spent up to now is     8672.5 secs

     total energy              =   -4457.63196225 Ry
     estimated scf accuracy    <       0.00000020 Ry

     total magnetization       =    10.87 Bohr mag/cell
     absolute magnetization    =    12.56 Bohr mag/cell

     iteration #183     ecut=    60.00 Ry     beta= 0.30
     Davidson diagonalization with overlap
     ethr =  1.86E-11,  avg # of iterations =  8.0

     total cpu time spent up to now is     8732.3 secs

     total energy              =   -4457.63196254 Ry
     estimated scf accuracy    <       0.00000009 Ry

     total magnetization       =    10.87 Bohr mag/cell
     absolute magnetization    =    12.57 Bohr mag/cell

     iteration #184     ecut=    60.00 Ry     beta= 0.30
     Davidson diagonalization with overlap
     ethr =  1.86E-11,  avg # of iterations =  5.3

     total cpu time spent up to now is     8781.3 secs

     total energy              =   -4457.63196259 Ry
     estimated scf accuracy    <       0.00000009 Ry

     total magnetization       =    10.87 Bohr mag/cell
     absolute magnetization    =    12.57 Bohr mag/cell

     iteration #185     ecut=    60.00 Ry     beta= 0.30
     Davidson diagonalization with overlap
     ethr =  1.86E-11,  avg # of iterations =  5.2

     total cpu time spent up to now is     8829.3 secs

     total energy              =   -4457.63196112 Ry
     estimated scf accuracy    <       0.00000007 Ry

     total magnetization       =    10.87 Bohr mag/cell
     absolute magnetization    =    12.57 Bohr mag/cell

     iteration #186     ecut=    60.00 Ry     beta= 0.30
     Davidson diagonalization with overlap
     ethr =  1.86E-11,  avg # of iterations = 10.4

     total cpu time spent up to now is     8898.5 secs

     total energy              =   -4457.63196210 Ry
     estimated scf accuracy    <       0.00000016 Ry

     total magnetization       =    10.87 Bohr mag/cell
     absolute magnetization    =    12.56 Bohr mag/cell

     iteration #187     ecut=    60.00 Ry     beta= 0.30
     Davidson diagonalization with overlap
     ethr =  1.86E-11,  avg # of iterations =  8.5

     total cpu time spent up to now is     8960.8 secs

     total energy              =   -4457.63196214 Ry
     estimated scf accuracy    <       0.00000010 Ry

     total magnetization       =    10.87 Bohr mag/cell
     absolute magnetization    =    12.57 Bohr mag/cell

     iteration #188     ecut=    60.00 Ry     beta= 0.30
     Davidson diagonalization with overlap
     ethr =  1.86E-11,  avg # of iterations =  8.9

     total cpu time spent up to now is     9024.8 secs

     total energy              =   -4457.63196264 Ry
     estimated scf accuracy    <       0.00000006 Ry

     total magnetization       =    10.87 Bohr mag/cell
     absolute magnetization    =    12.58 Bohr mag/cell

     iteration #189     ecut=    60.00 Ry     beta= 0.30
     Davidson diagonalization with overlap
     ethr =  1.86E-11,  avg # of iterations =  6.6

     total cpu time spent up to now is     9077.7 secs

     total energy              =   -4457.63196270 Ry
     estimated scf accuracy    <       0.00000005 Ry

     total magnetization       =    10.87 Bohr mag/cell
     absolute magnetization    =    12.58 Bohr mag/cell

     iteration #190     ecut=    60.00 Ry     beta= 0.30
     Davidson diagonalization with overlap
     ethr =  1.86E-11,  avg # of iterations =  3.9

     total cpu time spent up to now is     9119.8 secs

     total energy              =   -4457.63196271 Ry
     estimated scf accuracy    <       0.00000007 Ry

     total magnetization       =    10.87 Bohr mag/cell
     absolute magnetization    =    12.58 Bohr mag/cell

     iteration #191     ecut=    60.00 Ry     beta= 0.30
     Davidson diagonalization with overlap
     ethr =  1.86E-11,  avg # of iterations =  5.3

     total cpu time spent up to now is     9167.0 secs

     total energy              =   -4457.63196179 Ry
     estimated scf accuracy    <       0.00000006 Ry

     total magnetization       =    10.87 Bohr mag/cell
     absolute magnetization    =    12.58 Bohr mag/cell

     iteration #192     ecut=    60.00 Ry     beta= 0.30
     Davidson diagonalization with overlap
     ethr =  1.86E-11,  avg # of iterations = 10.8

     total cpu time spent up to now is     9237.9 secs

     total energy              =   -4457.63196290 Ry
     estimated scf accuracy    <       0.00000013 Ry

     total magnetization       =    10.88 Bohr mag/cell
     absolute magnetization    =    12.59 Bohr mag/cell

     iteration #193     ecut=    60.00 Ry     beta= 0.30
     Davidson diagonalization with overlap
     ethr =  1.86E-11,  avg # of iterations =  3.6

     total cpu time spent up to now is     9279.4 secs

     total energy              =   -4457.63196286 Ry
     estimated scf accuracy    <       0.00000001 Ry

     total magnetization       =    10.88 Bohr mag/cell
     absolute magnetization    =    12.59 Bohr mag/cell

     iteration #194     ecut=    60.00 Ry     beta= 0.30
     Davidson diagonalization with overlap
     ethr =  5.69E-12,  avg # of iterations =  8.6

     total cpu time spent up to now is     9340.6 secs

     total energy              =   -4457.63196279 Ry
     estimated scf accuracy    <       0.00000008 Ry

     total magnetization       =    10.88 Bohr mag/cell
     absolute magnetization    =    12.59 Bohr mag/cell

     iteration #195     ecut=    60.00 Ry     beta= 0.30
     Davidson diagonalization with overlap
     ethr =  5.69E-12,  avg # of iterations =  8.4

     total cpu time spent up to now is     9401.8 secs

     total energy              =   -4457.63196226 Ry
     estimated scf accuracy    <       0.00000003 Ry

     total magnetization       =    10.88 Bohr mag/cell
     absolute magnetization    =    12.59 Bohr mag/cell

     iteration #196     ecut=    60.00 Ry     beta= 0.30
     Davidson diagonalization with overlap
     ethr =  5.69E-12,  avg # of iterations = 11.4

     total cpu time spent up to now is     9475.1 secs

     total energy              =   -4457.63196292 Ry
     estimated scf accuracy    <       0.00000002 Ry

     total magnetization       =    10.88 Bohr mag/cell
     absolute magnetization    =    12.60 Bohr mag/cell

     iteration #197     ecut=    60.00 Ry     beta= 0.30
     Davidson diagonalization with overlap
     ethr =  5.69E-12,  avg # of iterations =  6.8

     total cpu time spent up to now is     9529.8 secs

     total energy              =   -4457.63196297 Ry
     estimated scf accuracy    <       0.00000001 Ry

     total magnetization       =    10.88 Bohr mag/cell
     absolute magnetization    =    12.59 Bohr mag/cell

     iteration #198     ecut=    60.00 Ry     beta= 0.30
     Davidson diagonalization with overlap
     ethr =  4.55E-12,  avg # of iterations =  5.0
 
     Magnetic moment per site  (integrated on atomic sphere of radius R)
     atom   1 (R=0.179)  charge= 12.1601  magn=  0.1427
     atom   2 (R=0.179)  charge= 14.4566  magn=  1.6946
     atom   3 (R=0.179)  charge= 14.4352  magn=  1.8357
     atom   4 (R=0.179)  charge= 12.1775  magn= -0.0755
     atom   5 (R=0.179)  charge= 12.1597  magn=  0.1428
     atom   6 (R=0.179)  charge= 14.4566  magn=  1.6946
     atom   7 (R=0.179)  charge= 12.1610  magn=  0.2040
     atom   8 (R=0.179)  charge= 12.1775  magn= -0.0755
     atom   9 (R=0.179)  charge= 12.1609  magn=  0.2040
     atom  10 (R=0.179)  charge= 12.1775  magn= -0.0755
     atom  11 (R=0.179)  charge= 12.1598  magn=  0.1426
     atom  12 (R=0.179)  charge= 14.4566  magn=  1.6946
     atom  13 (R=0.179)  charge= 14.4353  magn=  1.8362
     atom  14 (R=0.179)  charge= 12.1775  magn= -0.0755
     atom  15 (R=0.179)  charge= 12.1595  magn=  0.1425
     atom  16 (R=0.179)  charge= 14.4566  magn=  1.6946

     total cpu time spent up to now is     9573.4 secs

     End of self-consistent calculation

     Number of k-points >= 100: set verbosity='high' to print the bands.

     the Fermi energy is    19.5497 ev

!    total energy              =   -4457.63196298 Ry
     total all-electron energy =    -36290.737947 Ry
     estimated scf accuracy    <          7.2E-09 Ry
     smearing contrib. (-TS)   =      -0.00250769 Ry
     internal energy E=F+TS    =   -4457.62945529 Ry

     The total energy is F=E-TS. E is the sum of the following terms:
     one-electron contribution =   -1206.98424477 Ry
     hartree contribution      =     752.89704827 Ry
     xc contribution           =    -389.18762898 Ry
     ewald contribution        =   -2375.11856265 Ry
     one-center paw contrib.   =   -1239.23606716 Ry

     total magnetization       =    10.88 Bohr mag/cell
     absolute magnetization    =    12.60 Bohr mag/cell

     convergence has been achieved in 198 iterations

     Forces acting on atoms (cartesian axes, Ry/au):

     atom    1 type  2   force =     0.00000000    0.00000000    0.00000000
     atom    2 type  1   force =     0.00013012    0.00014303    0.00013438
     atom    3 type  1   force =     0.00000000    0.00000000    0.00000000
     atom    4 type  2   force =     0.00001480    0.00000791   -0.00001100
     atom    5 type  2   force =     0.00000000    0.00000000    0.00000000
     atom    6 type  1   force =     0.00013012   -0.00014303    0.00013438
     atom    7 type  2   force =     0.00000000    0.00000000    0.00000000
     atom    8 type  2   force =     0.00001480   -0.00000791   -0.00001100
     atom    9 type  2   force =     0.00000000    0.00000000    0.00000000
     atom   10 type  2   force =    -0.00001480    0.00000791    0.00001100
     atom   11 type  2   force =     0.00000000    0.00000000    0.00000000
     atom   12 type  1   force =    -0.00013012    0.00014303   -0.00013438
     atom   13 type  1   force =     0.00000000    0.00000000    0.00000000
     atom   14 type  2   force =    -0.00001480   -0.00000791    0.00001100
     atom   15 type  2   force =     0.00000000    0.00000000    0.00000000
     atom   16 type  1   force =    -0.00013012   -0.00014303   -0.00013438

     Total force =     0.000473     Total SCF correction =     0.000118
     SCF correction compared to forces is large: reduce conv_thr to get better values


     Computing stress (Cartesian axis) and pressure

          total   stress  (Ry/bohr**3)                   (kbar)     P=        4.27
  -0.00004461   0.00000000   0.00017180           -6.56        0.00       25.27
   0.00000000   0.00017637   0.00000000            0.00       25.94        0.00
   0.00017180   0.00000000  -0.00004458           25.27        0.00       -6.56


     BFGS Geometry Optimization
     Energy error            =      0.0E+00 Ry
     Gradient error          =      1.4E-04 Ry/Bohr
     Cell gradient error     =      2.6E+01 kbar

     number of scf cycles    =   1
     number of bfgs steps    =   0

     enthalpy           new  =   -4457.6319629763 Ry

     new trust radius        =       0.0310041888 bohr
     new conv_thr            =       0.0000000100 Ry

     new unit-cell volume =   1223.06206 a.u.^3 (   181.23910 Ang^3 )
     density =      7.83391 g/cm^3

CELL_PARAMETERS (angstrom)
   5.648780922   0.000000000   0.024288616
   0.000000000   5.680022699   0.000000000
   0.024288616   0.000000000   5.648785954

ATOMIC_POSITIONS (crystal)
Cr               0.0000000000        0.0000000000        0.0000000000
Fe               0.2500121763        0.2500133844        0.2500125748
Fe              -0.0000000000        0.0000000000        0.5000000000
Cr               0.2500013850        0.2500007398        0.7499989703
Cr               0.0000000000        0.5000000000        0.0000000000
Fe               0.2500121763        0.7499866156        0.2500125748
Cr              -0.0000000000        0.5000000000        0.5000000000
Cr               0.2500013850        0.7499992602        0.7499989703
Cr               0.5000000000        0.0000000000       -0.0000000000
Cr               0.7499986150        0.2500007398        0.2500010297
Cr               0.5000000000        0.0000000000        0.5000000000
Fe               0.7499878237        0.2500133844        0.7499874252
Fe               0.5000000000        0.5000000000       -0.0000000000
Cr               0.7499986150        0.7499992602        0.2500010297
Cr               0.5000000000        0.5000000000        0.5000000000
Fe               0.7499878237        0.7499866156        0.7499874252



     Writing config-only to output data dir ./tmp/fecr_fe06cr10_vcr.save/ :
     XML data file
     NEW-OLD atomic charge density approx. for the potential

     Check: negative core charge=   -0.000003
     Generating pointlists ...

     total cpu time spent up to now is     9657.2 secs

     Self-consistent Calculation

     iteration #  1     ecut=    60.00 Ry     beta= 0.30
     Davidson diagonalization with overlap
     ethr =  1.00E-06,  avg # of iterations =  6.7

     total cpu time spent up to now is     9719.8 secs

     total energy              =   -4457.63414366 Ry
     estimated scf accuracy    <       0.00036294 Ry

     total magnetization       =    10.93 Bohr mag/cell
     absolute magnetization    =    12.63 Bohr mag/cell

     iteration #  2     ecut=    60.00 Ry     beta= 0.30
     Davidson diagonalization with overlap
     ethr =  1.54E-07,  avg # of iterations =  7.2

     total cpu time spent up to now is     9774.6 secs

     total energy              =   -4457.63394276 Ry
     estimated scf accuracy    <       0.00835812 Ry

     total magnetization       =    10.95 Bohr mag/cell
     absolute magnetization    =    12.65 Bohr mag/cell

     iteration #  3     ecut=    60.00 Ry     beta= 0.30
     Davidson diagonalization with overlap
     ethr =  1.54E-07,  avg # of iterations =  5.6

     total cpu time spent up to now is     9823.5 secs

     total energy              =   -4457.63425236 Ry
     estimated scf accuracy    <       0.00006398 Ry

     total magnetization       =    10.93 Bohr mag/cell
     absolute magnetization    =    12.64 Bohr mag/cell

     iteration #  4     ecut=    60.00 Ry     beta= 0.30
     Davidson diagonalization with overlap
     ethr =  2.71E-08,  avg # of iterations =  3.6

     total cpu time spent up to now is     9864.9 secs

     total energy              =   -4457.63423398 Ry
     estimated scf accuracy    <       0.00018402 Ry

     total magnetization       =    10.94 Bohr mag/cell
     absolute magnetization    =    12.64 Bohr mag/cell

     iteration #  5     ecut=    60.00 Ry     beta= 0.30
     Davidson diagonalization with overlap
     ethr =  2.71E-08,  avg # of iterations =  2.4

     total cpu time spent up to now is     9903.3 secs

     total energy              =   -4457.63423595 Ry
     estimated scf accuracy    <       0.00003608 Ry

     total magnetization       =    10.94 Bohr mag/cell
     absolute magnetization    =    12.64 Bohr mag/cell

     iteration #  6     ecut=    60.00 Ry     beta= 0.30
     Davidson diagonalization with overlap
     ethr =  1.53E-08,  avg # of iterations =  4.0

     total cpu time spent up to now is     9945.6 secs

     total energy              =   -4457.63423341 Ry
     estimated scf accuracy    <       0.00016221 Ry

     total magnetization       =    10.95 Bohr mag/cell
     absolute magnetization    =    12.66 Bohr mag/cell

     iteration #  7     ecut=    60.00 Ry     beta= 0.30
     Davidson diagonalization with overlap
     ethr =  1.53E-08,  avg # of iterations =  1.8

     total cpu time spent up to now is     9983.2 secs

     total energy              =   -4457.63424086 Ry
     estimated scf accuracy    <       0.00000514 Ry

     total magnetization       =    10.95 Bohr mag/cell
     absolute magnetization    =    12.65 Bohr mag/cell

     iteration #  8     ecut=    60.00 Ry     beta= 0.30
     Davidson diagonalization with overlap
     ethr =  2.18E-09,  avg # of iterations =  6.3

     total cpu time spent up to now is    10033.4 secs

     total energy              =   -4457.63424221 Ry
     estimated scf accuracy    <       0.00003061 Ry

     total magnetization       =    10.95 Bohr mag/cell
     absolute magnetization    =    12.65 Bohr mag/cell

     iteration #  9     ecut=    60.00 Ry     beta= 0.30
     Davidson diagonalization with overlap
     ethr =  2.18E-09,  avg # of iterations =  4.7

     total cpu time spent up to now is    10077.6 secs

     total energy              =   -4457.63424371 Ry
     estimated scf accuracy    <       0.00000580 Ry

     total magnetization       =    10.95 Bohr mag/cell
     absolute magnetization    =    12.66 Bohr mag/cell

     iteration # 10     ecut=    60.00 Ry     beta= 0.30
     Davidson diagonalization with overlap
     ethr =  2.18E-09,  avg # of iterations =  1.7

     total cpu time spent up to now is    10114.6 secs

     total energy              =   -4457.63424395 Ry
     estimated scf accuracy    <       0.00000342 Ry

     total magnetization       =    10.96 Bohr mag/cell
     absolute magnetization    =    12.66 Bohr mag/cell

     iteration # 11     ecut=    60.00 Ry     beta= 0.30
     Davidson diagonalization with overlap
     ethr =  1.45E-09,  avg # of iterations =  4.5

     total cpu time spent up to now is    10158.3 secs

     total energy              =   -4457.63424446 Ry
     estimated scf accuracy    <       0.00000188 Ry

     total magnetization       =    10.96 Bohr mag/cell
     absolute magnetization    =    12.66 Bohr mag/cell

     iteration # 12     ecut=    60.00 Ry     beta= 0.30
     Davidson diagonalization with overlap
     ethr =  7.96E-10,  avg # of iterations =  4.9

     total cpu time spent up to now is    10201.5 secs

     total energy              =   -4457.63424446 Ry
     estimated scf accuracy    <       0.00000441 Ry

     total magnetization       =    10.96 Bohr mag/cell
     absolute magnetization    =    12.66 Bohr mag/cell

     iteration # 13     ecut=    60.00 Ry     beta= 0.30
     Davidson diagonalization with overlap
     ethr =  7.96E-10,  avg # of iterations =  2.6

     total cpu time spent up to now is    10239.2 secs

     total energy              =   -4457.63424483 Ry
     estimated scf accuracy    <       0.00000102 Ry

     total magnetization       =    10.96 Bohr mag/cell
     absolute magnetization    =    12.66 Bohr mag/cell

     iteration # 14     ecut=    60.00 Ry     beta= 0.30
     Davidson diagonalization with overlap
     ethr =  4.33E-10,  avg # of iterations =  3.2

     total cpu time spent up to now is    10279.6 secs

     total energy              =   -4457.63424500 Ry
     estimated scf accuracy    <       0.00000042 Ry

     total magnetization       =    10.96 Bohr mag/cell
     absolute magnetization    =    12.66 Bohr mag/cell

     iteration # 15     ecut=    60.00 Ry     beta= 0.30
     Davidson diagonalization with overlap
     ethr =  1.76E-10,  avg # of iterations =  5.9

     total cpu time spent up to now is    10330.5 secs

     total energy              =   -4457.63424512 Ry
     estimated scf accuracy    <       0.00000217 Ry

     total magnetization       =    10.96 Bohr mag/cell
     absolute magnetization    =    12.66 Bohr mag/cell

     iteration # 16     ecut=    60.00 Ry     beta= 0.30
     Davidson diagonalization with overlap
     ethr =  1.76E-10,  avg # of iterations =  4.3

     total cpu time spent up to now is    10374.0 secs

     total energy              =   -4457.63424525 Ry
     estimated scf accuracy    <       0.00000228 Ry

     total magnetization       =    10.96 Bohr mag/cell
     absolute magnetization    =    12.66 Bohr mag/cell

     iteration # 17     ecut=    60.00 Ry     beta= 0.30
     Davidson diagonalization with overlap
     ethr =  1.76E-10,  avg # of iterations =  5.1

     total cpu time spent up to now is    10418.1 secs

     total energy              =   -4457.63424540 Ry
     estimated scf accuracy    <       0.00000034 Ry

     total magnetization       =    10.96 Bohr mag/cell
     absolute magnetization    =    12.66 Bohr mag/cell

     iteration # 18     ecut=    60.00 Ry     beta= 0.30
     Davidson diagonalization with overlap
     ethr =  1.43E-10,  avg # of iterations =  3.6

     total cpu time spent up to now is    10459.1 secs

     total energy              =   -4457.63424553 Ry
     estimated scf accuracy    <       0.00000056 Ry

     total magnetization       =    10.96 Bohr mag/cell
     absolute magnetization    =    12.66 Bohr mag/cell

     iteration # 19     ecut=    60.00 Ry     beta= 0.30
     Davidson diagonalization with overlap
     ethr =  1.43E-10,  avg # of iterations =  5.8

     total cpu time spent up to now is    10507.0 secs

     total energy              =   -4457.63424569 Ry
     estimated scf accuracy    <       0.00000085 Ry

     total magnetization       =    10.96 Bohr mag/cell
     absolute magnetization    =    12.66 Bohr mag/cell

     iteration # 20     ecut=    60.00 Ry     beta= 0.30
     Davidson diagonalization with overlap
     ethr =  1.43E-10,  avg # of iterations =  2.5

     total cpu time spent up to now is    10546.2 secs

     total energy              =   -4457.63424582 Ry
     estimated scf accuracy    <       0.00000020 Ry

     total magnetization       =    10.96 Bohr mag/cell
     absolute magnetization    =    12.66 Bohr mag/cell

     iteration # 21     ecut=    60.00 Ry     beta= 0.30
     Davidson diagonalization with overlap
     ethr =  8.31E-11,  avg # of iterations =  6.0

     total cpu time spent up to now is    10594.8 secs

     total energy              =   -4457.63424581 Ry
     estimated scf accuracy    <       0.00000079 Ry

     total magnetization       =    10.96 Bohr mag/cell
     absolute magnetization    =    12.66 Bohr mag/cell

     iteration # 22     ecut=    60.00 Ry     beta= 0.30
     Davidson diagonalization with overlap
     ethr =  8.31E-11,  avg # of iterations =  3.7

     total cpu time spent up to now is    10635.8 secs

     total energy              =   -4457.63424592 Ry
     estimated scf accuracy    <       0.00000048 Ry

     total magnetization       =    10.96 Bohr mag/cell
     absolute magnetization    =    12.66 Bohr mag/cell

     iteration # 23     ecut=    60.00 Ry     beta= 0.30
     Davidson diagonalization with overlap
     ethr =  8.31E-11,  avg # of iterations =  5.2

     total cpu time spent up to now is    10682.7 secs

     total energy              =   -4457.63424604 Ry
     estimated scf accuracy    <       0.00000038 Ry

     total magnetization       =    10.96 Bohr mag/cell
     absolute magnetization    =    12.66 Bohr mag/cell

     iteration # 24     ecut=    60.00 Ry     beta= 0.30
     Davidson diagonalization with overlap
     ethr =  8.31E-11,  avg # of iterations =  2.4

     total cpu time spent up to now is    10720.6 secs

     total energy              =   -4457.63424611 Ry
     estimated scf accuracy    <       0.00000020 Ry

     total magnetization       =    10.96 Bohr mag/cell
     absolute magnetization    =    12.66 Bohr mag/cell

     iteration # 25     ecut=    60.00 Ry     beta= 0.30
     Davidson diagonalization with overlap
     ethr =  8.31E-11,  avg # of iterations =  4.3

     total cpu time spent up to now is    10762.5 secs

     total energy              =   -4457.63424613 Ry
     estimated scf accuracy    <       0.00000020 Ry

     total magnetization       =    10.96 Bohr mag/cell
     absolute magnetization    =    12.66 Bohr mag/cell

     iteration # 26     ecut=    60.00 Ry     beta= 0.30
     Davidson diagonalization with overlap
     ethr =  8.31E-11,  avg # of iterations =  3.6

     total cpu time spent up to now is    10804.7 secs

     total energy              =   -4457.63424613 Ry
     estimated scf accuracy    <       0.00000094 Ry

     total magnetization       =    10.96 Bohr mag/cell
     absolute magnetization    =    12.66 Bohr mag/cell

     iteration # 27     ecut=    60.00 Ry     beta= 0.30
     Davidson diagonalization with overlap
     ethr =  8.31E-11,  avg # of iterations =  5.5

     total cpu time spent up to now is    10853.2 secs

     total energy              =   -4457.63424629 Ry
     estimated scf accuracy    <       0.00000016 Ry

     total magnetization       =    10.96 Bohr mag/cell
     absolute magnetization    =    12.66 Bohr mag/cell

     iteration # 28     ecut=    60.00 Ry     beta= 0.30
     Davidson diagonalization with overlap
     ethr =  6.80E-11,  avg # of iterations =  1.0

     total cpu time spent up to now is    10887.6 secs

     total energy              =   -4457.63424634 Ry
     estimated scf accuracy    <       0.00000017 Ry

     total magnetization       =    10.96 Bohr mag/cell
     absolute magnetization    =    12.66 Bohr mag/cell

     iteration # 29     ecut=    60.00 Ry     beta= 0.30
     Davidson diagonalization with overlap
     ethr =  6.80E-11,  avg # of iterations =  1.3

     total cpu time spent up to now is    10922.4 secs

     total energy              =   -4457.63424625 Ry
     estimated scf accuracy    <       0.00000012 Ry

     total magnetization       =    10.96 Bohr mag/cell
     absolute magnetization    =    12.66 Bohr mag/cell

     iteration # 30     ecut=    60.00 Ry     beta= 0.30
     Davidson diagonalization with overlap
     ethr =  5.19E-11,  avg # of iterations =  2.3

     total cpu time spent up to now is    10960.6 secs

     total energy              =   -4457.63424619 Ry
     estimated scf accuracy    <       0.00000016 Ry

     total magnetization       =    10.96 Bohr mag/cell
     absolute magnetization    =    12.66 Bohr mag/cell

     iteration # 31     ecut=    60.00 Ry     beta= 0.30
     Davidson diagonalization with overlap
     ethr =  5.19E-11,  avg # of iterations =  6.7

     total cpu time spent up to now is    11014.0 secs

     total energy              =   -4457.63424660 Ry
     estimated scf accuracy    <       0.00000015 Ry

     total magnetization       =    10.96 Bohr mag/cell
     absolute magnetization    =    12.65 Bohr mag/cell

     iteration # 32     ecut=    60.00 Ry     beta= 0.30
     Davidson diagonalization with overlap
     ethr =  5.19E-11,  avg # of iterations =  5.2

     total cpu time spent up to now is    11059.2 secs

     total energy              =   -4457.63424646 Ry
     estimated scf accuracy    <       0.00000020 Ry

     total magnetization       =    10.96 Bohr mag/cell
     absolute magnetization    =    12.65 Bohr mag/cell

     iteration # 33     ecut=    60.00 Ry     beta= 0.30
     Davidson diagonalization with overlap
     ethr =  5.19E-11,  avg # of iterations =  5.1

     total cpu time spent up to now is    11104.4 secs

     total energy              =   -4457.63424656 Ry
     estimated scf accuracy    <       0.00000019 Ry

     total magnetization       =    10.96 Bohr mag/cell
     absolute magnetization    =    12.65 Bohr mag/cell

     iteration # 34     ecut=    60.00 Ry     beta= 0.30
     Davidson diagonalization with overlap
     ethr =  5.19E-11,  avg # of iterations =  5.0

     total cpu time spent up to now is    11150.1 secs

     total energy              =   -4457.63424660 Ry
     estimated scf accuracy    <       0.00000019 Ry

     total magnetization       =    10.96 Bohr mag/cell
     absolute magnetization    =    12.65 Bohr mag/cell

     iteration # 35     ecut=    60.00 Ry     beta= 0.30
     Davidson diagonalization with overlap
     ethr =  5.19E-11,  avg # of iterations =  3.6

     total cpu time spent up to now is    11190.7 secs

     total energy              =   -4457.63424658 Ry
     estimated scf accuracy    <       0.00000032 Ry

     total magnetization       =    10.96 Bohr mag/cell
     absolute magnetization    =    12.65 Bohr mag/cell

     iteration # 36     ecut=    60.00 Ry     beta= 0.30
     Davidson diagonalization with overlap
     ethr =  5.19E-11,  avg # of iterations =  5.5

     total cpu time spent up to now is    11241.5 secs

     total energy              =   -4457.63424669 Ry
     estimated scf accuracy    <       0.00000068 Ry

     total magnetization       =    10.96 Bohr mag/cell
     absolute magnetization    =    12.65 Bohr mag/cell

     iteration # 37     ecut=    60.00 Ry     beta= 0.30
     Davidson diagonalization with overlap
     ethr =  5.19E-11,  avg # of iterations =  4.3

     total cpu time spent up to now is    11284.1 secs

     total energy              =   -4457.63424677 Ry
     estimated scf accuracy    <       0.00000011 Ry

     total magnetization       =    10.96 Bohr mag/cell
     absolute magnetization    =    12.65 Bohr mag/cell

     iteration # 38     ecut=    60.00 Ry     beta= 0.30
     Davidson diagonalization with overlap
     ethr =  4.62E-11,  avg # of iterations =  4.0

     total cpu time spent up to now is    11326.0 secs

     total energy              =   -4457.63424681 Ry
     estimated scf accuracy    <       0.00000015 Ry

     total magnetization       =    10.96 Bohr mag/cell
     absolute magnetization    =    12.65 Bohr mag/cell

     iteration # 39     ecut=    60.00 Ry     beta= 0.30
     Davidson diagonalization with overlap
     ethr =  4.62E-11,  avg # of iterations =  5.2

     total cpu time spent up to now is    11371.0 secs

     total energy              =   -4457.63424669 Ry
     estimated scf accuracy    <       0.00000013 Ry

     total magnetization       =    10.96 Bohr mag/cell
     absolute magnetization    =    12.64 Bohr mag/cell

     iteration # 40     ecut=    60.00 Ry     beta= 0.30
     Davidson diagonalization with overlap
     ethr =  4.62E-11,  avg # of iterations =  5.0

     total cpu time spent up to now is    11416.6 secs

     total energy              =   -4457.63424679 Ry
     estimated scf accuracy    <       0.00000010 Ry

     total magnetization       =    10.96 Bohr mag/cell
     absolute magnetization    =    12.65 Bohr mag/cell

     iteration # 41     ecut=    60.00 Ry     beta= 0.30
     Davidson diagonalization with overlap
     ethr =  4.41E-11,  avg # of iterations =  4.5

     total cpu time spent up to now is    11459.7 secs

     total energy              =   -4457.63424684 Ry
     estimated scf accuracy    <       0.00000013 Ry

     total magnetization       =    10.96 Bohr mag/cell
     absolute magnetization    =    12.65 Bohr mag/cell

     iteration # 42     ecut=    60.00 Ry     beta= 0.30
     Davidson diagonalization with overlap
     ethr =  4.41E-11,  avg # of iterations =  4.3

     total cpu time spent up to now is    11501.3 secs

     total energy              =   -4457.63424689 Ry
     estimated scf accuracy    <       0.00000012 Ry

     total magnetization       =    10.96 Bohr mag/cell
     absolute magnetization    =    12.64 Bohr mag/cell

     iteration # 43     ecut=    60.00 Ry     beta= 0.30
     Davidson diagonalization with overlap
     ethr =  4.41E-11,  avg # of iterations =  5.2

     total cpu time spent up to now is    11547.4 secs

     total energy              =   -4457.63424688 Ry
     estimated scf accuracy    <       0.00000023 Ry

     total magnetization       =    10.96 Bohr mag/cell
     absolute magnetization    =    12.64 Bohr mag/cell

     iteration # 44     ecut=    60.00 Ry     beta= 0.30
     Davidson diagonalization with overlap
     ethr =  4.41E-11,  avg # of iterations =  5.7

     total cpu time spent up to now is    11598.4 secs

     total energy              =   -4457.63424711 Ry
     estimated scf accuracy    <       0.00000019 Ry

     total magnetization       =    10.96 Bohr mag/cell
     absolute magnetization    =    12.64 Bohr mag/cell

     iteration # 45     ecut=    60.00 Ry     beta= 0.30
     Davidson diagonalization with overlap
     ethr =  4.41E-11,  avg # of iterations =  5.4

     total cpu time spent up to now is    11647.7 secs

     total energy              =   -4457.63424726 Ry
     estimated scf accuracy    <       0.00000033 Ry

     total magnetization       =    10.96 Bohr mag/cell
     absolute magnetization    =    12.63 Bohr mag/cell

     iteration # 46     ecut=    60.00 Ry     beta= 0.30
     Davidson diagonalization with overlap
     ethr =  4.41E-11,  avg # of iterations =  5.4

     total cpu time spent up to now is    11696.1 secs

     total energy              =   -4457.63424693 Ry
     estimated scf accuracy    <       0.00000007 Ry

     total magnetization       =    10.96 Bohr mag/cell
     absolute magnetization    =    12.63 Bohr mag/cell

     iteration # 47     ecut=    60.00 Ry     beta= 0.30
     Davidson diagonalization with overlap
     ethr =  3.16E-11,  avg # of iterations =  6.6

     total cpu time spent up to now is    11750.0 secs

     total energy              =   -4457.63424715 Ry
     estimated scf accuracy    <       0.00000016 Ry

     total magnetization       =    10.96 Bohr mag/cell
     absolute magnetization    =    12.64 Bohr mag/cell

     iteration # 48     ecut=    60.00 Ry     beta= 0.30
     Davidson diagonalization with overlap
     ethr =  3.16E-11,  avg # of iterations =  6.4

     total cpu time spent up to now is    11803.4 secs

     total energy              =   -4457.63424733 Ry
     estimated scf accuracy    <       0.00000022 Ry

     total magnetization       =    10.96 Bohr mag/cell
     absolute magnetization    =    12.63 Bohr mag/cell

     iteration # 49     ecut=    60.00 Ry     beta= 0.30
     Davidson diagonalization with overlap
     ethr =  3.16E-11,  avg # of iterations =  1.6

     total cpu time spent up to now is    11839.8 secs

     total energy              =   -4457.63424730 Ry
     estimated scf accuracy    <       0.00000009 Ry

     total magnetization       =    10.96 Bohr mag/cell
     absolute magnetization    =    12.63 Bohr mag/cell

     iteration # 50     ecut=    60.00 Ry     beta= 0.30
     Davidson diagonalization with overlap
     ethr =  3.16E-11,  avg # of iterations =  2.1

     total cpu time spent up to now is    11878.0 secs

     total energy              =   -4457.63424734 Ry
     estimated scf accuracy    <       0.00000008 Ry

     total magnetization       =    10.96 Bohr mag/cell
     absolute magnetization    =    12.63 Bohr mag/cell

     iteration # 51     ecut=    60.00 Ry     beta= 0.30
     Davidson diagonalization with overlap
     ethr =  3.16E-11,  avg # of iterations =  4.8

     total cpu time spent up to now is    11921.5 secs

     total energy              =   -4457.63424737 Ry
     estimated scf accuracy    <       0.00000008 Ry

     total magnetization       =    10.96 Bohr mag/cell
     absolute magnetization    =    12.63 Bohr mag/cell

     iteration # 52     ecut=    60.00 Ry     beta= 0.30
     Davidson diagonalization with overlap
     ethr =  3.16E-11,  avg # of iterations =  4.4

     total cpu time spent up to now is    11963.2 secs

     total energy              =   -4457.63424613 Ry
     estimated scf accuracy    <       0.00000005 Ry

     total magnetization       =    10.96 Bohr mag/cell
     absolute magnetization    =    12.63 Bohr mag/cell

     iteration # 53     ecut=    60.00 Ry     beta= 0.30
     Davidson diagonalization with overlap
     ethr =  2.03E-11,  avg # of iterations = 11.5

     total cpu time spent up to now is    12035.8 secs

     total energy              =   -4457.63424781 Ry
     estimated scf accuracy    <       0.00000014 Ry

     total magnetization       =    10.96 Bohr mag/cell
     absolute magnetization    =    12.62 Bohr mag/cell

     iteration # 54     ecut=    60.00 Ry     beta= 0.30
     Davidson diagonalization with overlap
     ethr =  2.03E-11,  avg # of iterations =  5.8

     total cpu time spent up to now is    12087.1 secs

     total energy              =   -4457.63424691 Ry
     estimated scf accuracy    <       0.00000006 Ry

     total magnetization       =    10.96 Bohr mag/cell
     absolute magnetization    =    12.62 Bohr mag/cell

     iteration # 55     ecut=    60.00 Ry     beta= 0.30
     Davidson diagonalization with overlap
     ethr =  2.03E-11,  avg # of iterations =  9.7

     total cpu time spent up to now is    12153.1 secs

     total energy              =   -4457.63424740 Ry
     estimated scf accuracy    <       0.00000030 Ry

     total magnetization       =    10.96 Bohr mag/cell
     absolute magnetization    =    12.62 Bohr mag/cell

     iteration # 56     ecut=    60.00 Ry     beta= 0.30
     Davidson diagonalization with overlap
     ethr =  2.03E-11,  avg # of iterations =  6.8

     total cpu time spent up to now is    12207.1 secs

     total energy              =   -4457.63424754 Ry
     estimated scf accuracy    <       0.00000010 Ry

     total magnetization       =    10.96 Bohr mag/cell
     absolute magnetization    =    12.63 Bohr mag/cell

     iteration # 57     ecut=    60.00 Ry     beta= 0.30
     Davidson diagonalization with overlap
     ethr =  2.03E-11,  avg # of iterations =  3.4

     total cpu time spent up to now is    12248.0 secs

     total energy              =   -4457.63424714 Ry
     estimated scf accuracy    <       0.00000017 Ry

     total magnetization       =    10.96 Bohr mag/cell
     absolute magnetization    =    12.63 Bohr mag/cell

     iteration # 58     ecut=    60.00 Ry     beta= 0.30
     Davidson diagonalization with overlap
     ethr =  2.03E-11,  avg # of iterations =  9.7

     total cpu time spent up to now is    12314.8 secs

     total energy              =   -4457.63424781 Ry
     estimated scf accuracy    <       0.00000013 Ry

     total magnetization       =    10.96 Bohr mag/cell
     absolute magnetization    =    12.62 Bohr mag/cell

     iteration # 59     ecut=    60.00 Ry     beta= 0.30
     Davidson diagonalization with overlap
     ethr =  2.03E-11,  avg # of iterations =  4.8

     total cpu time spent up to now is    12358.0 secs

     total energy              =   -4457.63424765 Ry
     estimated scf accuracy    <       0.00000008 Ry

     total magnetization       =    10.96 Bohr mag/cell
     absolute magnetization    =    12.62 Bohr mag/cell

     iteration # 60     ecut=    60.00 Ry     beta= 0.30
     Davidson diagonalization with overlap
     ethr =  2.03E-11,  avg # of iterations =  5.6

     total cpu time spent up to now is    12409.1 secs

     total energy              =   -4457.63424767 Ry
     estimated scf accuracy    <       0.00000010 Ry

     total magnetization       =    10.96 Bohr mag/cell
     absolute magnetization    =    12.62 Bohr mag/cell

     iteration # 61     ecut=    60.00 Ry     beta= 0.30
     Davidson diagonalization with overlap
     ethr =  2.03E-11,  avg # of iterations =  7.0

     total cpu time spent up to now is    12463.7 secs

     total energy              =   -4457.63424788 Ry
     estimated scf accuracy    <       0.00000007 Ry

     total magnetization       =    10.96 Bohr mag/cell
     absolute magnetization    =    12.62 Bohr mag/cell

     iteration # 62     ecut=    60.00 Ry     beta= 0.30
     Davidson diagonalization with overlap
     ethr =  2.03E-11,  avg # of iterations =  5.4

     total cpu time spent up to now is    12512.3 secs

     total energy              =   -4457.63423581 Ry
     estimated scf accuracy    <       0.00000009 Ry

     total magnetization       =    10.96 Bohr mag/cell
     absolute magnetization    =    12.61 Bohr mag/cell

     iteration # 63     ecut=    60.00 Ry     beta= 0.30
     Davidson diagonalization with overlap
     c_bands:  1 eigenvalues not converged
     ethr =  2.03E-11,  avg # of iterations = 13.0

     total cpu time spent up to now is    12595.1 secs

     total energy              =   -4457.63424464 Ry
     estimated scf accuracy    <       0.00000011 Ry

     total magnetization       =    10.95 Bohr mag/cell
     absolute magnetization    =    12.58 Bohr mag/cell

     iteration # 64     ecut=    60.00 Ry     beta= 0.30
     Davidson diagonalization with overlap
     ethr =  2.03E-11,  avg # of iterations = 12.0

     total cpu time spent up to now is    12671.0 secs

     total energy              =   -4457.63424678 Ry
     estimated scf accuracy    <       0.00000008 Ry

     total magnetization       =    10.96 Bohr mag/cell
     absolute magnetization    =    12.60 Bohr mag/cell

     iteration # 65     ecut=    60.00 Ry     beta= 0.30
     Davidson diagonalization with overlap
     ethr =  2.03E-11,  avg # of iterations = 11.1

     total cpu time spent up to now is    12743.7 secs

     total energy              =   -4457.63424814 Ry
     estimated scf accuracy    <       0.00000015 Ry

     total magnetization       =    10.95 Bohr mag/cell
     absolute magnetization    =    12.59 Bohr mag/cell

     iteration # 66     ecut=    60.00 Ry     beta= 0.30
     Davidson diagonalization with overlap
     ethr =  2.03E-11,  avg # of iterations =  8.9

     total cpu time spent up to now is    12808.1 secs

     total energy              =   -4457.63424794 Ry
     estimated scf accuracy    <       0.00000032 Ry

     total magnetization       =    10.95 Bohr mag/cell
     absolute magnetization    =    12.58 Bohr mag/cell

     iteration # 67     ecut=    60.00 Ry     beta= 0.30
     Davidson diagonalization with overlap
     ethr =  2.03E-11,  avg # of iterations = 10.1

     total cpu time spent up to now is    12875.7 secs

     total energy              =   -4457.63424863 Ry
     estimated scf accuracy    <       0.00000002 Ry

     total magnetization       =    10.95 Bohr mag/cell
     absolute magnetization    =    12.58 Bohr mag/cell

     iteration # 68     ecut=    60.00 Ry     beta= 0.30
     Davidson diagonalization with overlap
     ethr =  6.88E-12,  avg # of iterations =  9.0
 
     Magnetic moment per site  (integrated on atomic sphere of radius R)
     atom   1 (R=0.179)  charge= 12.1581  magn=  0.1292
     atom   2 (R=0.179)  charge= 14.4531  magn=  1.7151
     atom   3 (R=0.179)  charge= 14.4319  magn=  1.8477
     atom   4 (R=0.179)  charge= 12.1750  magn= -0.0499
     atom   5 (R=0.179)  charge= 12.1577  magn=  0.1292
     atom   6 (R=0.179)  charge= 14.4531  magn=  1.7151
     atom   7 (R=0.179)  charge= 12.1573  magn=  0.1650
     atom   8 (R=0.179)  charge= 12.1750  magn= -0.0499
     atom   9 (R=0.179)  charge= 12.1571  magn=  0.1652
     atom  10 (R=0.179)  charge= 12.1750  magn= -0.0499
     atom  11 (R=0.179)  charge= 12.1581  magn=  0.1290
     atom  12 (R=0.179)  charge= 14.4531  magn=  1.7151
     atom  13 (R=0.179)  charge= 14.4321  magn=  1.8478
     atom  14 (R=0.179)  charge= 12.1750  magn= -0.0499
     atom  15 (R=0.179)  charge= 12.1577  magn=  0.1289
     atom  16 (R=0.179)  charge= 14.4531  magn=  1.7151

     total cpu time spent up to now is    12938.6 secs

     End of self-consistent calculation

     Number of k-points >= 100: set verbosity='high' to print the bands.

     the Fermi energy is    19.4975 ev

!    total energy              =   -4457.63424878 Ry
     total all-electron energy =    -36290.740233 Ry
     estimated scf accuracy    <          8.8E-09 Ry
     smearing contrib. (-TS)   =      -0.00240932 Ry
     internal energy E=F+TS    =   -4457.63183946 Ry

     The total energy is F=E-TS. E is the sum of the following terms:
     one-electron contribution =   -1209.66080708 Ry
     hartree contribution      =     753.80848630 Ry
     xc contribution           =    -389.16244151 Ry
     ewald contribution        =   -2373.38231465 Ry
     one-center paw contrib.   =   -1239.23476252 Ry

     total magnetization       =    10.95 Bohr mag/cell
     absolute magnetization    =    12.57 Bohr mag/cell

     convergence has been achieved in  68 iterations

     Forces acting on atoms (cartesian axes, Ry/au):

     atom    1 type  2   force =     0.00000000    0.00000000    0.00000000
     atom    2 type  1   force =     0.00009980    0.00011118    0.00010122
     atom    3 type  1   force =     0.00000000    0.00000000    0.00000000
     atom    4 type  2   force =    -0.00000960    0.00000288    0.00000657
     atom    5 type  2   force =     0.00000000    0.00000000    0.00000000
     atom    6 type  1   force =     0.00009980   -0.00011118    0.00010122
     atom    7 type  2   force =     0.00000000    0.00000000    0.00000000
     atom    8 type  2   force =    -0.00000960   -0.00000288    0.00000657
     atom    9 type  2   force =     0.00000000    0.00000000    0.00000000
     atom   10 type  2   force =     0.00000960    0.00000288   -0.00000657
     atom   11 type  2   force =     0.00000000    0.00000000    0.00000000
     atom   12 type  1   force =    -0.00009980    0.00011118   -0.00010122
     atom   13 type  1   force =     0.00000000    0.00000000    0.00000000
     atom   14 type  2   force =     0.00000960   -0.00000288   -0.00000657
     atom   15 type  2   force =     0.00000000    0.00000000    0.00000000
     atom   16 type  1   force =    -0.00009980   -0.00011118   -0.00010122

     Total force =     0.000362     Total SCF correction =     0.000256
     SCF correction compared to forces is large: reduce conv_thr to get better values


     Computing stress (Cartesian axis) and pressure

          total   stress  (Ry/bohr**3)                   (kbar)     P=       -0.64
  -0.00005444   0.00000000   0.00009885           -8.01        0.00       14.54
   0.00000000   0.00009587   0.00000000            0.00       14.10        0.00
   0.00009885   0.00000000  -0.00005440           14.54        0.00       -8.00

     Energy error            =      2.3E-03 Ry
     Gradient error          =      1.1E-04 Ry/Bohr
     Cell gradient error     =      1.5E+01 kbar

     number of scf cycles    =   2
     number of bfgs steps    =   1

     enthalpy           old  =   -4457.6319629763 Ry
     enthalpy           new  =   -4457.6342487780 Ry

     CASE: enthalpy          _new < enthalpy          _old

     new trust radius        =       0.0342517612 bohr
     new conv_thr            =       0.0000000001 Ry

     new unit-cell volume =   1222.43518 a.u.^3 (   181.14620 Ang^3 )
     density =      7.83793 g/cm^3

CELL_PARAMETERS (angstrom)
   5.635827899   0.000000000   0.048618487
   0.000000000   5.703548136   0.000000000
   0.048618500   0.000000000   5.635840899

ATOMIC_POSITIONS (crystal)
Cr               0.0000000000        0.0000000000        0.0000000000
Fe               0.2500281048        0.2500311351        0.2500287443
Fe              -0.0000000000        0.0000000000        0.5000000000
Cr               0.2500000495        0.2500012285        0.7499998756
Cr               0.0000000000        0.5000000000        0.0000000000
Fe               0.2500281048        0.7499688649        0.2500287443
Cr              -0.0000000000        0.5000000000        0.5000000000
Cr               0.2500000495        0.7499987715        0.7499998756
Cr               0.5000000000        0.0000000000       -0.0000000000
Cr               0.7499999505        0.2500012285        0.2500001244
Cr               0.5000000000        0.0000000000        0.5000000000
Fe               0.7499718952        0.2500311351        0.7499712557
Fe               0.5000000000        0.5000000000       -0.0000000000
Cr               0.7499999505        0.7499987715        0.2500001244
Cr               0.5000000000        0.5000000000        0.5000000000
Fe               0.7499718952        0.7499688649        0.7499712557



     Writing config-only to output data dir ./tmp/fecr_fe06cr10_vcr.save/ :
     XML data file
     NEW-OLD atomic charge density approx. for the potential

     Check: negative core charge=   -0.000003
     Generating pointlists ...

     total cpu time spent up to now is    13022.0 secs

     Self-consistent Calculation

     iteration #  1     ecut=    60.00 Ry     beta= 0.30
     Davidson diagonalization with overlap
     ethr =  1.00E-06,  avg # of iterations =  7.1

     total cpu time spent up to now is    13086.3 secs

     total energy              =   -4457.63537787 Ry
     estimated scf accuracy    <       0.00033367 Ry

     total magnetization       =    10.99 Bohr mag/cell
     absolute magnetization    =    12.58 Bohr mag/cell

     iteration #  2     ecut=    60.00 Ry     beta= 0.30
     Davidson diagonalization with overlap
     c_bands:  1 eigenvalues not converged
     ethr =  1.41E-07,  avg # of iterations =  7.0

     total cpu time spent up to now is    13140.4 secs

     total energy              =   -4457.63518409 Ry
     estimated scf accuracy    <       0.00788271 Ry

     total magnetization       =    10.99 Bohr mag/cell
     absolute magnetization    =    12.58 Bohr mag/cell

     iteration #  3     ecut=    60.00 Ry     beta= 0.30
     Davidson diagonalization with overlap
     ethr =  1.41E-07,  avg # of iterations =  5.6

     total cpu time spent up to now is    13188.9 secs

     total energy              =   -4457.63548130 Ry
     estimated scf accuracy    <       0.00005750 Ry

     total magnetization       =    10.99 Bohr mag/cell
     absolute magnetization    =    12.58 Bohr mag/cell

     iteration #  4     ecut=    60.00 Ry     beta= 0.30
     Davidson diagonalization with overlap
     ethr =  2.44E-08,  avg # of iterations =  5.2

     total cpu time spent up to now is    13236.4 secs

     total energy              =   -4457.63546302 Ry
     estimated scf accuracy    <       0.00047286 Ry

     total magnetization       =    11.00 Bohr mag/cell
     absolute magnetization    =    12.60 Bohr mag/cell

     iteration #  5     ecut=    60.00 Ry     beta= 0.30
     Davidson diagonalization with overlap
     ethr =  2.44E-08,  avg # of iterations =  4.5

     total cpu time spent up to now is    13279.8 secs

     total energy              =   -4457.63548261 Ry
     estimated scf accuracy    <       0.00002672 Ry

     total magnetization       =    11.00 Bohr mag/cell
     absolute magnetization    =    12.59 Bohr mag/cell

     iteration #  6     ecut=    60.00 Ry     beta= 0.30
     Davidson diagonalization with overlap
     ethr =  1.13E-08,  avg # of iterations =  4.0

     total cpu time spent up to now is    13321.6 secs

     total energy              =   -4457.63548519 Ry
     estimated scf accuracy    <       0.00001823 Ry

     total magnetization       =    11.00 Bohr mag/cell
     absolute magnetization    =    12.59 Bohr mag/cell

     iteration #  7     ecut=    60.00 Ry     beta= 0.30
     Davidson diagonalization with overlap
     ethr =  7.72E-09,  avg # of iterations =  2.6

     total cpu time spent up to now is    13360.2 secs

     total energy              =   -4457.63548673 Ry
     estimated scf accuracy    <       0.00000595 Ry

     total magnetization       =    11.00 Bohr mag/cell
     absolute magnetization    =    12.58 Bohr mag/cell

     iteration #  8     ecut=    60.00 Ry     beta= 0.30
     Davidson diagonalization with overlap
     ethr =  2.52E-09,  avg # of iterations =  5.8

     total cpu time spent up to now is    13406.1 secs

     total energy              =   -4457.63548771 Ry
     estimated scf accuracy    <       0.00001420 Ry

     total magnetization       =    11.00 Bohr mag/cell
     absolute magnetization    =    12.59 Bohr mag/cell

     iteration #  9     ecut=    60.00 Ry     beta= 0.30
     Davidson diagonalization with overlap
     ethr =  2.52E-09,  avg # of iterations =  2.0

     total cpu time spent up to now is    13443.1 secs

     total energy              =   -4457.63548836 Ry
     estimated scf accuracy    <       0.00000159 Ry

     total magnetization       =    11.00 Bohr mag/cell
     absolute magnetization    =    12.59 Bohr mag/cell

     iteration # 10     ecut=    60.00 Ry     beta= 0.30
     Davidson diagonalization with overlap
     ethr =  6.75E-10,  avg # of iterations =  5.5

     total cpu time spent up to now is    13489.3 secs

     total energy              =   -4457.63548881 Ry
     estimated scf accuracy    <       0.00000155 Ry

     total magnetization       =    11.00 Bohr mag/cell
     absolute magnetization    =    12.59 Bohr mag/cell

     iteration # 11     ecut=    60.00 Ry     beta= 0.30
     Davidson diagonalization with overlap
     ethr =  6.58E-10,  avg # of iterations =  3.8

     total cpu time spent up to now is    13530.3 secs

     total energy              =   -4457.63548901 Ry
     estimated scf accuracy    <       0.00000148 Ry

     total magnetization       =    11.00 Bohr mag/cell
     absolute magnetization    =    12.59 Bohr mag/cell

     iteration # 12     ecut=    60.00 Ry     beta= 0.30
     Davidson diagonalization with overlap
     ethr =  6.28E-10,  avg # of iterations =  1.5

     total cpu time spent up to now is    13566.3 secs

     total energy              =   -4457.63548923 Ry
     estimated scf accuracy    <       0.00000055 Ry

     total magnetization       =    11.00 Bohr mag/cell
     absolute magnetization    =    12.59 Bohr mag/cell

     iteration # 13     ecut=    60.00 Ry     beta= 0.30
     Davidson diagonalization with overlap
     ethr =  2.35E-10,  avg # of iterations =  6.0

     total cpu time spent up to now is    13614.5 secs

     total energy              =   -4457.63548945 Ry
     estimated scf accuracy    <       0.00000185 Ry

     total magnetization       =    11.00 Bohr mag/cell
     absolute magnetization    =    12.59 Bohr mag/cell

     iteration # 14     ecut=    60.00 Ry     beta= 0.30
     Davidson diagonalization with overlap
     ethr =  2.35E-10,  avg # of iterations =  4.2

     total cpu time spent up to now is    13657.9 secs

     total energy              =   -4457.63548973 Ry
     estimated scf accuracy    <       0.00000036 Ry

     total magnetization       =    11.00 Bohr mag/cell
     absolute magnetization    =    12.59 Bohr mag/cell

     iteration # 15     ecut=    60.00 Ry     beta= 0.30
     Davidson diagonalization with overlap
     ethr =  1.52E-10,  avg # of iterations =  5.4

     total cpu time spent up to now is    13704.2 secs

     total energy              =   -4457.63548985 Ry
     estimated scf accuracy    <       0.00000050 Ry

     total magnetization       =    11.00 Bohr mag/cell
     absolute magnetization    =    12.58 Bohr mag/cell

     iteration # 16     ecut=    60.00 Ry     beta= 0.30
     Davidson diagonalization with overlap
     ethr =  1.52E-10,  avg # of iterations =  2.5

     total cpu time spent up to now is    13744.4 secs

     total energy              =   -4457.63548989 Ry
     estimated scf accuracy    <       0.00000032 Ry

     total magnetization       =    11.00 Bohr mag/cell
     absolute magnetization    =    12.58 Bohr mag/cell

     iteration # 17     ecut=    60.00 Ry     beta= 0.30
     Davidson diagonalization with overlap
     ethr =  1.35E-10,  avg # of iterations =  1.8

     total cpu time spent up to now is    13781.4 secs

     total energy              =   -4457.63548999 Ry
     estimated scf accuracy    <       0.00000021 Ry

     total magnetization       =    11.00 Bohr mag/cell
     absolute magnetization    =    12.58 Bohr mag/cell

     iteration # 18     ecut=    60.00 Ry     beta= 0.30
     Davidson diagonalization with overlap
     ethr =  9.01E-11,  avg # of iterations =  4.6

     total cpu time spent up to now is    13826.5 secs

     total energy              =   -4457.63549008 Ry
     estimated scf accuracy    <       0.00000033 Ry

     total magnetization       =    11.00 Bohr mag/cell
     absolute magnetization    =    12.58 Bohr mag/cell

     iteration # 19     ecut=    60.00 Ry     beta= 0.30
     Davidson diagonalization with overlap
     ethr =  9.01E-11,  avg # of iterations =  3.7

     total cpu time spent up to now is    13868.4 secs

     total energy              =   -4457.63549018 Ry
     estimated scf accuracy    <       0.00000019 Ry

     total magnetization       =    11.00 Bohr mag/cell
     absolute magnetization    =    12.58 Bohr mag/cell

     iteration # 20     ecut=    60.00 Ry     beta= 0.30
     Davidson diagonalization with overlap
     ethr =  8.21E-11,  avg # of iterations =  5.2

     total cpu time spent up to now is    13913.3 secs

     total energy              =   -4457.63549029 Ry
     estimated scf accuracy    <       0.00000023 Ry

     total magnetization       =    11.00 Bohr mag/cell
     absolute magnetization    =    12.58 Bohr mag/cell

     iteration # 21     ecut=    60.00 Ry     beta= 0.30
     Davidson diagonalization with overlap
     ethr =  8.21E-11,  avg # of iterations =  5.6

     total cpu time spent up to now is    13962.7 secs

     total energy              =   -4457.63549042 Ry
     estimated scf accuracy    <       0.00000026 Ry

     total magnetization       =    11.00 Bohr mag/cell
     absolute magnetization    =    12.58 Bohr mag/cell

     iteration # 22     ecut=    60.00 Ry     beta= 0.30
     Davidson diagonalization with overlap
     ethr =  8.21E-11,  avg # of iterations =  1.3

     total cpu time spent up to now is    13998.8 secs

     total energy              =   -4457.63549047 Ry
     estimated scf accuracy    <       0.00000015 Ry

     total magnetization       =    11.00 Bohr mag/cell
     absolute magnetization    =    12.58 Bohr mag/cell

     iteration # 23     ecut=    60.00 Ry     beta= 0.30
     Davidson diagonalization with overlap
     ethr =  6.23E-11,  avg # of iterations =  2.9

     total cpu time spent up to now is    14038.6 secs

     total energy              =   -4457.63549053 Ry
     estimated scf accuracy    <       0.00000017 Ry

     total magnetization       =    11.00 Bohr mag/cell
     absolute magnetization    =    12.58 Bohr mag/cell

     iteration # 24     ecut=    60.00 Ry     beta= 0.30
     Davidson diagonalization with overlap
     ethr =  6.23E-11,  avg # of iterations =  5.5

     total cpu time spent up to now is    14086.0 secs

     total energy              =   -4457.63549062 Ry
     estimated scf accuracy    <       0.00000010 Ry

     total magnetization       =    11.00 Bohr mag/cell
     absolute magnetization    =    12.58 Bohr mag/cell

     iteration # 25     ecut=    60.00 Ry     beta= 0.30
     Davidson diagonalization with overlap
     ethr =  4.35E-11,  avg # of iterations =  5.0

     total cpu time spent up to now is    14131.2 secs

     total energy              =   -4457.63549067 Ry
     estimated scf accuracy    <       0.00000016 Ry

     total magnetization       =    11.00 Bohr mag/cell
     absolute magnetization    =    12.58 Bohr mag/cell

     iteration # 26     ecut=    60.00 Ry     beta= 0.30
     Davidson diagonalization with overlap
     ethr =  4.35E-11,  avg # of iterations =  5.2

     total cpu time spent up to now is    14178.4 secs

     total energy              =   -4457.63549072 Ry
     estimated scf accuracy    <       0.00000018 Ry

     total magnetization       =    11.00 Bohr mag/cell
     absolute magnetization    =    12.58 Bohr mag/cell

     iteration # 27     ecut=    60.00 Ry     beta= 0.30
     Davidson diagonalization with overlap
     ethr =  4.35E-11,  avg # of iterations =  1.6

     total cpu time spent up to now is    14215.0 secs

     total energy              =   -4457.63549073 Ry
     estimated scf accuracy    <       0.00000010 Ry

     total magnetization       =    11.00 Bohr mag/cell
     absolute magnetization    =    12.58 Bohr mag/cell

     iteration # 28     ecut=    60.00 Ry     beta= 0.30
     Davidson diagonalization with overlap
     ethr =  4.33E-11,  avg # of iterations =  6.0

     total cpu time spent up to now is    14265.5 secs

     total energy              =   -4457.63549078 Ry
     estimated scf accuracy    <       0.00000014 Ry

     total magnetization       =    11.00 Bohr mag/cell
     absolute magnetization    =    12.58 Bohr mag/cell

     iteration # 29     ecut=    60.00 Ry     beta= 0.30
     Davidson diagonalization with overlap
     ethr =  4.33E-11,  avg # of iterations =  4.6

     total cpu time spent up to now is    14307.5 secs

     total energy              =   -4457.63549081 Ry
     estimated scf accuracy    <       0.00000010 Ry

     total magnetization       =    11.00 Bohr mag/cell
     absolute magnetization    =    12.58 Bohr mag/cell

     iteration # 30     ecut=    60.00 Ry     beta= 0.30
     Davidson diagonalization with overlap
     ethr =  4.30E-11,  avg # of iterations =  1.0

     total cpu time spent up to now is    14341.9 secs

     total energy              =   -4457.63549083 Ry
     estimated scf accuracy    <       0.00000010 Ry

     total magnetization       =    11.00 Bohr mag/cell
     absolute magnetization    =    12.58 Bohr mag/cell

     iteration # 31     ecut=    60.00 Ry     beta= 0.30
     Davidson diagonalization with overlap
     ethr =  4.09E-11,  avg # of iterations =  5.3

     total cpu time spent up to now is    14390.6 secs

     total energy              =   -4457.63549097 Ry
     estimated scf accuracy    <       0.00000030 Ry

     total magnetization       =    11.00 Bohr mag/cell
     absolute magnetization    =    12.57 Bohr mag/cell

     iteration # 32     ecut=    60.00 Ry     beta= 0.30
     Davidson diagonalization with overlap
     ethr =  4.09E-11,  avg # of iterations =  4.8

     total cpu time spent up to now is    14434.9 secs

     total energy              =   -4457.63549102 Ry
     estimated scf accuracy    <       0.00000014 Ry

     total magnetization       =    11.00 Bohr mag/cell
     absolute magnetization    =    12.57 Bohr mag/cell

     iteration # 33     ecut=    60.00 Ry     beta= 0.30
     Davidson diagonalization with overlap
     ethr =  4.09E-11,  avg # of iterations =  4.7

     total cpu time spent up to now is    14477.8 secs

     total energy              =   -4457.63549105 Ry
     estimated scf accuracy    <       0.00000014 Ry

     total magnetization       =    11.00 Bohr mag/cell
     absolute magnetization    =    12.57 Bohr mag/cell

     iteration # 34     ecut=    60.00 Ry     beta= 0.30
     Davidson diagonalization with overlap
     ethr =  4.09E-11,  avg # of iterations =  2.5

     total cpu time spent up to now is    14515.8 secs

     total energy              =   -4457.63549104 Ry
     estimated scf accuracy    <       0.00000008 Ry

     total magnetization       =    11.00 Bohr mag/cell
     absolute magnetization    =    12.57 Bohr mag/cell

     iteration # 35     ecut=    60.00 Ry     beta= 0.30
     Davidson diagonalization with overlap
     ethr =  3.58E-11,  avg # of iterations =  1.7

     total cpu time spent up to now is    14551.6 secs

     total energy              =   -4457.63549104 Ry
     estimated scf accuracy    <       0.00000013 Ry

     total magnetization       =    11.00 Bohr mag/cell
     absolute magnetization    =    12.57 Bohr mag/cell

     iteration # 36     ecut=    60.00 Ry     beta= 0.30
     Davidson diagonalization with overlap
     ethr =  3.58E-11,  avg # of iterations =  1.0

     total cpu time spent up to now is    14586.3 secs

     total energy              =   -4457.63549101 Ry
     estimated scf accuracy    <       0.00000011 Ry

     total magnetization       =    11.00 Bohr mag/cell
     absolute magnetization    =    12.57 Bohr mag/cell

     iteration # 37     ecut=    60.00 Ry     beta= 0.30
     Davidson diagonalization with overlap
     ethr =  3.58E-11,  avg # of iterations =  1.2

     total cpu time spent up to now is    14621.6 secs

     total energy              =   -4457.63549105 Ry
     estimated scf accuracy    <       0.00000014 Ry

     total magnetization       =    11.00 Bohr mag/cell
     absolute magnetization    =    12.57 Bohr mag/cell

     iteration # 38     ecut=    60.00 Ry     beta= 0.30
     Davidson diagonalization with overlap
     ethr =  3.58E-11,  avg # of iterations =  5.5

     total cpu time spent up to now is    14669.1 secs

     total energy              =   -4457.63549092 Ry
     estimated scf accuracy    <       0.00000014 Ry

     total magnetization       =    11.00 Bohr mag/cell
     absolute magnetization    =    12.57 Bohr mag/cell

     iteration # 39     ecut=    60.00 Ry     beta= 0.30
     Davidson diagonalization with overlap
     ethr =  3.58E-11,  avg # of iterations =  5.3

     total cpu time spent up to now is    14717.9 secs

     total energy              =   -4457.63549103 Ry
     estimated scf accuracy    <       0.00000024 Ry

     total magnetization       =    11.00 Bohr mag/cell
     absolute magnetization    =    12.57 Bohr mag/cell

     iteration # 40     ecut=    60.00 Ry     beta= 0.30
     Davidson diagonalization with overlap
     ethr =  3.58E-11,  avg # of iterations =  5.2

     total cpu time spent up to now is    14763.8 secs

     total energy              =   -4457.63549108 Ry
     estimated scf accuracy    <       0.00000047 Ry

     total magnetization       =    11.00 Bohr mag/cell
     absolute magnetization    =    12.57 Bohr mag/cell

     iteration # 41     ecut=    60.00 Ry     beta= 0.30
     Davidson diagonalization with overlap
     ethr =  3.58E-11,  avg # of iterations =  1.8

     total cpu time spent up to now is    14801.6 secs

     total energy              =   -4457.63549109 Ry
     estimated scf accuracy    <       0.00000012 Ry

     total magnetization       =    11.00 Bohr mag/cell
     absolute magnetization    =    12.57 Bohr mag/cell

     iteration # 42     ecut=    60.00 Ry     beta= 0.30
     Davidson diagonalization with overlap
     ethr =  3.58E-11,  avg # of iterations =  1.1

     total cpu time spent up to now is    14835.9 secs

     total energy              =   -4457.63549110 Ry
     estimated scf accuracy    <       0.00000010 Ry

     total magnetization       =    11.00 Bohr mag/cell
     absolute magnetization    =    12.57 Bohr mag/cell

     iteration # 43     ecut=    60.00 Ry     beta= 0.30
     Davidson diagonalization with overlap
     ethr =  3.58E-11,  avg # of iterations =  5.6

     total cpu time spent up to now is    14885.7 secs

     total energy              =   -4457.63549121 Ry
     estimated scf accuracy    <       0.00000014 Ry

     total magnetization       =    11.00 Bohr mag/cell
     absolute magnetization    =    12.57 Bohr mag/cell

     iteration # 44     ecut=    60.00 Ry     beta= 0.30
     Davidson diagonalization with overlap
     ethr =  3.58E-11,  avg # of iterations =  5.0

     total cpu time spent up to now is    14930.9 secs

     total energy              =   -4457.63549098 Ry
     estimated scf accuracy    <       0.00000010 Ry

     total magnetization       =    11.00 Bohr mag/cell
     absolute magnetization    =    12.57 Bohr mag/cell

     iteration # 45     ecut=    60.00 Ry     beta= 0.30
     Davidson diagonalization with overlap
     ethr =  3.58E-11,  avg # of iterations =  5.5

     total cpu time spent up to now is    14980.3 secs

     total energy              =   -4457.63549114 Ry
     estimated scf accuracy    <       0.00000012 Ry

     total magnetization       =    11.00 Bohr mag/cell
     absolute magnetization    =    12.57 Bohr mag/cell

     iteration # 46     ecut=    60.00 Ry     beta= 0.30
     Davidson diagonalization with overlap
     ethr =  3.58E-11,  avg # of iterations =  5.2

     total cpu time spent up to now is    15029.3 secs

     total energy              =   -4457.63549123 Ry
     estimated scf accuracy    <       0.00000046 Ry

     total magnetization       =    11.00 Bohr mag/cell
     absolute magnetization    =    12.57 Bohr mag/cell

     iteration # 47     ecut=    60.00 Ry     beta= 0.30
     Davidson diagonalization with overlap
     ethr =  3.58E-11,  avg # of iterations =  5.5

     total cpu time spent up to now is    15075.2 secs

     total energy              =   -4457.63549126 Ry
     estimated scf accuracy    <       0.00000022 Ry

     total magnetization       =    11.00 Bohr mag/cell
     absolute magnetization    =    12.57 Bohr mag/cell

     iteration # 48     ecut=    60.00 Ry     beta= 0.30
     Davidson diagonalization with overlap
     ethr =  3.58E-11,  avg # of iterations =  1.6

     total cpu time spent up to now is    15111.3 secs

     total energy              =   -4457.63549128 Ry
     estimated scf accuracy    <       0.00000005 Ry

     total magnetization       =    11.00 Bohr mag/cell
     absolute magnetization    =    12.57 Bohr mag/cell

     iteration # 49     ecut=    60.00 Ry     beta= 0.30
     Davidson diagonalization with overlap
     ethr =  2.33E-11,  avg # of iterations =  3.0

     total cpu time spent up to now is    15151.0 secs

     total energy              =   -4457.63549130 Ry
     estimated scf accuracy    <       0.00000006 Ry

     total magnetization       =    11.00 Bohr mag/cell
     absolute magnetization    =    12.57 Bohr mag/cell

     iteration # 50     ecut=    60.00 Ry     beta= 0.30
     Davidson diagonalization with overlap
     ethr =  2.33E-11,  avg # of iterations =  5.4

     total cpu time spent up to now is    15197.9 secs

     total energy              =   -4457.63549133 Ry
     estimated scf accuracy    <       0.00000008 Ry

     total magnetization       =    11.00 Bohr mag/cell
     absolute magnetization    =    12.56 Bohr mag/cell

     iteration # 51     ecut=    60.00 Ry     beta= 0.30
     Davidson diagonalization with overlap
     ethr =  2.33E-11,  avg # of iterations =  5.8

     total cpu time spent up to now is    15249.1 secs

     total energy              =   -4457.63549118 Ry
     estimated scf accuracy    <       0.00000010 Ry

     total magnetization       =    11.00 Bohr mag/cell
     absolute magnetization    =    12.56 Bohr mag/cell

     iteration # 52     ecut=    60.00 Ry     beta= 0.30
     Davidson diagonalization with overlap
     ethr =  2.33E-11,  avg # of iterations =  5.9

     total cpu time spent up to now is    15300.2 secs

     total energy              =   -4457.63549130 Ry
     estimated scf accuracy    <       0.00000006 Ry

     total magnetization       =    11.00 Bohr mag/cell
     absolute magnetization    =    12.57 Bohr mag/cell

     iteration # 53     ecut=    60.00 Ry     beta= 0.30
     Davidson diagonalization with overlap
     ethr =  2.33E-11,  avg # of iterations =  5.9

     total cpu time spent up to now is    15352.5 secs

     total energy              =   -4457.63549143 Ry
     estimated scf accuracy    <       0.00000010 Ry

     total magnetization       =    11.00 Bohr mag/cell
     absolute magnetization    =    12.56 Bohr mag/cell

     iteration # 54     ecut=    60.00 Ry     beta= 0.30
     Davidson diagonalization with overlap
     ethr =  2.33E-11,  avg # of iterations =  1.2

     total cpu time spent up to now is    15387.8 secs

     total energy              =   -4457.63548888 Ry
     estimated scf accuracy    <       0.00000005 Ry

     total magnetization       =    11.00 Bohr mag/cell
     absolute magnetization    =    12.56 Bohr mag/cell

     iteration # 55     ecut=    60.00 Ry     beta= 0.30
     Davidson diagonalization with overlap
     ethr =  1.93E-11,  avg # of iterations = 12.0

     total cpu time spent up to now is    15463.3 secs

     total energy              =   -4457.63549195 Ry
     estimated scf accuracy    <       0.00000011 Ry

     total magnetization       =    11.00 Bohr mag/cell
     absolute magnetization    =    12.55 Bohr mag/cell

     iteration # 56     ecut=    60.00 Ry     beta= 0.30
     Davidson diagonalization with overlap
     ethr =  1.93E-11,  avg # of iterations =  5.1

     total cpu time spent up to now is    15508.3 secs

     total energy              =   -4457.63549121 Ry
     estimated scf accuracy    <       0.00000007 Ry

     total magnetization       =    11.00 Bohr mag/cell
     absolute magnetization    =    12.55 Bohr mag/cell

     iteration # 57     ecut=    60.00 Ry     beta= 0.30
     Davidson diagonalization with overlap
     ethr =  1.93E-11,  avg # of iterations =  8.5

     total cpu time spent up to now is    15570.6 secs

     total energy              =   -4457.63549167 Ry
     estimated scf accuracy    <       0.00000010 Ry

     total magnetization       =    11.00 Bohr mag/cell
     absolute magnetization    =    12.55 Bohr mag/cell

     iteration # 58     ecut=    60.00 Ry     beta= 0.30
     Davidson diagonalization with overlap
     ethr =  1.93E-11,  avg # of iterations =  5.7

     total cpu time spent up to now is    15621.0 secs

     total energy              =   -4457.63549084 Ry
     estimated scf accuracy    <       0.00000013 Ry

     total magnetization       =    11.00 Bohr mag/cell
     absolute magnetization    =    12.56 Bohr mag/cell

     iteration # 59     ecut=    60.00 Ry     beta= 0.30
     Davidson diagonalization with overlap
     ethr =  1.93E-11,  avg # of iterations = 10.9

     total cpu time spent up to now is    15691.2 secs

     total energy              =   -4457.63549196 Ry
     estimated scf accuracy    <       0.00000010 Ry

     total magnetization       =    11.00 Bohr mag/cell
     absolute magnetization    =    12.55 Bohr mag/cell

     iteration # 60     ecut=    60.00 Ry     beta= 0.30
     Davidson diagonalization with overlap
     ethr =  1.93E-11,  avg # of iterations =  6.5

     total cpu time spent up to now is    15745.3 secs

     total energy              =   -4457.63549167 Ry
     estimated scf accuracy    <       0.00000006 Ry

     total magnetization       =    11.00 Bohr mag/cell
     absolute magnetization    =    12.55 Bohr mag/cell

     iteration # 61     ecut=    60.00 Ry     beta= 0.30
     Davidson diagonalization with overlap
     ethr =  1.93E-11,  avg # of iterations =  9.2

     total cpu time spent up to now is    15809.8 secs

     total energy              =   -4457.63549017 Ry
     estimated scf accuracy    <       0.00000011 Ry

     total magnetization       =    11.00 Bohr mag/cell
     absolute magnetization    =    12.54 Bohr mag/cell

     iteration # 62     ecut=    60.00 Ry     beta= 0.30
     Davidson diagonalization with overlap
     ethr =  1.93E-11,  avg # of iterations = 11.1

     total cpu time spent up to now is    15882.5 secs

     total energy              =   -4457.63549142 Ry
     estimated scf accuracy    <       0.00000009 Ry

     total magnetization       =    11.00 Bohr mag/cell
     absolute magnetization    =    12.55 Bohr mag/cell

     iteration # 63     ecut=    60.00 Ry     beta= 0.30
     Davidson diagonalization with overlap
     ethr =  1.93E-11,  avg # of iterations =  9.7

     total cpu time spent up to now is    15948.7 secs

     total energy              =   -4457.63548956 Ry
     estimated scf accuracy    <       0.00000008 Ry

     total magnetization       =    11.00 Bohr mag/cell
     absolute magnetization    =    12.55 Bohr mag/cell

     iteration # 64     ecut=    60.00 Ry     beta= 0.30
     Davidson diagonalization with overlap
     ethr =  1.93E-11,  avg # of iterations = 11.9

     total cpu time spent up to now is    16023.2 secs

     total energy              =   -4457.63549228 Ry
     estimated scf accuracy    <       0.00000005 Ry

     total magnetization       =    11.00 Bohr mag/cell
     absolute magnetization    =    12.53 Bohr mag/cell

     iteration # 65     ecut=    60.00 Ry     beta= 0.30
     Davidson diagonalization with overlap
     ethr =  1.93E-11,  avg # of iterations =  7.7

     total cpu time spent up to now is    16080.1 secs

     total energy              =   -4457.63549252 Ry
     estimated scf accuracy    <       0.00000006 Ry

     total magnetization       =    11.00 Bohr mag/cell
     absolute magnetization    =    12.53 Bohr mag/cell

     iteration # 66     ecut=    60.00 Ry     beta= 0.30
     Davidson diagonalization with overlap
     ethr =  1.93E-11,  avg # of iterations =  1.4

     total cpu time spent up to now is    16115.6 secs

     total energy              =   -4457.63548703 Ry
     estimated scf accuracy    <       0.00000004 Ry

     total magnetization       =    10.99 Bohr mag/cell
     absolute magnetization    =    12.53 Bohr mag/cell

     iteration # 67     ecut=    60.00 Ry     beta= 0.30
     Davidson diagonalization with overlap
     ethr =  1.78E-11,  avg # of iterations = 12.0

     total cpu time spent up to now is    16194.1 secs

     total energy              =   -4457.63549260 Ry
     estimated scf accuracy    <       0.00000027 Ry

     total magnetization       =    10.99 Bohr mag/cell
     absolute magnetization    =    12.52 Bohr mag/cell

     iteration # 68     ecut=    60.00 Ry     beta= 0.30
     Davidson diagonalization with overlap
     ethr =  1.78E-11,  avg # of iterations =  6.5

     total cpu time spent up to now is    16247.2 secs

     total energy              =   -4457.63549262 Ry
     estimated scf accuracy    <       0.00000002 Ry

     total magnetization       =    10.99 Bohr mag/cell
     absolute magnetization    =    12.52 Bohr mag/cell

     iteration # 69     ecut=    60.00 Ry     beta= 0.30
     Davidson diagonalization with overlap
     ethr =  6.44E-12,  avg # of iterations =  7.8

     total cpu time spent up to now is    16305.4 secs

     total energy              =   -4457.63549235 Ry
     estimated scf accuracy    <       0.00000004 Ry

     total magnetization       =    10.99 Bohr mag/cell
     absolute magnetization    =    12.52 Bohr mag/cell

     iteration # 70     ecut=    60.00 Ry     beta= 0.30
     Davidson diagonalization with overlap
     ethr =  6.44E-12,  avg # of iterations = 10.9

     total cpu time spent up to now is    16377.4 secs

     total energy              =   -4457.63549264 Ry
     estimated scf accuracy    <       0.00000002 Ry

     total magnetization       =    10.99 Bohr mag/cell
     absolute magnetization    =    12.52 Bohr mag/cell

     iteration # 71     ecut=    60.00 Ry     beta= 0.30
     Davidson diagonalization with overlap
     ethr =  6.44E-12,  avg # of iterations =  8.1

     total cpu time spent up to now is    16438.4 secs

     total energy              =   -4457.63549179 Ry
     estimated scf accuracy    <       0.00000003 Ry

     total magnetization       =    10.99 Bohr mag/cell
     absolute magnetization    =    12.51 Bohr mag/cell

     iteration # 72     ecut=    60.00 Ry     beta= 0.30
     Davidson diagonalization with overlap
     ethr =  6.44E-12,  avg # of iterations = 11.9

     total cpu time spent up to now is    16513.7 secs

     total energy              =   -4457.63549193 Ry
     estimated scf accuracy    <       0.00000013 Ry

     total magnetization       =    10.99 Bohr mag/cell
     absolute magnetization    =    12.52 Bohr mag/cell

     iteration # 73     ecut=    60.00 Ry     beta= 0.30
     Davidson diagonalization with overlap
     ethr =  6.44E-12,  avg # of iterations = 11.8

     total cpu time spent up to now is    16588.5 secs

     total energy              =   -4457.63549253 Ry
     estimated scf accuracy    <       0.00000005 Ry

     total magnetization       =    10.99 Bohr mag/cell
     absolute magnetization    =    12.51 Bohr mag/cell

     iteration # 74     ecut=    60.00 Ry     beta= 0.30
     Davidson diagonalization with overlap
     ethr =  6.44E-12,  avg # of iterations =  9.4

     total cpu time spent up to now is    16654.3 secs

     total energy              =   -4457.63549221 Ry
     estimated scf accuracy    <       0.00000002 Ry

     total magnetization       =    10.99 Bohr mag/cell
     absolute magnetization    =    12.51 Bohr mag/cell

     iteration # 75     ecut=    60.00 Ry     beta= 0.30
     Davidson diagonalization with overlap
     ethr =  6.44E-12,  avg # of iterations = 11.0

     total cpu time spent up to now is    16726.5 secs

     total energy              =   -4457.63549258 Ry
     estimated scf accuracy    <       0.00000006 Ry

     total magnetization       =    10.99 Bohr mag/cell
     absolute magnetization    =    12.51 Bohr mag/cell

     iteration # 76     ecut=    60.00 Ry     beta= 0.30
     Davidson diagonalization with overlap
     ethr =  6.44E-12,  avg # of iterations =  8.4

     total cpu time spent up to now is    16788.9 secs

     total energy              =   -4457.63549233 Ry
     estimated scf accuracy    <       0.00000003 Ry

     total magnetization       =    10.99 Bohr mag/cell
     absolute magnetization    =    12.51 Bohr mag/cell

     iteration # 77     ecut=    60.00 Ry     beta= 0.30
     Davidson diagonalization with overlap
     ethr =  6.44E-12,  avg # of iterations = 11.0

     total cpu time spent up to now is    16860.2 secs

     total energy              =   -4457.63549260 Ry
     estimated scf accuracy    <          7.0E-09 Ry

     total magnetization       =    10.99 Bohr mag/cell
     absolute magnetization    =    12.51 Bohr mag/cell

     iteration # 78     ecut=    60.00 Ry     beta= 0.30
     Davidson diagonalization with overlap
     ethr =  2.97E-12,  avg # of iterations = 10.3

     total cpu time spent up to now is    16929.1 secs

     total energy              =   -4457.63549268 Ry
     estimated scf accuracy    <       0.00000003 Ry

     total magnetization       =    10.99 Bohr mag/cell
     absolute magnetization    =    12.51 Bohr mag/cell

     iteration # 79     ecut=    60.00 Ry     beta= 0.30
     Davidson diagonalization with overlap
     ethr =  2.97E-12,  avg # of iterations =  8.3

     total cpu time spent up to now is    16990.5 secs

     total energy              =   -4457.63549273 Ry
     estimated scf accuracy    <          9.5E-09 Ry

     total magnetization       =    10.99 Bohr mag/cell
     absolute magnetization    =    12.51 Bohr mag/cell

     iteration # 80     ecut=    60.00 Ry     beta= 0.30
     Davidson diagonalization with overlap
     ethr =  2.97E-12,  avg # of iterations =  5.3

     total cpu time spent up to now is    17038.9 secs

     total energy              =   -4457.63549274 Ry
     estimated scf accuracy    <          9.3E-09 Ry

     total magnetization       =    10.99 Bohr mag/cell
     absolute magnetization    =    12.51 Bohr mag/cell

     iteration # 81     ecut=    60.00 Ry     beta= 0.30
     Davidson diagonalization with overlap
     ethr =  2.97E-12,  avg # of iterations =  5.2

     total cpu time spent up to now is    17087.1 secs

     total energy              =   -4457.63549271 Ry
     estimated scf accuracy    <          9.8E-09 Ry

     total magnetization       =    10.99 Bohr mag/cell
     absolute magnetization    =    12.51 Bohr mag/cell

     iteration # 82     ecut=    60.00 Ry     beta= 0.30
     Davidson diagonalization with overlap
     ethr =  2.97E-12,  avg # of iterations =  7.5

     total cpu time spent up to now is    17144.5 secs

     total energy              =   -4457.63549274 Ry
     estimated scf accuracy    <          6.7E-09 Ry

     total magnetization       =    10.99 Bohr mag/cell
     absolute magnetization    =    12.51 Bohr mag/cell

     iteration # 83     ecut=    60.00 Ry     beta= 0.30
     Davidson diagonalization with overlap
     ethr =  2.82E-12,  avg # of iterations =  5.2

     total cpu time spent up to now is    17191.0 secs

     total energy              =   -4457.63549274 Ry
     estimated scf accuracy    <       0.00000002 Ry

     total magnetization       =    10.99 Bohr mag/cell
     absolute magnetization    =    12.51 Bohr mag/cell

     iteration # 84     ecut=    60.00 Ry     beta= 0.30
     Davidson diagonalization with overlap
     ethr =  2.82E-12,  avg # of iterations =  5.3

     total cpu time spent up to now is    17240.2 secs

     total energy              =   -4457.63549274 Ry
     estimated scf accuracy    <       0.00000002 Ry

     total magnetization       =    10.99 Bohr mag/cell
     absolute magnetization    =    12.51 Bohr mag/cell

     iteration # 85     ecut=    60.00 Ry     beta= 0.30
     Davidson diagonalization with overlap
     ethr =  2.82E-12,  avg # of iterations =  5.2

     total cpu time spent up to now is    17284.6 secs

     total energy              =   -4457.63549275 Ry
     estimated scf accuracy    <          6.7E-09 Ry

     total magnetization       =    10.99 Bohr mag/cell
     absolute magnetization    =    12.51 Bohr mag/cell

     iteration # 86     ecut=    60.00 Ry     beta= 0.30
     Davidson diagonalization with overlap
     ethr =  2.82E-12,  avg # of iterations =  5.1

     total cpu time spent up to now is    17330.2 secs

     total energy              =   -4457.63549273 Ry
     estimated scf accuracy    <          8.2E-09 Ry

     total magnetization       =    10.99 Bohr mag/cell
     absolute magnetization    =    12.51 Bohr mag/cell

     iteration # 87     ecut=    60.00 Ry     beta= 0.30
     Davidson diagonalization with overlap
     ethr =  2.82E-12,  avg # of iterations =  5.9

     total cpu time spent up to now is    17380.4 secs

     total energy              =   -4457.63549275 Ry
     estimated scf accuracy    <       0.00000001 Ry

     total magnetization       =    10.99 Bohr mag/cell
     absolute magnetization    =    12.51 Bohr mag/cell

     iteration # 88     ecut=    60.00 Ry     beta= 0.30
     Davidson diagonalization with overlap
     ethr =  2.82E-12,  avg # of iterations =  2.2

     total cpu time spent up to now is    17418.4 secs

     total energy              =   -4457.63549275 Ry
     estimated scf accuracy    <          2.7E-09 Ry

     total magnetization       =    10.99 Bohr mag/cell
     absolute magnetization    =    12.51 Bohr mag/cell

     iteration # 89     ecut=    60.00 Ry     beta= 0.30
     Davidson diagonalization with overlap
     ethr =  1.14E-12,  avg # of iterations =  2.4

     total cpu time spent up to now is    17456.7 secs

     total energy              =   -4457.63549275 Ry
     estimated scf accuracy    <          2.3E-09 Ry

     total magnetization       =    10.99 Bohr mag/cell
     absolute magnetization    =    12.51 Bohr mag/cell

     iteration # 90     ecut=    60.00 Ry     beta= 0.30
     Davidson diagonalization with overlap
     ethr =  9.70E-13,  avg # of iterations =  3.1

     total cpu time spent up to now is    17496.4 secs

     total energy              =   -4457.63549275 Ry
     estimated scf accuracy    <          1.4E-09 Ry

     total magnetization       =    10.99 Bohr mag/cell
     absolute magnetization    =    12.51 Bohr mag/cell

     iteration # 91     ecut=    60.00 Ry     beta= 0.30
     Davidson diagonalization with overlap
     ethr =  5.79E-13,  avg # of iterations =  5.4

     total cpu time spent up to now is    17541.9 secs

     total energy              =   -4457.63549275 Ry
     estimated scf accuracy    <          2.0E-09 Ry

     total magnetization       =    10.99 Bohr mag/cell
     absolute magnetization    =    12.51 Bohr mag/cell

     iteration # 92     ecut=    60.00 Ry     beta= 0.30
     Davidson diagonalization with overlap
     ethr =  5.79E-13,  avg # of iterations =  1.1

     total cpu time spent up to now is    17576.8 secs

     total energy              =   -4457.63549275 Ry
     estimated scf accuracy    <          7.5E-10 Ry

     total magnetization       =    10.99 Bohr mag/cell
     absolute magnetization    =    12.51 Bohr mag/cell

     iteration # 93     ecut=    60.00 Ry     beta= 0.30
     Davidson diagonalization with overlap
     ethr =  3.19E-13,  avg # of iterations =  1.1

     total cpu time spent up to now is    17610.9 secs

     total energy              =   -4457.63549275 Ry
     estimated scf accuracy    <          7.2E-10 Ry

     total magnetization       =    10.99 Bohr mag/cell
     absolute magnetization    =    12.51 Bohr mag/cell

     iteration # 94     ecut=    60.00 Ry     beta= 0.30
     Davidson diagonalization with overlap
     ethr =  3.04E-13,  avg # of iterations =  1.1

     total cpu time spent up to now is    17645.6 secs

     total energy              =   -4457.63549275 Ry
     estimated scf accuracy    <          1.1E-09 Ry

     total magnetization       =    10.99 Bohr mag/cell
     absolute magnetization    =    12.51 Bohr mag/cell

     iteration # 95     ecut=    60.00 Ry     beta= 0.30
     Davidson diagonalization with overlap
     ethr =  3.04E-13,  avg # of iterations =  1.6

     total cpu time spent up to now is    17681.7 secs

     total energy              =   -4457.63549275 Ry
     estimated scf accuracy    <          1.3E-09 Ry

     total magnetization       =    10.99 Bohr mag/cell
     absolute magnetization    =    12.51 Bohr mag/cell

     iteration # 96     ecut=    60.00 Ry     beta= 0.30
     Davidson diagonalization with overlap
     ethr =  3.04E-13,  avg # of iterations =  2.4

     total cpu time spent up to now is    17720.2 secs

     total energy              =   -4457.63549275 Ry
     estimated scf accuracy    <          2.1E-09 Ry

     total magnetization       =    10.99 Bohr mag/cell
     absolute magnetization    =    12.51 Bohr mag/cell

     iteration # 97     ecut=    60.00 Ry     beta= 0.30
     Davidson diagonalization with overlap
     ethr =  3.04E-13,  avg # of iterations =  5.3

     total cpu time spent up to now is    17765.4 secs

     total energy              =   -4457.63549275 Ry
     estimated scf accuracy    <          1.7E-09 Ry

     total magnetization       =    10.99 Bohr mag/cell
     absolute magnetization    =    12.51 Bohr mag/cell

     iteration # 98     ecut=    60.00 Ry     beta= 0.30
     Davidson diagonalization with overlap
     ethr =  3.04E-13,  avg # of iterations =  4.9

     total cpu time spent up to now is    17809.6 secs

     total energy              =   -4457.63549275 Ry
     estimated scf accuracy    <          2.3E-09 Ry

     total magnetization       =    10.99 Bohr mag/cell
     absolute magnetization    =    12.51 Bohr mag/cell

     iteration # 99     ecut=    60.00 Ry     beta= 0.30
     Davidson diagonalization with overlap
     ethr =  3.04E-13,  avg # of iterations =  5.0

     total cpu time spent up to now is    17853.5 secs

     total energy              =   -4457.63549275 Ry
     estimated scf accuracy    <          2.9E-09 Ry

     total magnetization       =    10.99 Bohr mag/cell
     absolute magnetization    =    12.51 Bohr mag/cell

     iteration #100     ecut=    60.00 Ry     beta= 0.30
     Davidson diagonalization with overlap
     ethr =  3.04E-13,  avg # of iterations =  4.9

     total cpu time spent up to now is    17897.8 secs

     total energy              =   -4457.63549275 Ry
     estimated scf accuracy    <          2.1E-09 Ry

     total magnetization       =    10.99 Bohr mag/cell
     absolute magnetization    =    12.51 Bohr mag/cell

     iteration #101     ecut=    60.00 Ry     beta= 0.30
     Davidson diagonalization with overlap
     ethr =  3.04E-13,  avg # of iterations =  2.8

     total cpu time spent up to now is    17936.6 secs

     total energy              =   -4457.63549275 Ry
     estimated scf accuracy    <          1.2E-09 Ry

     total magnetization       =    10.99 Bohr mag/cell
     absolute magnetization    =    12.51 Bohr mag/cell

     iteration #102     ecut=    60.00 Ry     beta= 0.30
     Davidson diagonalization with overlap
     ethr =  3.04E-13,  avg # of iterations =  1.6

     total cpu time spent up to now is    17973.1 secs

     total energy              =   -4457.63549275 Ry
     estimated scf accuracy    <          7.7E-10 Ry

     total magnetization       =    10.99 Bohr mag/cell
     absolute magnetization    =    12.51 Bohr mag/cell

     iteration #103     ecut=    60.00 Ry     beta= 0.30
     Davidson diagonalization with overlap
     ethr =  3.04E-13,  avg # of iterations =  1.4

     total cpu time spent up to now is    18009.4 secs

     total energy              =   -4457.63549275 Ry
     estimated scf accuracy    <          7.4E-10 Ry

     total magnetization       =    10.99 Bohr mag/cell
     absolute magnetization    =    12.51 Bohr mag/cell

     iteration #104     ecut=    60.00 Ry     beta= 0.30
     Davidson diagonalization with overlap
     ethr =  3.04E-13,  avg # of iterations =  5.8

     total cpu time spent up to now is    18056.4 secs

     total energy              =   -4457.63549275 Ry
     estimated scf accuracy    <          1.5E-09 Ry

     total magnetization       =    10.99 Bohr mag/cell
     absolute magnetization    =    12.51 Bohr mag/cell

     iteration #105     ecut=    60.00 Ry     beta= 0.30
     Davidson diagonalization with overlap
     ethr =  3.04E-13,  avg # of iterations =  5.0

     total cpu time spent up to now is    18100.6 secs

     total energy              =   -4457.63549275 Ry
     estimated scf accuracy    <          1.3E-09 Ry

     total magnetization       =    10.99 Bohr mag/cell
     absolute magnetization    =    12.51 Bohr mag/cell

     iteration #106     ecut=    60.00 Ry     beta= 0.30
     Davidson diagonalization with overlap
     ethr =  3.04E-13,  avg # of iterations =  1.4

     total cpu time spent up to now is    18136.3 secs

     total energy              =   -4457.63549275 Ry
     estimated scf accuracy    <          8.9E-10 Ry

     total magnetization       =    10.99 Bohr mag/cell
     absolute magnetization    =    12.51 Bohr mag/cell

     iteration #107     ecut=    60.00 Ry     beta= 0.30
     Davidson diagonalization with overlap
     ethr =  3.04E-13,  avg # of iterations =  1.0

     total cpu time spent up to now is    18170.8 secs

     total energy              =   -4457.63549275 Ry
     estimated scf accuracy    <          5.5E-10 Ry

     total magnetization       =    10.99 Bohr mag/cell
     absolute magnetization    =    12.51 Bohr mag/cell

     iteration #108     ecut=    60.00 Ry     beta= 0.30
     Davidson diagonalization with overlap
     ethr =  2.32E-13,  avg # of iterations =  5.4

     total cpu time spent up to now is    18216.6 secs

     total energy              =   -4457.63549275 Ry
     estimated scf accuracy    <          9.0E-10 Ry

     total magnetization       =    10.99 Bohr mag/cell
     absolute magnetization    =    12.51 Bohr mag/cell

     iteration #109     ecut=    60.00 Ry     beta= 0.30
     Davidson diagonalization with overlap
     ethr =  2.32E-13,  avg # of iterations =  5.2

     total cpu time spent up to now is    18261.3 secs

     total energy              =   -4457.63549275 Ry
     estimated scf accuracy    <          6.4E-10 Ry

     total magnetization       =    10.99 Bohr mag/cell
     absolute magnetization    =    12.51 Bohr mag/cell

     iteration #110     ecut=    60.00 Ry     beta= 0.30
     Davidson diagonalization with overlap
     ethr =  2.32E-13,  avg # of iterations =  5.4

     total cpu time spent up to now is    18308.8 secs

     total energy              =   -4457.63549275 Ry
     estimated scf accuracy    <          5.8E-10 Ry

     total magnetization       =    10.99 Bohr mag/cell
     absolute magnetization    =    12.51 Bohr mag/cell

     iteration #111     ecut=    60.00 Ry     beta= 0.30
     Davidson diagonalization with overlap
     ethr =  2.32E-13,  avg # of iterations =  3.9

     total cpu time spent up to now is    18351.7 secs

     total energy              =   -4457.63549275 Ry
     estimated scf accuracy    <          4.0E-09 Ry

     total magnetization       =    10.99 Bohr mag/cell
     absolute magnetization    =    12.51 Bohr mag/cell

     iteration #112     ecut=    60.00 Ry     beta= 0.30
     Davidson diagonalization with overlap
     ethr =  2.32E-13,  avg # of iterations =  6.2

     total cpu time spent up to now is    18402.1 secs

     total energy              =   -4457.63549275 Ry
     estimated scf accuracy    <          3.8E-10 Ry

     total magnetization       =    10.99 Bohr mag/cell
     absolute magnetization    =    12.51 Bohr mag/cell

     iteration #113     ecut=    60.00 Ry     beta= 0.30
     Davidson diagonalization with overlap
     ethr =  1.63E-13,  avg # of iterations =  1.9

     total cpu time spent up to now is    18438.0 secs

     total energy              =   -4457.63549275 Ry
     estimated scf accuracy    <          2.8E-10 Ry

     total magnetization       =    10.99 Bohr mag/cell
     absolute magnetization    =    12.51 Bohr mag/cell

     iteration #114     ecut=    60.00 Ry     beta= 0.30
     Davidson diagonalization with overlap
     ethr =  1.17E-13,  avg # of iterations =  4.4

     total cpu time spent up to now is    18480.3 secs

     total energy              =   -4457.63549275 Ry
     estimated scf accuracy    <          8.6E-10 Ry

     total magnetization       =    10.99 Bohr mag/cell
     absolute magnetization    =    12.51 Bohr mag/cell

     iteration #115     ecut=    60.00 Ry     beta= 0.30
     Davidson diagonalization with overlap
     ethr =  1.17E-13,  avg # of iterations =  3.2

     total cpu time spent up to now is    18520.4 secs

     total energy              =   -4457.63549275 Ry
     estimated scf accuracy    <          6.4E-10 Ry

     total magnetization       =    10.99 Bohr mag/cell
     absolute magnetization    =    12.51 Bohr mag/cell

     iteration #116     ecut=    60.00 Ry     beta= 0.30
     Davidson diagonalization with overlap
     ethr =  1.17E-13,  avg # of iterations =  5.9

     total cpu time spent up to now is    18570.3 secs

     total energy              =   -4457.63549275 Ry
     estimated scf accuracy    <          4.1E-10 Ry

     total magnetization       =    10.99 Bohr mag/cell
     absolute magnetization    =    12.51 Bohr mag/cell

     iteration #117     ecut=    60.00 Ry     beta= 0.30
     Davidson diagonalization with overlap
     ethr =  1.17E-13,  avg # of iterations =  1.0

     total cpu time spent up to now is    18605.3 secs

     total energy              =   -4457.63549275 Ry
     estimated scf accuracy    <          3.2E-10 Ry

     total magnetization       =    10.99 Bohr mag/cell
     absolute magnetization    =    12.51 Bohr mag/cell

     iteration #118     ecut=    60.00 Ry     beta= 0.30
     Davidson diagonalization with overlap
     ethr =  1.17E-13,  avg # of iterations =  1.0

     total cpu time spent up to now is    18639.9 secs

     total energy              =   -4457.63549275 Ry
     estimated scf accuracy    <          4.3E-10 Ry

     total magnetization       =    10.99 Bohr mag/cell
     absolute magnetization    =    12.51 Bohr mag/cell

     iteration #119     ecut=    60.00 Ry     beta= 0.30
     Davidson diagonalization with overlap
     ethr =  1.17E-13,  avg # of iterations =  5.5

     total cpu time spent up to now is    18690.0 secs

     total energy              =   -4457.63549275 Ry
     estimated scf accuracy    <          3.6E-10 Ry

     total magnetization       =    10.99 Bohr mag/cell
     absolute magnetization    =    12.51 Bohr mag/cell

     iteration #120     ecut=    60.00 Ry     beta= 0.30
     Davidson diagonalization with overlap
     ethr =  1.17E-13,  avg # of iterations =  5.3

     total cpu time spent up to now is    18737.6 secs

     total energy              =   -4457.63549275 Ry
     estimated scf accuracy    <          4.9E-10 Ry

     total magnetization       =    10.99 Bohr mag/cell
     absolute magnetization    =    12.51 Bohr mag/cell

     iteration #121     ecut=    60.00 Ry     beta= 0.30
     Davidson diagonalization with overlap
     ethr =  1.17E-13,  avg # of iterations =  4.9

     total cpu time spent up to now is    18780.4 secs

     total energy              =   -4457.63549275 Ry
     estimated scf accuracy    <          3.3E-10 Ry

     total magnetization       =    10.99 Bohr mag/cell
     absolute magnetization    =    12.51 Bohr mag/cell

     iteration #122     ecut=    60.00 Ry     beta= 0.30
     Davidson diagonalization with overlap
     ethr =  1.17E-13,  avg # of iterations =  6.2

     total cpu time spent up to now is    18831.5 secs

     total energy              =   -4457.63549275 Ry
     estimated scf accuracy    <          1.2E-09 Ry

     total magnetization       =    10.99 Bohr mag/cell
     absolute magnetization    =    12.51 Bohr mag/cell

     iteration #123     ecut=    60.00 Ry     beta= 0.30
     Davidson diagonalization with overlap
     ethr =  1.17E-13,  avg # of iterations =  6.5

     total cpu time spent up to now is    18883.2 secs

     total energy              =   -4457.63549275 Ry
     estimated scf accuracy    <          9.4E-10 Ry

     total magnetization       =    10.99 Bohr mag/cell
     absolute magnetization    =    12.51 Bohr mag/cell

     iteration #124     ecut=    60.00 Ry     beta= 0.30
     Davidson diagonalization with overlap
     ethr =  1.17E-13,  avg # of iterations =  2.5

     total cpu time spent up to now is    18921.7 secs

     total energy              =   -4457.63549275 Ry
     estimated scf accuracy    <          2.9E-10 Ry

     total magnetization       =    10.99 Bohr mag/cell
     absolute magnetization    =    12.51 Bohr mag/cell

     iteration #125     ecut=    60.00 Ry     beta= 0.30
     Davidson diagonalization with overlap
     ethr =  1.17E-13,  avg # of iterations =  3.4

     total cpu time spent up to now is    18960.8 secs

     total energy              =   -4457.63549275 Ry
     estimated scf accuracy    <          3.0E-10 Ry

     total magnetization       =    10.99 Bohr mag/cell
     absolute magnetization    =    12.51 Bohr mag/cell

     iteration #126     ecut=    60.00 Ry     beta= 0.30
     Davidson diagonalization with overlap
     ethr =  1.17E-13,  avg # of iterations =  4.1

     total cpu time spent up to now is    19002.9 secs

     total energy              =   -4457.63549275 Ry
     estimated scf accuracy    <          8.8E-10 Ry

     total magnetization       =    10.99 Bohr mag/cell
     absolute magnetization    =    12.51 Bohr mag/cell

     iteration #127     ecut=    60.00 Ry     beta= 0.30
     Davidson diagonalization with overlap
     ethr =  1.17E-13,  avg # of iterations =  4.0

     total cpu time spent up to now is    19044.7 secs

     total energy              =   -4457.63549275 Ry
     estimated scf accuracy    <          4.1E-10 Ry

     total magnetization       =    10.99 Bohr mag/cell
     absolute magnetization    =    12.51 Bohr mag/cell

     iteration #128     ecut=    60.00 Ry     beta= 0.30
     Davidson diagonalization with overlap
     ethr =  1.17E-13,  avg # of iterations =  3.3

     total cpu time spent up to now is    19084.1 secs

     total energy              =   -4457.63549275 Ry
     estimated scf accuracy    <          4.4E-10 Ry

     total magnetization       =    10.99 Bohr mag/cell
     absolute magnetization    =    12.51 Bohr mag/cell

     iteration #129     ecut=    60.00 Ry     beta= 0.30
     Davidson diagonalization with overlap
     ethr =  1.17E-13,  avg # of iterations =  1.1

     total cpu time spent up to now is    19119.3 secs

     total energy              =   -4457.63549275 Ry
     estimated scf accuracy    <          2.8E-10 Ry

     total magnetization       =    10.99 Bohr mag/cell
     absolute magnetization    =    12.51 Bohr mag/cell

     iteration #130     ecut=    60.00 Ry     beta= 0.30
     Davidson diagonalization with overlap
     ethr =  1.17E-13,  avg # of iterations =  1.3

     total cpu time spent up to now is    19155.5 secs

     total energy              =   -4457.63549275 Ry
     estimated scf accuracy    <          2.8E-10 Ry

     total magnetization       =    10.99 Bohr mag/cell
     absolute magnetization    =    12.51 Bohr mag/cell

     iteration #131     ecut=    60.00 Ry     beta= 0.30
     Davidson diagonalization with overlap
     ethr =  1.17E-13,  avg # of iterations =  1.0

     total cpu time spent up to now is    19190.2 secs

     total energy              =   -4457.63549275 Ry
     estimated scf accuracy    <          2.5E-10 Ry

     total magnetization       =    10.99 Bohr mag/cell
     absolute magnetization    =    12.51 Bohr mag/cell

     iteration #132     ecut=    60.00 Ry     beta= 0.30
     Davidson diagonalization with overlap
     ethr =  1.08E-13,  avg # of iterations =  6.2

     total cpu time spent up to now is    19242.8 secs

     total energy              =   -4457.63549275 Ry
     estimated scf accuracy    <          7.0E-10 Ry

     total magnetization       =    10.99 Bohr mag/cell
     absolute magnetization    =    12.51 Bohr mag/cell

     iteration #133     ecut=    60.00 Ry     beta= 0.30
     Davidson diagonalization with overlap
     ethr =  1.08E-13,  avg # of iterations =  7.6

     total cpu time spent up to now is    19299.9 secs

     total energy              =   -4457.63549275 Ry
     estimated scf accuracy    <          5.4E-10 Ry

     total magnetization       =    10.99 Bohr mag/cell
     absolute magnetization    =    12.51 Bohr mag/cell

     iteration #134     ecut=    60.00 Ry     beta= 0.30
     Davidson diagonalization with overlap
     ethr =  1.08E-13,  avg # of iterations =  8.3

     total cpu time spent up to now is    19361.6 secs

     total energy              =   -4457.63549275 Ry
     estimated scf accuracy    <          5.0E-10 Ry

     total magnetization       =    10.99 Bohr mag/cell
     absolute magnetization    =    12.51 Bohr mag/cell

     iteration #135     ecut=    60.00 Ry     beta= 0.30
     Davidson diagonalization with overlap
     ethr =  1.08E-13,  avg # of iterations =  1.2

     total cpu time spent up to now is    19396.5 secs

     total energy              =   -4457.63549275 Ry
     estimated scf accuracy    <          3.1E-10 Ry

     total magnetization       =    10.99 Bohr mag/cell
     absolute magnetization    =    12.51 Bohr mag/cell

     iteration #136     ecut=    60.00 Ry     beta= 0.30
     Davidson diagonalization with overlap
     ethr =  1.08E-13,  avg # of iterations =  8.5

     total cpu time spent up to now is    19458.3 secs

     total energy              =   -4457.63549275 Ry
     estimated scf accuracy    <          1.0E-09 Ry

     total magnetization       =    10.99 Bohr mag/cell
     absolute magnetization    =    12.51 Bohr mag/cell

     iteration #137     ecut=    60.00 Ry     beta= 0.30
     Davidson diagonalization with overlap
     ethr =  1.08E-13,  avg # of iterations =  5.4

     total cpu time spent up to now is    19508.4 secs

     total energy              =   -4457.63549275 Ry
     estimated scf accuracy    <          5.9E-10 Ry

     total magnetization       =    10.99 Bohr mag/cell
     absolute magnetization    =    12.51 Bohr mag/cell

     iteration #138     ecut=    60.00 Ry     beta= 0.30
     Davidson diagonalization with overlap
     ethr =  1.08E-13,  avg # of iterations =  5.3

     total cpu time spent up to now is    19557.2 secs

     total energy              =   -4457.63549275 Ry
     estimated scf accuracy    <          1.6E-09 Ry

     total magnetization       =    10.99 Bohr mag/cell
     absolute magnetization    =    12.51 Bohr mag/cell

     iteration #139     ecut=    60.00 Ry     beta= 0.30
     Davidson diagonalization with overlap
     ethr =  1.08E-13,  avg # of iterations =  5.3

     total cpu time spent up to now is    19602.2 secs

     total energy              =   -4457.63549275 Ry
     estimated scf accuracy    <          6.8E-10 Ry

     total magnetization       =    10.99 Bohr mag/cell
     absolute magnetization    =    12.51 Bohr mag/cell

     iteration #140     ecut=    60.00 Ry     beta= 0.30
     Davidson diagonalization with overlap
     ethr =  1.08E-13,  avg # of iterations =  5.3

     total cpu time spent up to now is    19648.9 secs

     total energy              =   -4457.63549275 Ry
     estimated scf accuracy    <          4.8E-10 Ry

     total magnetization       =    10.99 Bohr mag/cell
     absolute magnetization    =    12.51 Bohr mag/cell

     iteration #141     ecut=    60.00 Ry     beta= 0.30
     Davidson diagonalization with overlap
     ethr =  1.08E-13,  avg # of iterations =  1.0

     total cpu time spent up to now is    19683.3 secs

     total energy              =   -4457.63549275 Ry
     estimated scf accuracy    <          2.3E-10 Ry

     total magnetization       =    10.99 Bohr mag/cell
     absolute magnetization    =    12.51 Bohr mag/cell

     iteration #142     ecut=    60.00 Ry     beta= 0.30
     Davidson diagonalization with overlap
     ethr =  1.00E-13,  avg # of iterations =  2.9

     total cpu time spent up to now is    19722.9 secs

     total energy              =   -4457.63549275 Ry
     estimated scf accuracy    <          3.6E-10 Ry

     total magnetization       =    10.99 Bohr mag/cell
     absolute magnetization    =    12.51 Bohr mag/cell

     iteration #143     ecut=    60.00 Ry     beta= 0.30
     Davidson diagonalization with overlap
     ethr =  1.00E-13,  avg # of iterations =  4.4

     total cpu time spent up to now is    19765.4 secs

     total energy              =   -4457.63549275 Ry
     estimated scf accuracy    <          5.3E-10 Ry

     total magnetization       =    10.99 Bohr mag/cell
     absolute magnetization    =    12.51 Bohr mag/cell

     iteration #144     ecut=    60.00 Ry     beta= 0.30
     Davidson diagonalization with overlap
     ethr =  1.00E-13,  avg # of iterations =  1.3

     total cpu time spent up to now is    19800.4 secs

     total energy              =   -4457.63549275 Ry
     estimated scf accuracy    <          3.7E-10 Ry

     total magnetization       =    10.99 Bohr mag/cell
     absolute magnetization    =    12.51 Bohr mag/cell

     iteration #145     ecut=    60.00 Ry     beta= 0.30
     Davidson diagonalization with overlap
     ethr =  1.00E-13,  avg # of iterations =  5.1

     total cpu time spent up to now is    19845.1 secs

     total energy              =   -4457.63549275 Ry
     estimated scf accuracy    <          4.6E-10 Ry

     total magnetization       =    10.99 Bohr mag/cell
     absolute magnetization    =    12.51 Bohr mag/cell

     iteration #146     ecut=    60.00 Ry     beta= 0.30
     Davidson diagonalization with overlap
     ethr =  1.00E-13,  avg # of iterations =  1.9

     total cpu time spent up to now is    19882.1 secs

     total energy              =   -4457.63549275 Ry
     estimated scf accuracy    <          4.5E-10 Ry

     total magnetization       =    10.99 Bohr mag/cell
     absolute magnetization    =    12.51 Bohr mag/cell

     iteration #147     ecut=    60.00 Ry     beta= 0.30
     Davidson diagonalization with overlap
     ethr =  1.00E-13,  avg # of iterations =  2.0

     total cpu time spent up to now is    19919.5 secs

     total energy              =   -4457.63549275 Ry
     estimated scf accuracy    <          4.0E-10 Ry

     total magnetization       =    10.99 Bohr mag/cell
     absolute magnetization    =    12.51 Bohr mag/cell

     iteration #148     ecut=    60.00 Ry     beta= 0.30
     Davidson diagonalization with overlap
     ethr =  1.00E-13,  avg # of iterations =  3.5

     total cpu time spent up to now is    19960.3 secs

     total energy              =   -4457.63549275 Ry
     estimated scf accuracy    <          7.4E-10 Ry

     total magnetization       =    10.99 Bohr mag/cell
     absolute magnetization    =    12.51 Bohr mag/cell

     iteration #149     ecut=    60.00 Ry     beta= 0.30
     Davidson diagonalization with overlap
     ethr =  1.00E-13,  avg # of iterations =  5.4

     total cpu time spent up to now is    20007.2 secs

     total energy              =   -4457.63549275 Ry
     estimated scf accuracy    <          1.0E-09 Ry

     total magnetization       =    10.99 Bohr mag/cell
     absolute magnetization    =    12.51 Bohr mag/cell

     iteration #150     ecut=    60.00 Ry     beta= 0.30
     Davidson diagonalization with overlap
     ethr =  1.00E-13,  avg # of iterations =  3.4

     total cpu time spent up to now is    20047.5 secs

     total energy              =   -4457.63549275 Ry
     estimated scf accuracy    <          6.6E-10 Ry

     total magnetization       =    10.99 Bohr mag/cell
     absolute magnetization    =    12.51 Bohr mag/cell

     iteration #151     ecut=    60.00 Ry     beta= 0.30
     Davidson diagonalization with overlap
     ethr =  1.00E-13,  avg # of iterations =  2.3

     total cpu time spent up to now is    20086.4 secs

     total energy              =   -4457.63549275 Ry
     estimated scf accuracy    <          3.9E-10 Ry

     total magnetization       =    10.99 Bohr mag/cell
     absolute magnetization    =    12.51 Bohr mag/cell

     iteration #152     ecut=    60.00 Ry     beta= 0.30
     Davidson diagonalization with overlap
     ethr =  1.00E-13,  avg # of iterations =  5.8

     total cpu time spent up to now is    20136.7 secs

     total energy              =   -4457.63549275 Ry
     estimated scf accuracy    <          4.7E-10 Ry

     total magnetization       =    10.99 Bohr mag/cell
     absolute magnetization    =    12.51 Bohr mag/cell

     iteration #153     ecut=    60.00 Ry     beta= 0.30
     Davidson diagonalization with overlap
     ethr =  1.00E-13,  avg # of iterations =  1.3

     total cpu time spent up to now is    20172.2 secs

     total energy              =   -4457.63549275 Ry
     estimated scf accuracy    <          2.9E-10 Ry

     total magnetization       =    10.99 Bohr mag/cell
     absolute magnetization    =    12.51 Bohr mag/cell

     iteration #154     ecut=    60.00 Ry     beta= 0.30
     Davidson diagonalization with overlap
     ethr =  1.00E-13,  avg # of iterations =  5.1

     total cpu time spent up to now is    20215.9 secs

     total energy              =   -4457.63549275 Ry
     estimated scf accuracy    <          2.9E-10 Ry

     total magnetization       =    10.99 Bohr mag/cell
     absolute magnetization    =    12.51 Bohr mag/cell

     iteration #155     ecut=    60.00 Ry     beta= 0.30
     Davidson diagonalization with overlap
     ethr =  1.00E-13,  avg # of iterations =  4.5

     total cpu time spent up to now is    20258.6 secs

     total energy              =   -4457.63549275 Ry
     estimated scf accuracy    <          5.7E-10 Ry

     total magnetization       =    10.99 Bohr mag/cell
     absolute magnetization    =    12.51 Bohr mag/cell

     iteration #156     ecut=    60.00 Ry     beta= 0.30
     Davidson diagonalization with overlap
     ethr =  1.00E-13,  avg # of iterations =  1.2

     total cpu time spent up to now is    20294.3 secs

     total energy              =   -4457.63549275 Ry
     estimated scf accuracy    <          2.1E-10 Ry

     total magnetization       =    10.99 Bohr mag/cell
     absolute magnetization    =    12.51 Bohr mag/cell

     iteration #157     ecut=    60.00 Ry     beta= 0.30
     Davidson diagonalization with overlap
     ethr =  1.00E-13,  avg # of iterations =  1.1

     total cpu time spent up to now is    20329.3 secs

     total energy              =   -4457.63549275 Ry
     estimated scf accuracy    <          2.1E-10 Ry

     total magnetization       =    10.99 Bohr mag/cell
     absolute magnetization    =    12.51 Bohr mag/cell

     iteration #158     ecut=    60.00 Ry     beta= 0.30
     Davidson diagonalization with overlap
     ethr =  1.00E-13,  avg # of iterations =  1.0

     total cpu time spent up to now is    20363.9 secs

     total energy              =   -4457.63549275 Ry
     estimated scf accuracy    <          2.3E-10 Ry

     total magnetization       =    10.99 Bohr mag/cell
     absolute magnetization    =    12.51 Bohr mag/cell

     iteration #159     ecut=    60.00 Ry     beta= 0.30
     Davidson diagonalization with overlap
     ethr =  1.00E-13,  avg # of iterations =  1.0

     total cpu time spent up to now is    20398.2 secs

     total energy              =   -4457.63549275 Ry
     estimated scf accuracy    <          2.0E-10 Ry

     total magnetization       =    10.99 Bohr mag/cell
     absolute magnetization    =    12.51 Bohr mag/cell

     iteration #160     ecut=    60.00 Ry     beta= 0.30
     Davidson diagonalization with overlap
     ethr =  1.00E-13,  avg # of iterations =  2.0

     total cpu time spent up to now is    20435.2 secs

     total energy              =   -4457.63549275 Ry
     estimated scf accuracy    <          4.0E-10 Ry

     total magnetization       =    10.99 Bohr mag/cell
     absolute magnetization    =    12.51 Bohr mag/cell

     iteration #161     ecut=    60.00 Ry     beta= 0.30
     Davidson diagonalization with overlap
     ethr =  1.00E-13,  avg # of iterations =  1.5

     total cpu time spent up to now is    20470.7 secs

     total energy              =   -4457.63549275 Ry
     estimated scf accuracy    <          2.1E-10 Ry

     total magnetization       =    10.99 Bohr mag/cell
     absolute magnetization    =    12.51 Bohr mag/cell

     iteration #162     ecut=    60.00 Ry     beta= 0.30
     Davidson diagonalization with overlap
     ethr =  1.00E-13,  avg # of iterations =  1.1

     total cpu time spent up to now is    20505.3 secs

     total energy              =   -4457.63549275 Ry
     estimated scf accuracy    <          1.8E-10 Ry

     total magnetization       =    10.99 Bohr mag/cell
     absolute magnetization    =    12.51 Bohr mag/cell

     iteration #163     ecut=    60.00 Ry     beta= 0.30
     Davidson diagonalization with overlap
     ethr =  1.00E-13,  avg # of iterations =  3.7

     total cpu time spent up to now is    20546.1 secs

     total energy              =   -4457.63549275 Ry
     estimated scf accuracy    <          2.8E-10 Ry

     total magnetization       =    10.99 Bohr mag/cell
     absolute magnetization    =    12.51 Bohr mag/cell

     iteration #164     ecut=    60.00 Ry     beta= 0.30
     Davidson diagonalization with overlap
     ethr =  1.00E-13,  avg # of iterations =  5.7

     total cpu time spent up to now is    20595.9 secs

     total energy              =   -4457.63549275 Ry
     estimated scf accuracy    <          6.4E-10 Ry

     total magnetization       =    10.99 Bohr mag/cell
     absolute magnetization    =    12.51 Bohr mag/cell

     iteration #165     ecut=    60.00 Ry     beta= 0.30
     Davidson diagonalization with overlap
     ethr =  1.00E-13,  avg # of iterations =  9.9

     total cpu time spent up to now is    20663.3 secs

     total energy              =   -4457.63549275 Ry
     estimated scf accuracy    <          2.0E-09 Ry

     total magnetization       =    10.99 Bohr mag/cell
     absolute magnetization    =    12.51 Bohr mag/cell

     iteration #166     ecut=    60.00 Ry     beta= 0.30
     Davidson diagonalization with overlap
     ethr =  1.00E-13,  avg # of iterations =  9.0

     total cpu time spent up to now is    20727.0 secs

     total energy              =   -4457.63549275 Ry
     estimated scf accuracy    <          4.5E-10 Ry

     total magnetization       =    10.99 Bohr mag/cell
     absolute magnetization    =    12.51 Bohr mag/cell

     iteration #167     ecut=    60.00 Ry     beta= 0.30
     Davidson diagonalization with overlap
     ethr =  1.00E-13,  avg # of iterations =  5.6

     total cpu time spent up to now is    20776.9 secs

     total energy              =   -4457.63549275 Ry
     estimated scf accuracy    <          2.8E-10 Ry

     total magnetization       =    10.99 Bohr mag/cell
     absolute magnetization    =    12.51 Bohr mag/cell

     iteration #168     ecut=    60.00 Ry     beta= 0.30
     Davidson diagonalization with overlap
     ethr =  1.00E-13,  avg # of iterations =  1.1

     total cpu time spent up to now is    20811.7 secs

     total energy              =   -4457.63549275 Ry
     estimated scf accuracy    <          2.8E-10 Ry

     total magnetization       =    10.99 Bohr mag/cell
     absolute magnetization    =    12.51 Bohr mag/cell

     iteration #169     ecut=    60.00 Ry     beta= 0.30
     Davidson diagonalization with overlap
     ethr =  1.00E-13,  avg # of iterations =  2.3

     total cpu time spent up to now is    20850.0 secs

     total energy              =   -4457.63549275 Ry
     estimated scf accuracy    <          7.6E-10 Ry

     total magnetization       =    10.99 Bohr mag/cell
     absolute magnetization    =    12.51 Bohr mag/cell

     iteration #170     ecut=    60.00 Ry     beta= 0.30
     Davidson diagonalization with overlap
     ethr =  1.00E-13,  avg # of iterations =  6.9

     total cpu time spent up to now is    20904.5 secs

     total energy              =   -4457.63549275 Ry
     estimated scf accuracy    <          4.8E-10 Ry

     total magnetization       =    10.99 Bohr mag/cell
     absolute magnetization    =    12.51 Bohr mag/cell

     iteration #171     ecut=    60.00 Ry     beta= 0.30
     Davidson diagonalization with overlap
     ethr =  1.00E-13,  avg # of iterations =  3.8

     total cpu time spent up to now is    20945.9 secs

     total energy              =   -4457.63549275 Ry
     estimated scf accuracy    <          9.2E-10 Ry

     total magnetization       =    10.99 Bohr mag/cell
     absolute magnetization    =    12.51 Bohr mag/cell

     iteration #172     ecut=    60.00 Ry     beta= 0.30
     Davidson diagonalization with overlap
     ethr =  1.00E-13,  avg # of iterations =  7.5

     total cpu time spent up to now is    21002.7 secs

     total energy              =   -4457.63549275 Ry
     estimated scf accuracy    <          3.1E-09 Ry

     total magnetization       =    10.99 Bohr mag/cell
     absolute magnetization    =    12.51 Bohr mag/cell

     iteration #173     ecut=    60.00 Ry     beta= 0.30
     Davidson diagonalization with overlap
     ethr =  1.00E-13,  avg # of iterations =  5.8

     total cpu time spent up to now is    21052.7 secs

     total energy              =   -4457.63549275 Ry
     estimated scf accuracy    <          2.6E-09 Ry

     total magnetization       =    10.99 Bohr mag/cell
     absolute magnetization    =    12.51 Bohr mag/cell

     iteration #174     ecut=    60.00 Ry     beta= 0.30
     Davidson diagonalization with overlap
     ethr =  1.00E-13,  avg # of iterations =  7.1

     total cpu time spent up to now is    21109.0 secs

     total energy              =   -4457.63549275 Ry
     estimated scf accuracy    <          1.5E-09 Ry

     total magnetization       =    10.99 Bohr mag/cell
     absolute magnetization    =    12.51 Bohr mag/cell

     iteration #175     ecut=    60.00 Ry     beta= 0.30
     Davidson diagonalization with overlap
     ethr =  1.00E-13,  avg # of iterations =  5.9

     total cpu time spent up to now is    21160.4 secs

     total energy              =   -4457.63549275 Ry
     estimated scf accuracy    <          4.6E-10 Ry

     total magnetization       =    10.99 Bohr mag/cell
     absolute magnetization    =    12.51 Bohr mag/cell

     iteration #176     ecut=    60.00 Ry     beta= 0.30
     Davidson diagonalization with overlap
     ethr =  1.00E-13,  avg # of iterations =  8.6

     total cpu time spent up to now is    21222.6 secs

     total energy              =   -4457.63549275 Ry
     estimated scf accuracy    <          1.9E-09 Ry

     total magnetization       =    10.99 Bohr mag/cell
     absolute magnetization    =    12.51 Bohr mag/cell

     iteration #177     ecut=    60.00 Ry     beta= 0.30
     Davidson diagonalization with overlap
     ethr =  1.00E-13,  avg # of iterations =  5.7

     total cpu time spent up to now is    21272.4 secs

     total energy              =   -4457.63549275 Ry
     estimated scf accuracy    <          6.4E-10 Ry

     total magnetization       =    10.99 Bohr mag/cell
     absolute magnetization    =    12.51 Bohr mag/cell

     iteration #178     ecut=    60.00 Ry     beta= 0.30
     Davidson diagonalization with overlap
     ethr =  1.00E-13,  avg # of iterations =  5.1

     total cpu time spent up to now is    21319.0 secs

     total energy              =   -4457.63549275 Ry
     estimated scf accuracy    <          2.2E-10 Ry

     total magnetization       =    10.99 Bohr mag/cell
     absolute magnetization    =    12.51 Bohr mag/cell

     iteration #179     ecut=    60.00 Ry     beta= 0.30
     Davidson diagonalization with overlap
     ethr =  1.00E-13,  avg # of iterations =  5.9

     total cpu time spent up to now is    21370.2 secs

     total energy              =   -4457.63549275 Ry
     estimated scf accuracy    <          2.8E-10 Ry

     total magnetization       =    10.99 Bohr mag/cell
     absolute magnetization    =    12.51 Bohr mag/cell

     iteration #180     ecut=    60.00 Ry     beta= 0.30
     Davidson diagonalization with overlap
     ethr =  1.00E-13,  avg # of iterations =  6.0

     total cpu time spent up to now is    21421.8 secs

     total energy              =   -4457.63549275 Ry
     estimated scf accuracy    <          2.6E-10 Ry

     total magnetization       =    10.99 Bohr mag/cell
     absolute magnetization    =    12.51 Bohr mag/cell

     iteration #181     ecut=    60.00 Ry     beta= 0.30
     Davidson diagonalization with overlap
     ethr =  1.00E-13,  avg # of iterations =  8.2

     total cpu time spent up to now is    21484.4 secs

     total energy              =   -4457.63549275 Ry
     estimated scf accuracy    <          2.5E-10 Ry

     total magnetization       =    10.99 Bohr mag/cell
     absolute magnetization    =    12.51 Bohr mag/cell

     iteration #182     ecut=    60.00 Ry     beta= 0.30
     Davidson diagonalization with overlap
     ethr =  1.00E-13,  avg # of iterations =  9.5

     total cpu time spent up to now is    21550.0 secs

     total energy              =   -4457.63549275 Ry
     estimated scf accuracy    <          3.7E-10 Ry

     total magnetization       =    10.99 Bohr mag/cell
     absolute magnetization    =    12.51 Bohr mag/cell

     iteration #183     ecut=    60.00 Ry     beta= 0.30
     Davidson diagonalization with overlap
     ethr =  1.00E-13,  avg # of iterations =  5.8

     total cpu time spent up to now is    21600.7 secs

     total energy              =   -4457.63549275 Ry
     estimated scf accuracy    <          5.5E-10 Ry

     total magnetization       =    10.99 Bohr mag/cell
     absolute magnetization    =    12.51 Bohr mag/cell

     iteration #184     ecut=    60.00 Ry     beta= 0.30
     Davidson diagonalization with overlap
     ethr =  1.00E-13,  avg # of iterations =  9.8

     total cpu time spent up to now is    21666.9 secs

     total energy              =   -4457.63549275 Ry
     estimated scf accuracy    <          5.8E-10 Ry

     total magnetization       =    10.99 Bohr mag/cell
     absolute magnetization    =    12.51 Bohr mag/cell

     iteration #185     ecut=    60.00 Ry     beta= 0.30
     Davidson diagonalization with overlap
     ethr =  1.00E-13,  avg # of iterations =  7.0

     total cpu time spent up to now is    21722.4 secs

     total energy              =   -4457.63549273 Ry
     estimated scf accuracy    <          3.8E-10 Ry

     total magnetization       =    10.99 Bohr mag/cell
     absolute magnetization    =    12.51 Bohr mag/cell

     iteration #186     ecut=    60.00 Ry     beta= 0.30
     Davidson diagonalization with overlap
     ethr =  1.00E-13,  avg # of iterations = 12.1

     total cpu time spent up to now is    21799.3 secs

     total energy              =   -4457.63549276 Ry
     estimated scf accuracy    <          1.1E-09 Ry

     total magnetization       =    10.99 Bohr mag/cell
     absolute magnetization    =    12.51 Bohr mag/cell

     iteration #187     ecut=    60.00 Ry     beta= 0.30
     Davidson diagonalization with overlap
     ethr =  1.00E-13,  avg # of iterations =  8.3

     total cpu time spent up to now is    21859.8 secs

     total energy              =   -4457.63549274 Ry
     estimated scf accuracy    <          2.7E-09 Ry

     total magnetization       =    10.99 Bohr mag/cell
     absolute magnetization    =    12.51 Bohr mag/cell

     iteration #188     ecut=    60.00 Ry     beta= 0.30
     Davidson diagonalization with overlap
     ethr =  1.00E-13,  avg # of iterations = 12.1

     total cpu time spent up to now is    21936.3 secs

     total energy              =   -4457.63549274 Ry
     estimated scf accuracy    <          6.9E-10 Ry

     total magnetization       =    10.99 Bohr mag/cell
     absolute magnetization    =    12.51 Bohr mag/cell

     iteration #189     ecut=    60.00 Ry     beta= 0.30
     Davidson diagonalization with overlap
     ethr =  1.00E-13,  avg # of iterations = 11.7

     total cpu time spent up to now is    22011.3 secs

     total energy              =   -4457.63549275 Ry
     estimated scf accuracy    <          3.0E-10 Ry

     total magnetization       =    10.99 Bohr mag/cell
     absolute magnetization    =    12.51 Bohr mag/cell

     iteration #190     ecut=    60.00 Ry     beta= 0.30
     Davidson diagonalization with overlap
     ethr =  1.00E-13,  avg # of iterations = 10.8

     total cpu time spent up to now is    22081.7 secs

     total energy              =   -4457.63549276 Ry
     estimated scf accuracy    <          2.9E-10 Ry

     total magnetization       =    10.99 Bohr mag/cell
     absolute magnetization    =    12.51 Bohr mag/cell

     iteration #191     ecut=    60.00 Ry     beta= 0.30
     Davidson diagonalization with overlap
     ethr =  1.00E-13,  avg # of iterations =  5.6

     total cpu time spent up to now is    22132.3 secs

     total energy              =   -4457.63549275 Ry
     estimated scf accuracy    <          3.2E-10 Ry

     total magnetization       =    10.99 Bohr mag/cell
     absolute magnetization    =    12.51 Bohr mag/cell

     iteration #192     ecut=    60.00 Ry     beta= 0.30
     Davidson diagonalization with overlap
     ethr =  1.00E-13,  avg # of iterations =  9.7

     total cpu time spent up to now is    22199.4 secs

     total energy              =   -4457.63549276 Ry
     estimated scf accuracy    <          1.6E-10 Ry

     total magnetization       =    10.99 Bohr mag/cell
     absolute magnetization    =    12.51 Bohr mag/cell

     iteration #193     ecut=    60.00 Ry     beta= 0.30
     Davidson diagonalization with overlap
     ethr =  1.00E-13,  avg # of iterations =  5.6

     total cpu time spent up to now is    22249.2 secs

     total energy              =   -4457.63549276 Ry
     estimated scf accuracy    <          2.1E-10 Ry

     total magnetization       =    10.99 Bohr mag/cell
     absolute magnetization    =    12.51 Bohr mag/cell

     iteration #194     ecut=    60.00 Ry     beta= 0.30
     Davidson diagonalization with overlap
     ethr =  1.00E-13,  avg # of iterations =  5.0

     total cpu time spent up to now is    22297.1 secs

     total energy              =   -4457.63549276 Ry
     estimated scf accuracy    <          1.4E-10 Ry

     total magnetization       =    10.99 Bohr mag/cell
     absolute magnetization    =    12.51 Bohr mag/cell

     iteration #195     ecut=    60.00 Ry     beta= 0.30
     Davidson diagonalization with overlap
     ethr =  1.00E-13,  avg # of iterations =  6.6

     total cpu time spent up to now is    22351.6 secs

     total energy              =   -4457.63549275 Ry
     estimated scf accuracy    <          1.7E-10 Ry

     total magnetization       =    10.99 Bohr mag/cell
     absolute magnetization    =    12.51 Bohr mag/cell

     iteration #196     ecut=    60.00 Ry     beta= 0.30
     Davidson diagonalization with overlap
     ethr =  1.00E-13,  avg # of iterations = 11.1

     total cpu time spent up to now is    22422.3 secs

     total energy              =   -4457.63549276 Ry
     estimated scf accuracy    <          1.2E-10 Ry

     total magnetization       =    10.99 Bohr mag/cell
     absolute magnetization    =    12.51 Bohr mag/cell

     iteration #197     ecut=    60.00 Ry     beta= 0.30
     Davidson diagonalization with overlap
     ethr =  1.00E-13,  avg # of iterations =  6.9
 
     Magnetic moment per site  (integrated on atomic sphere of radius R)
     atom   1 (R=0.179)  charge= 12.1597  magn=  0.1153
     atom   2 (R=0.179)  charge= 14.4534  magn=  1.7272
     atom   3 (R=0.179)  charge= 14.4324  magn=  1.8521
     atom   4 (R=0.179)  charge= 12.1761  magn= -0.0217
     atom   5 (R=0.179)  charge= 12.1593  magn=  0.1151
     atom   6 (R=0.179)  charge= 14.4534  magn=  1.7272
     atom   7 (R=0.179)  charge= 12.1571  magn=  0.1251
     atom   8 (R=0.179)  charge= 12.1761  magn= -0.0217
     atom   9 (R=0.179)  charge= 12.1570  magn=  0.1254
     atom  10 (R=0.179)  charge= 12.1761  magn= -0.0217
     atom  11 (R=0.179)  charge= 12.1599  magn=  0.1148
     atom  12 (R=0.179)  charge= 14.4534  magn=  1.7272
     atom  13 (R=0.179)  charge= 14.4325  magn=  1.8521
     atom  14 (R=0.179)  charge= 12.1761  magn= -0.0217
     atom  15 (R=0.179)  charge= 12.1596  magn=  0.1146
     atom  16 (R=0.179)  charge= 14.4534  magn=  1.7272

     total cpu time spent up to now is    22476.7 secs

     End of self-consistent calculation

     Number of k-points >= 100: set verbosity='high' to print the bands.

     the Fermi energy is    19.5072 ev

!    total energy              =   -4457.63549276 Ry
     total all-electron energy =    -36290.741477 Ry
     estimated scf accuracy    <          9.4E-11 Ry
     smearing contrib. (-TS)   =      -0.00231613 Ry
     internal energy E=F+TS    =   -4457.63317662 Ry

     The total energy is F=E-TS. E is the sum of the following terms:
     one-electron contribution =   -1209.16582116 Ry
     hartree contribution      =     753.65852467 Ry
     xc contribution           =    -389.17380842 Ry
     ewald contribution        =   -2373.71708232 Ry
     one-center paw contrib.   =   -1239.23498939 Ry

     total magnetization       =    10.99 Bohr mag/cell
     absolute magnetization    =    12.51 Bohr mag/cell

     convergence has been achieved in 197 iterations

     Forces acting on atoms (cartesian axes, Ry/au):

     atom    1 type  2   force =     0.00000000    0.00000000    0.00000000
     atom    2 type  1   force =     0.00005748    0.00006946    0.00006296
     atom    3 type  1   force =     0.00000000    0.00000000    0.00000000
     atom    4 type  2   force =    -0.00001121   -0.00000196    0.00001126
     atom    5 type  2   force =     0.00000000    0.00000000    0.00000000
     atom    6 type  1   force =     0.00005748   -0.00006946    0.00006296
     atom    7 type  2   force =     0.00000000    0.00000000    0.00000000
     atom    8 type  2   force =    -0.00001121    0.00000196    0.00001126
     atom    9 type  2   force =     0.00000000    0.00000000    0.00000000
     atom   10 type  2   force =     0.00001121   -0.00000196   -0.00001126
     atom   11 type  2   force =     0.00000000    0.00000000    0.00000000
     atom   12 type  1   force =    -0.00005748    0.00006946   -0.00006296
     atom   13 type  1   force =     0.00000000    0.00000000    0.00000000
     atom   14 type  2   force =     0.00001121    0.00000196   -0.00001126
     atom   15 type  2   force =     0.00000000    0.00000000    0.00000000
     atom   16 type  1   force =    -0.00005748   -0.00006946   -0.00006296

     Total force =     0.000222     Total SCF correction =     0.000032
     SCF correction compared to forces is large: reduce conv_thr to get better values


     Computing stress (Cartesian axis) and pressure

          total   stress  (Ry/bohr**3)                   (kbar)     P=        0.92
  -0.00001789   0.00000000   0.00002582           -2.63        0.00        3.80
   0.00000000   0.00005453   0.00000000            0.00        8.02        0.00
   0.00002582   0.00000000  -0.00001787            3.80        0.00       -2.63

     Energy error            =      1.2E-03 Ry
     Gradient error          =      6.9E-05 Ry/Bohr
     Cell gradient error     =      8.0E+00 kbar

     number of scf cycles    =   3
     number of bfgs steps    =   2

     enthalpy           old  =   -4457.6342487780 Ry
     enthalpy           new  =   -4457.6354927575 Ry

     CASE: enthalpy          _new < enthalpy          _old

     new trust radius        =       0.0219057847 bohr
     new conv_thr            =            1.0E-10 Ry

     new unit-cell volume =   1223.09524 a.u.^3 (   181.24401 Ang^3 )
     density =      7.83370 g/cm^3

CELL_PARAMETERS (angstrom)
   5.628653368   0.000000000   0.060526347
   0.000000000   5.721415522   0.000000000
   0.060526376   0.000000000   5.628671477

ATOMIC_POSITIONS (crystal)
Cr               0.0000000000        0.0000000000        0.0000000000
Fe               0.2500404786        0.2500457349        0.2500419665
Fe              -0.0000000000        0.0000000000        0.5000000000
Cr               0.2499981487        0.2500010703        0.7500016871
Cr               0.0000000000        0.5000000000        0.0000000000
Fe               0.2500404786        0.7499542651        0.2500419665
Cr              -0.0000000000        0.5000000000        0.5000000000
Cr               0.2499981487        0.7499989297        0.7500016871
Cr               0.5000000000        0.0000000000       -0.0000000000
Cr               0.7500018513        0.2500010703        0.2499983129
Cr               0.5000000000        0.0000000000        0.5000000000
Fe               0.7499595214        0.2500457349        0.7499580335
Fe               0.5000000000        0.5000000000       -0.0000000000
Cr               0.7500018513        0.7499989297        0.2499983129
Cr               0.5000000000        0.5000000000        0.5000000000
Fe               0.7499595214        0.7499542651        0.7499580335



     Writing config-only to output data dir ./tmp/fecr_fe06cr10_vcr.save/ :
     XML data file
     NEW-OLD atomic charge density approx. for the potential

     Check: negative core charge=   -0.000003
     Generating pointlists ...

     total cpu time spent up to now is    22560.7 secs

     Self-consistent Calculation

     iteration #  1     ecut=    60.00 Ry     beta= 0.30
     Davidson diagonalization with overlap
     ethr =  1.00E-06,  avg # of iterations =  5.0

     Threshold (ethr) on eigenvalues was too large:
     Diagonalizing with lowered threshold

     Davidson diagonalization with overlap
     ethr =  3.56E-08,  avg # of iterations =  6.6

     total cpu time spent up to now is    22652.0 secs

     total energy              =   -4457.63568775 Ry
     estimated scf accuracy    <       0.00008537 Ry

     total magnetization       =    11.01 Bohr mag/cell
     absolute magnetization    =    12.52 Bohr mag/cell

     iteration #  2     ecut=    60.00 Ry     beta= 0.30
     Davidson diagonalization with overlap
     ethr =  3.62E-08,  avg # of iterations =  5.9

     total cpu time spent up to now is    22703.9 secs

     total energy              =   -4457.63563528 Ry
     estimated scf accuracy    <       0.00178785 Ry

     total magnetization       =    11.02 Bohr mag/cell
     absolute magnetization    =    12.53 Bohr mag/cell

     iteration #  3     ecut=    60.00 Ry     beta= 0.30
     Davidson diagonalization with overlap
     ethr =  3.62E-08,  avg # of iterations =  5.5

     total cpu time spent up to now is    22751.7 secs

     total energy              =   -4457.63570050 Ry
     estimated scf accuracy    <       0.00001747 Ry

     total magnetization       =    11.02 Bohr mag/cell
     absolute magnetization    =    12.52 Bohr mag/cell

     iteration #  4     ecut=    60.00 Ry     beta= 0.30
     Davidson diagonalization with overlap
     ethr =  7.40E-09,  avg # of iterations =  3.2

     total cpu time spent up to now is    22793.2 secs

     total energy              =   -4457.63569764 Ry
     estimated scf accuracy    <       0.00006123 Ry

     total magnetization       =    11.02 Bohr mag/cell
     absolute magnetization    =    12.53 Bohr mag/cell

     iteration #  5     ecut=    60.00 Ry     beta= 0.30
     Davidson diagonalization with overlap
     ethr =  7.40E-09,  avg # of iterations =  1.7

     total cpu time spent up to now is    22829.5 secs

     total energy              =   -4457.63570110 Ry
     estimated scf accuracy    <       0.00000592 Ry

     total magnetization       =    11.02 Bohr mag/cell
     absolute magnetization    =    12.53 Bohr mag/cell

     iteration #  6     ecut=    60.00 Ry     beta= 0.30
     Davidson diagonalization with overlap
     ethr =  2.51E-09,  avg # of iterations =  3.8

     total cpu time spent up to now is    22871.2 secs

     total energy              =   -4457.63570120 Ry
     estimated scf accuracy    <       0.00001534 Ry

     total magnetization       =    11.02 Bohr mag/cell
     absolute magnetization    =    12.53 Bohr mag/cell

     iteration #  7     ecut=    60.00 Ry     beta= 0.30
     Davidson diagonalization with overlap
     ethr =  2.51E-09,  avg # of iterations =  1.6

     total cpu time spent up to now is    22906.7 secs

     total energy              =   -4457.63570207 Ry
     estimated scf accuracy    <       0.00000100 Ry

     total magnetization       =    11.02 Bohr mag/cell
     absolute magnetization    =    12.53 Bohr mag/cell

     iteration #  8     ecut=    60.00 Ry     beta= 0.30
     Davidson diagonalization with overlap
     ethr =  4.22E-10,  avg # of iterations =  6.2

     total cpu time spent up to now is    22956.2 secs

     total energy              =   -4457.63570232 Ry
     estimated scf accuracy    <       0.00000505 Ry

     total magnetization       =    11.02 Bohr mag/cell
     absolute magnetization    =    12.53 Bohr mag/cell

     iteration #  9     ecut=    60.00 Ry     beta= 0.30
     Davidson diagonalization with overlap
     ethr =  4.22E-10,  avg # of iterations =  4.6

     total cpu time spent up to now is    22999.4 secs

     total energy              =   -4457.63570263 Ry
     estimated scf accuracy    <       0.00000051 Ry

     total magnetization       =    11.02 Bohr mag/cell
     absolute magnetization    =    12.53 Bohr mag/cell

     iteration # 10     ecut=    60.00 Ry     beta= 0.30
     Davidson diagonalization with overlap
     ethr =  2.16E-10,  avg # of iterations =  4.0

     total cpu time spent up to now is    23041.5 secs

     total energy              =   -4457.63570269 Ry
     estimated scf accuracy    <       0.00000059 Ry

     total magnetization       =    11.02 Bohr mag/cell
     absolute magnetization    =    12.53 Bohr mag/cell

     iteration # 11     ecut=    60.00 Ry     beta= 0.30
     Davidson diagonalization with overlap
     ethr =  2.16E-10,  avg # of iterations =  3.0

     total cpu time spent up to now is    23081.4 secs

     total energy              =   -4457.63570277 Ry
     estimated scf accuracy    <       0.00000027 Ry

     total magnetization       =    11.02 Bohr mag/cell
     absolute magnetization    =    12.53 Bohr mag/cell

     iteration # 12     ecut=    60.00 Ry     beta= 0.30
     Davidson diagonalization with overlap
     ethr =  1.13E-10,  avg # of iterations =  5.8

     total cpu time spent up to now is    23127.3 secs

     total energy              =   -4457.63570282 Ry
     estimated scf accuracy    <       0.00000063 Ry

     total magnetization       =    11.02 Bohr mag/cell
     absolute magnetization    =    12.53 Bohr mag/cell

     iteration # 13     ecut=    60.00 Ry     beta= 0.30
     Davidson diagonalization with overlap
     ethr =  1.13E-10,  avg # of iterations =  3.7

     total cpu time spent up to now is    23168.8 secs

     total energy              =   -4457.63570286 Ry
     estimated scf accuracy    <       0.00000012 Ry

     total magnetization       =    11.02 Bohr mag/cell
     absolute magnetization    =    12.53 Bohr mag/cell

     iteration # 14     ecut=    60.00 Ry     beta= 0.30
     Davidson diagonalization with overlap
     ethr =  5.07E-11,  avg # of iterations =  5.8

     total cpu time spent up to now is    23215.1 secs

     total energy              =   -4457.63570288 Ry
     estimated scf accuracy    <       0.00000027 Ry

     total magnetization       =    11.02 Bohr mag/cell
     absolute magnetization    =    12.53 Bohr mag/cell

     iteration # 15     ecut=    60.00 Ry     beta= 0.30
     Davidson diagonalization with overlap
     ethr =  5.07E-11,  avg # of iterations =  5.2

     total cpu time spent up to now is    23259.2 secs

     total energy              =   -4457.63570293 Ry
     estimated scf accuracy    <       0.00000006 Ry

     total magnetization       =    11.02 Bohr mag/cell
     absolute magnetization    =    12.53 Bohr mag/cell

     iteration # 16     ecut=    60.00 Ry     beta= 0.30
     Davidson diagonalization with overlap
     ethr =  2.63E-11,  avg # of iterations =  3.5

     total cpu time spent up to now is    23299.1 secs

     total energy              =   -4457.63570295 Ry
     estimated scf accuracy    <       0.00000007 Ry

     total magnetization       =    11.02 Bohr mag/cell
     absolute magnetization    =    12.53 Bohr mag/cell

     iteration # 17     ecut=    60.00 Ry     beta= 0.30
     Davidson diagonalization with overlap
     ethr =  2.63E-11,  avg # of iterations =  5.8

     total cpu time spent up to now is    23346.6 secs

     total energy              =   -4457.63570299 Ry
     estimated scf accuracy    <       0.00000008 Ry

     total magnetization       =    11.02 Bohr mag/cell
     absolute magnetization    =    12.53 Bohr mag/cell

     iteration # 18     ecut=    60.00 Ry     beta= 0.30
     Davidson diagonalization with overlap
     ethr =  2.63E-11,  avg # of iterations =  3.3

     total cpu time spent up to now is    23387.1 secs

     total energy              =   -4457.63570300 Ry
     estimated scf accuracy    <       0.00000012 Ry

     total magnetization       =    11.02 Bohr mag/cell
     absolute magnetization    =    12.53 Bohr mag/cell

     iteration # 19     ecut=    60.00 Ry     beta= 0.30
     Davidson diagonalization with overlap
     ethr =  2.63E-11,  avg # of iterations =  2.1

     total cpu time spent up to now is    23424.6 secs

     total energy              =   -4457.63570301 Ry
     estimated scf accuracy    <       0.00000004 Ry

     total magnetization       =    11.02 Bohr mag/cell
     absolute magnetization    =    12.53 Bohr mag/cell

     iteration # 20     ecut=    60.00 Ry     beta= 0.30
     Davidson diagonalization with overlap
     ethr =  1.79E-11,  avg # of iterations =  5.9

     total cpu time spent up to now is    23473.0 secs

     total energy              =   -4457.63570305 Ry
     estimated scf accuracy    <       0.00000006 Ry

     total magnetization       =    11.02 Bohr mag/cell
     absolute magnetization    =    12.53 Bohr mag/cell

     iteration # 21     ecut=    60.00 Ry     beta= 0.30
     Davidson diagonalization with overlap
     ethr =  1.79E-11,  avg # of iterations =  3.8

     total cpu time spent up to now is    23514.1 secs

     total energy              =   -4457.63570307 Ry
     estimated scf accuracy    <       0.00000003 Ry

     total magnetization       =    11.02 Bohr mag/cell
     absolute magnetization    =    12.53 Bohr mag/cell

     iteration # 22     ecut=    60.00 Ry     beta= 0.30
     Davidson diagonalization with overlap
     ethr =  1.27E-11,  avg # of iterations =  5.7

     total cpu time spent up to now is    23565.0 secs

     total energy              =   -4457.63570310 Ry
     estimated scf accuracy    <       0.00000004 Ry

     total magnetization       =    11.02 Bohr mag/cell
     absolute magnetization    =    12.53 Bohr mag/cell

     iteration # 23     ecut=    60.00 Ry     beta= 0.30
     Davidson diagonalization with overlap
     ethr =  1.27E-11,  avg # of iterations =  1.5

     total cpu time spent up to now is    23600.9 secs

     total energy              =   -4457.63570310 Ry
     estimated scf accuracy    <       0.00000003 Ry

     total magnetization       =    11.02 Bohr mag/cell
     absolute magnetization    =    12.53 Bohr mag/cell

     iteration # 24     ecut=    60.00 Ry     beta= 0.30
     Davidson diagonalization with overlap
     ethr =  1.27E-11,  avg # of iterations =  1.6

     total cpu time spent up to now is    23637.4 secs

     total energy              =   -4457.63570311 Ry
     estimated scf accuracy    <       0.00000002 Ry

     total magnetization       =    11.02 Bohr mag/cell
     absolute magnetization    =    12.53 Bohr mag/cell

     iteration # 25     ecut=    60.00 Ry     beta= 0.30
     Davidson diagonalization with overlap
     ethr =  7.62E-12,  avg # of iterations =  2.3

     total cpu time spent up to now is    23676.5 secs

     total energy              =   -4457.63570312 Ry
     estimated scf accuracy    <       0.00000003 Ry

     total magnetization       =    11.02 Bohr mag/cell
     absolute magnetization    =    12.53 Bohr mag/cell

     iteration # 26     ecut=    60.00 Ry     beta= 0.30
     Davidson diagonalization with overlap
     ethr =  7.62E-12,  avg # of iterations =  5.7

     total cpu time spent up to now is    23724.5 secs

     total energy              =   -4457.63570313 Ry
     estimated scf accuracy    <       0.00000003 Ry

     total magnetization       =    11.02 Bohr mag/cell
     absolute magnetization    =    12.53 Bohr mag/cell

     iteration # 27     ecut=    60.00 Ry     beta= 0.30
     Davidson diagonalization with overlap
     ethr =  7.62E-12,  avg # of iterations =  5.1

     total cpu time spent up to now is    23770.1 secs

     total energy              =   -4457.63570313 Ry
     estimated scf accuracy    <       0.00000005 Ry

     total magnetization       =    11.02 Bohr mag/cell
     absolute magnetization    =    12.53 Bohr mag/cell

     iteration # 28     ecut=    60.00 Ry     beta= 0.30
     Davidson diagonalization with overlap
     ethr =  7.62E-12,  avg # of iterations =  3.2

     total cpu time spent up to now is    23811.8 secs

     total energy              =   -4457.63570312 Ry
     estimated scf accuracy    <       0.00000002 Ry

     total magnetization       =    11.02 Bohr mag/cell
     absolute magnetization    =    12.53 Bohr mag/cell

     iteration # 29     ecut=    60.00 Ry     beta= 0.30
     Davidson diagonalization with overlap
     ethr =  7.02E-12,  avg # of iterations =  5.1

     total cpu time spent up to now is    23855.1 secs

     total energy              =   -4457.63570311 Ry
     estimated scf accuracy    <       0.00000002 Ry

     total magnetization       =    11.02 Bohr mag/cell
     absolute magnetization    =    12.53 Bohr mag/cell

     iteration # 30     ecut=    60.00 Ry     beta= 0.30
     Davidson diagonalization with overlap
     ethr =  7.02E-12,  avg # of iterations =  4.4

     total cpu time spent up to now is    23897.6 secs

     total energy              =   -4457.63570308 Ry
     estimated scf accuracy    <       0.00000003 Ry

     total magnetization       =    11.02 Bohr mag/cell
     absolute magnetization    =    12.53 Bohr mag/cell

     iteration # 31     ecut=    60.00 Ry     beta= 0.30
     Davidson diagonalization with overlap
     ethr =  7.02E-12,  avg # of iterations =  5.4

     total cpu time spent up to now is    23945.3 secs

     total energy              =   -4457.63570310 Ry
     estimated scf accuracy    <       0.00000002 Ry

     total magnetization       =    11.02 Bohr mag/cell
     absolute magnetization    =    12.53 Bohr mag/cell

     iteration # 32     ecut=    60.00 Ry     beta= 0.30
     Davidson diagonalization with overlap
     ethr =  7.02E-12,  avg # of iterations =  1.0

     total cpu time spent up to now is    23978.7 secs

     total energy              =   -4457.63570310 Ry
     estimated scf accuracy    <       0.00000002 Ry

     total magnetization       =    11.02 Bohr mag/cell
     absolute magnetization    =    12.53 Bohr mag/cell

     iteration # 33     ecut=    60.00 Ry     beta= 0.30
     Davidson diagonalization with overlap
     ethr =  7.02E-12,  avg # of iterations =  1.0

     total cpu time spent up to now is    24012.3 secs

     total energy              =   -4457.63570309 Ry
     estimated scf accuracy    <       0.00000002 Ry

     total magnetization       =    11.02 Bohr mag/cell
     absolute magnetization    =    12.53 Bohr mag/cell

     iteration # 34     ecut=    60.00 Ry     beta= 0.30
     Davidson diagonalization with overlap
     ethr =  7.02E-12,  avg # of iterations =  7.1

     total cpu time spent up to now is    24068.5 secs

     total energy              =   -4457.63570306 Ry
     estimated scf accuracy    <       0.00000003 Ry

     total magnetization       =    11.02 Bohr mag/cell
     absolute magnetization    =    12.53 Bohr mag/cell

     iteration # 35     ecut=    60.00 Ry     beta= 0.30
     Davidson diagonalization with overlap
     ethr =  7.02E-12,  avg # of iterations =  6.2

     total cpu time spent up to now is    24121.1 secs

     total energy              =   -4457.63570311 Ry
     estimated scf accuracy    <       0.00000003 Ry

     total magnetization       =    11.02 Bohr mag/cell
     absolute magnetization    =    12.53 Bohr mag/cell

     iteration # 36     ecut=    60.00 Ry     beta= 0.30
     Davidson diagonalization with overlap
     ethr =  7.02E-12,  avg # of iterations =  6.1

     total cpu time spent up to now is    24173.8 secs

     total energy              =   -4457.63570315 Ry
     estimated scf accuracy    <       0.00000004 Ry

     total magnetization       =    11.02 Bohr mag/cell
     absolute magnetization    =    12.53 Bohr mag/cell

     iteration # 37     ecut=    60.00 Ry     beta= 0.30
     Davidson diagonalization with overlap
     ethr =  7.02E-12,  avg # of iterations =  5.2

     total cpu time spent up to now is    24220.5 secs

     total energy              =   -4457.63570317 Ry
     estimated scf accuracy    <       0.00000002 Ry

     total magnetization       =    11.02 Bohr mag/cell
     absolute magnetization    =    12.53 Bohr mag/cell

     iteration # 38     ecut=    60.00 Ry     beta= 0.30
     Davidson diagonalization with overlap
     ethr =  7.02E-12,  avg # of iterations =  4.5

     total cpu time spent up to now is    24263.4 secs

     total energy              =   -4457.63570318 Ry
     estimated scf accuracy    <       0.00000002 Ry

     total magnetization       =    11.02 Bohr mag/cell
     absolute magnetization    =    12.53 Bohr mag/cell

     iteration # 39     ecut=    60.00 Ry     beta= 0.30
     Davidson diagonalization with overlap
     ethr =  7.02E-12,  avg # of iterations =  4.8

     total cpu time spent up to now is    24306.9 secs

     total energy              =   -4457.63570318 Ry
     estimated scf accuracy    <       0.00000003 Ry

     total magnetization       =    11.02 Bohr mag/cell
     absolute magnetization    =    12.53 Bohr mag/cell

     iteration # 40     ecut=    60.00 Ry     beta= 0.30
     Davidson diagonalization with overlap
     ethr =  7.02E-12,  avg # of iterations =  6.3

     total cpu time spent up to now is    24358.2 secs

     total energy              =   -4457.63570321 Ry
     estimated scf accuracy    <       0.00000004 Ry

     total magnetization       =    11.02 Bohr mag/cell
     absolute magnetization    =    12.53 Bohr mag/cell

     iteration # 41     ecut=    60.00 Ry     beta= 0.30
     Davidson diagonalization with overlap
     ethr =  7.02E-12,  avg # of iterations =  5.3

     total cpu time spent up to now is    24406.7 secs

     total energy              =   -4457.63570323 Ry
     estimated scf accuracy    <       0.00000002 Ry

     total magnetization       =    11.02 Bohr mag/cell
     absolute magnetization    =    12.53 Bohr mag/cell

     iteration # 42     ecut=    60.00 Ry     beta= 0.30
     Davidson diagonalization with overlap
     ethr =  7.02E-12,  avg # of iterations =  4.3

     total cpu time spent up to now is    24448.2 secs

     total energy              =   -4457.63570323 Ry
     estimated scf accuracy    <       0.00000002 Ry

     total magnetization       =    11.02 Bohr mag/cell
     absolute magnetization    =    12.53 Bohr mag/cell

     iteration # 43     ecut=    60.00 Ry     beta= 0.30
     Davidson diagonalization with overlap
     ethr =  7.02E-12,  avg # of iterations =  1.6

     total cpu time spent up to now is    24485.1 secs

     total energy              =   -4457.63570312 Ry
     estimated scf accuracy    <       0.00000002 Ry

     total magnetization       =    11.02 Bohr mag/cell
     absolute magnetization    =    12.53 Bohr mag/cell

     iteration # 44     ecut=    60.00 Ry     beta= 0.30
     Davidson diagonalization with overlap
     ethr =  7.02E-12,  avg # of iterations =  7.1

     total cpu time spent up to now is    24540.4 secs

     total energy              =   -4457.63570319 Ry
     estimated scf accuracy    <       0.00000002 Ry

     total magnetization       =    11.02 Bohr mag/cell
     absolute magnetization    =    12.53 Bohr mag/cell

     iteration # 45     ecut=    60.00 Ry     beta= 0.30
     Davidson diagonalization with overlap
     ethr =  7.02E-12,  avg # of iterations =  5.1

     total cpu time spent up to now is    24587.0 secs

     total energy              =   -4457.63570320 Ry
     estimated scf accuracy    <       0.00000001 Ry

     total magnetization       =    11.02 Bohr mag/cell
     absolute magnetization    =    12.53 Bohr mag/cell

     iteration # 46     ecut=    60.00 Ry     beta= 0.30
     Davidson diagonalization with overlap
     ethr =  5.96E-12,  avg # of iterations =  1.3

     total cpu time spent up to now is    24622.0 secs

     total energy              =   -4457.63570321 Ry
     estimated scf accuracy    <       0.00000002 Ry

     total magnetization       =    11.02 Bohr mag/cell
     absolute magnetization    =    12.53 Bohr mag/cell

     iteration # 47     ecut=    60.00 Ry     beta= 0.30
     Davidson diagonalization with overlap
     ethr =  5.96E-12,  avg # of iterations =  1.2

     total cpu time spent up to now is    24657.1 secs

     total energy              =   -4457.63570321 Ry
     estimated scf accuracy    <       0.00000002 Ry

     total magnetization       =    11.02 Bohr mag/cell
     absolute magnetization    =    12.53 Bohr mag/cell

     iteration # 48     ecut=    60.00 Ry     beta= 0.30
     Davidson diagonalization with overlap
     ethr =  5.96E-12,  avg # of iterations =  1.7

     total cpu time spent up to now is    24693.9 secs

     total energy              =   -4457.63570320 Ry
     estimated scf accuracy    <       0.00000002 Ry

     total magnetization       =    11.02 Bohr mag/cell
     absolute magnetization    =    12.53 Bohr mag/cell

     iteration # 49     ecut=    60.00 Ry     beta= 0.30
     Davidson diagonalization with overlap
     ethr =  5.96E-12,  avg # of iterations =  7.4

     total cpu time spent up to now is    24751.5 secs

     total energy              =   -4457.63570326 Ry
     estimated scf accuracy    <       0.00000003 Ry

     total magnetization       =    11.02 Bohr mag/cell
     absolute magnetization    =    12.53 Bohr mag/cell

     iteration # 50     ecut=    60.00 Ry     beta= 0.30
     Davidson diagonalization with overlap
     ethr =  5.96E-12,  avg # of iterations =  5.1

     total cpu time spent up to now is    24795.8 secs

     total energy              =   -4457.63570327 Ry
     estimated scf accuracy    <       0.00000001 Ry

     total magnetization       =    11.02 Bohr mag/cell
     absolute magnetization    =    12.53 Bohr mag/cell

     iteration # 51     ecut=    60.00 Ry     beta= 0.30
     Davidson diagonalization with overlap
     ethr =  4.97E-12,  avg # of iterations =  5.3

     total cpu time spent up to now is    24843.3 secs

     total energy              =   -4457.63570328 Ry
     estimated scf accuracy    <       0.00000005 Ry

     total magnetization       =    11.02 Bohr mag/cell
     absolute magnetization    =    12.53 Bohr mag/cell

     iteration # 52     ecut=    60.00 Ry     beta= 0.30
     Davidson diagonalization with overlap
     ethr =  4.97E-12,  avg # of iterations =  4.5

     total cpu time spent up to now is    24885.6 secs

     total energy              =   -4457.63570329 Ry
     estimated scf accuracy    <       0.00000001 Ry

     total magnetization       =    11.02 Bohr mag/cell
     absolute magnetization    =    12.53 Bohr mag/cell

     iteration # 53     ecut=    60.00 Ry     beta= 0.30
     Davidson diagonalization with overlap
     ethr =  4.97E-12,  avg # of iterations =  5.3

     total cpu time spent up to now is    24931.0 secs

     total energy              =   -4457.63570329 Ry
     estimated scf accuracy    <       0.00000004 Ry

     total magnetization       =    11.02 Bohr mag/cell
     absolute magnetization    =    12.53 Bohr mag/cell

     iteration # 54     ecut=    60.00 Ry     beta= 0.30
     Davidson diagonalization with overlap
     ethr =  4.97E-12,  avg # of iterations =  5.2

     total cpu time spent up to now is    24977.7 secs

     total energy              =   -4457.63570328 Ry
     estimated scf accuracy    <       0.00000001 Ry

     total magnetization       =    11.02 Bohr mag/cell
     absolute magnetization    =    12.53 Bohr mag/cell

     iteration # 55     ecut=    60.00 Ry     beta= 0.30
     Davidson diagonalization with overlap
     ethr =  4.97E-12,  avg # of iterations =  5.1

     total cpu time spent up to now is    25023.0 secs

     total energy              =   -4457.63570324 Ry
     estimated scf accuracy    <       0.00000002 Ry

     total magnetization       =    11.02 Bohr mag/cell
     absolute magnetization    =    12.53 Bohr mag/cell

     iteration # 56     ecut=    60.00 Ry     beta= 0.30
     Davidson diagonalization with overlap
     ethr =  4.97E-12,  avg # of iterations =  5.4

     total cpu time spent up to now is    25073.8 secs

     total energy              =   -4457.63570327 Ry
     estimated scf accuracy    <       0.00000002 Ry

     total magnetization       =    11.02 Bohr mag/cell
     absolute magnetization    =    12.53 Bohr mag/cell

     iteration # 57     ecut=    60.00 Ry     beta= 0.30
     Davidson diagonalization with overlap
     ethr =  4.97E-12,  avg # of iterations =  5.2

     total cpu time spent up to now is    25123.9 secs

     total energy              =   -4457.63570329 Ry
     estimated scf accuracy    <       0.00000003 Ry

     total magnetization       =    11.02 Bohr mag/cell
     absolute magnetization    =    12.53 Bohr mag/cell

     iteration # 58     ecut=    60.00 Ry     beta= 0.30
     Davidson diagonalization with overlap
     ethr =  4.97E-12,  avg # of iterations =  2.5

     total cpu time spent up to now is    25163.5 secs

     total energy              =   -4457.63570330 Ry
     estimated scf accuracy    <       0.00000002 Ry

     total magnetization       =    11.02 Bohr mag/cell
     absolute magnetization    =    12.53 Bohr mag/cell

     iteration # 59     ecut=    60.00 Ry     beta= 0.30
     Davidson diagonalization with overlap
     ethr =  4.97E-12,  avg # of iterations =  6.0

     total cpu time spent up to now is    25213.6 secs

     total energy              =   -4457.63570331 Ry
     estimated scf accuracy    <       0.00000002 Ry

     total magnetization       =    11.02 Bohr mag/cell
     absolute magnetization    =    12.53 Bohr mag/cell

     iteration # 60     ecut=    60.00 Ry     beta= 0.30
     Davidson diagonalization with overlap
     ethr =  4.97E-12,  avg # of iterations =  3.3

     total cpu time spent up to now is    25254.1 secs

     total energy              =   -4457.63570328 Ry
     estimated scf accuracy    <       0.00000002 Ry

     total magnetization       =    11.02 Bohr mag/cell
     absolute magnetization    =    12.53 Bohr mag/cell

     iteration # 61     ecut=    60.00 Ry     beta= 0.30
     Davidson diagonalization with overlap
     ethr =  4.97E-12,  avg # of iterations =  8.1

     total cpu time spent up to now is    25314.6 secs

     total energy              =   -4457.63570317 Ry
     estimated scf accuracy    <       0.00000003 Ry

     total magnetization       =    11.02 Bohr mag/cell
     absolute magnetization    =    12.52 Bohr mag/cell

     iteration # 62     ecut=    60.00 Ry     beta= 0.30
     Davidson diagonalization with overlap
     ethr =  4.97E-12,  avg # of iterations = 10.9

     total cpu time spent up to now is    25384.6 secs

     total energy              =   -4457.63570344 Ry
     estimated scf accuracy    <       0.00000004 Ry

     total magnetization       =    11.02 Bohr mag/cell
     absolute magnetization    =    12.52 Bohr mag/cell

     iteration # 63     ecut=    60.00 Ry     beta= 0.30
     Davidson diagonalization with overlap
     ethr =  4.97E-12,  avg # of iterations =  5.4

     total cpu time spent up to now is    25432.9 secs

     total energy              =   -4457.63570325 Ry
     estimated scf accuracy    <       0.00000002 Ry

     total magnetization       =    11.02 Bohr mag/cell
     absolute magnetization    =    12.52 Bohr mag/cell

     iteration # 64     ecut=    60.00 Ry     beta= 0.30
     Davidson diagonalization with overlap
     ethr =  4.97E-12,  avg # of iterations =  8.8

     total cpu time spent up to now is    25496.4 secs

     total energy              =   -4457.63570340 Ry
     estimated scf accuracy    <       0.00000002 Ry

     total magnetization       =    11.02 Bohr mag/cell
     absolute magnetization    =    12.52 Bohr mag/cell

     iteration # 65     ecut=    60.00 Ry     beta= 0.30
     Davidson diagonalization with overlap
     ethr =  4.97E-12,  avg # of iterations =  1.0

     total cpu time spent up to now is    25530.2 secs

     total energy              =   -4457.63570308 Ry
     estimated scf accuracy    <       0.00000001 Ry

     total magnetization       =    11.02 Bohr mag/cell
     absolute magnetization    =    12.52 Bohr mag/cell

     iteration # 66     ecut=    60.00 Ry     beta= 0.30
     Davidson diagonalization with overlap
     ethr =  4.97E-12,  avg # of iterations = 10.5

     total cpu time spent up to now is    25598.7 secs

     total energy              =   -4457.63570332 Ry
     estimated scf accuracy    <       0.00000004 Ry

     total magnetization       =    11.02 Bohr mag/cell
     absolute magnetization    =    12.52 Bohr mag/cell

     iteration # 67     ecut=    60.00 Ry     beta= 0.30
     Davidson diagonalization with overlap
     ethr =  4.97E-12,  avg # of iterations =  7.2

     total cpu time spent up to now is    25654.9 secs

     total energy              =   -4457.63570329 Ry
     estimated scf accuracy    <       0.00000004 Ry

     total magnetization       =    11.02 Bohr mag/cell
     absolute magnetization    =    12.52 Bohr mag/cell

     iteration # 68     ecut=    60.00 Ry     beta= 0.30
     Davidson diagonalization with overlap
     ethr =  4.97E-12,  avg # of iterations =  8.6

     total cpu time spent up to now is    25717.7 secs

     total energy              =   -4457.63570341 Ry
     estimated scf accuracy    <       0.00000002 Ry

     total magnetization       =    11.02 Bohr mag/cell
     absolute magnetization    =    12.52 Bohr mag/cell

     iteration # 69     ecut=    60.00 Ry     beta= 0.30
     Davidson diagonalization with overlap
     ethr =  4.97E-12,  avg # of iterations =  4.8

     total cpu time spent up to now is    25761.1 secs

     total energy              =   -4457.63570341 Ry
     estimated scf accuracy    <          7.8E-09 Ry

     total magnetization       =    11.02 Bohr mag/cell
     absolute magnetization    =    12.52 Bohr mag/cell

     iteration # 70     ecut=    60.00 Ry     beta= 0.30
     Davidson diagonalization with overlap
     ethr =  3.29E-12,  avg # of iterations =  7.6

     total cpu time spent up to now is    25818.7 secs

     total energy              =   -4457.63570265 Ry
     estimated scf accuracy    <       0.00000004 Ry

     total magnetization       =    11.02 Bohr mag/cell
     absolute magnetization    =    12.52 Bohr mag/cell

     iteration # 71     ecut=    60.00 Ry     beta= 0.30
     Davidson diagonalization with overlap
     ethr =  3.29E-12,  avg # of iterations = 12.2

     total cpu time spent up to now is    25896.4 secs

     total energy              =   -4457.63570353 Ry
     estimated scf accuracy    <       0.00000003 Ry

     total magnetization       =    11.02 Bohr mag/cell
     absolute magnetization    =    12.52 Bohr mag/cell

     iteration # 72     ecut=    60.00 Ry     beta= 0.30
     Davidson diagonalization with overlap
     ethr =  3.29E-12,  avg # of iterations =  7.2

     total cpu time spent up to now is    25952.9 secs

     total energy              =   -4457.63570345 Ry
     estimated scf accuracy    <       0.00000002 Ry

     total magnetization       =    11.02 Bohr mag/cell
     absolute magnetization    =    12.52 Bohr mag/cell

     iteration # 73     ecut=    60.00 Ry     beta= 0.30
     Davidson diagonalization with overlap
     ethr =  3.29E-12,  avg # of iterations = 10.2

     total cpu time spent up to now is    26020.8 secs

     total energy              =   -4457.63570289 Ry
     estimated scf accuracy    <       0.00000001 Ry

     total magnetization       =    11.02 Bohr mag/cell
     absolute magnetization    =    12.51 Bohr mag/cell

     iteration # 74     ecut=    60.00 Ry     beta= 0.30
     Davidson diagonalization with overlap
     ethr =  3.29E-12,  avg # of iterations = 12.0

     total cpu time spent up to now is    26097.3 secs

     total energy              =   -4457.63570342 Ry
     estimated scf accuracy    <       0.00000004 Ry

     total magnetization       =    11.02 Bohr mag/cell
     absolute magnetization    =    12.52 Bohr mag/cell

     iteration # 75     ecut=    60.00 Ry     beta= 0.30
     Davidson diagonalization with overlap
     ethr =  3.29E-12,  avg # of iterations = 10.5

     total cpu time spent up to now is    26166.4 secs

     total energy              =   -4457.63570245 Ry
     estimated scf accuracy    <       0.00000009 Ry

     total magnetization       =    11.02 Bohr mag/cell
     absolute magnetization    =    12.52 Bohr mag/cell

     iteration # 76     ecut=    60.00 Ry     beta= 0.30
     Davidson diagonalization with overlap
     ethr =  3.29E-12,  avg # of iterations = 12.1

     total cpu time spent up to now is    26244.5 secs

     total energy              =   -4457.63570347 Ry
     estimated scf accuracy    <       0.00000002 Ry

     total magnetization       =    11.02 Bohr mag/cell
     absolute magnetization    =    12.51 Bohr mag/cell

     iteration # 77     ecut=    60.00 Ry     beta= 0.30
     Davidson diagonalization with overlap
     ethr =  3.29E-12,  avg # of iterations = 10.8

     total cpu time spent up to now is    26315.0 secs

     total energy              =   -4457.63570362 Ry
     estimated scf accuracy    <          2.8E-09 Ry

     total magnetization       =    11.02 Bohr mag/cell
     absolute magnetization    =    12.51 Bohr mag/cell

     iteration # 78     ecut=    60.00 Ry     beta= 0.30
     Davidson diagonalization with overlap
     ethr =  1.19E-12,  avg # of iterations =  9.4

     total cpu time spent up to now is    26380.6 secs

     total energy              =   -4457.63570352 Ry
     estimated scf accuracy    <          3.3E-09 Ry

     total magnetization       =    11.02 Bohr mag/cell
     absolute magnetization    =    12.51 Bohr mag/cell

     iteration # 79     ecut=    60.00 Ry     beta= 0.30
     Davidson diagonalization with overlap
     ethr =  1.19E-12,  avg # of iterations = 11.8

     total cpu time spent up to now is    26455.0 secs

     total energy              =   -4457.63570336 Ry
     estimated scf accuracy    <          9.0E-09 Ry

     total magnetization       =    11.02 Bohr mag/cell
     absolute magnetization    =    12.51 Bohr mag/cell

     iteration # 80     ecut=    60.00 Ry     beta= 0.30
     Davidson diagonalization with overlap
     ethr =  1.19E-12,  avg # of iterations = 12.1

     total cpu time spent up to now is    26532.5 secs

     total energy              =   -4457.63570366 Ry
     estimated scf accuracy    <          1.1E-09 Ry

     total magnetization       =    11.02 Bohr mag/cell
     absolute magnetization    =    12.51 Bohr mag/cell

     iteration # 81     ecut=    60.00 Ry     beta= 0.30
     Davidson diagonalization with overlap
     ethr =  4.86E-13,  avg # of iterations =  5.9

     total cpu time spent up to now is    26583.6 secs

     total energy              =   -4457.63570363 Ry
     estimated scf accuracy    <          2.1E-09 Ry

     total magnetization       =    11.02 Bohr mag/cell
     absolute magnetization    =    12.51 Bohr mag/cell

     iteration # 82     ecut=    60.00 Ry     beta= 0.30
     Davidson diagonalization with overlap
     ethr =  4.86E-13,  avg # of iterations = 11.3

     total cpu time spent up to now is    26655.6 secs

     total energy              =   -4457.63570363 Ry
     estimated scf accuracy    <          3.7E-09 Ry

     total magnetization       =    11.02 Bohr mag/cell
     absolute magnetization    =    12.51 Bohr mag/cell

     iteration # 83     ecut=    60.00 Ry     beta= 0.30
     Davidson diagonalization with overlap
     ethr =  4.86E-13,  avg # of iterations = 11.0

     total cpu time spent up to now is    26727.9 secs

     total energy              =   -4457.63570366 Ry
     estimated scf accuracy    <          2.7E-09 Ry

     total magnetization       =    11.02 Bohr mag/cell
     absolute magnetization    =    12.51 Bohr mag/cell

     iteration # 84     ecut=    60.00 Ry     beta= 0.30
     Davidson diagonalization with overlap
     ethr =  4.86E-13,  avg # of iterations =  3.1

     total cpu time spent up to now is    26767.1 secs

     total energy              =   -4457.63570360 Ry
     estimated scf accuracy    <          1.4E-09 Ry

     total magnetization       =    11.02 Bohr mag/cell
     absolute magnetization    =    12.51 Bohr mag/cell

     iteration # 85     ecut=    60.00 Ry     beta= 0.30
     Davidson diagonalization with overlap
     ethr =  4.86E-13,  avg # of iterations = 11.8

     total cpu time spent up to now is    26842.3 secs

     total energy              =   -4457.63570365 Ry
     estimated scf accuracy    <          6.0E-10 Ry

     total magnetization       =    11.02 Bohr mag/cell
     absolute magnetization    =    12.51 Bohr mag/cell

     iteration # 86     ecut=    60.00 Ry     beta= 0.30
     Davidson diagonalization with overlap
     ethr =  2.56E-13,  avg # of iterations =  9.3

     total cpu time spent up to now is    26907.2 secs

     total energy              =   -4457.63570366 Ry
     estimated scf accuracy    <          7.2E-10 Ry

     total magnetization       =    11.02 Bohr mag/cell
     absolute magnetization    =    12.51 Bohr mag/cell

     iteration # 87     ecut=    60.00 Ry     beta= 0.30
     Davidson diagonalization with overlap
     ethr =  2.56E-13,  avg # of iterations =  8.1

     total cpu time spent up to now is    26966.9 secs

     total energy              =   -4457.63570366 Ry
     estimated scf accuracy    <          4.5E-10 Ry

     total magnetization       =    11.02 Bohr mag/cell
     absolute magnetization    =    12.51 Bohr mag/cell

     iteration # 88     ecut=    60.00 Ry     beta= 0.30
     Davidson diagonalization with overlap
     ethr =  1.93E-13,  avg # of iterations =  4.5

     total cpu time spent up to now is    27010.9 secs

     total energy              =   -4457.63570362 Ry
     estimated scf accuracy    <          1.1E-09 Ry

     total magnetization       =    11.02 Bohr mag/cell
     absolute magnetization    =    12.51 Bohr mag/cell

     iteration # 89     ecut=    60.00 Ry     beta= 0.30
     Davidson diagonalization with overlap
     ethr =  1.93E-13,  avg # of iterations = 12.1

     total cpu time spent up to now is    27087.7 secs

     total energy              =   -4457.63570363 Ry
     estimated scf accuracy    <          3.2E-09 Ry

     total magnetization       =    11.02 Bohr mag/cell
     absolute magnetization    =    12.51 Bohr mag/cell

     iteration # 90     ecut=    60.00 Ry     beta= 0.30
     Davidson diagonalization with overlap
     ethr =  1.93E-13,  avg # of iterations = 12.0

     total cpu time spent up to now is    27163.8 secs

     total energy              =   -4457.63570366 Ry
     estimated scf accuracy    <          4.3E-10 Ry

     total magnetization       =    11.02 Bohr mag/cell
     absolute magnetization    =    12.51 Bohr mag/cell

     iteration # 91     ecut=    60.00 Ry     beta= 0.30
     Davidson diagonalization with overlap
     ethr =  1.84E-13,  avg # of iterations =  5.4

     total cpu time spent up to now is    27212.5 secs

     total energy              =   -4457.63570366 Ry
     estimated scf accuracy    <          2.7E-10 Ry

     total magnetization       =    11.02 Bohr mag/cell
     absolute magnetization    =    12.51 Bohr mag/cell

     iteration # 92     ecut=    60.00 Ry     beta= 0.30
     Davidson diagonalization with overlap
     ethr =  1.14E-13,  avg # of iterations =  5.2

     total cpu time spent up to now is    27259.6 secs

     total energy              =   -4457.63570366 Ry
     estimated scf accuracy    <          2.4E-10 Ry

     total magnetization       =    11.02 Bohr mag/cell
     absolute magnetization    =    12.51 Bohr mag/cell

     iteration # 93     ecut=    60.00 Ry     beta= 0.30
     Davidson diagonalization with overlap
     ethr =  1.02E-13,  avg # of iterations = 10.5
 
     Magnetic moment per site  (integrated on atomic sphere of radius R)
     atom   1 (R=0.179)  charge= 12.1594  magn=  0.1074
     atom   2 (R=0.179)  charge= 14.4525  magn=  1.7349
     atom   3 (R=0.179)  charge= 14.4317  magn=  1.8550
     atom   4 (R=0.179)  charge= 12.1756  magn= -0.0072
     atom   5 (R=0.179)  charge= 12.1591  magn=  0.1073
     atom   6 (R=0.179)  charge= 14.4525  magn=  1.7349
     atom   7 (R=0.179)  charge= 12.1561  magn=  0.1056
     atom   8 (R=0.179)  charge= 12.1756  magn= -0.0072
     atom   9 (R=0.179)  charge= 12.1560  magn=  0.1061
     atom  10 (R=0.179)  charge= 12.1756  magn= -0.0072
     atom  11 (R=0.179)  charge= 12.1598  magn=  0.1067
     atom  12 (R=0.179)  charge= 14.4525  magn=  1.7349
     atom  13 (R=0.179)  charge= 14.4317  magn=  1.8550
     atom  14 (R=0.179)  charge= 12.1756  magn= -0.0072
     atom  15 (R=0.179)  charge= 12.1595  magn=  0.1065
     atom  16 (R=0.179)  charge= 14.4525  magn=  1.7349

     total cpu time spent up to now is    27328.3 secs

     End of self-consistent calculation

     Number of k-points >= 100: set verbosity='high' to print the bands.

     the Fermi energy is    19.4934 ev

!    total energy              =   -4457.63570366 Ry
     total all-electron energy =    -36290.741688 Ry
     estimated scf accuracy    <          6.5E-11 Ry
     smearing contrib. (-TS)   =      -0.00224035 Ry
     internal energy E=F+TS    =   -4457.63346331 Ry

     The total energy is F=E-TS. E is the sum of the following terms:
     one-electron contribution =   -1209.90688446 Ry
     hartree contribution      =     753.91992850 Ry
     xc contribution           =    -389.16875380 Ry
     ewald contribution        =   -2373.24307753 Ry
     one-center paw contrib.   =   -1239.23467603 Ry

     total magnetization       =    11.02 Bohr mag/cell
     absolute magnetization    =    12.51 Bohr mag/cell

     convergence has been achieved in  93 iterations

     Forces acting on atoms (cartesian axes, Ry/au):

     atom    1 type  2   force =     0.00000000    0.00000000    0.00000000
     atom    2 type  1   force =     0.00002736    0.00003481    0.00003379
     atom    3 type  1   force =     0.00000000    0.00000000    0.00000000
     atom    4 type  2   force =    -0.00001631   -0.00000517    0.00001809
     atom    5 type  2   force =     0.00000000    0.00000000    0.00000000
     atom    6 type  1   force =     0.00002736   -0.00003481    0.00003379
     atom    7 type  2   force =     0.00000000    0.00000000    0.00000000
     atom    8 type  2   force =    -0.00001631    0.00000517    0.00001809
     atom    9 type  2   force =     0.00000000    0.00000000    0.00000000
     atom   10 type  2   force =     0.00001631   -0.00000517   -0.00001809
     atom   11 type  2   force =     0.00000000    0.00000000    0.00000000
     atom   12 type  1   force =    -0.00002736    0.00003481   -0.00003379
     atom   13 type  1   force =     0.00000000    0.00000000    0.00000000
     atom   14 type  2   force =     0.00001631    0.00000517   -0.00001809
     atom   15 type  2   force =     0.00000000    0.00000000    0.00000000
     atom   16 type  1   force =    -0.00002736   -0.00003481   -0.00003379

     Total force =     0.000122     Total SCF correction =     0.000004


     Computing stress (Cartesian axis) and pressure

          total   stress  (Ry/bohr**3)                   (kbar)     P=       -0.13
  -0.00000770   0.00000000  -0.00000955           -1.13        0.00       -1.41
   0.00000000   0.00001271   0.00000000            0.00        1.87        0.00
  -0.00000955   0.00000000  -0.00000770           -1.41        0.00       -1.13

     Energy error            =      2.1E-04 Ry
     Gradient error          =      3.5E-05 Ry/Bohr
     Cell gradient error     =      1.9E+00 kbar

     number of scf cycles    =   4
     number of bfgs steps    =   3

     enthalpy           old  =   -4457.6354927575 Ry
     enthalpy           new  =   -4457.6357036620 Ry

     CASE: enthalpy          _new < enthalpy          _old

     new trust radius        =       0.0035685194 bohr
     new conv_thr            =            1.0E-10 Ry

     new unit-cell volume =   1223.05562 a.u.^3 (   181.23814 Ang^3 )
     density =      7.83395 g/cm^3

CELL_PARAMETERS (angstrom)
   5.627119775   0.000000000   0.059883471
   0.000000000   5.724334504   0.000000000
   0.059883512   0.000000000   5.627138821

ATOMIC_POSITIONS (crystal)
Cr               0.0000000000        0.0000000000        0.0000000000
Fe               0.2500438792        0.2500499987        0.2500460343
Fe              -0.0000000000        0.0000000000        0.5000000000
Cr               0.2499964901        0.2500005534        0.7500035224
Cr               0.0000000000        0.5000000000        0.0000000000
Fe               0.2500438792        0.7499500013        0.2500460343
Cr              -0.0000000000        0.5000000000        0.5000000000
Cr               0.2499964901        0.7499994466        0.7500035224
Cr               0.5000000000        0.0000000000       -0.0000000000
Cr               0.7500035099        0.2500005534        0.2499964776
Cr               0.5000000000        0.0000000000        0.5000000000
Fe               0.7499561208        0.2500499987        0.7499539657
Fe               0.5000000000        0.5000000000       -0.0000000000
Cr               0.7500035099        0.7499994466        0.2499964776
Cr               0.5000000000        0.5000000000        0.5000000000
Fe               0.7499561208        0.7499500013        0.7499539657



     Writing config-only to output data dir ./tmp/fecr_fe06cr10_vcr.save/ :
     XML data file
     NEW-OLD atomic charge density approx. for the potential

     Check: negative core charge=   -0.000003
     Generating pointlists ...

     total cpu time spent up to now is    27411.3 secs

     Self-consistent Calculation

     iteration #  1     ecut=    60.00 Ry     beta= 0.30
     Davidson diagonalization with overlap
     ethr =  1.00E-06,  avg # of iterations =  2.0

     Threshold (ethr) on eigenvalues was too large:
     Diagonalizing with lowered threshold

     Davidson diagonalization with overlap
     ethr =  5.55E-10,  avg # of iterations =  9.0

     total cpu time spent up to now is    27500.1 secs

     total energy              =   -4457.63571601 Ry
     estimated scf accuracy    <       0.00000152 Ry

     total magnetization       =    11.02 Bohr mag/cell
     absolute magnetization    =    12.50 Bohr mag/cell

     iteration #  2     ecut=    60.00 Ry     beta= 0.30
     Davidson diagonalization with overlap
     ethr =  6.45E-10,  avg # of iterations =  5.9

     total cpu time spent up to now is    27548.8 secs

     total energy              =   -4457.63571508 Ry
     estimated scf accuracy    <       0.00003173 Ry

     total magnetization       =    11.02 Bohr mag/cell
     absolute magnetization    =    12.50 Bohr mag/cell

     iteration #  3     ecut=    60.00 Ry     beta= 0.30
     Davidson diagonalization with overlap
     ethr =  6.45E-10,  avg # of iterations =  5.6

     total cpu time spent up to now is    27596.8 secs

     total energy              =   -4457.63571622 Ry
     estimated scf accuracy    <       0.00000035 Ry

     total magnetization       =    11.02 Bohr mag/cell
     absolute magnetization    =    12.50 Bohr mag/cell

     iteration #  4     ecut=    60.00 Ry     beta= 0.30
     Davidson diagonalization with overlap
     ethr =  1.46E-10,  avg # of iterations =  5.4

     total cpu time spent up to now is    27642.7 secs

     total energy              =   -4457.63571610 Ry
     estimated scf accuracy    <       0.00000317 Ry

     total magnetization       =    11.02 Bohr mag/cell
     absolute magnetization    =    12.50 Bohr mag/cell

     iteration #  5     ecut=    60.00 Ry     beta= 0.30
     Davidson diagonalization with overlap
     ethr =  1.46E-10,  avg # of iterations =  5.1

     total cpu time spent up to now is    27686.1 secs

     total energy              =   -4457.63571623 Ry
     estimated scf accuracy    <       0.00000012 Ry

     total magnetization       =    11.02 Bohr mag/cell
     absolute magnetization    =    12.50 Bohr mag/cell

     iteration #  6     ecut=    60.00 Ry     beta= 0.30
     Davidson diagonalization with overlap
     ethr =  4.96E-11,  avg # of iterations =  4.9

     total cpu time spent up to now is    27730.2 secs

     total energy              =   -4457.63571624 Ry
     estimated scf accuracy    <       0.00000028 Ry

     total magnetization       =    11.02 Bohr mag/cell
     absolute magnetization    =    12.50 Bohr mag/cell

     iteration #  7     ecut=    60.00 Ry     beta= 0.30
     Davidson diagonalization with overlap
     ethr =  4.96E-11,  avg # of iterations =  1.8

     total cpu time spent up to now is    27766.8 secs

     total energy              =   -4457.63571625 Ry
     estimated scf accuracy    <       0.00000004 Ry

     total magnetization       =    11.02 Bohr mag/cell
     absolute magnetization    =    12.50 Bohr mag/cell

     iteration #  8     ecut=    60.00 Ry     beta= 0.30
     Davidson diagonalization with overlap
     ethr =  1.71E-11,  avg # of iterations =  4.4

     total cpu time spent up to now is    27810.2 secs

     total energy              =   -4457.63571626 Ry
     estimated scf accuracy    <       0.00000008 Ry

     total magnetization       =    11.02 Bohr mag/cell
     absolute magnetization    =    12.50 Bohr mag/cell

     iteration #  9     ecut=    60.00 Ry     beta= 0.30
     Davidson diagonalization with overlap
     ethr =  1.71E-11,  avg # of iterations =  2.9

     total cpu time spent up to now is    27849.2 secs

     total energy              =   -4457.63571626 Ry
     estimated scf accuracy    <       0.00000002 Ry

     total magnetization       =    11.02 Bohr mag/cell
     absolute magnetization    =    12.50 Bohr mag/cell

     iteration # 10     ecut=    60.00 Ry     beta= 0.30
     Davidson diagonalization with overlap
     ethr =  7.56E-12,  avg # of iterations =  3.5

     total cpu time spent up to now is    27890.2 secs

     total energy              =   -4457.63571627 Ry
     estimated scf accuracy    <          7.3E-09 Ry

     total magnetization       =    11.02 Bohr mag/cell
     absolute magnetization    =    12.50 Bohr mag/cell

     iteration # 11     ecut=    60.00 Ry     beta= 0.30
     Davidson diagonalization with overlap
     ethr =  3.11E-12,  avg # of iterations =  5.9

     total cpu time spent up to now is    27937.8 secs

     total energy              =   -4457.63571627 Ry
     estimated scf accuracy    <       0.00000002 Ry

     total magnetization       =    11.02 Bohr mag/cell
     absolute magnetization    =    12.50 Bohr mag/cell

     iteration # 12     ecut=    60.00 Ry     beta= 0.30
     Davidson diagonalization with overlap
     ethr =  3.11E-12,  avg # of iterations =  1.9

     total cpu time spent up to now is    27975.0 secs

     total energy              =   -4457.63571627 Ry
     estimated scf accuracy    <          4.4E-09 Ry

     total magnetization       =    11.02 Bohr mag/cell
     absolute magnetization    =    12.50 Bohr mag/cell

     iteration # 13     ecut=    60.00 Ry     beta= 0.30
     Davidson diagonalization with overlap
     ethr =  1.87E-12,  avg # of iterations =  5.9

     total cpu time spent up to now is    28023.2 secs

     total energy              =   -4457.63571627 Ry
     estimated scf accuracy    <       0.00000001 Ry

     total magnetization       =    11.02 Bohr mag/cell
     absolute magnetization    =    12.50 Bohr mag/cell

     iteration # 14     ecut=    60.00 Ry     beta= 0.30
     Davidson diagonalization with overlap
     ethr =  1.87E-12,  avg # of iterations =  1.9

     total cpu time spent up to now is    28060.1 secs

     total energy              =   -4457.63571627 Ry
     estimated scf accuracy    <          3.1E-09 Ry

     total magnetization       =    11.02 Bohr mag/cell
     absolute magnetization    =    12.50 Bohr mag/cell

     iteration # 15     ecut=    60.00 Ry     beta= 0.30
     Davidson diagonalization with overlap
     ethr =  1.32E-12,  avg # of iterations =  4.2

     total cpu time spent up to now is    28102.9 secs

     total energy              =   -4457.63571628 Ry
     estimated scf accuracy    <          4.3E-09 Ry

     total magnetization       =    11.02 Bohr mag/cell
     absolute magnetization    =    12.50 Bohr mag/cell

     iteration # 16     ecut=    60.00 Ry     beta= 0.30
     Davidson diagonalization with overlap
     ethr =  1.32E-12,  avg # of iterations =  3.6

     total cpu time spent up to now is    28145.4 secs

     total energy              =   -4457.63571628 Ry
     estimated scf accuracy    <          9.1E-09 Ry

     total magnetization       =    11.02 Bohr mag/cell
     absolute magnetization    =    12.50 Bohr mag/cell

     iteration # 17     ecut=    60.00 Ry     beta= 0.30
     Davidson diagonalization with overlap
     ethr =  1.32E-12,  avg # of iterations =  2.2

     total cpu time spent up to now is    28183.1 secs

     total energy              =   -4457.63571628 Ry
     estimated scf accuracy    <          2.7E-09 Ry

     total magnetization       =    11.02 Bohr mag/cell
     absolute magnetization    =    12.50 Bohr mag/cell

     iteration # 18     ecut=    60.00 Ry     beta= 0.30
     Davidson diagonalization with overlap
     ethr =  1.15E-12,  avg # of iterations =  3.2

     total cpu time spent up to now is    28223.2 secs

     total energy              =   -4457.63571628 Ry
     estimated scf accuracy    <          1.9E-09 Ry

     total magnetization       =    11.02 Bohr mag/cell
     absolute magnetization    =    12.50 Bohr mag/cell

     iteration # 19     ecut=    60.00 Ry     beta= 0.30
     Davidson diagonalization with overlap
     ethr =  7.97E-13,  avg # of iterations =  4.1

     total cpu time spent up to now is    28265.8 secs

     total energy              =   -4457.63571628 Ry
     estimated scf accuracy    <          3.1E-09 Ry

     total magnetization       =    11.02 Bohr mag/cell
     absolute magnetization    =    12.50 Bohr mag/cell

     iteration # 20     ecut=    60.00 Ry     beta= 0.30
     Davidson diagonalization with overlap
     ethr =  7.97E-13,  avg # of iterations =  4.3

     total cpu time spent up to now is    28308.3 secs

     total energy              =   -4457.63571628 Ry
     estimated scf accuracy    <          2.9E-09 Ry

     total magnetization       =    11.02 Bohr mag/cell
     absolute magnetization    =    12.50 Bohr mag/cell

     iteration # 21     ecut=    60.00 Ry     beta= 0.30
     Davidson diagonalization with overlap
     ethr =  7.97E-13,  avg # of iterations =  4.1

     total cpu time spent up to now is    28349.7 secs

     total energy              =   -4457.63571628 Ry
     estimated scf accuracy    <          4.1E-09 Ry

     total magnetization       =    11.02 Bohr mag/cell
     absolute magnetization    =    12.50 Bohr mag/cell

     iteration # 22     ecut=    60.00 Ry     beta= 0.30
     Davidson diagonalization with overlap
     ethr =  7.97E-13,  avg # of iterations =  5.1

     total cpu time spent up to now is    28394.0 secs

     total energy              =   -4457.63571628 Ry
     estimated scf accuracy    <          1.4E-09 Ry

     total magnetization       =    11.02 Bohr mag/cell
     absolute magnetization    =    12.50 Bohr mag/cell

     iteration # 23     ecut=    60.00 Ry     beta= 0.30
     Davidson diagonalization with overlap
     ethr =  5.82E-13,  avg # of iterations =  3.4

     total cpu time spent up to now is    28433.4 secs

     total energy              =   -4457.63571628 Ry
     estimated scf accuracy    <          1.6E-09 Ry

     total magnetization       =    11.02 Bohr mag/cell
     absolute magnetization    =    12.50 Bohr mag/cell

     iteration # 24     ecut=    60.00 Ry     beta= 0.30
     Davidson diagonalization with overlap
     ethr =  5.82E-13,  avg # of iterations =  1.3

     total cpu time spent up to now is    28469.1 secs

     total energy              =   -4457.63571628 Ry
     estimated scf accuracy    <          1.7E-09 Ry

     total magnetization       =    11.02 Bohr mag/cell
     absolute magnetization    =    12.50 Bohr mag/cell

     iteration # 25     ecut=    60.00 Ry     beta= 0.30
     Davidson diagonalization with overlap
     ethr =  5.82E-13,  avg # of iterations =  5.3

     total cpu time spent up to now is    28513.8 secs

     total energy              =   -4457.63571628 Ry
     estimated scf accuracy    <          6.0E-09 Ry

     total magnetization       =    11.02 Bohr mag/cell
     absolute magnetization    =    12.50 Bohr mag/cell

     iteration # 26     ecut=    60.00 Ry     beta= 0.30
     Davidson diagonalization with overlap
     ethr =  5.82E-13,  avg # of iterations =  5.5

     total cpu time spent up to now is    28560.5 secs

     total energy              =   -4457.63571628 Ry
     estimated scf accuracy    <          5.7E-09 Ry

     total magnetization       =    11.02 Bohr mag/cell
     absolute magnetization    =    12.50 Bohr mag/cell

     iteration # 27     ecut=    60.00 Ry     beta= 0.30
     Davidson diagonalization with overlap
     ethr =  5.82E-13,  avg # of iterations =  5.5

     total cpu time spent up to now is    28607.7 secs

     total energy              =   -4457.63571628 Ry
     estimated scf accuracy    <       0.00000001 Ry

     total magnetization       =    11.02 Bohr mag/cell
     absolute magnetization    =    12.50 Bohr mag/cell

     iteration # 28     ecut=    60.00 Ry     beta= 0.30
     Davidson diagonalization with overlap
     ethr =  5.82E-13,  avg # of iterations =  7.1

     total cpu time spent up to now is    28663.5 secs

     total energy              =   -4457.63571628 Ry
     estimated scf accuracy    <          4.0E-09 Ry

     total magnetization       =    11.02 Bohr mag/cell
     absolute magnetization    =    12.50 Bohr mag/cell

     iteration # 29     ecut=    60.00 Ry     beta= 0.30
     Davidson diagonalization with overlap
     ethr =  5.82E-13,  avg # of iterations =  3.5

     total cpu time spent up to now is    28704.7 secs

     total energy              =   -4457.63571629 Ry
     estimated scf accuracy    <          2.9E-09 Ry

     total magnetization       =    11.02 Bohr mag/cell
     absolute magnetization    =    12.50 Bohr mag/cell

     iteration # 30     ecut=    60.00 Ry     beta= 0.30
     Davidson diagonalization with overlap
     ethr =  5.82E-13,  avg # of iterations =  3.2

     total cpu time spent up to now is    28747.1 secs

     total energy              =   -4457.63571628 Ry
     estimated scf accuracy    <          1.3E-09 Ry

     total magnetization       =    11.02 Bohr mag/cell
     absolute magnetization    =    12.50 Bohr mag/cell

     iteration # 31     ecut=    60.00 Ry     beta= 0.30
     Davidson diagonalization with overlap
     ethr =  5.47E-13,  avg # of iterations =  2.3

     total cpu time spent up to now is    28786.3 secs

     total energy              =   -4457.63571629 Ry
     estimated scf accuracy    <          1.9E-09 Ry

     total magnetization       =    11.02 Bohr mag/cell
     absolute magnetization    =    12.50 Bohr mag/cell

     iteration # 32     ecut=    60.00 Ry     beta= 0.30
     Davidson diagonalization with overlap
     ethr =  5.47E-13,  avg # of iterations =  5.6

     total cpu time spent up to now is    28833.1 secs

     total energy              =   -4457.63571628 Ry
     estimated scf accuracy    <          8.3E-09 Ry

     total magnetization       =    11.02 Bohr mag/cell
     absolute magnetization    =    12.50 Bohr mag/cell

     iteration # 33     ecut=    60.00 Ry     beta= 0.30
     Davidson diagonalization with overlap
     ethr =  5.47E-13,  avg # of iterations =  6.5

     total cpu time spent up to now is    28886.2 secs

     total energy              =   -4457.63571628 Ry
     estimated scf accuracy    <          1.7E-09 Ry

     total magnetization       =    11.02 Bohr mag/cell
     absolute magnetization    =    12.50 Bohr mag/cell

     iteration # 34     ecut=    60.00 Ry     beta= 0.30
     Davidson diagonalization with overlap
     ethr =  5.47E-13,  avg # of iterations =  5.1

     total cpu time spent up to now is    28932.5 secs

     total energy              =   -4457.63571629 Ry
     estimated scf accuracy    <          1.2E-09 Ry

     total magnetization       =    11.02 Bohr mag/cell
     absolute magnetization    =    12.50 Bohr mag/cell

     iteration # 35     ecut=    60.00 Ry     beta= 0.30
     Davidson diagonalization with overlap
     ethr =  5.10E-13,  avg # of iterations =  1.0

     total cpu time spent up to now is    28966.3 secs

     total energy              =   -4457.63571629 Ry
     estimated scf accuracy    <          1.2E-09 Ry

     total magnetization       =    11.02 Bohr mag/cell
     absolute magnetization    =    12.50 Bohr mag/cell

     iteration # 36     ecut=    60.00 Ry     beta= 0.30
     Davidson diagonalization with overlap
     ethr =  4.99E-13,  avg # of iterations =  1.2

     total cpu time spent up to now is    29001.1 secs

     total energy              =   -4457.63571629 Ry
     estimated scf accuracy    <          1.3E-09 Ry

     total magnetization       =    11.02 Bohr mag/cell
     absolute magnetization    =    12.50 Bohr mag/cell

     iteration # 37     ecut=    60.00 Ry     beta= 0.30
     Davidson diagonalization with overlap
     ethr =  4.99E-13,  avg # of iterations =  5.0

     total cpu time spent up to now is    29044.5 secs

     total energy              =   -4457.63571629 Ry
     estimated scf accuracy    <          8.4E-10 Ry

     total magnetization       =    11.02 Bohr mag/cell
     absolute magnetization    =    12.50 Bohr mag/cell

     iteration # 38     ecut=    60.00 Ry     beta= 0.30
     Davidson diagonalization with overlap
     ethr =  3.55E-13,  avg # of iterations =  4.7

     total cpu time spent up to now is    29088.4 secs

     total energy              =   -4457.63571629 Ry
     estimated scf accuracy    <          2.1E-09 Ry

     total magnetization       =    11.02 Bohr mag/cell
     absolute magnetization    =    12.50 Bohr mag/cell

     iteration # 39     ecut=    60.00 Ry     beta= 0.30
     Davidson diagonalization with overlap
     ethr =  3.55E-13,  avg # of iterations =  4.6

     total cpu time spent up to now is    29132.7 secs

     total energy              =   -4457.63571629 Ry
     estimated scf accuracy    <          1.0E-09 Ry

     total magnetization       =    11.02 Bohr mag/cell
     absolute magnetization    =    12.50 Bohr mag/cell

     iteration # 40     ecut=    60.00 Ry     beta= 0.30
     Davidson diagonalization with overlap
     ethr =  3.55E-13,  avg # of iterations =  5.3

     total cpu time spent up to now is    29180.5 secs

     total energy              =   -4457.63571629 Ry
     estimated scf accuracy    <          9.0E-10 Ry

     total magnetization       =    11.02 Bohr mag/cell
     absolute magnetization    =    12.50 Bohr mag/cell

     iteration # 41     ecut=    60.00 Ry     beta= 0.30
     Davidson diagonalization with overlap
     ethr =  3.55E-13,  avg # of iterations =  1.6

     total cpu time spent up to now is    29216.7 secs

     total energy              =   -4457.63571629 Ry
     estimated scf accuracy    <          1.9E-09 Ry

     total magnetization       =    11.02 Bohr mag/cell
     absolute magnetization    =    12.50 Bohr mag/cell

     iteration # 42     ecut=    60.00 Ry     beta= 0.30
     Davidson diagonalization with overlap
     ethr =  3.55E-13,  avg # of iterations =  1.9

     total cpu time spent up to now is    29253.5 secs

     total energy              =   -4457.63571629 Ry
     estimated scf accuracy    <          8.2E-10 Ry

     total magnetization       =    11.02 Bohr mag/cell
     absolute magnetization    =    12.50 Bohr mag/cell

     iteration # 43     ecut=    60.00 Ry     beta= 0.30
     Davidson diagonalization with overlap
     ethr =  3.45E-13,  avg # of iterations =  2.0

     total cpu time spent up to now is    29290.8 secs

     total energy              =   -4457.63571629 Ry
     estimated scf accuracy    <          2.7E-09 Ry

     total magnetization       =    11.02 Bohr mag/cell
     absolute magnetization    =    12.50 Bohr mag/cell

     iteration # 44     ecut=    60.00 Ry     beta= 0.30
     Davidson diagonalization with overlap
     ethr =  3.45E-13,  avg # of iterations =  7.5

     total cpu time spent up to now is    29348.2 secs

     total energy              =   -4457.63571627 Ry
     estimated scf accuracy    <          4.9E-09 Ry

     total magnetization       =    11.02 Bohr mag/cell
     absolute magnetization    =    12.50 Bohr mag/cell

     iteration # 45     ecut=    60.00 Ry     beta= 0.30
     Davidson diagonalization with overlap
     ethr =  3.45E-13,  avg # of iterations = 11.5

     total cpu time spent up to now is    29420.5 secs

     total energy              =   -4457.63571630 Ry
     estimated scf accuracy    <          3.3E-09 Ry

     total magnetization       =    11.02 Bohr mag/cell
     absolute magnetization    =    12.50 Bohr mag/cell

     iteration # 46     ecut=    60.00 Ry     beta= 0.30
     Davidson diagonalization with overlap
     ethr =  3.45E-13,  avg # of iterations =  5.6

     total cpu time spent up to now is    29471.1 secs

     total energy              =   -4457.63571630 Ry
     estimated scf accuracy    <          1.2E-09 Ry

     total magnetization       =    11.02 Bohr mag/cell
     absolute magnetization    =    12.50 Bohr mag/cell

     iteration # 47     ecut=    60.00 Ry     beta= 0.30
     Davidson diagonalization with overlap
     ethr =  3.45E-13,  avg # of iterations =  1.0

     total cpu time spent up to now is    29505.3 secs

     total energy              =   -4457.63571630 Ry
     estimated scf accuracy    <          1.6E-09 Ry

     total magnetization       =    11.02 Bohr mag/cell
     absolute magnetization    =    12.50 Bohr mag/cell

     iteration # 48     ecut=    60.00 Ry     beta= 0.30
     Davidson diagonalization with overlap
     ethr =  3.45E-13,  avg # of iterations =  5.4

     total cpu time spent up to now is    29552.3 secs

     total energy              =   -4457.63571628 Ry
     estimated scf accuracy    <          3.9E-09 Ry

     total magnetization       =    11.02 Bohr mag/cell
     absolute magnetization    =    12.50 Bohr mag/cell

     iteration # 49     ecut=    60.00 Ry     beta= 0.30
     Davidson diagonalization with overlap
     ethr =  3.45E-13,  avg # of iterations =  9.9

     total cpu time spent up to now is    29619.6 secs

     total energy              =   -4457.63571629 Ry
     estimated scf accuracy    <          3.0E-09 Ry

     total magnetization       =    11.02 Bohr mag/cell
     absolute magnetization    =    12.50 Bohr mag/cell

     iteration # 50     ecut=    60.00 Ry     beta= 0.30
     Davidson diagonalization with overlap
     ethr =  3.45E-13,  avg # of iterations =  5.0

     total cpu time spent up to now is    29664.4 secs

     total energy              =   -4457.63571629 Ry
     estimated scf accuracy    <          2.3E-09 Ry

     total magnetization       =    11.02 Bohr mag/cell
     absolute magnetization    =    12.50 Bohr mag/cell

     iteration # 51     ecut=    60.00 Ry     beta= 0.30
     Davidson diagonalization with overlap
     ethr =  3.45E-13,  avg # of iterations =  5.2

     total cpu time spent up to now is    29710.4 secs

     total energy              =   -4457.63571629 Ry
     estimated scf accuracy    <          1.8E-09 Ry

     total magnetization       =    11.02 Bohr mag/cell
     absolute magnetization    =    12.50 Bohr mag/cell

     iteration # 52     ecut=    60.00 Ry     beta= 0.30
     Davidson diagonalization with overlap
     ethr =  3.45E-13,  avg # of iterations =  7.7

     total cpu time spent up to now is    29768.9 secs

     total energy              =   -4457.63571630 Ry
     estimated scf accuracy    <          7.7E-10 Ry

     total magnetization       =    11.02 Bohr mag/cell
     absolute magnetization    =    12.50 Bohr mag/cell

     iteration # 53     ecut=    60.00 Ry     beta= 0.30
     Davidson diagonalization with overlap
     ethr =  3.25E-13,  avg # of iterations =  1.3

     total cpu time spent up to now is    29804.7 secs

     total energy              =   -4457.63571630 Ry
     estimated scf accuracy    <          1.3E-09 Ry

     total magnetization       =    11.02 Bohr mag/cell
     absolute magnetization    =    12.50 Bohr mag/cell

     iteration # 54     ecut=    60.00 Ry     beta= 0.30
     Davidson diagonalization with overlap
     ethr =  3.25E-13,  avg # of iterations =  7.7

     total cpu time spent up to now is    29863.5 secs

     total energy              =   -4457.63571624 Ry
     estimated scf accuracy    <          1.4E-09 Ry

     total magnetization       =    11.02 Bohr mag/cell
     absolute magnetization    =    12.50 Bohr mag/cell

     iteration # 55     ecut=    60.00 Ry     beta= 0.30
     Davidson diagonalization with overlap
     ethr =  3.25E-13,  avg # of iterations = 12.1

     total cpu time spent up to now is    29940.3 secs

     total energy              =   -4457.63571631 Ry
     estimated scf accuracy    <          1.2E-09 Ry

     total magnetization       =    11.02 Bohr mag/cell
     absolute magnetization    =    12.51 Bohr mag/cell

     iteration # 56     ecut=    60.00 Ry     beta= 0.30
     Davidson diagonalization with overlap
     ethr =  3.25E-13,  avg # of iterations =  5.7

     total cpu time spent up to now is    29991.4 secs

     total energy              =   -4457.63571630 Ry
     estimated scf accuracy    <          1.4E-09 Ry

     total magnetization       =    11.02 Bohr mag/cell
     absolute magnetization    =    12.51 Bohr mag/cell

     iteration # 57     ecut=    60.00 Ry     beta= 0.30
     Davidson diagonalization with overlap
     ethr =  3.25E-13,  avg # of iterations =  6.3

     total cpu time spent up to now is    30044.7 secs

     total energy              =   -4457.63571628 Ry
     estimated scf accuracy    <          2.6E-09 Ry

     total magnetization       =    11.02 Bohr mag/cell
     absolute magnetization    =    12.51 Bohr mag/cell

     iteration # 58     ecut=    60.00 Ry     beta= 0.30
     Davidson diagonalization with overlap
     ethr =  3.25E-13,  avg # of iterations = 11.3

     total cpu time spent up to now is    30117.8 secs

     total energy              =   -4457.63571631 Ry
     estimated scf accuracy    <          1.5E-09 Ry

     total magnetization       =    11.02 Bohr mag/cell
     absolute magnetization    =    12.51 Bohr mag/cell

     iteration # 59     ecut=    60.00 Ry     beta= 0.30
     Davidson diagonalization with overlap
     ethr =  3.25E-13,  avg # of iterations =  5.4

     total cpu time spent up to now is    30166.8 secs

     total energy              =   -4457.63571630 Ry
     estimated scf accuracy    <          2.9E-09 Ry

     total magnetization       =    11.02 Bohr mag/cell
     absolute magnetization    =    12.51 Bohr mag/cell

     iteration # 60     ecut=    60.00 Ry     beta= 0.30
     Davidson diagonalization with overlap
     ethr =  3.25E-13,  avg # of iterations = 10.5

     total cpu time spent up to now is    30235.9 secs

     total energy              =   -4457.63571630 Ry
     estimated scf accuracy    <          3.2E-10 Ry

     total magnetization       =    11.02 Bohr mag/cell
     absolute magnetization    =    12.51 Bohr mag/cell

     iteration # 61     ecut=    60.00 Ry     beta= 0.30
     Davidson diagonalization with overlap
     ethr =  1.34E-13,  avg # of iterations = 11.8

     total cpu time spent up to now is    30310.8 secs

     total energy              =   -4457.63571631 Ry
     estimated scf accuracy    <          1.8E-09 Ry

     total magnetization       =    11.02 Bohr mag/cell
     absolute magnetization    =    12.51 Bohr mag/cell

     iteration # 62     ecut=    60.00 Ry     beta= 0.30
     Davidson diagonalization with overlap
     ethr =  1.34E-13,  avg # of iterations =  9.8

     total cpu time spent up to now is    30376.9 secs

     total energy              =   -4457.63571631 Ry
     estimated scf accuracy    <          4.4E-10 Ry

     total magnetization       =    11.02 Bohr mag/cell
     absolute magnetization    =    12.51 Bohr mag/cell

     iteration # 63     ecut=    60.00 Ry     beta= 0.30
     Davidson diagonalization with overlap
     ethr =  1.34E-13,  avg # of iterations = 10.7

     total cpu time spent up to now is    30448.2 secs

     total energy              =   -4457.63571631 Ry
     estimated scf accuracy    <          2.4E-10 Ry

     total magnetization       =    11.02 Bohr mag/cell
     absolute magnetization    =    12.51 Bohr mag/cell

     iteration # 64     ecut=    60.00 Ry     beta= 0.30
     Davidson diagonalization with overlap
     ethr =  1.01E-13,  avg # of iterations =  8.4

     total cpu time spent up to now is    30509.2 secs

     total energy              =   -4457.63571632 Ry
     estimated scf accuracy    <          3.8E-10 Ry

     total magnetization       =    11.02 Bohr mag/cell
     absolute magnetization    =    12.51 Bohr mag/cell

     iteration # 65     ecut=    60.00 Ry     beta= 0.30
     Davidson diagonalization with overlap
     ethr =  1.01E-13,  avg # of iterations =  5.0

     total cpu time spent up to now is    30554.4 secs

     total energy              =   -4457.63571629 Ry
     estimated scf accuracy    <          4.6E-10 Ry

     total magnetization       =    11.02 Bohr mag/cell
     absolute magnetization    =    12.51 Bohr mag/cell

     iteration # 66     ecut=    60.00 Ry     beta= 0.30
     Davidson diagonalization with overlap
     ethr =  1.01E-13,  avg # of iterations = 12.1

     total cpu time spent up to now is    30632.1 secs

     total energy              =   -4457.63571632 Ry
     estimated scf accuracy    <          2.2E-10 Ry

     total magnetization       =    11.02 Bohr mag/cell
     absolute magnetization    =    12.51 Bohr mag/cell

     iteration # 67     ecut=    60.00 Ry     beta= 0.30
     Davidson diagonalization with overlap
     ethr =  1.00E-13,  avg # of iterations =  7.7

     total cpu time spent up to now is    30690.9 secs

     total energy              =   -4457.63571632 Ry
     estimated scf accuracy    <          2.4E-10 Ry

     total magnetization       =    11.02 Bohr mag/cell
     absolute magnetization    =    12.51 Bohr mag/cell

     iteration # 68     ecut=    60.00 Ry     beta= 0.30
     Davidson diagonalization with overlap
     ethr =  1.00E-13,  avg # of iterations =  7.0

     total cpu time spent up to now is    30746.5 secs

     total energy              =   -4457.63571632 Ry
     estimated scf accuracy    <          3.2E-10 Ry

     total magnetization       =    11.02 Bohr mag/cell
     absolute magnetization    =    12.51 Bohr mag/cell

     iteration # 69     ecut=    60.00 Ry     beta= 0.30
     Davidson diagonalization with overlap
     ethr =  1.00E-13,  avg # of iterations =  5.2

     total cpu time spent up to now is    30794.1 secs

     total energy              =   -4457.63571631 Ry
     estimated scf accuracy    <          9.9E-10 Ry

     total magnetization       =    11.02 Bohr mag/cell
     absolute magnetization    =    12.51 Bohr mag/cell

     iteration # 70     ecut=    60.00 Ry     beta= 0.30
     Davidson diagonalization with overlap
     ethr =  1.00E-13,  avg # of iterations = 10.7

     total cpu time spent up to now is    30863.8 secs

     total energy              =   -4457.63571631 Ry
     estimated scf accuracy    <          1.7E-10 Ry

     total magnetization       =    11.02 Bohr mag/cell
     absolute magnetization    =    12.51 Bohr mag/cell

     iteration # 71     ecut=    60.00 Ry     beta= 0.30
     Davidson diagonalization with overlap
     ethr =  1.00E-13,  avg # of iterations = 10.1

     total cpu time spent up to now is    30932.1 secs

     total energy              =   -4457.63571632 Ry
     estimated scf accuracy    <          6.0E-10 Ry

     total magnetization       =    11.02 Bohr mag/cell
     absolute magnetization    =    12.51 Bohr mag/cell

     iteration # 72     ecut=    60.00 Ry     beta= 0.30
     Davidson diagonalization with overlap
     ethr =  1.00E-13,  avg # of iterations =  5.8

     total cpu time spent up to now is    30983.5 secs

     total energy              =   -4457.63571630 Ry
     estimated scf accuracy    <          4.9E-10 Ry

     total magnetization       =    11.02 Bohr mag/cell
     absolute magnetization    =    12.51 Bohr mag/cell

     iteration # 73     ecut=    60.00 Ry     beta= 0.30
     Davidson diagonalization with overlap
     ethr =  1.00E-13,  avg # of iterations = 12.0

     total cpu time spent up to now is    31059.6 secs

     total energy              =   -4457.63571632 Ry
     estimated scf accuracy    <          2.3E-10 Ry

     total magnetization       =    11.02 Bohr mag/cell
     absolute magnetization    =    12.51 Bohr mag/cell

     iteration # 74     ecut=    60.00 Ry     beta= 0.30
     Davidson diagonalization with overlap
     ethr =  1.00E-13,  avg # of iterations =  6.3

     total cpu time spent up to now is    31112.4 secs

     total energy              =   -4457.63571632 Ry
     estimated scf accuracy    <          1.6E-10 Ry

     total magnetization       =    11.02 Bohr mag/cell
     absolute magnetization    =    12.51 Bohr mag/cell

     iteration # 75     ecut=    60.00 Ry     beta= 0.30
     Davidson diagonalization with overlap
     ethr =  1.00E-13,  avg # of iterations =  5.9

     total cpu time spent up to now is    31163.9 secs

     total energy              =   -4457.63571631 Ry
     estimated scf accuracy    <          4.2E-10 Ry

     total magnetization       =    11.02 Bohr mag/cell
     absolute magnetization    =    12.51 Bohr mag/cell

     iteration # 76     ecut=    60.00 Ry     beta= 0.30
     Davidson diagonalization with overlap
     ethr =  1.00E-13,  avg # of iterations =  8.6

     total cpu time spent up to now is    31225.9 secs

     total energy              =   -4457.63571632 Ry
     estimated scf accuracy    <          1.8E-10 Ry

     total magnetization       =    11.02 Bohr mag/cell
     absolute magnetization    =    12.51 Bohr mag/cell

     iteration # 77     ecut=    60.00 Ry     beta= 0.30
     Davidson diagonalization with overlap
     ethr =  1.00E-13,  avg # of iterations =  2.9

     total cpu time spent up to now is    31264.9 secs

     total energy              =   -4457.63571632 Ry
     estimated scf accuracy    <          1.9E-10 Ry

     total magnetization       =    11.02 Bohr mag/cell
     absolute magnetization    =    12.51 Bohr mag/cell

     iteration # 78     ecut=    60.00 Ry     beta= 0.30
     Davidson diagonalization with overlap
     ethr =  1.00E-13,  avg # of iterations =  3.5
 
     Magnetic moment per site  (integrated on atomic sphere of radius R)
     atom   1 (R=0.179)  charge= 12.1594  magn=  0.1108
     atom   2 (R=0.179)  charge= 14.4527  magn=  1.7335
     atom   3 (R=0.179)  charge= 14.4317  magn=  1.8541
     atom   4 (R=0.179)  charge= 12.1756  magn= -0.0110
     atom   5 (R=0.179)  charge= 12.1591  magn=  0.1106
     atom   6 (R=0.179)  charge= 14.4527  magn=  1.7335
     atom   7 (R=0.179)  charge= 12.1562  magn=  0.1102
     atom   8 (R=0.179)  charge= 12.1756  magn= -0.0110
     atom   9 (R=0.179)  charge= 12.1561  magn=  0.1108
     atom  10 (R=0.179)  charge= 12.1756  magn= -0.0110
     atom  11 (R=0.179)  charge= 12.1598  magn=  0.1101
     atom  12 (R=0.179)  charge= 14.4527  magn=  1.7335
     atom  13 (R=0.179)  charge= 14.4317  magn=  1.8542
     atom  14 (R=0.179)  charge= 12.1756  magn= -0.0110
     atom  15 (R=0.179)  charge= 12.1595  magn=  0.1099
     atom  16 (R=0.179)  charge= 14.4527  magn=  1.7335

     total cpu time spent up to now is    31305.9 secs

     End of self-consistent calculation

     Number of k-points >= 100: set verbosity='high' to print the bands.

     the Fermi energy is    19.4937 ev

!    total energy              =   -4457.63571632 Ry
     total all-electron energy =    -36290.741700 Ry
     estimated scf accuracy    <          7.2E-11 Ry
     smearing contrib. (-TS)   =      -0.00222485 Ry
     internal energy E=F+TS    =   -4457.63349147 Ry

     The total energy is F=E-TS. E is the sum of the following terms:
     one-electron contribution =   -1209.86029506 Ry
     hartree contribution      =     753.90218418 Ry
     xc contribution           =    -389.16852033 Ry
     ewald contribution        =   -2373.27211836 Ry
     one-center paw contrib.   =   -1239.23474190 Ry

     total magnetization       =    11.02 Bohr mag/cell
     absolute magnetization    =    12.51 Bohr mag/cell

     convergence has been achieved in  78 iterations

     Forces acting on atoms (cartesian axes, Ry/au):

     atom    1 type  2   force =     0.00000000    0.00000000    0.00000000
     atom    2 type  1   force =     0.00001989    0.00002498    0.00002604
     atom    3 type  1   force =     0.00000000    0.00000000    0.00000000
     atom    4 type  2   force =    -0.00001467   -0.00000541    0.00001741
     atom    5 type  2   force =     0.00000000    0.00000000    0.00000000
     atom    6 type  1   force =     0.00001989   -0.00002498    0.00002604
     atom    7 type  2   force =     0.00000000    0.00000000    0.00000000
     atom    8 type  2   force =    -0.00001467    0.00000541    0.00001741
     atom    9 type  2   force =     0.00000000    0.00000000    0.00000000
     atom   10 type  2   force =     0.00001467   -0.00000541   -0.00001741
     atom   11 type  2   force =     0.00000000    0.00000000    0.00000000
     atom   12 type  1   force =    -0.00001989    0.00002498   -0.00002604
     atom   13 type  1   force =     0.00000000    0.00000000    0.00000000
     atom   14 type  2   force =     0.00001467    0.00000541   -0.00001741
     atom   15 type  2   force =     0.00000000    0.00000000    0.00000000
     atom   16 type  1   force =    -0.00001989   -0.00002498   -0.00002604

     Total force =     0.000095     Total SCF correction =     0.000012
     SCF correction compared to forces is large: reduce conv_thr to get better values


     Computing stress (Cartesian axis) and pressure

          total   stress  (Ry/bohr**3)                   (kbar)     P=       -0.13
  -0.00000478   0.00000000  -0.00000792           -0.70        0.00       -1.16
   0.00000000   0.00000690   0.00000000            0.00        1.01        0.00
  -0.00000792   0.00000000  -0.00000478           -1.16        0.00       -0.70

     Energy error            =      1.3E-05 Ry
     Gradient error          =      2.6E-05 Ry/Bohr
     Cell gradient error     =      1.2E+00 kbar

     number of scf cycles    =   5
     number of bfgs steps    =   4

     enthalpy           old  =   -4457.6357036620 Ry
     enthalpy           new  =   -4457.6357163171 Ry

     CASE: enthalpy          _new < enthalpy          _old

     new trust radius        =       0.0048434661 bohr
     new conv_thr            =            1.0E-10 Ry

     new unit-cell volume =   1222.90867 a.u.^3 (   181.21637 Ang^3 )
     density =      7.83489 g/cm^3

CELL_PARAMETERS (angstrom)
   5.624807381   0.000000000   0.057315176
   0.000000000   5.728298454   0.000000000
   0.057315241   0.000000000   5.624827711

ATOMIC_POSITIONS (crystal)
Cr               0.0000000000        0.0000000000        0.0000000000
Fe               0.2500500361        0.2500577152        0.2500538644
Fe              -0.0000000000        0.0000000000        0.5000000000
Cr               0.2499925407        0.2499990916        0.7500081955
Cr               0.0000000000        0.5000000000        0.0000000000
Fe               0.2500500361        0.7499422848        0.2500538644
Cr              -0.0000000000        0.5000000000        0.5000000000
Cr               0.2499925407        0.7500009084        0.7500081955
Cr               0.5000000000        0.0000000000       -0.0000000000
Cr               0.7500074593        0.2499990916        0.2499918045
Cr               0.5000000000        0.0000000000        0.5000000000
Fe               0.7499499639        0.2500577152        0.7499461356
Fe               0.5000000000        0.5000000000       -0.0000000000
Cr               0.7500074593        0.7500009084        0.2499918045
Cr               0.5000000000        0.5000000000        0.5000000000
Fe               0.7499499639        0.7499422848        0.7499461356



     Writing config-only to output data dir ./tmp/fecr_fe06cr10_vcr.save/ :
     XML data file
     NEW-OLD atomic charge density approx. for the potential

     Check: negative core charge=   -0.000003
     Generating pointlists ...

     total cpu time spent up to now is    31389.7 secs

     Self-consistent Calculation

     iteration #  1     ecut=    60.00 Ry     beta= 0.30
     Davidson diagonalization with overlap
     ethr =  1.00E-06,  avg # of iterations =  2.7

     Threshold (ethr) on eigenvalues was too large:
     Diagonalizing with lowered threshold

     Davidson diagonalization with overlap
     ethr =  3.14E-09,  avg # of iterations =  7.4

     total cpu time spent up to now is    31475.7 secs

     total energy              =   -4457.63572389 Ry
     estimated scf accuracy    <       0.00000792 Ry

     total magnetization       =    11.02 Bohr mag/cell
     absolute magnetization    =    12.51 Bohr mag/cell

     iteration #  2     ecut=    60.00 Ry     beta= 0.30
     Davidson diagonalization with overlap
     ethr =  3.36E-09,  avg # of iterations =  5.9

     total cpu time spent up to now is    31526.6 secs

     total energy              =   -4457.63571810 Ry
     estimated scf accuracy    <       0.00020556 Ry

     total magnetization       =    11.01 Bohr mag/cell
     absolute magnetization    =    12.50 Bohr mag/cell

     iteration #  3     ecut=    60.00 Ry     beta= 0.30
     Davidson diagonalization with overlap
     ethr =  3.36E-09,  avg # of iterations =  5.6

     total cpu time spent up to now is    31575.1 secs

     total energy              =   -4457.63572588 Ry
     estimated scf accuracy    <       0.00000123 Ry

     total magnetization       =    11.02 Bohr mag/cell
     absolute magnetization    =    12.51 Bohr mag/cell

     iteration #  4     ecut=    60.00 Ry     beta= 0.30
     Davidson diagonalization with overlap
     ethr =  5.21E-10,  avg # of iterations =  5.5

     total cpu time spent up to now is    31621.7 secs

     total energy              =   -4457.63572540 Ry
     estimated scf accuracy    <       0.00001180 Ry

     total magnetization       =    11.02 Bohr mag/cell
     absolute magnetization    =    12.50 Bohr mag/cell

     iteration #  5     ecut=    60.00 Ry     beta= 0.30
     Davidson diagonalization with overlap
     ethr =  5.21E-10,  avg # of iterations =  5.2

     total cpu time spent up to now is    31665.9 secs

     total energy              =   -4457.63572585 Ry
     estimated scf accuracy    <       0.00000041 Ry

     total magnetization       =    11.02 Bohr mag/cell
     absolute magnetization    =    12.50 Bohr mag/cell

     iteration #  6     ecut=    60.00 Ry     beta= 0.30
     Davidson diagonalization with overlap
     ethr =  1.72E-10,  avg # of iterations =  5.1

     total cpu time spent up to now is    31710.3 secs

     total energy              =   -4457.63572587 Ry
     estimated scf accuracy    <       0.00000150 Ry

     total magnetization       =    11.02 Bohr mag/cell
     absolute magnetization    =    12.50 Bohr mag/cell

     iteration #  7     ecut=    60.00 Ry     beta= 0.30
     Davidson diagonalization with overlap
     ethr =  1.72E-10,  avg # of iterations =  2.1

     total cpu time spent up to now is    31747.7 secs

     total energy              =   -4457.63572593 Ry
     estimated scf accuracy    <       0.00000016 Ry

     total magnetization       =    11.02 Bohr mag/cell
     absolute magnetization    =    12.50 Bohr mag/cell

     iteration #  8     ecut=    60.00 Ry     beta= 0.30
     Davidson diagonalization with overlap
     ethr =  6.89E-11,  avg # of iterations =  4.6

     total cpu time spent up to now is    31790.9 secs

     total energy              =   -4457.63572597 Ry
     estimated scf accuracy    <       0.00000030 Ry

     total magnetization       =    11.02 Bohr mag/cell
     absolute magnetization    =    12.50 Bohr mag/cell

     iteration #  9     ecut=    60.00 Ry     beta= 0.30
     Davidson diagonalization with overlap
     ethr =  6.89E-11,  avg # of iterations =  3.8

     total cpu time spent up to now is    31833.2 secs

     total energy              =   -4457.63572600 Ry
     estimated scf accuracy    <       0.00000012 Ry

     total magnetization       =    11.02 Bohr mag/cell
     absolute magnetization    =    12.50 Bohr mag/cell

     iteration # 10     ecut=    60.00 Ry     beta= 0.30
     Davidson diagonalization with overlap
     ethr =  5.14E-11,  avg # of iterations =  1.7

     total cpu time spent up to now is    31870.5 secs

     total energy              =   -4457.63572601 Ry
     estimated scf accuracy    <       0.00000006 Ry

     total magnetization       =    11.02 Bohr mag/cell
     absolute magnetization    =    12.50 Bohr mag/cell

     iteration # 11     ecut=    60.00 Ry     beta= 0.30
     Davidson diagonalization with overlap
     ethr =  2.36E-11,  avg # of iterations =  5.7

     total cpu time spent up to now is    31916.9 secs

     total energy              =   -4457.63572602 Ry
     estimated scf accuracy    <       0.00000010 Ry

     total magnetization       =    11.02 Bohr mag/cell
     absolute magnetization    =    12.50 Bohr mag/cell

     iteration # 12     ecut=    60.00 Ry     beta= 0.30
     Davidson diagonalization with overlap
     ethr =  2.36E-11,  avg # of iterations =  2.5

     total cpu time spent up to now is    31954.9 secs

     total energy              =   -4457.63572603 Ry
     estimated scf accuracy    <       0.00000002 Ry

     total magnetization       =    11.02 Bohr mag/cell
     absolute magnetization    =    12.50 Bohr mag/cell

     iteration # 13     ecut=    60.00 Ry     beta= 0.30
     Davidson diagonalization with overlap
     ethr =  9.42E-12,  avg # of iterations =  5.3

     total cpu time spent up to now is    32000.5 secs

     total energy              =   -4457.63572604 Ry
     estimated scf accuracy    <       0.00000005 Ry

     total magnetization       =    11.02 Bohr mag/cell
     absolute magnetization    =    12.50 Bohr mag/cell

     iteration # 14     ecut=    60.00 Ry     beta= 0.30
     Davidson diagonalization with overlap
     ethr =  9.42E-12,  avg # of iterations =  3.6

     total cpu time spent up to now is    32041.5 secs

     total energy              =   -4457.63572605 Ry
     estimated scf accuracy    <       0.00000001 Ry

     total magnetization       =    11.01 Bohr mag/cell
     absolute magnetization    =    12.50 Bohr mag/cell

     iteration # 15     ecut=    60.00 Ry     beta= 0.30
     Davidson diagonalization with overlap
     ethr =  6.02E-12,  avg # of iterations =  5.6

     total cpu time spent up to now is    32090.5 secs

     total energy              =   -4457.63572607 Ry
     estimated scf accuracy    <       0.00000002 Ry

     total magnetization       =    11.01 Bohr mag/cell
     absolute magnetization    =    12.50 Bohr mag/cell

     iteration # 16     ecut=    60.00 Ry     beta= 0.30
     Davidson diagonalization with overlap
     ethr =  6.02E-12,  avg # of iterations =  2.2

     total cpu time spent up to now is    32128.4 secs

     total energy              =   -4457.63572607 Ry
     estimated scf accuracy    <       0.00000003 Ry

     total magnetization       =    11.01 Bohr mag/cell
     absolute magnetization    =    12.50 Bohr mag/cell

     iteration # 17     ecut=    60.00 Ry     beta= 0.30
     Davidson diagonalization with overlap
     ethr =  6.02E-12,  avg # of iterations =  1.8

     total cpu time spent up to now is    32165.3 secs

     total energy              =   -4457.63572607 Ry
     estimated scf accuracy    <          9.6E-09 Ry

     total magnetization       =    11.01 Bohr mag/cell
     absolute magnetization    =    12.50 Bohr mag/cell

     iteration # 18     ecut=    60.00 Ry     beta= 0.30
     Davidson diagonalization with overlap
     ethr =  4.05E-12,  avg # of iterations =  5.7

     total cpu time spent up to now is    32213.6 secs

     total energy              =   -4457.63572608 Ry
     estimated scf accuracy    <       0.00000002 Ry

     total magnetization       =    11.01 Bohr mag/cell
     absolute magnetization    =    12.50 Bohr mag/cell

     iteration # 19     ecut=    60.00 Ry     beta= 0.30
     Davidson diagonalization with overlap
     ethr =  4.05E-12,  avg # of iterations =  1.6

     total cpu time spent up to now is    32249.3 secs

     total energy              =   -4457.63572608 Ry
     estimated scf accuracy    <       0.00000001 Ry

     total magnetization       =    11.01 Bohr mag/cell
     absolute magnetization    =    12.50 Bohr mag/cell

     iteration # 20     ecut=    60.00 Ry     beta= 0.30
     Davidson diagonalization with overlap
     ethr =  4.05E-12,  avg # of iterations =  3.5

     total cpu time spent up to now is    32290.2 secs

     total energy              =   -4457.63572609 Ry
     estimated scf accuracy    <       0.00000001 Ry

     total magnetization       =    11.01 Bohr mag/cell
     absolute magnetization    =    12.50 Bohr mag/cell

     iteration # 21     ecut=    60.00 Ry     beta= 0.30
     Davidson diagonalization with overlap
     ethr =  4.05E-12,  avg # of iterations =  5.4

     total cpu time spent up to now is    32336.5 secs

     total energy              =   -4457.63572609 Ry
     estimated scf accuracy    <          7.0E-09 Ry

     total magnetization       =    11.01 Bohr mag/cell
     absolute magnetization    =    12.50 Bohr mag/cell

     iteration # 22     ecut=    60.00 Ry     beta= 0.30
     Davidson diagonalization with overlap
     ethr =  2.95E-12,  avg # of iterations =  2.3

     total cpu time spent up to now is    32374.2 secs

     total energy              =   -4457.63572609 Ry
     estimated scf accuracy    <          6.4E-09 Ry

     total magnetization       =    11.01 Bohr mag/cell
     absolute magnetization    =    12.50 Bohr mag/cell

     iteration # 23     ecut=    60.00 Ry     beta= 0.30
     Davidson diagonalization with overlap
     ethr =  2.71E-12,  avg # of iterations =  5.5

     total cpu time spent up to now is    32420.9 secs

     total energy              =   -4457.63572610 Ry
     estimated scf accuracy    <       0.00000001 Ry

     total magnetization       =    11.02 Bohr mag/cell
     absolute magnetization    =    12.50 Bohr mag/cell

     iteration # 24     ecut=    60.00 Ry     beta= 0.30
     Davidson diagonalization with overlap
     ethr =  2.71E-12,  avg # of iterations =  1.3

     total cpu time spent up to now is    32456.6 secs

     total energy              =   -4457.63572610 Ry
     estimated scf accuracy    <          8.9E-09 Ry

     total magnetization       =    11.02 Bohr mag/cell
     absolute magnetization    =    12.50 Bohr mag/cell

     iteration # 25     ecut=    60.00 Ry     beta= 0.30
     Davidson diagonalization with overlap
     ethr =  2.71E-12,  avg # of iterations =  1.4

     total cpu time spent up to now is    32492.4 secs

     total energy              =   -4457.63572610 Ry
     estimated scf accuracy    <          7.5E-09 Ry

     total magnetization       =    11.02 Bohr mag/cell
     absolute magnetization    =    12.50 Bohr mag/cell

     iteration # 26     ecut=    60.00 Ry     beta= 0.30
     Davidson diagonalization with overlap
     ethr =  2.71E-12,  avg # of iterations =  3.8

     total cpu time spent up to now is    32533.8 secs

     total energy              =   -4457.63572609 Ry
     estimated scf accuracy    <          8.6E-09 Ry

     total magnetization       =    11.02 Bohr mag/cell
     absolute magnetization    =    12.50 Bohr mag/cell

     iteration # 27     ecut=    60.00 Ry     beta= 0.30
     Davidson diagonalization with overlap
     ethr =  2.71E-12,  avg # of iterations =  8.0

     total cpu time spent up to now is    32592.0 secs

     total energy              =   -4457.63572611 Ry
     estimated scf accuracy    <          7.7E-09 Ry

     total magnetization       =    11.02 Bohr mag/cell
     absolute magnetization    =    12.50 Bohr mag/cell

     iteration # 28     ecut=    60.00 Ry     beta= 0.30
     Davidson diagonalization with overlap
     ethr =  2.71E-12,  avg # of iterations =  5.0

     total cpu time spent up to now is    32636.8 secs

     total energy              =   -4457.63572611 Ry
     estimated scf accuracy    <       0.00000001 Ry

     total magnetization       =    11.02 Bohr mag/cell
     absolute magnetization    =    12.50 Bohr mag/cell

     iteration # 29     ecut=    60.00 Ry     beta= 0.30
     Davidson diagonalization with overlap
     ethr =  2.71E-12,  avg # of iterations =  5.2

     total cpu time spent up to now is    32685.0 secs

     total energy              =   -4457.63572612 Ry
     estimated scf accuracy    <          6.5E-09 Ry

     total magnetization       =    11.02 Bohr mag/cell
     absolute magnetization    =    12.50 Bohr mag/cell

     iteration # 30     ecut=    60.00 Ry     beta= 0.30
     Davidson diagonalization with overlap
     ethr =  2.71E-12,  avg # of iterations =  1.2

     total cpu time spent up to now is    32719.8 secs

     total energy              =   -4457.63572611 Ry
     estimated scf accuracy    <          6.4E-09 Ry

     total magnetization       =    11.02 Bohr mag/cell
     absolute magnetization    =    12.50 Bohr mag/cell

     iteration # 31     ecut=    60.00 Ry     beta= 0.30
     Davidson diagonalization with overlap
     ethr =  2.71E-12,  avg # of iterations =  5.2

     total cpu time spent up to now is    32766.6 secs

     total energy              =   -4457.63572605 Ry
     estimated scf accuracy    <       0.00000003 Ry

     total magnetization       =    11.02 Bohr mag/cell
     absolute magnetization    =    12.50 Bohr mag/cell

     iteration # 32     ecut=    60.00 Ry     beta= 0.30
     Davidson diagonalization with overlap
     ethr =  2.71E-12,  avg # of iterations =  9.9

     total cpu time spent up to now is    32833.9 secs

     total energy              =   -4457.63572613 Ry
     estimated scf accuracy    <       0.00000001 Ry

     total magnetization       =    11.02 Bohr mag/cell
     absolute magnetization    =    12.50 Bohr mag/cell

     iteration # 33     ecut=    60.00 Ry     beta= 0.30
     Davidson diagonalization with overlap
     ethr =  2.71E-12,  avg # of iterations =  5.0

     total cpu time spent up to now is    32880.7 secs

     total energy              =   -4457.63572614 Ry
     estimated scf accuracy    <          6.1E-09 Ry

     total magnetization       =    11.02 Bohr mag/cell
     absolute magnetization    =    12.50 Bohr mag/cell

     iteration # 34     ecut=    60.00 Ry     beta= 0.30
     Davidson diagonalization with overlap
     ethr =  2.57E-12,  avg # of iterations =  3.0

     total cpu time spent up to now is    32918.8 secs

     total energy              =   -4457.63572614 Ry
     estimated scf accuracy    <          9.7E-09 Ry

     total magnetization       =    11.02 Bohr mag/cell
     absolute magnetization    =    12.50 Bohr mag/cell

     iteration # 35     ecut=    60.00 Ry     beta= 0.30
     Davidson diagonalization with overlap
     ethr =  2.57E-12,  avg # of iterations =  5.6

     total cpu time spent up to now is    32966.8 secs

     total energy              =   -4457.63572615 Ry
     estimated scf accuracy    <          7.9E-09 Ry

     total magnetization       =    11.02 Bohr mag/cell
     absolute magnetization    =    12.50 Bohr mag/cell

     iteration # 36     ecut=    60.00 Ry     beta= 0.30
     Davidson diagonalization with overlap
     ethr =  2.57E-12,  avg # of iterations =  5.0

     total cpu time spent up to now is    33010.3 secs

     total energy              =   -4457.63572609 Ry
     estimated scf accuracy    <          9.7E-09 Ry

     total magnetization       =    11.02 Bohr mag/cell
     absolute magnetization    =    12.50 Bohr mag/cell

     iteration # 37     ecut=    60.00 Ry     beta= 0.30
     Davidson diagonalization with overlap
     ethr =  2.57E-12,  avg # of iterations =  8.2

     total cpu time spent up to now is    33070.5 secs

     total energy              =   -4457.63572613 Ry
     estimated scf accuracy    <       0.00000003 Ry

     total magnetization       =    11.02 Bohr mag/cell
     absolute magnetization    =    12.50 Bohr mag/cell

     iteration # 38     ecut=    60.00 Ry     beta= 0.30
     Davidson diagonalization with overlap
     ethr =  2.57E-12,  avg # of iterations =  5.3

     total cpu time spent up to now is    33117.7 secs

     total energy              =   -4457.63572614 Ry
     estimated scf accuracy    <       0.00000002 Ry

     total magnetization       =    11.02 Bohr mag/cell
     absolute magnetization    =    12.50 Bohr mag/cell

     iteration # 39     ecut=    60.00 Ry     beta= 0.30
     Davidson diagonalization with overlap
     ethr =  2.57E-12,  avg # of iterations =  5.1

     total cpu time spent up to now is    33161.7 secs

     total energy              =   -4457.63572614 Ry
     estimated scf accuracy    <          6.8E-09 Ry

     total magnetization       =    11.02 Bohr mag/cell
     absolute magnetization    =    12.50 Bohr mag/cell

     iteration # 40     ecut=    60.00 Ry     beta= 0.30
     Davidson diagonalization with overlap
     ethr =  2.57E-12,  avg # of iterations =  6.9

     total cpu time spent up to now is    33216.7 secs

     total energy              =   -4457.63572615 Ry
     estimated scf accuracy    <       0.00000001 Ry

     total magnetization       =    11.02 Bohr mag/cell
     absolute magnetization    =    12.50 Bohr mag/cell

     iteration # 41     ecut=    60.00 Ry     beta= 0.30
     Davidson diagonalization with overlap
     ethr =  2.57E-12,  avg # of iterations =  5.2

     total cpu time spent up to now is    33265.0 secs

     total energy              =   -4457.63572616 Ry
     estimated scf accuracy    <          9.1E-09 Ry

     total magnetization       =    11.02 Bohr mag/cell
     absolute magnetization    =    12.50 Bohr mag/cell

     iteration # 42     ecut=    60.00 Ry     beta= 0.30
     Davidson diagonalization with overlap
     ethr =  2.57E-12,  avg # of iterations =  5.2

     total cpu time spent up to now is    33311.9 secs

     total energy              =   -4457.63572612 Ry
     estimated scf accuracy    <       0.00000002 Ry

     total magnetization       =    11.02 Bohr mag/cell
     absolute magnetization    =    12.51 Bohr mag/cell

     iteration # 43     ecut=    60.00 Ry     beta= 0.30
     Davidson diagonalization with overlap
     ethr =  2.57E-12,  avg # of iterations =  7.3

     total cpu time spent up to now is    33367.7 secs

     total energy              =   -4457.63572615 Ry
     estimated scf accuracy    <       0.00000002 Ry

     total magnetization       =    11.02 Bohr mag/cell
     absolute magnetization    =    12.50 Bohr mag/cell

     iteration # 44     ecut=    60.00 Ry     beta= 0.30
     Davidson diagonalization with overlap
     ethr =  2.57E-12,  avg # of iterations =  4.2

     total cpu time spent up to now is    33410.8 secs

     total energy              =   -4457.63572615 Ry
     estimated scf accuracy    <       0.00000001 Ry

     total magnetization       =    11.02 Bohr mag/cell
     absolute magnetization    =    12.50 Bohr mag/cell

     iteration # 45     ecut=    60.00 Ry     beta= 0.30
     Davidson diagonalization with overlap
     ethr =  2.57E-12,  avg # of iterations =  3.6

     total cpu time spent up to now is    33452.6 secs

     total energy              =   -4457.63572616 Ry
     estimated scf accuracy    <          6.1E-09 Ry

     total magnetization       =    11.02 Bohr mag/cell
     absolute magnetization    =    12.50 Bohr mag/cell

     iteration # 46     ecut=    60.00 Ry     beta= 0.30
     Davidson diagonalization with overlap
     ethr =  2.57E-12,  avg # of iterations =  5.2

     total cpu time spent up to now is    33497.6 secs

     total energy              =   -4457.63572616 Ry
     estimated scf accuracy    <          6.9E-09 Ry

     total magnetization       =    11.02 Bohr mag/cell
     absolute magnetization    =    12.50 Bohr mag/cell

     iteration # 47     ecut=    60.00 Ry     beta= 0.30
     Davidson diagonalization with overlap
     ethr =  2.57E-12,  avg # of iterations =  4.8

     total cpu time spent up to now is    33541.6 secs

     total energy              =   -4457.63572616 Ry
     estimated scf accuracy    <          3.6E-09 Ry

     total magnetization       =    11.02 Bohr mag/cell
     absolute magnetization    =    12.51 Bohr mag/cell

     iteration # 48     ecut=    60.00 Ry     beta= 0.30
     Davidson diagonalization with overlap
     ethr =  1.53E-12,  avg # of iterations =  5.8

     total cpu time spent up to now is    33591.1 secs

     total energy              =   -4457.63572614 Ry
     estimated scf accuracy    <          6.1E-09 Ry

     total magnetization       =    11.02 Bohr mag/cell
     absolute magnetization    =    12.51 Bohr mag/cell

     iteration # 49     ecut=    60.00 Ry     beta= 0.30
     Davidson diagonalization with overlap
     ethr =  1.53E-12,  avg # of iterations =  6.8

     total cpu time spent up to now is    33645.7 secs

     total energy              =   -4457.63572616 Ry
     estimated scf accuracy    <          3.9E-09 Ry

     total magnetization       =    11.02 Bohr mag/cell
     absolute magnetization    =    12.50 Bohr mag/cell

     iteration # 50     ecut=    60.00 Ry     beta= 0.30
     Davidson diagonalization with overlap
     ethr =  1.53E-12,  avg # of iterations =  5.1

     total cpu time spent up to now is    33691.1 secs

     total energy              =   -4457.63572616 Ry
     estimated scf accuracy    <          4.7E-09 Ry

     total magnetization       =    11.02 Bohr mag/cell
     absolute magnetization    =    12.50 Bohr mag/cell

     iteration # 51     ecut=    60.00 Ry     beta= 0.30
     Davidson diagonalization with overlap
     ethr =  1.53E-12,  avg # of iterations =  2.6

     total cpu time spent up to now is    33729.3 secs

     total energy              =   -4457.63572616 Ry
     estimated scf accuracy    <          2.9E-09 Ry

     total magnetization       =    11.02 Bohr mag/cell
     absolute magnetization    =    12.51 Bohr mag/cell

     iteration # 52     ecut=    60.00 Ry     beta= 0.30
     Davidson diagonalization with overlap
     ethr =  1.23E-12,  avg # of iterations =  5.9

     total cpu time spent up to now is    33778.0 secs

     total energy              =   -4457.63572617 Ry
     estimated scf accuracy    <          7.7E-09 Ry

     total magnetization       =    11.02 Bohr mag/cell
     absolute magnetization    =    12.51 Bohr mag/cell

     iteration # 53     ecut=    60.00 Ry     beta= 0.30
     Davidson diagonalization with overlap
     ethr =  1.23E-12,  avg # of iterations =  5.1

     total cpu time spent up to now is    33822.9 secs

     total energy              =   -4457.63572614 Ry
     estimated scf accuracy    <          6.6E-09 Ry

     total magnetization       =    11.02 Bohr mag/cell
     absolute magnetization    =    12.51 Bohr mag/cell

     iteration # 54     ecut=    60.00 Ry     beta= 0.30
     Davidson diagonalization with overlap
     ethr =  1.23E-12,  avg # of iterations =  9.9

     total cpu time spent up to now is    33890.8 secs

     total energy              =   -4457.63572614 Ry
     estimated scf accuracy    <       0.00000002 Ry

     total magnetization       =    11.02 Bohr mag/cell
     absolute magnetization    =    12.51 Bohr mag/cell

     iteration # 55     ecut=    60.00 Ry     beta= 0.30
     Davidson diagonalization with overlap
     ethr =  1.23E-12,  avg # of iterations =  8.7

     total cpu time spent up to now is    33954.4 secs

     total energy              =   -4457.63572617 Ry
     estimated scf accuracy    <       0.00000001 Ry

     total magnetization       =    11.02 Bohr mag/cell
     absolute magnetization    =    12.51 Bohr mag/cell

     iteration # 56     ecut=    60.00 Ry     beta= 0.30
     Davidson diagonalization with overlap
     ethr =  1.23E-12,  avg # of iterations =  4.7

     total cpu time spent up to now is    33997.8 secs

     total energy              =   -4457.63572617 Ry
     estimated scf accuracy    <       0.00000001 Ry

     total magnetization       =    11.02 Bohr mag/cell
     absolute magnetization    =    12.51 Bohr mag/cell

     iteration # 57     ecut=    60.00 Ry     beta= 0.30
     Davidson diagonalization with overlap
     ethr =  1.23E-12,  avg # of iterations =  5.4

     total cpu time spent up to now is    34047.8 secs

     total energy              =   -4457.63572616 Ry
     estimated scf accuracy    <          6.6E-09 Ry

     total magnetization       =    11.02 Bohr mag/cell
     absolute magnetization    =    12.51 Bohr mag/cell

     iteration # 58     ecut=    60.00 Ry     beta= 0.30
     Davidson diagonalization with overlap
     ethr =  1.23E-12,  avg # of iterations =  6.9

     total cpu time spent up to now is    34102.9 secs

     total energy              =   -4457.63572617 Ry
     estimated scf accuracy    <          7.2E-09 Ry

     total magnetization       =    11.02 Bohr mag/cell
     absolute magnetization    =    12.51 Bohr mag/cell

     iteration # 59     ecut=    60.00 Ry     beta= 0.30
     Davidson diagonalization with overlap
     ethr =  1.23E-12,  avg # of iterations =  3.9

     total cpu time spent up to now is    34146.3 secs

     total energy              =   -4457.63572616 Ry
     estimated scf accuracy    <          3.8E-09 Ry

     total magnetization       =    11.02 Bohr mag/cell
     absolute magnetization    =    12.51 Bohr mag/cell

     iteration # 60     ecut=    60.00 Ry     beta= 0.30
     Davidson diagonalization with overlap
     ethr =  1.23E-12,  avg # of iterations =  5.2

     total cpu time spent up to now is    34192.0 secs

     total energy              =   -4457.63572616 Ry
     estimated scf accuracy    <          7.6E-09 Ry

     total magnetization       =    11.02 Bohr mag/cell
     absolute magnetization    =    12.51 Bohr mag/cell

     iteration # 61     ecut=    60.00 Ry     beta= 0.30
     Davidson diagonalization with overlap
     ethr =  1.23E-12,  avg # of iterations =  6.8

     total cpu time spent up to now is    34246.7 secs

     total energy              =   -4457.63572617 Ry
     estimated scf accuracy    <          6.0E-09 Ry

     total magnetization       =    11.02 Bohr mag/cell
     absolute magnetization    =    12.51 Bohr mag/cell

     iteration # 62     ecut=    60.00 Ry     beta= 0.30
     Davidson diagonalization with overlap
     ethr =  1.23E-12,  avg # of iterations =  7.5

     total cpu time spent up to now is    34305.1 secs

     total energy              =   -4457.63572618 Ry
     estimated scf accuracy    <       0.00000002 Ry

     total magnetization       =    11.02 Bohr mag/cell
     absolute magnetization    =    12.51 Bohr mag/cell

     iteration # 63     ecut=    60.00 Ry     beta= 0.30
     Davidson diagonalization with overlap
     ethr =  1.23E-12,  avg # of iterations =  7.2

     total cpu time spent up to now is    34360.1 secs

     total energy              =   -4457.63572618 Ry
     estimated scf accuracy    <       0.00000001 Ry

     total magnetization       =    11.02 Bohr mag/cell
     absolute magnetization    =    12.51 Bohr mag/cell

     iteration # 64     ecut=    60.00 Ry     beta= 0.30
     Davidson diagonalization with overlap
     ethr =  1.23E-12,  avg # of iterations =  7.7

     total cpu time spent up to now is    34419.4 secs

     total energy              =   -4457.63572619 Ry
     estimated scf accuracy    <       0.00000004 Ry

     total magnetization       =    11.02 Bohr mag/cell
     absolute magnetization    =    12.51 Bohr mag/cell

     iteration # 65     ecut=    60.00 Ry     beta= 0.30
     Davidson diagonalization with overlap
     ethr =  1.23E-12,  avg # of iterations =  8.5

     total cpu time spent up to now is    34481.3 secs

     total energy              =   -4457.63572621 Ry
     estimated scf accuracy    <       0.00000002 Ry

     total magnetization       =    11.02 Bohr mag/cell
     absolute magnetization    =    12.51 Bohr mag/cell

     iteration # 66     ecut=    60.00 Ry     beta= 0.30
     Davidson diagonalization with overlap
     ethr =  1.23E-12,  avg # of iterations =  5.7

     total cpu time spent up to now is    34529.8 secs

     total energy              =   -4457.63572613 Ry
     estimated scf accuracy    <       0.00000002 Ry

     total magnetization       =    11.02 Bohr mag/cell
     absolute magnetization    =    12.51 Bohr mag/cell

     iteration # 67     ecut=    60.00 Ry     beta= 0.30
     Davidson diagonalization with overlap
     ethr =  1.23E-12,  avg # of iterations = 11.0

     total cpu time spent up to now is    34600.9 secs

     total energy              =   -4457.63572618 Ry
     estimated scf accuracy    <       0.00000003 Ry

     total magnetization       =    11.02 Bohr mag/cell
     absolute magnetization    =    12.51 Bohr mag/cell

     iteration # 68     ecut=    60.00 Ry     beta= 0.30
     Davidson diagonalization with overlap
     ethr =  1.23E-12,  avg # of iterations =  8.9

     total cpu time spent up to now is    34665.1 secs

     total energy              =   -4457.63572615 Ry
     estimated scf accuracy    <       0.00000002 Ry

     total magnetization       =    11.02 Bohr mag/cell
     absolute magnetization    =    12.51 Bohr mag/cell

     iteration # 69     ecut=    60.00 Ry     beta= 0.30
     Davidson diagonalization with overlap
     ethr =  1.23E-12,  avg # of iterations =  8.8

     total cpu time spent up to now is    34729.2 secs

     total energy              =   -4457.63572618 Ry
     estimated scf accuracy    <          4.8E-09 Ry

     total magnetization       =    11.02 Bohr mag/cell
     absolute magnetization    =    12.51 Bohr mag/cell

     iteration # 70     ecut=    60.00 Ry     beta= 0.30
     Davidson diagonalization with overlap
     ethr =  1.23E-12,  avg # of iterations =  7.7

     total cpu time spent up to now is    34786.9 secs

     total energy              =   -4457.63572620 Ry
     estimated scf accuracy    <          3.7E-09 Ry

     total magnetization       =    11.02 Bohr mag/cell
     absolute magnetization    =    12.51 Bohr mag/cell

     iteration # 71     ecut=    60.00 Ry     beta= 0.30
     Davidson diagonalization with overlap
     ethr =  1.23E-12,  avg # of iterations =  5.0

     total cpu time spent up to now is    34829.9 secs

     total energy              =   -4457.63572617 Ry
     estimated scf accuracy    <          3.0E-09 Ry

     total magnetization       =    11.02 Bohr mag/cell
     absolute magnetization    =    12.51 Bohr mag/cell

     iteration # 72     ecut=    60.00 Ry     beta= 0.30
     Davidson diagonalization with overlap
     ethr =  1.23E-12,  avg # of iterations = 10.1

     total cpu time spent up to now is    34898.1 secs

     total energy              =   -4457.63572622 Ry
     estimated scf accuracy    <       0.00000001 Ry

     total magnetization       =    11.02 Bohr mag/cell
     absolute magnetization    =    12.51 Bohr mag/cell

     iteration # 73     ecut=    60.00 Ry     beta= 0.30
     Davidson diagonalization with overlap
     ethr =  1.23E-12,  avg # of iterations =  3.1

     total cpu time spent up to now is    34937.9 secs

     total energy              =   -4457.63572604 Ry
     estimated scf accuracy    <          7.0E-09 Ry

     total magnetization       =    11.02 Bohr mag/cell
     absolute magnetization    =    12.51 Bohr mag/cell

     iteration # 74     ecut=    60.00 Ry     beta= 0.30
     Davidson diagonalization with overlap
     ethr =  1.23E-12,  avg # of iterations = 12.0

     total cpu time spent up to now is    35014.8 secs

     total energy              =   -4457.63572619 Ry
     estimated scf accuracy    <          3.8E-09 Ry

     total magnetization       =    11.02 Bohr mag/cell
     absolute magnetization    =    12.51 Bohr mag/cell

     iteration # 75     ecut=    60.00 Ry     beta= 0.30
     Davidson diagonalization with overlap
     ethr =  1.23E-12,  avg # of iterations =  9.7

     total cpu time spent up to now is    35081.2 secs

     total energy              =   -4457.63572622 Ry
     estimated scf accuracy    <          4.0E-09 Ry

     total magnetization       =    11.02 Bohr mag/cell
     absolute magnetization    =    12.51 Bohr mag/cell

     iteration # 76     ecut=    60.00 Ry     beta= 0.30
     Davidson diagonalization with overlap
     ethr =  1.23E-12,  avg # of iterations =  6.8

     total cpu time spent up to now is    35136.0 secs

     total energy              =   -4457.63572622 Ry
     estimated scf accuracy    <          2.7E-09 Ry

     total magnetization       =    11.02 Bohr mag/cell
     absolute magnetization    =    12.51 Bohr mag/cell

     iteration # 77     ecut=    60.00 Ry     beta= 0.30
     Davidson diagonalization with overlap
     ethr =  1.16E-12,  avg # of iterations =  6.8

     total cpu time spent up to now is    35190.7 secs

     total energy              =   -4457.63572623 Ry
     estimated scf accuracy    <          8.0E-09 Ry

     total magnetization       =    11.02 Bohr mag/cell
     absolute magnetization    =    12.51 Bohr mag/cell

     iteration # 78     ecut=    60.00 Ry     beta= 0.30
     Davidson diagonalization with overlap
     ethr =  1.16E-12,  avg # of iterations =  5.1

     total cpu time spent up to now is    35235.5 secs

     total energy              =   -4457.63572613 Ry
     estimated scf accuracy    <          3.2E-09 Ry

     total magnetization       =    11.02 Bohr mag/cell
     absolute magnetization    =    12.51 Bohr mag/cell

     iteration # 79     ecut=    60.00 Ry     beta= 0.30
     Davidson diagonalization with overlap
     ethr =  1.16E-12,  avg # of iterations = 11.1

     total cpu time spent up to now is    35305.7 secs

     total energy              =   -4457.63572613 Ry
     estimated scf accuracy    <       0.00000003 Ry

     total magnetization       =    11.02 Bohr mag/cell
     absolute magnetization    =    12.51 Bohr mag/cell

     iteration # 80     ecut=    60.00 Ry     beta= 0.30
     Davidson diagonalization with overlap
     ethr =  1.16E-12,  avg # of iterations = 11.1

     total cpu time spent up to now is    35377.9 secs

     total energy              =   -4457.63572623 Ry
     estimated scf accuracy    <          1.9E-09 Ry

     total magnetization       =    11.02 Bohr mag/cell
     absolute magnetization    =    12.51 Bohr mag/cell

     iteration # 81     ecut=    60.00 Ry     beta= 0.30
     Davidson diagonalization with overlap
     ethr =  7.85E-13,  avg # of iterations =  5.1

     total cpu time spent up to now is    35422.6 secs

     total energy              =   -4457.63572623 Ry
     estimated scf accuracy    <          1.5E-09 Ry

     total magnetization       =    11.02 Bohr mag/cell
     absolute magnetization    =    12.51 Bohr mag/cell

     iteration # 82     ecut=    60.00 Ry     beta= 0.30
     Davidson diagonalization with overlap
     ethr =  6.34E-13,  avg # of iterations =  7.9

     total cpu time spent up to now is    35481.8 secs

     total energy              =   -4457.63572621 Ry
     estimated scf accuracy    <          1.7E-09 Ry

     total magnetization       =    11.02 Bohr mag/cell
     absolute magnetization    =    12.51 Bohr mag/cell

     iteration # 83     ecut=    60.00 Ry     beta= 0.30
     Davidson diagonalization with overlap
     ethr =  6.34E-13,  avg # of iterations = 10.9

     total cpu time spent up to now is    35552.3 secs

     total energy              =   -4457.63572624 Ry
     estimated scf accuracy    <          4.8E-09 Ry

     total magnetization       =    11.02 Bohr mag/cell
     absolute magnetization    =    12.51 Bohr mag/cell

     iteration # 84     ecut=    60.00 Ry     beta= 0.30
     Davidson diagonalization with overlap
     ethr =  6.34E-13,  avg # of iterations =  6.9

     total cpu time spent up to now is    35607.4 secs

     total energy              =   -4457.63572617 Ry
     estimated scf accuracy    <       0.00000001 Ry

     total magnetization       =    11.02 Bohr mag/cell
     absolute magnetization    =    12.51 Bohr mag/cell

     iteration # 85     ecut=    60.00 Ry     beta= 0.30
     Davidson diagonalization with overlap
     ethr =  6.34E-13,  avg # of iterations = 11.6

     total cpu time spent up to now is    35681.8 secs

     total energy              =   -4457.63572624 Ry
     estimated scf accuracy    <          3.9E-09 Ry

     total magnetization       =    11.02 Bohr mag/cell
     absolute magnetization    =    12.51 Bohr mag/cell

     iteration # 86     ecut=    60.00 Ry     beta= 0.30
     Davidson diagonalization with overlap
     ethr =  6.34E-13,  avg # of iterations =  6.6

     total cpu time spent up to now is    35734.8 secs

     total energy              =   -4457.63572607 Ry
     estimated scf accuracy    <          2.0E-09 Ry

     total magnetization       =    11.02 Bohr mag/cell
     absolute magnetization    =    12.51 Bohr mag/cell

     iteration # 87     ecut=    60.00 Ry     beta= 0.30
     Davidson diagonalization with overlap
     ethr =  6.34E-13,  avg # of iterations = 12.1

     total cpu time spent up to now is    35812.8 secs

     total energy              =   -4457.63572620 Ry
     estimated scf accuracy    <          2.9E-09 Ry

     total magnetization       =    11.02 Bohr mag/cell
     absolute magnetization    =    12.51 Bohr mag/cell

     iteration # 88     ecut=    60.00 Ry     beta= 0.30
     Davidson diagonalization with overlap
     ethr =  6.34E-13,  avg # of iterations = 11.3

     total cpu time spent up to now is    35885.4 secs

     total energy              =   -4457.63572606 Ry
     estimated scf accuracy    <          4.7E-09 Ry

     total magnetization       =    11.02 Bohr mag/cell
     absolute magnetization    =    12.51 Bohr mag/cell

     iteration # 89     ecut=    60.00 Ry     beta= 0.30
     Davidson diagonalization with overlap
     ethr =  6.34E-13,  avg # of iterations = 12.1

     total cpu time spent up to now is    35962.9 secs

     total energy              =   -4457.63572619 Ry
     estimated scf accuracy    <          1.2E-09 Ry

     total magnetization       =    11.02 Bohr mag/cell
     absolute magnetization    =    12.51 Bohr mag/cell

     iteration # 90     ecut=    60.00 Ry     beta= 0.30
     Davidson diagonalization with overlap
     ethr =  5.14E-13,  avg # of iterations = 11.8

     total cpu time spent up to now is    36038.2 secs

     total energy              =   -4457.63572625 Ry
     estimated scf accuracy    <          2.0E-09 Ry

     total magnetization       =    11.02 Bohr mag/cell
     absolute magnetization    =    12.51 Bohr mag/cell

     iteration # 91     ecut=    60.00 Ry     beta= 0.30
     Davidson diagonalization with overlap
     ethr =  5.14E-13,  avg # of iterations =  4.8

     total cpu time spent up to now is    36084.0 secs

     total energy              =   -4457.63572624 Ry
     estimated scf accuracy    <          7.7E-09 Ry

     total magnetization       =    11.02 Bohr mag/cell
     absolute magnetization    =    12.51 Bohr mag/cell

     iteration # 92     ecut=    60.00 Ry     beta= 0.30
     Davidson diagonalization with overlap
     ethr =  5.14E-13,  avg # of iterations =  8.9

     total cpu time spent up to now is    36147.8 secs

     total energy              =   -4457.63572625 Ry
     estimated scf accuracy    <          1.1E-09 Ry

     total magnetization       =    11.02 Bohr mag/cell
     absolute magnetization    =    12.51 Bohr mag/cell

     iteration # 93     ecut=    60.00 Ry     beta= 0.30
     Davidson diagonalization with overlap
     ethr =  4.76E-13,  avg # of iterations =  8.7

     total cpu time spent up to now is    36211.3 secs

     total energy              =   -4457.63572625 Ry
     estimated scf accuracy    <          1.1E-09 Ry

     total magnetization       =    11.02 Bohr mag/cell
     absolute magnetization    =    12.51 Bohr mag/cell

     iteration # 94     ecut=    60.00 Ry     beta= 0.30
     Davidson diagonalization with overlap
     ethr =  4.46E-13,  avg # of iterations =  9.0

     total cpu time spent up to now is    36275.2 secs

     total energy              =   -4457.63572625 Ry
     estimated scf accuracy    <          9.3E-10 Ry

     total magnetization       =    11.02 Bohr mag/cell
     absolute magnetization    =    12.51 Bohr mag/cell

     iteration # 95     ecut=    60.00 Ry     beta= 0.30
     Davidson diagonalization with overlap
     ethr =  3.95E-13,  avg # of iterations =  6.4

     total cpu time spent up to now is    36328.1 secs

     total energy              =   -4457.63572626 Ry
     estimated scf accuracy    <          2.6E-09 Ry

     total magnetization       =    11.02 Bohr mag/cell
     absolute magnetization    =    12.51 Bohr mag/cell

     iteration # 96     ecut=    60.00 Ry     beta= 0.30
     Davidson diagonalization with overlap
     ethr =  3.95E-13,  avg # of iterations =  5.3

     total cpu time spent up to now is    36376.3 secs

     total energy              =   -4457.63572626 Ry
     estimated scf accuracy    <          1.0E-09 Ry

     total magnetization       =    11.02 Bohr mag/cell
     absolute magnetization    =    12.51 Bohr mag/cell

     iteration # 97     ecut=    60.00 Ry     beta= 0.30
     Davidson diagonalization with overlap
     ethr =  3.95E-13,  avg # of iterations =  1.5

     total cpu time spent up to now is    36412.9 secs

     total energy              =   -4457.63572625 Ry
     estimated scf accuracy    <          6.0E-10 Ry

     total magnetization       =    11.02 Bohr mag/cell
     absolute magnetization    =    12.51 Bohr mag/cell

     iteration # 98     ecut=    60.00 Ry     beta= 0.30
     Davidson diagonalization with overlap
     ethr =  2.54E-13,  avg # of iterations =  8.1

     total cpu time spent up to now is    36472.1 secs

     total energy              =   -4457.63572626 Ry
     estimated scf accuracy    <          1.1E-09 Ry

     total magnetization       =    11.02 Bohr mag/cell
     absolute magnetization    =    12.51 Bohr mag/cell

     iteration # 99     ecut=    60.00 Ry     beta= 0.30
     Davidson diagonalization with overlap
     ethr =  2.54E-13,  avg # of iterations =  5.2

     total cpu time spent up to now is    36516.9 secs

     total energy              =   -4457.63572625 Ry
     estimated scf accuracy    <          2.8E-10 Ry

     total magnetization       =    11.02 Bohr mag/cell
     absolute magnetization    =    12.51 Bohr mag/cell

     iteration #100     ecut=    60.00 Ry     beta= 0.30
     Davidson diagonalization with overlap
     ethr =  1.21E-13,  avg # of iterations =  9.8

     total cpu time spent up to now is    36584.1 secs

     total energy              =   -4457.63572625 Ry
     estimated scf accuracy    <          6.6E-10 Ry

     total magnetization       =    11.02 Bohr mag/cell
     absolute magnetization    =    12.51 Bohr mag/cell

     iteration #101     ecut=    60.00 Ry     beta= 0.30
     Davidson diagonalization with overlap
     ethr =  1.21E-13,  avg # of iterations = 11.3

     total cpu time spent up to now is    36655.5 secs

     total energy              =   -4457.63572626 Ry
     estimated scf accuracy    <          1.0E-09 Ry

     total magnetization       =    11.02 Bohr mag/cell
     absolute magnetization    =    12.51 Bohr mag/cell

     iteration #102     ecut=    60.00 Ry     beta= 0.30
     Davidson diagonalization with overlap
     ethr =  1.21E-13,  avg # of iterations =  8.7

     total cpu time spent up to now is    36717.6 secs

     total energy              =   -4457.63572626 Ry
     estimated scf accuracy    <          3.4E-10 Ry

     total magnetization       =    11.02 Bohr mag/cell
     absolute magnetization    =    12.51 Bohr mag/cell

     iteration #103     ecut=    60.00 Ry     beta= 0.30
     Davidson diagonalization with overlap
     ethr =  1.21E-13,  avg # of iterations =  7.0

     total cpu time spent up to now is    36773.3 secs

     total energy              =   -4457.63572626 Ry
     estimated scf accuracy    <          3.4E-10 Ry

     total magnetization       =    11.02 Bohr mag/cell
     absolute magnetization    =    12.51 Bohr mag/cell

     iteration #104     ecut=    60.00 Ry     beta= 0.30
     Davidson diagonalization with overlap
     ethr =  1.21E-13,  avg # of iterations =  4.9

     total cpu time spent up to now is    36815.9 secs

     total energy              =   -4457.63572626 Ry
     estimated scf accuracy    <          4.1E-10 Ry

     total magnetization       =    11.02 Bohr mag/cell
     absolute magnetization    =    12.51 Bohr mag/cell

     iteration #105     ecut=    60.00 Ry     beta= 0.30
     Davidson diagonalization with overlap
     ethr =  1.21E-13,  avg # of iterations =  7.5

     total cpu time spent up to now is    36873.4 secs

     total energy              =   -4457.63572626 Ry
     estimated scf accuracy    <          5.9E-10 Ry

     total magnetization       =    11.02 Bohr mag/cell
     absolute magnetization    =    12.51 Bohr mag/cell

     iteration #106     ecut=    60.00 Ry     beta= 0.30
     Davidson diagonalization with overlap
     ethr =  1.21E-13,  avg # of iterations =  7.8

     total cpu time spent up to now is    36932.3 secs

     total energy              =   -4457.63572626 Ry
     estimated scf accuracy    <          5.7E-10 Ry

     total magnetization       =    11.02 Bohr mag/cell
     absolute magnetization    =    12.51 Bohr mag/cell

     iteration #107     ecut=    60.00 Ry     beta= 0.30
     Davidson diagonalization with overlap
     ethr =  1.21E-13,  avg # of iterations =  8.2

     total cpu time spent up to now is    36992.7 secs

     total energy              =   -4457.63572625 Ry
     estimated scf accuracy    <          7.2E-10 Ry

     total magnetization       =    11.02 Bohr mag/cell
     absolute magnetization    =    12.51 Bohr mag/cell

     iteration #108     ecut=    60.00 Ry     beta= 0.30
     Davidson diagonalization with overlap
     ethr =  1.21E-13,  avg # of iterations = 11.0

     total cpu time spent up to now is    37064.5 secs

     total energy              =   -4457.63572625 Ry
     estimated scf accuracy    <          8.2E-10 Ry

     total magnetization       =    11.02 Bohr mag/cell
     absolute magnetization    =    12.52 Bohr mag/cell

     iteration #109     ecut=    60.00 Ry     beta= 0.30
     Davidson diagonalization with overlap
     ethr =  1.21E-13,  avg # of iterations = 10.5

     total cpu time spent up to now is    37134.6 secs

     total energy              =   -4457.63572626 Ry
     estimated scf accuracy    <          2.8E-10 Ry

     total magnetization       =    11.02 Bohr mag/cell
     absolute magnetization    =    12.51 Bohr mag/cell

     iteration #110     ecut=    60.00 Ry     beta= 0.30
     Davidson diagonalization with overlap
     ethr =  1.17E-13,  avg # of iterations =  4.7

     total cpu time spent up to now is    37178.5 secs

     total energy              =   -4457.63572625 Ry
     estimated scf accuracy    <          1.0E-09 Ry

     total magnetization       =    11.02 Bohr mag/cell
     absolute magnetization    =    12.51 Bohr mag/cell

     iteration #111     ecut=    60.00 Ry     beta= 0.30
     Davidson diagonalization with overlap
     ethr =  1.17E-13,  avg # of iterations = 11.4

     total cpu time spent up to now is    37251.1 secs

     total energy              =   -4457.63572626 Ry
     estimated scf accuracy    <          3.4E-10 Ry

     total magnetization       =    11.02 Bohr mag/cell
     absolute magnetization    =    12.52 Bohr mag/cell

     iteration #112     ecut=    60.00 Ry     beta= 0.30
     Davidson diagonalization with overlap
     ethr =  1.17E-13,  avg # of iterations =  9.7

     total cpu time spent up to now is    37317.8 secs

     total energy              =   -4457.63572626 Ry
     estimated scf accuracy    <          9.3E-10 Ry

     total magnetization       =    11.02 Bohr mag/cell
     absolute magnetization    =    12.51 Bohr mag/cell

     iteration #113     ecut=    60.00 Ry     beta= 0.30
     Davidson diagonalization with overlap
     ethr =  1.17E-13,  avg # of iterations =  5.3

     total cpu time spent up to now is    37366.1 secs

     total energy              =   -4457.63572626 Ry
     estimated scf accuracy    <          3.1E-10 Ry

     total magnetization       =    11.02 Bohr mag/cell
     absolute magnetization    =    12.52 Bohr mag/cell

     iteration #114     ecut=    60.00 Ry     beta= 0.30
     Davidson diagonalization with overlap
     ethr =  1.17E-13,  avg # of iterations =  5.4

     total cpu time spent up to now is    37415.9 secs

     total energy              =   -4457.63572626 Ry
     estimated scf accuracy    <          3.1E-10 Ry

     total magnetization       =    11.02 Bohr mag/cell
     absolute magnetization    =    12.52 Bohr mag/cell

     iteration #115     ecut=    60.00 Ry     beta= 0.30
     Davidson diagonalization with overlap
     ethr =  1.17E-13,  avg # of iterations =  1.2

     total cpu time spent up to now is    37450.8 secs

     total energy              =   -4457.63572626 Ry
     estimated scf accuracy    <          2.2E-10 Ry

     total magnetization       =    11.02 Bohr mag/cell
     absolute magnetization    =    12.52 Bohr mag/cell

     iteration #116     ecut=    60.00 Ry     beta= 0.30
     Davidson diagonalization with overlap
     ethr =  1.00E-13,  avg # of iterations =  5.5

     total cpu time spent up to now is    37498.4 secs

     total energy              =   -4457.63572626 Ry
     estimated scf accuracy    <          4.1E-10 Ry

     total magnetization       =    11.02 Bohr mag/cell
     absolute magnetization    =    12.52 Bohr mag/cell

     iteration #117     ecut=    60.00 Ry     beta= 0.30
     Davidson diagonalization with overlap
     ethr =  1.00E-13,  avg # of iterations =  6.1

     total cpu time spent up to now is    37549.6 secs

     total energy              =   -4457.63572626 Ry
     estimated scf accuracy    <          2.2E-10 Ry

     total magnetization       =    11.02 Bohr mag/cell
     absolute magnetization    =    12.52 Bohr mag/cell

     iteration #118     ecut=    60.00 Ry     beta= 0.30
     Davidson diagonalization with overlap
     ethr =  1.00E-13,  avg # of iterations =  5.3
 
     Magnetic moment per site  (integrated on atomic sphere of radius R)
     atom   1 (R=0.179)  charge= 12.1593  magn=  0.1166
     atom   2 (R=0.179)  charge= 14.4530  magn=  1.7303
     atom   3 (R=0.179)  charge= 14.4318  magn=  1.8519
     atom   4 (R=0.179)  charge= 12.1756  magn= -0.0181
     atom   5 (R=0.179)  charge= 12.1591  magn=  0.1164
     atom   6 (R=0.179)  charge= 14.4530  magn=  1.7303
     atom   7 (R=0.179)  charge= 12.1565  magn=  0.1196
     atom   8 (R=0.179)  charge= 12.1756  magn= -0.0181
     atom   9 (R=0.179)  charge= 12.1564  magn=  0.1203
     atom  10 (R=0.179)  charge= 12.1756  magn= -0.0181
     atom  11 (R=0.179)  charge= 12.1598  magn=  0.1158
     atom  12 (R=0.179)  charge= 14.4530  magn=  1.7303
     atom  13 (R=0.179)  charge= 14.4318  magn=  1.8520
     atom  14 (R=0.179)  charge= 12.1756  magn= -0.0181
     atom  15 (R=0.179)  charge= 12.1595  magn=  0.1155
     atom  16 (R=0.179)  charge= 14.4530  magn=  1.7303

     total cpu time spent up to now is    37596.7 secs

     End of self-consistent calculation

     Number of k-points >= 100: set verbosity='high' to print the bands.

     the Fermi energy is    19.4960 ev

!    total energy              =   -4457.63572626 Ry
     total all-electron energy =    -36290.741710 Ry
     estimated scf accuracy    <          4.2E-11 Ry
     smearing contrib. (-TS)   =      -0.00221094 Ry
     internal energy E=F+TS    =   -4457.63351532 Ry

     The total energy is F=E-TS. E is the sum of the following terms:
     one-electron contribution =   -1209.69024001 Ry
     hartree contribution      =     753.83945525 Ry
     xc contribution           =    -389.16864496 Ry
     ewald contribution        =   -2373.37917922 Ry
     one-center paw contrib.   =   -1239.23490638 Ry

     total magnetization       =    11.02 Bohr mag/cell
     absolute magnetization    =    12.52 Bohr mag/cell

     convergence has been achieved in 118 iterations

     Forces acting on atoms (cartesian axes, Ry/au):

     atom    1 type  2   force =     0.00000000    0.00000000    0.00000000
     atom    2 type  1   force =     0.00000770    0.00000670    0.00001167
     atom    3 type  1   force =     0.00000000    0.00000000    0.00000000
     atom    4 type  2   force =    -0.00001015   -0.00000088    0.00001287
     atom    5 type  2   force =     0.00000000    0.00000000    0.00000000
     atom    6 type  1   force =     0.00000770   -0.00000670    0.00001167
     atom    7 type  2   force =     0.00000000    0.00000000    0.00000000
     atom    8 type  2   force =    -0.00001015    0.00000088    0.00001287
     atom    9 type  2   force =     0.00000000    0.00000000    0.00000000
     atom   10 type  2   force =     0.00001015   -0.00000088   -0.00001287
     atom   11 type  2   force =     0.00000000    0.00000000    0.00000000
     atom   12 type  1   force =    -0.00000770    0.00000670   -0.00001167
     atom   13 type  1   force =     0.00000000    0.00000000    0.00000000
     atom   14 type  2   force =     0.00001015    0.00000088   -0.00001287
     atom   15 type  2   force =     0.00000000    0.00000000    0.00000000
     atom   16 type  1   force =    -0.00000770   -0.00000670   -0.00001167

     Total force =     0.000045     Total SCF correction =     0.000031
     SCF correction compared to forces is large: reduce conv_thr to get better values


     Computing stress (Cartesian axis) and pressure

          total   stress  (Ry/bohr**3)                   (kbar)     P=        0.00
   0.00000015   0.00000000  -0.00000079            0.02        0.00       -0.12
   0.00000000  -0.00000026   0.00000000            0.00       -0.04        0.00
  -0.00000079   0.00000000   0.00000015           -0.12        0.00        0.02

     Energy error            =      9.9E-06 Ry
     Gradient error          =      1.3E-05 Ry/Bohr
     Cell gradient error     =      1.2E-01 kbar

     bfgs converged in   6 scf cycles and   5 bfgs steps
     (criteria: energy <  1.0E-04 Ry, force <  1.0E-04 Ry/Bohr, cell <  5.0E-01 kbar)

     End of BFGS Geometry Optimization

     Final enthalpy           =   -4457.6357262595 Ry

     File ./tmp/fecr_fe06cr10_vcr.bfgs deleted, as requested
Begin final coordinates
     new unit-cell volume =   1222.90867 a.u.^3 (   181.21637 Ang^3 )
     density =      7.83489 g/cm^3

CELL_PARAMETERS (angstrom)
   5.624807381   0.000000000   0.057315176
   0.000000000   5.728298454   0.000000000
   0.057315241   0.000000000   5.624827711

ATOMIC_POSITIONS (crystal)
Cr               0.0000000000        0.0000000000        0.0000000000
Fe               0.2500500361        0.2500577152        0.2500538644
Fe              -0.0000000000        0.0000000000        0.5000000000
Cr               0.2499925407        0.2499990916        0.7500081955
Cr               0.0000000000        0.5000000000        0.0000000000
Fe               0.2500500361        0.7499422848        0.2500538644
Cr              -0.0000000000        0.5000000000        0.5000000000
Cr               0.2499925407        0.7500009084        0.7500081955
Cr               0.5000000000        0.0000000000        0.0000000000
Cr               0.7500074593        0.2499990916        0.2499918045
Cr               0.5000000000        0.0000000000        0.5000000000
Fe               0.7499499639        0.2500577152        0.7499461356
Fe               0.5000000000        0.5000000000        0.0000000000
Cr               0.7500074593        0.7500009084        0.2499918045
Cr               0.5000000000        0.5000000000        0.5000000000
Fe               0.7499499639        0.7499422848        0.7499461356
End final coordinates



     Writing config-only to output data dir ./tmp/fecr_fe06cr10_vcr.save/ :
     XML data file

     Final scf calculation at the relaxed structure.
     The G-vectors are recalculated for the final unit cell
     Results may differ from those at the preceding step.
 
     G-vector sticks info
     --------------------
     sticks:   dense  smooth     PW     G-vecs:    dense   smooth      PW
     Sum        4393    2197    619               217101    76765   11561
 
     Using Slab Decomposition
 


     bravais-lattice index     =            0
     lattice parameter (alat)  =      10.6866  a.u.
     unit-cell volume          =    1222.9087 (a.u.)^3
     number of atoms/cell      =           16
     number of atomic types    =            2
     number of electrons       =       236.00
     number of Kohn-Sham states=          142
     kinetic-energy cutoff     =      60.0000  Ry
     charge density cutoff     =     480.0000  Ry
     scf convergence threshold =      1.0E-10
     mixing beta               =       0.3000
     number of iterations used =            8  plain     mixing
     press convergence thresh. =      5.0E-01
     Exchange-correlation= SLA  PW   PBX  PBC
                           (   1   4   3   4   0   0   0)

     GPU acceleration is ACTIVE.  1 visible GPUs per MPI rank


     celldm(1)=  10.686568  celldm(2)=   0.000000  celldm(3)=   0.000000
     celldm(4)=   0.000000  celldm(5)=   0.000000  celldm(6)=   0.000000

     crystal axes: (cart. coord. in units of alat)
               a(1) = (   0.994645   0.000000   0.010135 )  
               a(2) = (   0.000000   1.012946   0.000000 )  
               a(3) = (   0.010135   0.000000   0.994649 )  

     reciprocal axes: (cart. coord. in units 2 pi/alat)
               b(1) = (  1.005488  0.000000 -0.010246 )  
               b(2) = (  0.000000  0.987220  0.000000 )  
               b(3) = ( -0.010246  0.000000  1.005484 )  


     PseudoPot. # 1 for Fe read from file:
     ./pseudo/Fe.pbe-spn-kjpaw_psl.1.0.0.UPF
     MD5 check sum: fc81f059e5c5069939230b1155715ae8
     Pseudo is Projector augmented-wave + core cor, Zval = 16.0
     Generated using &quot;atomic&quot; code by A. Dal Corso  v.6.3
     Shape of augmentation charge: PSQ
     Using radial grid of 1191 points,  6 beta functions with: 
                l(1) =   0
                l(2) =   0
                l(3) =   1
                l(4) =   1
                l(5) =   2
                l(6) =   2
     Q(r) pseudized with 0 coefficients 


     PseudoPot. # 2 for Cr read from file:
     ./pseudo/Cr.pbe-spn-kjpaw_psl.1.0.0.UPF
     MD5 check sum: 198f1a2427a48552563eee314eba32ba
     Pseudo is Projector augmented-wave + core cor, Zval = 14.0
     Generated using &quot;atomic&quot; code by A. Dal Corso  v.6.3
     Shape of augmentation charge: PSQ
     Using radial grid of 1183 points,  6 beta functions with: 
                l(1) =   0
                l(2) =   0
                l(3) =   1
                l(4) =   1
                l(5) =   2
                l(6) =   2
     Q(r) pseudized with 0 coefficients 


     atomic species   valence    mass     pseudopotential
     Fe               16.00    55.84500     Fe( 1.00)
     Cr               14.00    51.99600     Cr( 1.00)

     Starting magnetic structure 
     atomic species   magnetization
     Fe              0.123
     Cr              0.005

      4 Sym. Ops., with inversion, found



   Cartesian axes

     site n.     atom                  positions (alat units)
         1        Cr     tau(   1) = (   0.0000000   0.0000000   0.0000000  )
         2        Fe     tau(   2) = (   0.2512455   0.2532949   0.2512501  )
         3        Fe     tau(   3) = (   0.0050676   0.0000000   0.4973245  )
         4        Cr     tau(   4) = (   0.2562554   0.2532356   0.7485286  )
         5        Cr     tau(   5) = (   0.0000000   0.5064730   0.0000000  )
         6        Fe     tau(   6) = (   0.2512455   0.7596510   0.2512501  )
         7        Cr     tau(   7) = (   0.0050676   0.5064730   0.4973245  )
         8        Cr     tau(   8) = (   0.2562554   0.7597104   0.7485286  )
         9        Cr     tau(   9) = (   0.4973227   0.0000000   0.0050676  )
        10        Cr     tau(  10) = (   0.7485252   0.2532356   0.2562555  )
        11        Cr     tau(  11) = (   0.5023903   0.0000000   0.5023921  )
        12        Fe     tau(  12) = (   0.7535351   0.2532949   0.7535340  )
        13        Fe     tau(  13) = (   0.4973227   0.5064730   0.0050676  )
        14        Cr     tau(  14) = (   0.7485252   0.7597104   0.2562555  )
        15        Cr     tau(  15) = (   0.5023903   0.5064730   0.5023921  )
        16        Fe     tau(  16) = (   0.7535351   0.7596510   0.7535340  )

     number of k points=    80  Marzari-Vanderbilt smearing, width (Ry)=  0.0200
                       cart. coord. in units 2pi/alat
        k(    1) = (   0.0000000   0.0000000   0.0000000), wk =   0.0046296
        k(    2) = (  -0.0017076   0.0000000   0.1675807), wk =   0.0092593
        k(    3) = (  -0.0034152   0.0000000   0.3351614), wk =   0.0092593
        k(    4) = (   0.0051228   0.0000000  -0.5027421), wk =   0.0046296
        k(    5) = (  -0.0017076   0.1645366   0.1675807), wk =   0.0185185
        k(    6) = (  -0.0034152   0.1645366   0.3351614), wk =   0.0185185
        k(    7) = (   0.0051228   0.1645366  -0.5027421), wk =   0.0092593
        k(    8) = (  -0.0034152   0.3290732   0.3351614), wk =   0.0185185
        k(    9) = (   0.0051228   0.3290732  -0.5027421), wk =   0.0092593
        k(   10) = (   0.0051228  -0.4936098  -0.5027421), wk =   0.0046296
        k(   11) = (   0.1658737   0.1645366   0.1658731), wk =   0.0185185
        k(   12) = (   0.1641661   0.1645366   0.3334538), wk =   0.0185185
        k(   13) = (   0.1727041   0.1645366  -0.5044497), wk =   0.0185185
        k(   14) = (   0.1641661   0.3290732   0.3334538), wk =   0.0185185
        k(   15) = (   0.1727041   0.3290732  -0.5044497), wk =   0.0185185
        k(   16) = (   0.1727041  -0.4936098  -0.5044497), wk =   0.0092593
        k(   17) = (   0.3317474   0.3290732   0.3317462), wk =   0.0185185
        k(   18) = (   0.3402854   0.3290732  -0.5061573), wk =   0.0185185
        k(   19) = (   0.3402854  -0.4936098  -0.5061573), wk =   0.0092593
        k(   20) = (  -0.4976211  -0.4936098  -0.4976193), wk =   0.0046296
        k(   21) = (   0.1675813   0.0000000  -0.0017076), wk =   0.0092593
        k(   22) = (   0.0000000   0.1645366   0.0000000), wk =   0.0092593
        k(   23) = (   0.3351626   0.0000000  -0.0034152), wk =   0.0092593
        k(   24) = (   0.0000000   0.3290732   0.0000000), wk =   0.0092593
        k(   25) = (  -0.5027439   0.0000000   0.0051228), wk =   0.0046296
        k(   26) = (   0.0000000  -0.4936098   0.0000000), wk =   0.0046296
        k(   27) = (   0.1692889   0.0000000  -0.1692883), wk =   0.0092593
        k(   28) = (  -0.1658737   0.0000000  -0.1658731), wk =   0.0092593
        k(   29) = (   0.1675813  -0.1645366  -0.0017076), wk =   0.0185185
        k(   30) = (   0.1709965   0.0000000  -0.3368690), wk =   0.0092593
        k(   31) = (  -0.1641661   0.0000000  -0.3334538), wk =   0.0092593
        k(   32) = (   0.3351626  -0.1645366  -0.0034152), wk =   0.0185185
        k(   33) = (  -0.0017076   0.3290732   0.1675807), wk =   0.0185185
        k(   34) = (   0.1675813   0.3290732  -0.0017076), wk =   0.0185185
        k(   35) = (   0.3334550   0.0000000   0.1641655), wk =   0.0092593
        k(   36) = (   0.3368702   0.0000000  -0.1709959), wk =   0.0092593
        k(   37) = (   0.1624585   0.0000000   0.5010345), wk =   0.0092593
        k(   38) = (  -0.5027439  -0.1645366   0.0051228), wk =   0.0092593
        k(   39) = (  -0.0017076  -0.4936098   0.1675807), wk =   0.0092593
        k(   40) = (   0.1675813  -0.4936098  -0.0017076), wk =   0.0092593
        k(   41) = (  -0.5044515   0.0000000   0.1727035), wk =   0.0092593
        k(   42) = (   0.3385778   0.0000000  -0.3385766), wk =   0.0092593
        k(   43) = (  -0.3317474   0.0000000  -0.3317462), wk =   0.0092593
        k(   44) = (   0.3351626  -0.3290732  -0.0034152), wk =   0.0185185
        k(   45) = (   0.3300398   0.0000000   0.4993269), wk =   0.0092593
        k(   46) = (  -0.5027439  -0.3290732   0.0051228), wk =   0.0092593
        k(   47) = (  -0.0034152  -0.4936098   0.3351614), wk =   0.0092593
        k(   48) = (   0.3351626  -0.4936098  -0.0034152), wk =   0.0092593
        k(   49) = (  -0.5061591   0.0000000   0.3402842), wk =   0.0092593
        k(   50) = (  -0.5078667   0.0000000   0.5078649), wk =   0.0046296
        k(   51) = (  -0.5027439   0.4936098   0.0051228), wk =   0.0046296
        k(   52) = (   0.1692889   0.1645366  -0.1692883), wk =   0.0185185
        k(   53) = (   0.1709965   0.1645366  -0.3368690), wk =   0.0185185
        k(   54) = (   0.3334550  -0.1645366   0.1641655), wk =   0.0185185
        k(   55) = (   0.3368702   0.1645366  -0.1709959), wk =   0.0185185
        k(   56) = (  -0.1692889   0.3290732   0.1692883), wk =   0.0185185
        k(   57) = (  -0.1658737  -0.3290732  -0.1658731), wk =   0.0185185
        k(   58) = (  -0.5044515  -0.1645366   0.1727035), wk =   0.0185185
        k(   59) = (  -0.1692889  -0.4936098   0.1692883), wk =   0.0092593
        k(   60) = (  -0.1658737   0.4936098  -0.1658731), wk =   0.0092593
        k(   61) = (   0.3385778   0.1645366  -0.3385766), wk =   0.0185185
        k(   62) = (  -0.3317474  -0.1645366  -0.3317462), wk =   0.0185185
        k(   63) = (   0.3334550  -0.3290732   0.1641655), wk =   0.0185185
        k(   64) = (   0.3368702   0.3290732  -0.1709959), wk =   0.0185185
        k(   65) = (  -0.1709965   0.3290732   0.3368690), wk =   0.0185185
        k(   66) = (   0.3300398   0.1645366   0.4993269), wk =   0.0185185
        k(   67) = (  -0.5044515  -0.3290732   0.1727035), wk =   0.0185185
        k(   68) = (  -0.1709965  -0.4936098   0.3368690), wk =   0.0092593
        k(   69) = (  -0.1641661   0.4936098  -0.3334538), wk =   0.0092593
        k(   70) = (   0.3334550  -0.4936098   0.1641655), wk =   0.0092593
        k(   71) = (   0.3368702   0.4936098  -0.1709959), wk =   0.0092593
        k(   72) = (  -0.5061591   0.1645366   0.3402842), wk =   0.0185185
        k(   73) = (  -0.5078667   0.1645366   0.5078649), wk =   0.0092593
        k(   74) = (  -0.5044515   0.4936098   0.1727035), wk =   0.0092593
        k(   75) = (   0.3385778   0.3290732  -0.3385766), wk =   0.0185185
        k(   76) = (  -0.5061591  -0.3290732   0.3402842), wk =   0.0185185
        k(   77) = (  -0.3385778  -0.4936098   0.3385766), wk =   0.0092593
        k(   78) = (  -0.3317474   0.4936098  -0.3317462), wk =   0.0092593
        k(   79) = (  -0.5078667   0.3290732   0.5078649), wk =   0.0092593
        k(   80) = (  -0.5061591   0.4936098   0.3402842), wk =   0.0092593

     Dense  grid:   217101 G-vectors     FFT dimensions: (  75,  75,  75)

     Smooth grid:    76765 G-vectors     FFT dimensions: (  54,  54,  54)

     Estimated max dynamical RAM per process >       4.22 GB

     Check: negative core charge=   -0.000003
     Generating pointlists ...

     Initial potential from superposition of free atoms

     starting charge     235.9896, renormalised to     236.0000
     Starting wfcs are  160 randomized atomic wfcs
     Checking if some PAW data can be deallocated... 

     total cpu time spent up to now is    37654.5 secs

     Self-consistent Calculation

     iteration #  1     ecut=    60.00 Ry     beta= 0.30
     Davidson diagonalization with overlap
     c_bands:  2 eigenvalues not converged
     c_bands:  1 eigenvalues not converged
     c_bands:  2 eigenvalues not converged
     c_bands:  2 eigenvalues not converged
     c_bands:  4 eigenvalues not converged
     c_bands:  2 eigenvalues not converged
     c_bands:  2 eigenvalues not converged
     c_bands:  2 eigenvalues not converged
     c_bands:  5 eigenvalues not converged
     c_bands:  1 eigenvalues not converged
     c_bands:  4 eigenvalues not converged
     c_bands:  2 eigenvalues not converged
     c_bands:  3 eigenvalues not converged
     c_bands:  5 eigenvalues not converged
     c_bands:  1 eigenvalues not converged
     c_bands:  4 eigenvalues not converged
     c_bands:  3 eigenvalues not converged
     c_bands:  3 eigenvalues not converged
     c_bands:  3 eigenvalues not converged
     c_bands:  2 eigenvalues not converged
     c_bands:  2 eigenvalues not converged
     c_bands:  1 eigenvalues not converged
     c_bands:  2 eigenvalues not converged
     c_bands:  2 eigenvalues not converged
     c_bands:  5 eigenvalues not converged
     c_bands:  1 eigenvalues not converged
     c_bands:  5 eigenvalues not converged
     c_bands:  1 eigenvalues not converged
     c_bands:  2 eigenvalues not converged
     c_bands:  1 eigenvalues not converged
     c_bands:  1 eigenvalues not converged
     c_bands:  5 eigenvalues not converged
     c_bands:  4 eigenvalues not converged
     c_bands:  5 eigenvalues not converged
     c_bands:  1 eigenvalues not converged
     c_bands:  2 eigenvalues not converged
     c_bands:  2 eigenvalues not converged
     c_bands:  2 eigenvalues not converged
     c_bands:  1 eigenvalues not converged
     c_bands:  1 eigenvalues not converged
     c_bands:  1 eigenvalues not converged
     c_bands:  4 eigenvalues not converged
     c_bands:  1 eigenvalues not converged
     c_bands:  2 eigenvalues not converged
     c_bands:  2 eigenvalues not converged
     c_bands:  5 eigenvalues not converged
     c_bands:  5 eigenvalues not converged
     c_bands:  4 eigenvalues not converged
     c_bands:  1 eigenvalues not converged
     c_bands:  1 eigenvalues not converged
     c_bands:  5 eigenvalues not converged
     c_bands:  4 eigenvalues not converged
     c_bands:  1 eigenvalues not converged
     c_bands:  5 eigenvalues not converged
     c_bands:  1 eigenvalues not converged
     c_bands:  1 eigenvalues not converged
     c_bands:  1 eigenvalues not converged
     c_bands:  2 eigenvalues not converged
     c_bands:  3 eigenvalues not converged
     c_bands:  5 eigenvalues not converged
     c_bands:  2 eigenvalues not converged
     c_bands:  3 eigenvalues not converged
     c_bands:  2 eigenvalues not converged
     c_bands:  1 eigenvalues not converged
     c_bands:  2 eigenvalues not converged
     c_bands:  1 eigenvalues not converged
     c_bands:  2 eigenvalues not converged
     c_bands:  1 eigenvalues not converged
     c_bands:  4 eigenvalues not converged
     c_bands:  4 eigenvalues not converged
     c_bands:  4 eigenvalues not converged
     c_bands:  5 eigenvalues not converged
     c_bands:  5 eigenvalues not converged
     c_bands:  2 eigenvalues not converged
     c_bands:  2 eigenvalues not converged
     c_bands:  1 eigenvalues not converged
     c_bands:  1 eigenvalues not converged
     c_bands:  2 eigenvalues not converged
     c_bands:  1 eigenvalues not converged
     c_bands:  1 eigenvalues not converged
     c_bands:  2 eigenvalues not converged
     c_bands:  3 eigenvalues not converged
     c_bands:  2 eigenvalues not converged
     c_bands:  4 eigenvalues not converged
     c_bands:  3 eigenvalues not converged
     c_bands:  5 eigenvalues not converged
     c_bands:  5 eigenvalues not converged
     c_bands:  3 eigenvalues not converged
     c_bands:  3 eigenvalues not converged
     c_bands:  5 eigenvalues not converged
     c_bands:  1 eigenvalues not converged
     c_bands:  3 eigenvalues not converged
     ethr =  1.00E-06,  avg # of iterations = 29.8

     total cpu time spent up to now is    37812.3 secs

     total energy              =   -4457.08438149 Ry
     estimated scf accuracy    <       2.79449358 Ry

     total magnetization       =    10.10 Bohr mag/cell
     absolute magnetization    =    13.68 Bohr mag/cell

     iteration #  2     ecut=    60.00 Ry     beta= 0.30
     Davidson diagonalization with overlap
     ethr =  1.18E-03,  avg # of iterations =  4.2

     total cpu time spent up to now is    37857.0 secs

     total energy              =   -4456.62659300 Ry
     estimated scf accuracy    <       7.82087250 Ry

     total magnetization       =    10.59 Bohr mag/cell
     absolute magnetization    =    12.60 Bohr mag/cell

     iteration #  3     ecut=    60.00 Ry     beta= 0.30
     Davidson diagonalization with overlap
     ethr =  1.18E-03,  avg # of iterations =  3.5

     total cpu time spent up to now is    37898.2 secs

     total energy              =   -4457.37002302 Ry
     estimated scf accuracy    <       4.50453663 Ry

     total magnetization       =     9.58 Bohr mag/cell
     absolute magnetization    =    10.96 Bohr mag/cell

     iteration #  4     ecut=    60.00 Ry     beta= 0.30
     Davidson diagonalization with overlap
     ethr =  1.18E-03,  avg # of iterations =  1.2

     total cpu time spent up to now is    37932.9 secs

     total energy              =   -4457.53754925 Ry
     estimated scf accuracy    <       0.50524801 Ry

     total magnetization       =    10.48 Bohr mag/cell
     absolute magnetization    =    11.76 Bohr mag/cell

     iteration #  5     ecut=    60.00 Ry     beta= 0.30
     Davidson diagonalization with overlap
     ethr =  2.14E-04,  avg # of iterations =  3.0

     total cpu time spent up to now is    37971.7 secs

     total energy              =   -4457.57374352 Ry
     estimated scf accuracy    <       0.14993391 Ry

     total magnetization       =    10.77 Bohr mag/cell
     absolute magnetization    =    12.00 Bohr mag/cell

     iteration #  6     ecut=    60.00 Ry     beta= 0.30
     Davidson diagonalization with overlap
     ethr =  6.35E-05,  avg # of iterations =  3.6

     total cpu time spent up to now is    38012.9 secs

     total energy              =   -4457.58887574 Ry
     estimated scf accuracy    <       0.13840249 Ry

     total magnetization       =    10.77 Bohr mag/cell
     absolute magnetization    =    12.02 Bohr mag/cell

     iteration #  7     ecut=    60.00 Ry     beta= 0.30
     Davidson diagonalization with overlap
     ethr =  5.86E-05,  avg # of iterations =  1.7

     total cpu time spent up to now is    38049.8 secs

     total energy              =   -4457.60225119 Ry
     estimated scf accuracy    <       0.06997596 Ry

     total magnetization       =    10.85 Bohr mag/cell
     absolute magnetization    =    12.06 Bohr mag/cell

     iteration #  8     ecut=    60.00 Ry     beta= 0.30
     Davidson diagonalization with overlap
     ethr =  2.97E-05,  avg # of iterations =  2.6

     total cpu time spent up to now is    38089.0 secs

     total energy              =   -4457.61644381 Ry
     estimated scf accuracy    <       0.10401186 Ry

     total magnetization       =    10.86 Bohr mag/cell
     absolute magnetization    =    12.07 Bohr mag/cell

     iteration #  9     ecut=    60.00 Ry     beta= 0.30
     Davidson diagonalization with overlap
     ethr =  2.97E-05,  avg # of iterations =  2.1

     total cpu time spent up to now is    38127.1 secs

     total energy              =   -4457.62652376 Ry
     estimated scf accuracy    <       0.03202857 Ry

     total magnetization       =    10.78 Bohr mag/cell
     absolute magnetization    =    12.04 Bohr mag/cell

     iteration # 10     ecut=    60.00 Ry     beta= 0.30
     Davidson diagonalization with overlap
     c_bands:  1 eigenvalues not converged
     c_bands:  1 eigenvalues not converged
     ethr =  1.36E-05,  avg # of iterations =  3.4

     total cpu time spent up to now is    38167.1 secs

     total energy              =   -4457.63179433 Ry
     estimated scf accuracy    <       0.03022938 Ry

     total magnetization       =    10.83 Bohr mag/cell
     absolute magnetization    =    12.07 Bohr mag/cell

     iteration # 11     ecut=    60.00 Ry     beta= 0.30
     Davidson diagonalization with overlap
     ethr =  1.28E-05,  avg # of iterations =  3.0

     total cpu time spent up to now is    38207.3 secs

     total energy              =   -4457.63455595 Ry
     estimated scf accuracy    <       0.01217149 Ry

     total magnetization       =    10.90 Bohr mag/cell
     absolute magnetization    =    12.22 Bohr mag/cell

     iteration # 12     ecut=    60.00 Ry     beta= 0.30
     Davidson diagonalization with overlap
     c_bands:  1 eigenvalues not converged
     c_bands:  2 eigenvalues not converged
     c_bands:  1 eigenvalues not converged
     c_bands:  1 eigenvalues not converged
     c_bands:  2 eigenvalues not converged
     c_bands:  1 eigenvalues not converged
     c_bands:  2 eigenvalues not converged
     c_bands:  1 eigenvalues not converged
     c_bands:  1 eigenvalues not converged
     c_bands:  1 eigenvalues not converged
     c_bands:  1 eigenvalues not converged
     c_bands:  2 eigenvalues not converged
     ethr =  5.16E-06,  avg # of iterations = 10.2

     total cpu time spent up to now is    38264.8 secs

     total energy              =   -4457.63489789 Ry
     estimated scf accuracy    <       0.02436355 Ry

     total magnetization       =    10.96 Bohr mag/cell
     absolute magnetization    =    12.34 Bohr mag/cell

     iteration # 13     ecut=    60.00 Ry     beta= 0.30
     Davidson diagonalization with overlap
     ethr =  5.16E-06,  avg # of iterations =  1.7

     total cpu time spent up to now is    38300.9 secs

     total energy              =   -4457.63563557 Ry
     estimated scf accuracy    <       0.00323840 Ry

     total magnetization       =    10.93 Bohr mag/cell
     absolute magnetization    =    12.34 Bohr mag/cell

     iteration # 14     ecut=    60.00 Ry     beta= 0.30
     Davidson diagonalization with overlap
     c_bands:  2 eigenvalues not converged
     c_bands:  1 eigenvalues not converged
     c_bands:  1 eigenvalues not converged
     c_bands:  1 eigenvalues not converged
     c_bands:  1 eigenvalues not converged
     c_bands:  1 eigenvalues not converged
     c_bands:  3 eigenvalues not converged
     c_bands:  1 eigenvalues not converged
     ethr =  1.37E-06,  avg # of iterations =  8.0

     total cpu time spent up to now is    38353.2 secs

     total energy              =   -4457.63574531 Ry
     estimated scf accuracy    <       0.00373560 Ry

     total magnetization       =    10.91 Bohr mag/cell
     absolute magnetization    =    12.33 Bohr mag/cell

     iteration # 15     ecut=    60.00 Ry     beta= 0.30
     Davidson diagonalization with overlap
     c_bands:  1 eigenvalues not converged
     c_bands:  1 eigenvalues not converged
     ethr =  1.37E-06,  avg # of iterations =  5.4

     total cpu time spent up to now is    38398.6 secs

     total energy              =   -4457.63566499 Ry
     estimated scf accuracy    <       0.00787112 Ry

     total magnetization       =    10.94 Bohr mag/cell
     absolute magnetization    =    12.36 Bohr mag/cell

     iteration # 16     ecut=    60.00 Ry     beta= 0.30
     Davidson diagonalization with overlap
     ethr =  1.37E-06,  avg # of iterations =  1.4

     total cpu time spent up to now is    38434.0 secs

     total energy              =   -4457.63594563 Ry
     estimated scf accuracy    <       0.00066844 Ry

     total magnetization       =    10.93 Bohr mag/cell
     absolute magnetization    =    12.35 Bohr mag/cell

     iteration # 17     ecut=    60.00 Ry     beta= 0.30
     Davidson diagonalization with overlap
     c_bands:  1 eigenvalues not converged
     c_bands:  1 eigenvalues not converged
     ethr =  2.83E-07,  avg # of iterations =  4.8

     total cpu time spent up to now is    38477.9 secs

     total energy              =   -4457.63600127 Ry
     estimated scf accuracy    <       0.00037490 Ry

     total magnetization       =    10.94 Bohr mag/cell
     absolute magnetization    =    12.37 Bohr mag/cell

     iteration # 18     ecut=    60.00 Ry     beta= 0.30
     Davidson diagonalization with overlap
     c_bands:  1 eigenvalues not converged
     ethr =  1.59E-07,  avg # of iterations =  3.5

     total cpu time spent up to now is    38518.9 secs

     total energy              =   -4457.63600422 Ry
     estimated scf accuracy    <       0.00054532 Ry

     total magnetization       =    10.95 Bohr mag/cell
     absolute magnetization    =    12.38 Bohr mag/cell

     iteration # 19     ecut=    60.00 Ry     beta= 0.30
     Davidson diagonalization with overlap
     ethr =  1.59E-07,  avg # of iterations =  1.8

     total cpu time spent up to now is    38555.7 secs

     total energy              =   -4457.63603963 Ry
     estimated scf accuracy    <       0.00019010 Ry

     total magnetization       =    10.94 Bohr mag/cell
     absolute magnetization    =    12.38 Bohr mag/cell

     iteration # 20     ecut=    60.00 Ry     beta= 0.30
     Davidson diagonalization with overlap
     ethr =  8.06E-08,  avg # of iterations =  2.8

     total cpu time spent up to now is    38594.4 secs

     total energy              =   -4457.63604599 Ry
     estimated scf accuracy    <       0.00009189 Ry

     total magnetization       =    10.95 Bohr mag/cell
     absolute magnetization    =    12.39 Bohr mag/cell

     iteration # 21     ecut=    60.00 Ry     beta= 0.30
     Davidson diagonalization with overlap
     ethr =  3.89E-08,  avg # of iterations =  3.9

     total cpu time spent up to now is    38635.9 secs

     total energy              =   -4457.63605916 Ry
     estimated scf accuracy    <       0.00007461 Ry

     total magnetization       =    10.95 Bohr mag/cell
     absolute magnetization    =    12.39 Bohr mag/cell

     iteration # 22     ecut=    60.00 Ry     beta= 0.30
     Davidson diagonalization with overlap
     ethr =  3.16E-08,  avg # of iterations =  2.0

     total cpu time spent up to now is    38673.6 secs

     total energy              =   -4457.63607463 Ry
     estimated scf accuracy    <       0.00002152 Ry

     total magnetization       =    10.95 Bohr mag/cell
     absolute magnetization    =    12.40 Bohr mag/cell

     iteration # 23     ecut=    60.00 Ry     beta= 0.30
     Davidson diagonalization with overlap
     c_bands:  1 eigenvalues not converged
     c_bands:  1 eigenvalues not converged
     c_bands:  1 eigenvalues not converged
     ethr =  9.12E-09,  avg # of iterations =  7.0

     total cpu time spent up to now is    38724.2 secs

     total energy              =   -4457.63607390 Ry
     estimated scf accuracy    <       0.00002765 Ry

     total magnetization       =    10.96 Bohr mag/cell
     absolute magnetization    =    12.42 Bohr mag/cell

     iteration # 24     ecut=    60.00 Ry     beta= 0.30
     Davidson diagonalization with overlap
     ethr =  9.12E-09,  avg # of iterations =  5.2

     total cpu time spent up to now is    38769.4 secs

     total energy              =   -4457.63607950 Ry
     estimated scf accuracy    <       0.00006499 Ry

     total magnetization       =    10.96 Bohr mag/cell
     absolute magnetization    =    12.41 Bohr mag/cell

     iteration # 25     ecut=    60.00 Ry     beta= 0.30
     Davidson diagonalization with overlap
     ethr =  9.12E-09,  avg # of iterations =  2.7

     total cpu time spent up to now is    38809.6 secs

     total energy              =   -4457.63608496 Ry
     estimated scf accuracy    <       0.00002364 Ry

     total magnetization       =    10.97 Bohr mag/cell
     absolute magnetization    =    12.42 Bohr mag/cell

     iteration # 26     ecut=    60.00 Ry     beta= 0.30
     Davidson diagonalization with overlap
     ethr =  9.12E-09,  avg # of iterations =  2.3

     total cpu time spent up to now is    38847.7 secs

     total energy              =   -4457.63608583 Ry
     estimated scf accuracy    <       0.00001693 Ry

     total magnetization       =    10.97 Bohr mag/cell
     absolute magnetization    =    12.43 Bohr mag/cell

     iteration # 27     ecut=    60.00 Ry     beta= 0.30
     Davidson diagonalization with overlap
     ethr =  7.17E-09,  avg # of iterations =  3.0

     total cpu time spent up to now is    38888.1 secs

     total energy              =   -4457.63608688 Ry
     estimated scf accuracy    <       0.00002352 Ry

     total magnetization       =    10.98 Bohr mag/cell
     absolute magnetization    =    12.44 Bohr mag/cell

     iteration # 28     ecut=    60.00 Ry     beta= 0.30
     Davidson diagonalization with overlap
     ethr =  7.17E-09,  avg # of iterations =  2.1

     total cpu time spent up to now is    38926.2 secs

     total energy              =   -4457.63608749 Ry
     estimated scf accuracy    <       0.00001431 Ry

     total magnetization       =    10.98 Bohr mag/cell
     absolute magnetization    =    12.44 Bohr mag/cell

     iteration # 29     ecut=    60.00 Ry     beta= 0.30
     Davidson diagonalization with overlap
     ethr =  6.06E-09,  avg # of iterations =  1.5

     total cpu time spent up to now is    38962.5 secs

     total energy              =   -4457.63608804 Ry
     estimated scf accuracy    <       0.00000699 Ry

     total magnetization       =    10.98 Bohr mag/cell
     absolute magnetization    =    12.44 Bohr mag/cell

     iteration # 30     ecut=    60.00 Ry     beta= 0.30
     Davidson diagonalization with overlap
     ethr =  2.96E-09,  avg # of iterations =  2.3

     total cpu time spent up to now is    39000.8 secs

     total energy              =   -4457.63608832 Ry
     estimated scf accuracy    <       0.00000431 Ry

     total magnetization       =    10.98 Bohr mag/cell
     absolute magnetization    =    12.44 Bohr mag/cell

     iteration # 31     ecut=    60.00 Ry     beta= 0.30
     Davidson diagonalization with overlap
     ethr =  1.83E-09,  avg # of iterations =  5.3

     total cpu time spent up to now is    39045.8 secs

     total energy              =   -4457.63608815 Ry
     estimated scf accuracy    <       0.00001478 Ry

     total magnetization       =    10.98 Bohr mag/cell
     absolute magnetization    =    12.45 Bohr mag/cell

     iteration # 32     ecut=    60.00 Ry     beta= 0.30
     Davidson diagonalization with overlap
     ethr =  1.83E-09,  avg # of iterations =  2.2

     total cpu time spent up to now is    39083.8 secs

     total energy              =   -4457.63608908 Ry
     estimated scf accuracy    <       0.00000122 Ry

     total magnetization       =    10.98 Bohr mag/cell
     absolute magnetization    =    12.45 Bohr mag/cell

     iteration # 33     ecut=    60.00 Ry     beta= 0.30
     Davidson diagonalization with overlap
     ethr =  5.16E-10,  avg # of iterations =  5.8

     total cpu time spent up to now is    39130.0 secs

     total energy              =   -4457.63608926 Ry
     estimated scf accuracy    <       0.00000128 Ry

     total magnetization       =    10.98 Bohr mag/cell
     absolute magnetization    =    12.45 Bohr mag/cell

     iteration # 34     ecut=    60.00 Ry     beta= 0.30
     Davidson diagonalization with overlap
     ethr =  5.16E-10,  avg # of iterations =  3.4

     total cpu time spent up to now is    39170.3 secs

     total energy              =   -4457.63608943 Ry
     estimated scf accuracy    <       0.00000282 Ry

     total magnetization       =    10.98 Bohr mag/cell
     absolute magnetization    =    12.45 Bohr mag/cell

     iteration # 35     ecut=    60.00 Ry     beta= 0.30
     Davidson diagonalization with overlap
     ethr =  5.16E-10,  avg # of iterations =  1.9

     total cpu time spent up to now is    39207.7 secs

     total energy              =   -4457.63608966 Ry
     estimated scf accuracy    <       0.00000099 Ry

     total magnetization       =    10.98 Bohr mag/cell
     absolute magnetization    =    12.45 Bohr mag/cell

     iteration # 36     ecut=    60.00 Ry     beta= 0.30
     Davidson diagonalization with overlap
     ethr =  4.20E-10,  avg # of iterations =  1.8

     total cpu time spent up to now is    39244.4 secs

     total energy              =   -4457.63608994 Ry
     estimated scf accuracy    <       0.00000084 Ry

     total magnetization       =    10.99 Bohr mag/cell
     absolute magnetization    =    12.45 Bohr mag/cell

     iteration # 37     ecut=    60.00 Ry     beta= 0.30
     Davidson diagonalization with overlap
     ethr =  3.55E-10,  avg # of iterations =  4.1

     total cpu time spent up to now is    39287.4 secs

     total energy              =   -4457.63609019 Ry
     estimated scf accuracy    <       0.00000096 Ry

     total magnetization       =    10.99 Bohr mag/cell
     absolute magnetization    =    12.45 Bohr mag/cell

     iteration # 38     ecut=    60.00 Ry     beta= 0.30
     Davidson diagonalization with overlap
     ethr =  3.55E-10,  avg # of iterations =  3.8

     total cpu time spent up to now is    39330.2 secs

     total energy              =   -4457.63609023 Ry
     estimated scf accuracy    <       0.00000210 Ry

     total magnetization       =    10.99 Bohr mag/cell
     absolute magnetization    =    12.45 Bohr mag/cell

     iteration # 39     ecut=    60.00 Ry     beta= 0.30
     Davidson diagonalization with overlap
     ethr =  3.55E-10,  avg # of iterations =  1.4

     total cpu time spent up to now is    39366.3 secs

     total energy              =   -4457.63609050 Ry
     estimated scf accuracy    <       0.00000056 Ry

     total magnetization       =    10.99 Bohr mag/cell
     absolute magnetization    =    12.45 Bohr mag/cell

     iteration # 40     ecut=    60.00 Ry     beta= 0.30
     Davidson diagonalization with overlap
     ethr =  2.38E-10,  avg # of iterations =  3.7

     total cpu time spent up to now is    39407.7 secs

     total energy              =   -4457.63609059 Ry
     estimated scf accuracy    <       0.00000041 Ry

     total magnetization       =    10.99 Bohr mag/cell
     absolute magnetization    =    12.45 Bohr mag/cell

     iteration # 41     ecut=    60.00 Ry     beta= 0.30
     Davidson diagonalization with overlap
     ethr =  1.73E-10,  avg # of iterations =  3.6

     total cpu time spent up to now is    39448.0 secs

     total energy              =   -4457.63609078 Ry
     estimated scf accuracy    <       0.00000088 Ry

     total magnetization       =    10.99 Bohr mag/cell
     absolute magnetization    =    12.45 Bohr mag/cell

     iteration # 42     ecut=    60.00 Ry     beta= 0.30
     Davidson diagonalization with overlap
     ethr =  1.73E-10,  avg # of iterations =  5.5

     total cpu time spent up to now is    39494.6 secs

     total energy              =   -4457.63609083 Ry
     estimated scf accuracy    <       0.00000041 Ry

     total magnetization       =    10.99 Bohr mag/cell
     absolute magnetization    =    12.46 Bohr mag/cell

     iteration # 43     ecut=    60.00 Ry     beta= 0.30
     Davidson diagonalization with overlap
     ethr =  1.73E-10,  avg # of iterations =  1.9

     total cpu time spent up to now is    39531.4 secs

     total energy              =   -4457.63609101 Ry
     estimated scf accuracy    <       0.00000070 Ry

     total magnetization       =    10.99 Bohr mag/cell
     absolute magnetization    =    12.45 Bohr mag/cell

     iteration # 44     ecut=    60.00 Ry     beta= 0.30
     Davidson diagonalization with overlap
     ethr =  1.73E-10,  avg # of iterations =  3.1

     total cpu time spent up to now is    39572.1 secs

     total energy              =   -4457.63609110 Ry
     estimated scf accuracy    <       0.00000036 Ry

     total magnetization       =    10.99 Bohr mag/cell
     absolute magnetization    =    12.46 Bohr mag/cell

     iteration # 45     ecut=    60.00 Ry     beta= 0.30
     Davidson diagonalization with overlap
     ethr =  1.54E-10,  avg # of iterations =  1.8

     total cpu time spent up to now is    39608.4 secs

     total energy              =   -4457.63609123 Ry
     estimated scf accuracy    <       0.00000041 Ry

     total magnetization       =    10.99 Bohr mag/cell
     absolute magnetization    =    12.46 Bohr mag/cell

     iteration # 46     ecut=    60.00 Ry     beta= 0.30
     Davidson diagonalization with overlap
     ethr =  1.54E-10,  avg # of iterations =  6.0

     total cpu time spent up to now is    39659.1 secs

     total energy              =   -4457.63609178 Ry
     estimated scf accuracy    <       0.00000064 Ry

     total magnetization       =    10.99 Bohr mag/cell
     absolute magnetization    =    12.46 Bohr mag/cell

     iteration # 47     ecut=    60.00 Ry     beta= 0.30
     Davidson diagonalization with overlap
     ethr =  1.54E-10,  avg # of iterations =  1.3

     total cpu time spent up to now is    39694.5 secs

     total energy              =   -4457.63609152 Ry
     estimated scf accuracy    <       0.00000053 Ry

     total magnetization       =    10.99 Bohr mag/cell
     absolute magnetization    =    12.46 Bohr mag/cell

     iteration # 48     ecut=    60.00 Ry     beta= 0.30
     Davidson diagonalization with overlap
     ethr =  1.54E-10,  avg # of iterations =  2.6

     total cpu time spent up to now is    39734.1 secs

     total energy              =   -4457.63609174 Ry
     estimated scf accuracy    <       0.00000093 Ry

     total magnetization       =    10.99 Bohr mag/cell
     absolute magnetization    =    12.46 Bohr mag/cell

     iteration # 49     ecut=    60.00 Ry     beta= 0.30
     Davidson diagonalization with overlap
     ethr =  1.54E-10,  avg # of iterations =  1.6

     total cpu time spent up to now is    39770.3 secs

     total energy              =   -4457.63609189 Ry
     estimated scf accuracy    <       0.00000053 Ry

     total magnetization       =    10.99 Bohr mag/cell
     absolute magnetization    =    12.46 Bohr mag/cell

     iteration # 50     ecut=    60.00 Ry     beta= 0.30
     Davidson diagonalization with overlap
     ethr =  1.54E-10,  avg # of iterations =  3.7

     total cpu time spent up to now is    39811.5 secs

     total energy              =   -4457.63609186 Ry
     estimated scf accuracy    <       0.00000048 Ry

     total magnetization       =    10.99 Bohr mag/cell
     absolute magnetization    =    12.46 Bohr mag/cell

     iteration # 51     ecut=    60.00 Ry     beta= 0.30
     Davidson diagonalization with overlap
     ethr =  1.54E-10,  avg # of iterations =  1.2

     total cpu time spent up to now is    39846.4 secs

     total energy              =   -4457.63609204 Ry
     estimated scf accuracy    <       0.00000078 Ry

     total magnetization       =    10.99 Bohr mag/cell
     absolute magnetization    =    12.46 Bohr mag/cell

     iteration # 52     ecut=    60.00 Ry     beta= 0.30
     Davidson diagonalization with overlap
     ethr =  1.54E-10,  avg # of iterations =  5.8

     total cpu time spent up to now is    39896.2 secs

     total energy              =   -4457.63609251 Ry
     estimated scf accuracy    <       0.00000067 Ry

     total magnetization       =    10.99 Bohr mag/cell
     absolute magnetization    =    12.46 Bohr mag/cell

     iteration # 53     ecut=    60.00 Ry     beta= 0.30
     Davidson diagonalization with overlap
     ethr =  1.54E-10,  avg # of iterations =  4.9

     total cpu time spent up to now is    39939.7 secs

     total energy              =   -4457.63609263 Ry
     estimated scf accuracy    <       0.00000055 Ry

     total magnetization       =    10.99 Bohr mag/cell
     absolute magnetization    =    12.46 Bohr mag/cell

     iteration # 54     ecut=    60.00 Ry     beta= 0.30
     Davidson diagonalization with overlap
     ethr =  1.54E-10,  avg # of iterations =  5.5

     total cpu time spent up to now is    39989.8 secs

     total energy              =   -4457.63609307 Ry
     estimated scf accuracy    <       0.00000080 Ry

     total magnetization       =    10.99 Bohr mag/cell
     absolute magnetization    =    12.46 Bohr mag/cell

     iteration # 55     ecut=    60.00 Ry     beta= 0.30
     Davidson diagonalization with overlap
     ethr =  1.54E-10,  avg # of iterations =  1.1

     total cpu time spent up to now is    40024.4 secs

     total energy              =   -4457.63608435 Ry
     estimated scf accuracy    <       0.00000047 Ry

     total magnetization       =    10.99 Bohr mag/cell
     absolute magnetization    =    12.46 Bohr mag/cell

     iteration # 56     ecut=    60.00 Ry     beta= 0.30
     Davidson diagonalization with overlap
     ethr =  1.54E-10,  avg # of iterations = 10.0

     total cpu time spent up to now is    40092.5 secs

     total energy              =   -4457.63609056 Ry
     estimated scf accuracy    <       0.00000506 Ry

     total magnetization       =    10.99 Bohr mag/cell
     absolute magnetization    =    12.46 Bohr mag/cell

     iteration # 57     ecut=    60.00 Ry     beta= 0.30
     Davidson diagonalization with overlap
     ethr =  1.54E-10,  avg # of iterations =  5.7

     total cpu time spent up to now is    40140.8 secs

     total energy              =   -4457.63609079 Ry
     estimated scf accuracy    <       0.00000179 Ry

     total magnetization       =    10.99 Bohr mag/cell
     absolute magnetization    =    12.46 Bohr mag/cell

     iteration # 58     ecut=    60.00 Ry     beta= 0.30
     Davidson diagonalization with overlap
     ethr =  1.54E-10,  avg # of iterations =  3.9

     total cpu time spent up to now is    40182.5 secs

     total energy              =   -4457.63608840 Ry
     estimated scf accuracy    <       0.00000095 Ry

     total magnetization       =    10.99 Bohr mag/cell
     absolute magnetization    =    12.46 Bohr mag/cell

     iteration # 59     ecut=    60.00 Ry     beta= 0.30
     Davidson diagonalization with overlap
     ethr =  1.54E-10,  avg # of iterations =  7.1

     total cpu time spent up to now is    40237.6 secs

     total energy              =   -4457.63608760 Ry
     estimated scf accuracy    <       0.00000225 Ry

     total magnetization       =    10.99 Bohr mag/cell
     absolute magnetization    =    12.46 Bohr mag/cell

     iteration # 60     ecut=    60.00 Ry     beta= 0.30
     Davidson diagonalization with overlap
     ethr =  1.54E-10,  avg # of iterations =  8.3

     total cpu time spent up to now is    40299.4 secs

     total energy              =   -4457.63608937 Ry
     estimated scf accuracy    <       0.00000259 Ry

     total magnetization       =    10.99 Bohr mag/cell
     absolute magnetization    =    12.46 Bohr mag/cell

     iteration # 61     ecut=    60.00 Ry     beta= 0.30
     Davidson diagonalization with overlap
     ethr =  1.54E-10,  avg # of iterations =  7.1

     total cpu time spent up to now is    40355.6 secs

     total energy              =   -4457.63609063 Ry
     estimated scf accuracy    <       0.00000185 Ry

     total magnetization       =    10.99 Bohr mag/cell
     absolute magnetization    =    12.46 Bohr mag/cell

     iteration # 62     ecut=    60.00 Ry     beta= 0.30
     Davidson diagonalization with overlap
     ethr =  1.54E-10,  avg # of iterations =  6.0

     total cpu time spent up to now is    40407.4 secs

     total energy              =   -4457.63609103 Ry
     estimated scf accuracy    <       0.00000075 Ry

     total magnetization       =    10.99 Bohr mag/cell
     absolute magnetization    =    12.46 Bohr mag/cell

     iteration # 63     ecut=    60.00 Ry     beta= 0.30
     Davidson diagonalization with overlap
     ethr =  1.54E-10,  avg # of iterations =  7.1

     total cpu time spent up to now is    40464.7 secs

     total energy              =   -4457.63609253 Ry
     estimated scf accuracy    <       0.00000075 Ry

     total magnetization       =    10.99 Bohr mag/cell
     absolute magnetization    =    12.46 Bohr mag/cell

     iteration # 64     ecut=    60.00 Ry     beta= 0.30
     Davidson diagonalization with overlap
     ethr =  1.54E-10,  avg # of iterations =  1.1

     total cpu time spent up to now is    40499.8 secs

     total energy              =   -4457.63609222 Ry
     estimated scf accuracy    <       0.00000035 Ry

     total magnetization       =    10.99 Bohr mag/cell
     absolute magnetization    =    12.46 Bohr mag/cell

     iteration # 65     ecut=    60.00 Ry     beta= 0.30
     Davidson diagonalization with overlap
     ethr =  1.48E-10,  avg # of iterations =  6.1

     total cpu time spent up to now is    40548.8 secs

     total energy              =   -4457.63609231 Ry
     estimated scf accuracy    <       0.00000289 Ry

     total magnetization       =    10.99 Bohr mag/cell
     absolute magnetization    =    12.46 Bohr mag/cell

     iteration # 66     ecut=    60.00 Ry     beta= 0.30
     Davidson diagonalization with overlap
     ethr =  1.48E-10,  avg # of iterations =  5.4

     total cpu time spent up to now is    40594.1 secs

     total energy              =   -4457.63609257 Ry
     estimated scf accuracy    <       0.00000044 Ry

     total magnetization       =    10.99 Bohr mag/cell
     absolute magnetization    =    12.46 Bohr mag/cell

     iteration # 67     ecut=    60.00 Ry     beta= 0.30
     Davidson diagonalization with overlap
     ethr =  1.48E-10,  avg # of iterations =  4.8

     total cpu time spent up to now is    40637.7 secs

     total energy              =   -4457.63609275 Ry
     estimated scf accuracy    <       0.00000039 Ry

     total magnetization       =    10.99 Bohr mag/cell
     absolute magnetization    =    12.46 Bohr mag/cell

     iteration # 68     ecut=    60.00 Ry     beta= 0.30
     Davidson diagonalization with overlap
     ethr =  1.48E-10,  avg # of iterations =  4.7

     total cpu time spent up to now is    40681.2 secs

     total energy              =   -4457.63609118 Ry
     estimated scf accuracy    <       0.00000044 Ry

     total magnetization       =    10.99 Bohr mag/cell
     absolute magnetization    =    12.46 Bohr mag/cell

     iteration # 69     ecut=    60.00 Ry     beta= 0.30
     Davidson diagonalization with overlap
     ethr =  1.48E-10,  avg # of iterations =  8.6

     total cpu time spent up to now is    40742.9 secs

     total energy              =   -4457.63609433 Ry
     estimated scf accuracy    <       0.00000100 Ry

     total magnetization       =    10.99 Bohr mag/cell
     absolute magnetization    =    12.46 Bohr mag/cell

     iteration # 70     ecut=    60.00 Ry     beta= 0.30
     Davidson diagonalization with overlap
     ethr =  1.48E-10,  avg # of iterations =  4.3

     total cpu time spent up to now is    40786.5 secs

     total energy              =   -4457.63609350 Ry
     estimated scf accuracy    <       0.00000101 Ry

     total magnetization       =    10.99 Bohr mag/cell
     absolute magnetization    =    12.46 Bohr mag/cell

     iteration # 71     ecut=    60.00 Ry     beta= 0.30
     Davidson diagonalization with overlap
     ethr =  1.48E-10,  avg # of iterations =  5.4

     total cpu time spent up to now is    40835.6 secs

     total energy              =   -4457.63609046 Ry
     estimated scf accuracy    <       0.00000153 Ry

     total magnetization       =    10.99 Bohr mag/cell
     absolute magnetization    =    12.46 Bohr mag/cell

     iteration # 72     ecut=    60.00 Ry     beta= 0.30
     Davidson diagonalization with overlap
     ethr =  1.48E-10,  avg # of iterations =  8.1

     total cpu time spent up to now is    40895.6 secs

     total energy              =   -4457.63609095 Ry
     estimated scf accuracy    <       0.00000058 Ry

     total magnetization       =    10.99 Bohr mag/cell
     absolute magnetization    =    12.46 Bohr mag/cell

     iteration # 73     ecut=    60.00 Ry     beta= 0.30
     Davidson diagonalization with overlap
     ethr =  1.48E-10,  avg # of iterations =  8.4

     total cpu time spent up to now is    40958.1 secs

     total energy              =   -4457.63609181 Ry
     estimated scf accuracy    <       0.00000145 Ry

     total magnetization       =    10.99 Bohr mag/cell
     absolute magnetization    =    12.46 Bohr mag/cell

     iteration # 74     ecut=    60.00 Ry     beta= 0.30
     Davidson diagonalization with overlap
     ethr =  1.48E-10,  avg # of iterations =  7.4

     total cpu time spent up to now is    41014.7 secs

     total energy              =   -4457.63609329 Ry
     estimated scf accuracy    <       0.00000044 Ry

     total magnetization       =    10.99 Bohr mag/cell
     absolute magnetization    =    12.46 Bohr mag/cell

     iteration # 75     ecut=    60.00 Ry     beta= 0.30
     Davidson diagonalization with overlap
     ethr =  1.48E-10,  avg # of iterations =  1.5

     total cpu time spent up to now is    41051.2 secs

     total energy              =   -4457.63609340 Ry
     estimated scf accuracy    <       0.00000057 Ry

     total magnetization       =    10.99 Bohr mag/cell
     absolute magnetization    =    12.46 Bohr mag/cell

     iteration # 76     ecut=    60.00 Ry     beta= 0.30
     Davidson diagonalization with overlap
     ethr =  1.48E-10,  avg # of iterations =  3.2

     total cpu time spent up to now is    41091.2 secs

     total energy              =   -4457.63609359 Ry
     estimated scf accuracy    <       0.00000025 Ry

     total magnetization       =    10.99 Bohr mag/cell
     absolute magnetization    =    12.46 Bohr mag/cell

     iteration # 77     ecut=    60.00 Ry     beta= 0.30
     Davidson diagonalization with overlap
     ethr =  1.07E-10,  avg # of iterations =  5.4

     total cpu time spent up to now is    41136.6 secs

     total energy              =   -4457.63609369 Ry
     estimated scf accuracy    <       0.00000046 Ry

     total magnetization       =    10.99 Bohr mag/cell
     absolute magnetization    =    12.46 Bohr mag/cell

     iteration # 78     ecut=    60.00 Ry     beta= 0.30
     Davidson diagonalization with overlap
     ethr =  1.07E-10,  avg # of iterations =  1.0

     total cpu time spent up to now is    41171.2 secs

     total energy              =   -4457.63609367 Ry
     estimated scf accuracy    <       0.00000030 Ry

     total magnetization       =    10.99 Bohr mag/cell
     absolute magnetization    =    12.46 Bohr mag/cell

     iteration # 79     ecut=    60.00 Ry     beta= 0.30
     Davidson diagonalization with overlap
     ethr =  1.07E-10,  avg # of iterations =  1.2

     total cpu time spent up to now is    41206.9 secs

     total energy              =   -4457.63609381 Ry
     estimated scf accuracy    <       0.00000031 Ry

     total magnetization       =    10.99 Bohr mag/cell
     absolute magnetization    =    12.46 Bohr mag/cell

     iteration # 80     ecut=    60.00 Ry     beta= 0.30
     Davidson diagonalization with overlap
     ethr =  1.07E-10,  avg # of iterations =  4.6

     total cpu time spent up to now is    41249.8 secs

     total energy              =   -4457.63609391 Ry
     estimated scf accuracy    <       0.00000043 Ry

     total magnetization       =    10.99 Bohr mag/cell
     absolute magnetization    =    12.46 Bohr mag/cell

     iteration # 81     ecut=    60.00 Ry     beta= 0.30
     Davidson diagonalization with overlap
     ethr =  1.07E-10,  avg # of iterations =  3.7

     total cpu time spent up to now is    41291.4 secs

     total energy              =   -4457.63609383 Ry
     estimated scf accuracy    <       0.00000025 Ry

     total magnetization       =    10.99 Bohr mag/cell
     absolute magnetization    =    12.46 Bohr mag/cell

     iteration # 82     ecut=    60.00 Ry     beta= 0.30
     Davidson diagonalization with overlap
     ethr =  1.07E-10,  avg # of iterations =  2.0

     total cpu time spent up to now is    41328.7 secs

     total energy              =   -4457.63609398 Ry
     estimated scf accuracy    <       0.00000047 Ry

     total magnetization       =    10.99 Bohr mag/cell
     absolute magnetization    =    12.46 Bohr mag/cell

     iteration # 83     ecut=    60.00 Ry     beta= 0.30
     Davidson diagonalization with overlap
     ethr =  1.07E-10,  avg # of iterations =  5.7

     total cpu time spent up to now is    41378.6 secs

     total energy              =   -4457.63609419 Ry
     estimated scf accuracy    <       0.00000082 Ry

     total magnetization       =    10.99 Bohr mag/cell
     absolute magnetization    =    12.46 Bohr mag/cell

     iteration # 84     ecut=    60.00 Ry     beta= 0.30
     Davidson diagonalization with overlap
     ethr =  1.07E-10,  avg # of iterations =  3.0

     total cpu time spent up to now is    41418.7 secs

     total energy              =   -4457.63609432 Ry
     estimated scf accuracy    <       0.00000065 Ry

     total magnetization       =    10.99 Bohr mag/cell
     absolute magnetization    =    12.46 Bohr mag/cell

     iteration # 85     ecut=    60.00 Ry     beta= 0.30
     Davidson diagonalization with overlap
     ethr =  1.07E-10,  avg # of iterations =  5.7

     total cpu time spent up to now is    41468.2 secs

     total energy              =   -4457.63609449 Ry
     estimated scf accuracy    <       0.00000059 Ry

     total magnetization       =    11.00 Bohr mag/cell
     absolute magnetization    =    12.46 Bohr mag/cell

     iteration # 86     ecut=    60.00 Ry     beta= 0.30
     Davidson diagonalization with overlap
     ethr =  1.07E-10,  avg # of iterations =  4.6

     total cpu time spent up to now is    41511.6 secs

     total energy              =   -4457.63609467 Ry
     estimated scf accuracy    <       0.00000048 Ry

     total magnetization       =    10.99 Bohr mag/cell
     absolute magnetization    =    12.46 Bohr mag/cell

     iteration # 87     ecut=    60.00 Ry     beta= 0.30
     Davidson diagonalization with overlap
     ethr =  1.07E-10,  avg # of iterations =  5.3

     total cpu time spent up to now is    41559.8 secs

     total energy              =   -4457.63609217 Ry
     estimated scf accuracy    <       0.00000087 Ry

     total magnetization       =    11.00 Bohr mag/cell
     absolute magnetization    =    12.46 Bohr mag/cell

     iteration # 88     ecut=    60.00 Ry     beta= 0.30
     Davidson diagonalization with overlap
     ethr =  1.07E-10,  avg # of iterations =  8.0

     total cpu time spent up to now is    41618.8 secs

     total energy              =   -4457.63609405 Ry
     estimated scf accuracy    <       0.00000077 Ry

     total magnetization       =    10.99 Bohr mag/cell
     absolute magnetization    =    12.46 Bohr mag/cell

     iteration # 89     ecut=    60.00 Ry     beta= 0.30
     Davidson diagonalization with overlap
     ethr =  1.07E-10,  avg # of iterations =  3.5

     total cpu time spent up to now is    41659.6 secs

     total energy              =   -4457.63608683 Ry
     estimated scf accuracy    <       0.00000031 Ry

     total magnetization       =    10.99 Bohr mag/cell
     absolute magnetization    =    12.46 Bohr mag/cell

     iteration # 90     ecut=    60.00 Ry     beta= 0.30
     Davidson diagonalization with overlap
     ethr =  1.07E-10,  avg # of iterations = 11.2

     total cpu time spent up to now is    41732.0 secs

     total energy              =   -4457.63609178 Ry
     estimated scf accuracy    <       0.00000174 Ry

     total magnetization       =    11.00 Bohr mag/cell
     absolute magnetization    =    12.46 Bohr mag/cell

     iteration # 91     ecut=    60.00 Ry     beta= 0.30
     Davidson diagonalization with overlap
     ethr =  1.07E-10,  avg # of iterations =  9.0

     total cpu time spent up to now is    41796.3 secs

     total energy              =   -4457.63609449 Ry
     estimated scf accuracy    <       0.00000049 Ry

     total magnetization       =    11.00 Bohr mag/cell
     absolute magnetization    =    12.46 Bohr mag/cell

     iteration # 92     ecut=    60.00 Ry     beta= 0.30
     Davidson diagonalization with overlap
     ethr =  1.07E-10,  avg # of iterations =  5.6

     total cpu time spent up to now is    41845.9 secs

     total energy              =   -4457.63609475 Ry
     estimated scf accuracy    <       0.00000127 Ry

     total magnetization       =    11.00 Bohr mag/cell
     absolute magnetization    =    12.46 Bohr mag/cell

     iteration # 93     ecut=    60.00 Ry     beta= 0.30
     Davidson diagonalization with overlap
     ethr =  1.07E-10,  avg # of iterations =  3.2

     total cpu time spent up to now is    41885.0 secs

     total energy              =   -4457.63609476 Ry
     estimated scf accuracy    <       0.00000026 Ry

     total magnetization       =    11.00 Bohr mag/cell
     absolute magnetization    =    12.46 Bohr mag/cell

     iteration # 94     ecut=    60.00 Ry     beta= 0.30
     Davidson diagonalization with overlap
     ethr =  1.07E-10,  avg # of iterations =  2.9

     total cpu time spent up to now is    41923.4 secs

     total energy              =   -4457.63609485 Ry
     estimated scf accuracy    <       0.00000056 Ry

     total magnetization       =    11.00 Bohr mag/cell
     absolute magnetization    =    12.46 Bohr mag/cell

     iteration # 95     ecut=    60.00 Ry     beta= 0.30
     Davidson diagonalization with overlap
     ethr =  1.07E-10,  avg # of iterations =  3.3

     total cpu time spent up to now is    41964.3 secs

     total energy              =   -4457.63609496 Ry
     estimated scf accuracy    <       0.00000021 Ry

     total magnetization       =    11.00 Bohr mag/cell
     absolute magnetization    =    12.46 Bohr mag/cell

     iteration # 96     ecut=    60.00 Ry     beta= 0.30
     Davidson diagonalization with overlap
     ethr =  8.77E-11,  avg # of iterations =  5.0

     total cpu time spent up to now is    42008.3 secs

     total energy              =   -4457.63609447 Ry
     estimated scf accuracy    <       0.00000034 Ry

     total magnetization       =    11.00 Bohr mag/cell
     absolute magnetization    =    12.46 Bohr mag/cell

     iteration # 97     ecut=    60.00 Ry     beta= 0.30
     Davidson diagonalization with overlap
     ethr =  8.77E-11,  avg # of iterations =  7.9

     total cpu time spent up to now is    42066.9 secs

     total energy              =   -4457.63609592 Ry
     estimated scf accuracy    <       0.00000051 Ry

     total magnetization       =    11.00 Bohr mag/cell
     absolute magnetization    =    12.46 Bohr mag/cell

     iteration # 98     ecut=    60.00 Ry     beta= 0.30
     Davidson diagonalization with overlap
     ethr =  8.77E-11,  avg # of iterations =  5.2

     total cpu time spent up to now is    42110.9 secs

     total energy              =   -4457.63609288 Ry
     estimated scf accuracy    <       0.00000048 Ry

     total magnetization       =    11.00 Bohr mag/cell
     absolute magnetization    =    12.46 Bohr mag/cell

     iteration # 99     ecut=    60.00 Ry     beta= 0.30
     Davidson diagonalization with overlap
     ethr =  8.77E-11,  avg # of iterations =  8.4

     total cpu time spent up to now is    42172.4 secs

     total energy              =   -4457.63609492 Ry
     estimated scf accuracy    <       0.00000049 Ry

     total magnetization       =    11.00 Bohr mag/cell
     absolute magnetization    =    12.46 Bohr mag/cell

     iteration #100     ecut=    60.00 Ry     beta= 0.30
     Davidson diagonalization with overlap
     ethr =  8.77E-11,  avg # of iterations =  1.4

     total cpu time spent up to now is    42208.1 secs

     total energy              =   -4457.63609496 Ry
     estimated scf accuracy    <       0.00000034 Ry

     total magnetization       =    11.00 Bohr mag/cell
     absolute magnetization    =    12.46 Bohr mag/cell

     iteration #101     ecut=    60.00 Ry     beta= 0.30
     Davidson diagonalization with overlap
     ethr =  8.77E-11,  avg # of iterations =  1.1

     total cpu time spent up to now is    42243.1 secs

     total energy              =   -4457.63609486 Ry
     estimated scf accuracy    <       0.00000021 Ry

     total magnetization       =    11.00 Bohr mag/cell
     absolute magnetization    =    12.46 Bohr mag/cell

     iteration #102     ecut=    60.00 Ry     beta= 0.30
     Davidson diagonalization with overlap
     ethr =  8.77E-11,  avg # of iterations =  1.2

     total cpu time spent up to now is    42278.8 secs

     total energy              =   -4457.63609495 Ry
     estimated scf accuracy    <       0.00000025 Ry

     total magnetization       =    11.00 Bohr mag/cell
     absolute magnetization    =    12.46 Bohr mag/cell

     iteration #103     ecut=    60.00 Ry     beta= 0.30
     Davidson diagonalization with overlap
     ethr =  8.77E-11,  avg # of iterations =  1.2

     total cpu time spent up to now is    42313.8 secs

     total energy              =   -4457.63609499 Ry
     estimated scf accuracy    <       0.00000028 Ry

     total magnetization       =    11.00 Bohr mag/cell
     absolute magnetization    =    12.46 Bohr mag/cell

     iteration #104     ecut=    60.00 Ry     beta= 0.30
     Davidson diagonalization with overlap
     ethr =  8.77E-11,  avg # of iterations =  1.1

     total cpu time spent up to now is    42348.7 secs

     total energy              =   -4457.63609504 Ry
     estimated scf accuracy    <       0.00000029 Ry

     total magnetization       =    11.00 Bohr mag/cell
     absolute magnetization    =    12.46 Bohr mag/cell

     iteration #105     ecut=    60.00 Ry     beta= 0.30
     Davidson diagonalization with overlap
     ethr =  8.77E-11,  avg # of iterations =  5.9

     total cpu time spent up to now is    42400.5 secs

     total energy              =   -4457.63609545 Ry
     estimated scf accuracy    <       0.00000150 Ry

     total magnetization       =    11.00 Bohr mag/cell
     absolute magnetization    =    12.46 Bohr mag/cell

     iteration #106     ecut=    60.00 Ry     beta= 0.30
     Davidson diagonalization with overlap
     ethr =  8.77E-11,  avg # of iterations =  7.0

     total cpu time spent up to now is    42455.1 secs

     total energy              =   -4457.63609515 Ry
     estimated scf accuracy    <       0.00000094 Ry

     total magnetization       =    11.00 Bohr mag/cell
     absolute magnetization    =    12.46 Bohr mag/cell

     iteration #107     ecut=    60.00 Ry     beta= 0.30
     Davidson diagonalization with overlap
     ethr =  8.77E-11,  avg # of iterations =  8.3

     total cpu time spent up to now is    42515.7 secs

     total energy              =   -4457.63609684 Ry
     estimated scf accuracy    <       0.00000068 Ry

     total magnetization       =    11.00 Bohr mag/cell
     absolute magnetization    =    12.46 Bohr mag/cell

     iteration #108     ecut=    60.00 Ry     beta= 0.30
     Davidson diagonalization with overlap
     ethr =  8.77E-11,  avg # of iterations =  4.9

     total cpu time spent up to now is    42559.4 secs

     total energy              =   -4457.63609694 Ry
     estimated scf accuracy    <       0.00000044 Ry

     total magnetization       =    11.00 Bohr mag/cell
     absolute magnetization    =    12.46 Bohr mag/cell

     iteration #109     ecut=    60.00 Ry     beta= 0.30
     Davidson diagonalization with overlap
     ethr =  8.77E-11,  avg # of iterations =  5.4

     total cpu time spent up to now is    42608.9 secs

     total energy              =   -4457.63609711 Ry
     estimated scf accuracy    <       0.00000141 Ry

     total magnetization       =    11.00 Bohr mag/cell
     absolute magnetization    =    12.46 Bohr mag/cell

     iteration #110     ecut=    60.00 Ry     beta= 0.30
     Davidson diagonalization with overlap
     ethr =  8.77E-11,  avg # of iterations =  6.7

     total cpu time spent up to now is    42661.6 secs

     total energy              =   -4457.63609755 Ry
     estimated scf accuracy    <       0.00000046 Ry

     total magnetization       =    11.00 Bohr mag/cell
     absolute magnetization    =    12.46 Bohr mag/cell

     iteration #111     ecut=    60.00 Ry     beta= 0.30
     Davidson diagonalization with overlap
     ethr =  8.77E-11,  avg # of iterations =  5.5

     total cpu time spent up to now is    42710.9 secs

     total energy              =   -4457.63605226 Ry
     estimated scf accuracy    <       0.00000016 Ry

     total magnetization       =    11.00 Bohr mag/cell
     absolute magnetization    =    12.46 Bohr mag/cell

     iteration #112     ecut=    60.00 Ry     beta= 0.30
     Davidson diagonalization with overlap
     c_bands:  1 eigenvalues not converged
     c_bands:  1 eigenvalues not converged
     ethr =  6.74E-11,  avg # of iterations = 13.2

     total cpu time spent up to now is    42794.9 secs

     total energy              =   -4457.63609982 Ry
     estimated scf accuracy    <       0.00000023 Ry

     total magnetization       =    11.01 Bohr mag/cell
     absolute magnetization    =    12.48 Bohr mag/cell

     iteration #113     ecut=    60.00 Ry     beta= 0.30
     Davidson diagonalization with overlap
     ethr =  6.74E-11,  avg # of iterations =  7.5

     total cpu time spent up to now is    42852.3 secs

     total energy              =   -4457.63609926 Ry
     estimated scf accuracy    <       0.00000029 Ry

     total magnetization       =    11.01 Bohr mag/cell
     absolute magnetization    =    12.48 Bohr mag/cell

     iteration #114     ecut=    60.00 Ry     beta= 0.30
     Davidson diagonalization with overlap
     ethr =  6.74E-11,  avg # of iterations =  8.2

     total cpu time spent up to now is    42912.2 secs

     total energy              =   -4457.63609664 Ry
     estimated scf accuracy    <       0.00000065 Ry

     total magnetization       =    11.01 Bohr mag/cell
     absolute magnetization    =    12.48 Bohr mag/cell

     iteration #115     ecut=    60.00 Ry     beta= 0.30
     Davidson diagonalization with overlap
     ethr =  6.74E-11,  avg # of iterations = 10.9

     total cpu time spent up to now is    42982.2 secs

     total energy              =   -4457.63609698 Ry
     estimated scf accuracy    <       0.00000020 Ry

     total magnetization       =    11.01 Bohr mag/cell
     absolute magnetization    =    12.48 Bohr mag/cell

     iteration #116     ecut=    60.00 Ry     beta= 0.30
     Davidson diagonalization with overlap
     ethr =  6.74E-11,  avg # of iterations = 11.3

     total cpu time spent up to now is    43055.0 secs

     total energy              =   -4457.63609790 Ry
     estimated scf accuracy    <       0.00000076 Ry

     total magnetization       =    11.01 Bohr mag/cell
     absolute magnetization    =    12.49 Bohr mag/cell

     iteration #117     ecut=    60.00 Ry     beta= 0.30
     Davidson diagonalization with overlap
     ethr =  6.74E-11,  avg # of iterations = 11.0

     total cpu time spent up to now is    43126.7 secs

     total energy              =   -4457.63610191 Ry
     estimated scf accuracy    <       0.00000005 Ry

     total magnetization       =    11.01 Bohr mag/cell
     absolute magnetization    =    12.50 Bohr mag/cell

     iteration #118     ecut=    60.00 Ry     beta= 0.30
     Davidson diagonalization with overlap
     ethr =  2.07E-11,  avg # of iterations =  6.2

     total cpu time spent up to now is    43180.1 secs

     total energy              =   -4457.63610083 Ry
     estimated scf accuracy    <       0.00000011 Ry

     total magnetization       =    11.02 Bohr mag/cell
     absolute magnetization    =    12.50 Bohr mag/cell

     iteration #119     ecut=    60.00 Ry     beta= 0.30
     Davidson diagonalization with overlap
     ethr =  2.07E-11,  avg # of iterations = 11.0

     total cpu time spent up to now is    43251.5 secs

     total energy              =   -4457.63610211 Ry
     estimated scf accuracy    <       0.00000018 Ry

     total magnetization       =    11.02 Bohr mag/cell
     absolute magnetization    =    12.50 Bohr mag/cell

     iteration #120     ecut=    60.00 Ry     beta= 0.30
     Davidson diagonalization with overlap
     ethr =  2.07E-11,  avg # of iterations =  5.6

     total cpu time spent up to now is    43301.1 secs

     total energy              =   -4457.63610214 Ry
     estimated scf accuracy    <       0.00000004 Ry

     total magnetization       =    11.02 Bohr mag/cell
     absolute magnetization    =    12.51 Bohr mag/cell

     iteration #121     ecut=    60.00 Ry     beta= 0.30
     Davidson diagonalization with overlap
     ethr =  1.81E-11,  avg # of iterations =  5.3

     total cpu time spent up to now is    43348.2 secs

     total energy              =   -4457.63610162 Ry
     estimated scf accuracy    <       0.00000004 Ry

     total magnetization       =    11.02 Bohr mag/cell
     absolute magnetization    =    12.51 Bohr mag/cell

     iteration #122     ecut=    60.00 Ry     beta= 0.30
     Davidson diagonalization with overlap
     ethr =  1.74E-11,  avg # of iterations =  8.4

     total cpu time spent up to now is    43410.5 secs

     total energy              =   -4457.63610087 Ry
     estimated scf accuracy    <       0.00000003 Ry

     total magnetization       =    11.02 Bohr mag/cell
     absolute magnetization    =    12.50 Bohr mag/cell

     iteration #123     ecut=    60.00 Ry     beta= 0.30
     Davidson diagonalization with overlap
     ethr =  1.42E-11,  avg # of iterations = 11.3

     total cpu time spent up to now is    43483.6 secs

     total energy              =   -4457.63609729 Ry
     estimated scf accuracy    <       0.00000014 Ry

     total magnetization       =    11.02 Bohr mag/cell
     absolute magnetization    =    12.51 Bohr mag/cell

     iteration #124     ecut=    60.00 Ry     beta= 0.30
     Davidson diagonalization with overlap
     ethr =  1.42E-11,  avg # of iterations = 12.0

     total cpu time spent up to now is    43560.3 secs

     total energy              =   -4457.63610118 Ry
     estimated scf accuracy    <       0.00000003 Ry

     total magnetization       =    11.02 Bohr mag/cell
     absolute magnetization    =    12.52 Bohr mag/cell

     iteration #125     ecut=    60.00 Ry     beta= 0.30
     Davidson diagonalization with overlap
     ethr =  1.18E-11,  avg # of iterations = 11.3

     total cpu time spent up to now is    43632.7 secs

     total energy              =   -4457.63610060 Ry
     estimated scf accuracy    <       0.00000008 Ry

     total magnetization       =    11.02 Bohr mag/cell
     absolute magnetization    =    12.52 Bohr mag/cell

     iteration #126     ecut=    60.00 Ry     beta= 0.30
     Davidson diagonalization with overlap
     ethr =  1.18E-11,  avg # of iterations = 11.9

     total cpu time spent up to now is    43707.3 secs

     total energy              =   -4457.63610025 Ry
     estimated scf accuracy    <       0.00000002 Ry

     total magnetization       =    11.02 Bohr mag/cell
     absolute magnetization    =    12.52 Bohr mag/cell

     iteration #127     ecut=    60.00 Ry     beta= 0.30
     Davidson diagonalization with overlap
     ethr =  9.13E-12,  avg # of iterations = 12.2

     total cpu time spent up to now is    43784.6 secs

     total energy              =   -4457.63610011 Ry
     estimated scf accuracy    <       0.00000008 Ry

     total magnetization       =    11.02 Bohr mag/cell
     absolute magnetization    =    12.51 Bohr mag/cell

     iteration #128     ecut=    60.00 Ry     beta= 0.30
     Davidson diagonalization with overlap
     ethr =  9.13E-12,  avg # of iterations = 12.2

     total cpu time spent up to now is    43861.0 secs

     total energy              =   -4457.63610196 Ry
     estimated scf accuracy    <       0.00000005 Ry

     total magnetization       =    11.02 Bohr mag/cell
     absolute magnetization    =    12.52 Bohr mag/cell

     iteration #129     ecut=    60.00 Ry     beta= 0.30
     Davidson diagonalization with overlap
     ethr =  9.13E-12,  avg # of iterations =  8.6

     total cpu time spent up to now is    43923.7 secs

     total energy              =   -4457.63610214 Ry
     estimated scf accuracy    <       0.00000002 Ry

     total magnetization       =    11.02 Bohr mag/cell
     absolute magnetization    =    12.52 Bohr mag/cell

     iteration #130     ecut=    60.00 Ry     beta= 0.30
     Davidson diagonalization with overlap
     ethr =  7.54E-12,  avg # of iterations =  7.0

     total cpu time spent up to now is    43978.5 secs

     total energy              =   -4457.63610216 Ry
     estimated scf accuracy    <       0.00000001 Ry

     total magnetization       =    11.02 Bohr mag/cell
     absolute magnetization    =    12.52 Bohr mag/cell

     iteration #131     ecut=    60.00 Ry     beta= 0.30
     Davidson diagonalization with overlap
     ethr =  4.63E-12,  avg # of iterations =  7.9

     total cpu time spent up to now is    44037.3 secs

     total energy              =   -4457.63610218 Ry
     estimated scf accuracy    <       0.00000002 Ry

     total magnetization       =    11.02 Bohr mag/cell
     absolute magnetization    =    12.52 Bohr mag/cell

     iteration #132     ecut=    60.00 Ry     beta= 0.30
     Davidson diagonalization with overlap
     ethr =  4.63E-12,  avg # of iterations =  7.2

     total cpu time spent up to now is    44093.3 secs

     total energy              =   -4457.63610223 Ry
     estimated scf accuracy    <       0.00000002 Ry

     total magnetization       =    11.02 Bohr mag/cell
     absolute magnetization    =    12.52 Bohr mag/cell

     iteration #133     ecut=    60.00 Ry     beta= 0.30
     Davidson diagonalization with overlap
     ethr =  4.63E-12,  avg # of iterations =  1.7

     total cpu time spent up to now is    44130.4 secs

     total energy              =   -4457.63610220 Ry
     estimated scf accuracy    <       0.00000001 Ry

     total magnetization       =    11.02 Bohr mag/cell
     absolute magnetization    =    12.52 Bohr mag/cell

     iteration #134     ecut=    60.00 Ry     beta= 0.30
     Davidson diagonalization with overlap
     ethr =  4.42E-12,  avg # of iterations =  7.0

     total cpu time spent up to now is    44185.6 secs

     total energy              =   -4457.63610223 Ry
     estimated scf accuracy    <       0.00000001 Ry

     total magnetization       =    11.02 Bohr mag/cell
     absolute magnetization    =    12.52 Bohr mag/cell

     iteration #135     ecut=    60.00 Ry     beta= 0.30
     Davidson diagonalization with overlap
     ethr =  4.42E-12,  avg # of iterations =  5.0

     total cpu time spent up to now is    44230.1 secs

     total energy              =   -4457.63610223 Ry
     estimated scf accuracy    <       0.00000001 Ry

     total magnetization       =    11.02 Bohr mag/cell
     absolute magnetization    =    12.52 Bohr mag/cell

     iteration #136     ecut=    60.00 Ry     beta= 0.30
     Davidson diagonalization with overlap
     ethr =  4.39E-12,  avg # of iterations =  2.8

     total cpu time spent up to now is    44269.4 secs

     total energy              =   -4457.63610223 Ry
     estimated scf accuracy    <       0.00000001 Ry

     total magnetization       =    11.02 Bohr mag/cell
     absolute magnetization    =    12.52 Bohr mag/cell

     iteration #137     ecut=    60.00 Ry     beta= 0.30
     Davidson diagonalization with overlap
     ethr =  4.39E-12,  avg # of iterations =  4.3

     total cpu time spent up to now is    44312.6 secs

     total energy              =   -4457.63610224 Ry
     estimated scf accuracy    <          5.8E-09 Ry

     total magnetization       =    11.02 Bohr mag/cell
     absolute magnetization    =    12.52 Bohr mag/cell

     iteration #138     ecut=    60.00 Ry     beta= 0.30
     Davidson diagonalization with overlap
     ethr =  2.44E-12,  avg # of iterations =  4.1

     total cpu time spent up to now is    44354.0 secs

     total energy              =   -4457.63610224 Ry
     estimated scf accuracy    <          7.9E-09 Ry

     total magnetization       =    11.02 Bohr mag/cell
     absolute magnetization    =    12.52 Bohr mag/cell

     iteration #139     ecut=    60.00 Ry     beta= 0.30
     Davidson diagonalization with overlap
     ethr =  2.44E-12,  avg # of iterations =  4.5

     total cpu time spent up to now is    44397.2 secs

     total energy              =   -4457.63610224 Ry
     estimated scf accuracy    <          5.0E-09 Ry

     total magnetization       =    11.02 Bohr mag/cell
     absolute magnetization    =    12.52 Bohr mag/cell

     iteration #140     ecut=    60.00 Ry     beta= 0.30
     Davidson diagonalization with overlap
     ethr =  2.12E-12,  avg # of iterations =  3.9

     total cpu time spent up to now is    44440.3 secs

     total energy              =   -4457.63610223 Ry
     estimated scf accuracy    <       0.00000003 Ry

     total magnetization       =    11.02 Bohr mag/cell
     absolute magnetization    =    12.52 Bohr mag/cell

     iteration #141     ecut=    60.00 Ry     beta= 0.30
     Davidson diagonalization with overlap
     ethr =  2.12E-12,  avg # of iterations =  5.2

     total cpu time spent up to now is    44487.1 secs

     total energy              =   -4457.63610224 Ry
     estimated scf accuracy    <          3.6E-09 Ry

     total magnetization       =    11.02 Bohr mag/cell
     absolute magnetization    =    12.52 Bohr mag/cell

     iteration #142     ecut=    60.00 Ry     beta= 0.30
     Davidson diagonalization with overlap
     ethr =  1.52E-12,  avg # of iterations =  4.1

     total cpu time spent up to now is    44528.6 secs

     total energy              =   -4457.63610224 Ry
     estimated scf accuracy    <          4.0E-10 Ry

     total magnetization       =    11.02 Bohr mag/cell
     absolute magnetization    =    12.52 Bohr mag/cell

     iteration #143     ecut=    60.00 Ry     beta= 0.30
     Davidson diagonalization with overlap
     ethr =  1.69E-13,  avg # of iterations =  5.5

     total cpu time spent up to now is    44576.5 secs

     total energy              =   -4457.63610224 Ry
     estimated scf accuracy    <          8.7E-10 Ry

     total magnetization       =    11.02 Bohr mag/cell
     absolute magnetization    =    12.52 Bohr mag/cell

     iteration #144     ecut=    60.00 Ry     beta= 0.30
     Davidson diagonalization with overlap
     ethr =  1.69E-13,  avg # of iterations =  5.1

     total cpu time spent up to now is    44621.6 secs

     total energy              =   -4457.63610224 Ry
     estimated scf accuracy    <          6.9E-10 Ry

     total magnetization       =    11.02 Bohr mag/cell
     absolute magnetization    =    12.52 Bohr mag/cell

     iteration #145     ecut=    60.00 Ry     beta= 0.30
     Davidson diagonalization with overlap
     ethr =  1.69E-13,  avg # of iterations =  5.1

     total cpu time spent up to now is    44667.9 secs

     total energy              =   -4457.63610224 Ry
     estimated scf accuracy    <          7.1E-10 Ry

     total magnetization       =    11.02 Bohr mag/cell
     absolute magnetization    =    12.52 Bohr mag/cell

     iteration #146     ecut=    60.00 Ry     beta= 0.30
     Davidson diagonalization with overlap
     ethr =  1.69E-13,  avg # of iterations =  2.1

     total cpu time spent up to now is    44705.2 secs

     total energy              =   -4457.63610224 Ry
     estimated scf accuracy    <          5.3E-10 Ry

     total magnetization       =    11.02 Bohr mag/cell
     absolute magnetization    =    12.52 Bohr mag/cell

     iteration #147     ecut=    60.00 Ry     beta= 0.30
     Davidson diagonalization with overlap
     ethr =  1.69E-13,  avg # of iterations =  5.2

     total cpu time spent up to now is    44749.9 secs

     total energy              =   -4457.63610224 Ry
     estimated scf accuracy    <          1.4E-09 Ry

     total magnetization       =    11.02 Bohr mag/cell
     absolute magnetization    =    12.52 Bohr mag/cell

     iteration #148     ecut=    60.00 Ry     beta= 0.30
     Davidson diagonalization with overlap
     ethr =  1.69E-13,  avg # of iterations =  7.3

     total cpu time spent up to now is    44806.3 secs

     total energy              =   -4457.63610224 Ry
     estimated scf accuracy    <          8.8E-10 Ry

     total magnetization       =    11.02 Bohr mag/cell
     absolute magnetization    =    12.52 Bohr mag/cell

     iteration #149     ecut=    60.00 Ry     beta= 0.30
     Davidson diagonalization with overlap
     ethr =  1.69E-13,  avg # of iterations =  1.9

     total cpu time spent up to now is    44843.5 secs

     total energy              =   -4457.63610224 Ry
     estimated scf accuracy    <          6.3E-10 Ry

     total magnetization       =    11.02 Bohr mag/cell
     absolute magnetization    =    12.52 Bohr mag/cell

     iteration #150     ecut=    60.00 Ry     beta= 0.30
     Davidson diagonalization with overlap
     ethr =  1.69E-13,  avg # of iterations =  4.5

     total cpu time spent up to now is    44887.0 secs

     total energy              =   -4457.63610224 Ry
     estimated scf accuracy    <          1.5E-09 Ry

     total magnetization       =    11.02 Bohr mag/cell
     absolute magnetization    =    12.52 Bohr mag/cell

     iteration #151     ecut=    60.00 Ry     beta= 0.30
     Davidson diagonalization with overlap
     ethr =  1.69E-13,  avg # of iterations =  2.6

     total cpu time spent up to now is    44925.5 secs

     total energy              =   -4457.63610224 Ry
     estimated scf accuracy    <          7.1E-10 Ry

     total magnetization       =    11.02 Bohr mag/cell
     absolute magnetization    =    12.52 Bohr mag/cell

     iteration #152     ecut=    60.00 Ry     beta= 0.30
     Davidson diagonalization with overlap
     ethr =  1.69E-13,  avg # of iterations =  5.7

     total cpu time spent up to now is    44974.7 secs

     total energy              =   -4457.63610224 Ry
     estimated scf accuracy    <          8.1E-10 Ry

     total magnetization       =    11.02 Bohr mag/cell
     absolute magnetization    =    12.52 Bohr mag/cell

     iteration #153     ecut=    60.00 Ry     beta= 0.30
     Davidson diagonalization with overlap
     ethr =  1.69E-13,  avg # of iterations =  3.1

     total cpu time spent up to now is    45015.4 secs

     total energy              =   -4457.63610224 Ry
     estimated scf accuracy    <          1.3E-09 Ry

     total magnetization       =    11.02 Bohr mag/cell
     absolute magnetization    =    12.52 Bohr mag/cell

     iteration #154     ecut=    60.00 Ry     beta= 0.30
     Davidson diagonalization with overlap
     ethr =  1.69E-13,  avg # of iterations =  4.5

     total cpu time spent up to now is    45059.6 secs

     total energy              =   -4457.63610224 Ry
     estimated scf accuracy    <          1.7E-09 Ry

     total magnetization       =    11.02 Bohr mag/cell
     absolute magnetization    =    12.52 Bohr mag/cell

     iteration #155     ecut=    60.00 Ry     beta= 0.30
     Davidson diagonalization with overlap
     ethr =  1.69E-13,  avg # of iterations =  2.4

     total cpu time spent up to now is    45098.3 secs

     total energy              =   -4457.63610224 Ry
     estimated scf accuracy    <          5.1E-10 Ry

     total magnetization       =    11.02 Bohr mag/cell
     absolute magnetization    =    12.52 Bohr mag/cell

     iteration #156     ecut=    60.00 Ry     beta= 0.30
     Davidson diagonalization with overlap
     ethr =  1.69E-13,  avg # of iterations =  5.7

     total cpu time spent up to now is    45145.9 secs

     total energy              =   -4457.63610224 Ry
     estimated scf accuracy    <          5.4E-10 Ry

     total magnetization       =    11.02 Bohr mag/cell
     absolute magnetization    =    12.52 Bohr mag/cell

     iteration #157     ecut=    60.00 Ry     beta= 0.30
     Davidson diagonalization with overlap
     ethr =  1.69E-13,  avg # of iterations =  1.2

     total cpu time spent up to now is    45180.7 secs

     total energy              =   -4457.63610224 Ry
     estimated scf accuracy    <          4.0E-10 Ry

     total magnetization       =    11.02 Bohr mag/cell
     absolute magnetization    =    12.52 Bohr mag/cell

     iteration #158     ecut=    60.00 Ry     beta= 0.30
     Davidson diagonalization with overlap
     ethr =  1.69E-13,  avg # of iterations =  6.0

     total cpu time spent up to now is    45231.0 secs

     total energy              =   -4457.63610224 Ry
     estimated scf accuracy    <          7.3E-10 Ry

     total magnetization       =    11.02 Bohr mag/cell
     absolute magnetization    =    12.52 Bohr mag/cell

     iteration #159     ecut=    60.00 Ry     beta= 0.30
     Davidson diagonalization with overlap
     ethr =  1.69E-13,  avg # of iterations =  5.3

     total cpu time spent up to now is    45280.2 secs

     total energy              =   -4457.63610224 Ry
     estimated scf accuracy    <          2.6E-09 Ry

     total magnetization       =    11.02 Bohr mag/cell
     absolute magnetization    =    12.52 Bohr mag/cell

     iteration #160     ecut=    60.00 Ry     beta= 0.30
     Davidson diagonalization with overlap
     ethr =  1.69E-13,  avg # of iterations =  2.1

     total cpu time spent up to now is    45317.3 secs

     total energy              =   -4457.63610224 Ry
     estimated scf accuracy    <          3.4E-10 Ry

     total magnetization       =    11.02 Bohr mag/cell
     absolute magnetization    =    12.52 Bohr mag/cell

     iteration #161     ecut=    60.00 Ry     beta= 0.30
     Davidson diagonalization with overlap
     ethr =  1.43E-13,  avg # of iterations =  4.5

     total cpu time spent up to now is    45360.5 secs

     total energy              =   -4457.63610224 Ry
     estimated scf accuracy    <          5.1E-10 Ry

     total magnetization       =    11.02 Bohr mag/cell
     absolute magnetization    =    12.52 Bohr mag/cell

     iteration #162     ecut=    60.00 Ry     beta= 0.30
     Davidson diagonalization with overlap
     ethr =  1.43E-13,  avg # of iterations =  1.6

     total cpu time spent up to now is    45396.9 secs

     total energy              =   -4457.63610224 Ry
     estimated scf accuracy    <          3.2E-10 Ry

     total magnetization       =    11.02 Bohr mag/cell
     absolute magnetization    =    12.52 Bohr mag/cell

     iteration #163     ecut=    60.00 Ry     beta= 0.30
     Davidson diagonalization with overlap
     ethr =  1.37E-13,  avg # of iterations =  5.9

     total cpu time spent up to now is    45448.3 secs

     total energy              =   -4457.63610224 Ry
     estimated scf accuracy    <          7.7E-10 Ry

     total magnetization       =    11.02 Bohr mag/cell
     absolute magnetization    =    12.52 Bohr mag/cell

     iteration #164     ecut=    60.00 Ry     beta= 0.30
     Davidson diagonalization with overlap
     ethr =  1.37E-13,  avg # of iterations =  5.0

     total cpu time spent up to now is    45494.0 secs

     total energy              =   -4457.63610224 Ry
     estimated scf accuracy    <          7.3E-10 Ry

     total magnetization       =    11.02 Bohr mag/cell
     absolute magnetization    =    12.52 Bohr mag/cell

     iteration #165     ecut=    60.00 Ry     beta= 0.30
     Davidson diagonalization with overlap
     ethr =  1.37E-13,  avg # of iterations =  3.9

     total cpu time spent up to now is    45536.7 secs

     total energy              =   -4457.63610224 Ry
     estimated scf accuracy    <          5.5E-10 Ry

     total magnetization       =    11.02 Bohr mag/cell
     absolute magnetization    =    12.52 Bohr mag/cell

     iteration #166     ecut=    60.00 Ry     beta= 0.30
     Davidson diagonalization with overlap
     ethr =  1.37E-13,  avg # of iterations =  4.7

     total cpu time spent up to now is    45580.2 secs

     total energy              =   -4457.63610224 Ry
     estimated scf accuracy    <          3.2E-10 Ry

     total magnetization       =    11.02 Bohr mag/cell
     absolute magnetization    =    12.52 Bohr mag/cell

     iteration #167     ecut=    60.00 Ry     beta= 0.30
     Davidson diagonalization with overlap
     ethr =  1.36E-13,  avg # of iterations =  4.0

     total cpu time spent up to now is    45622.2 secs

     total energy              =   -4457.63610224 Ry
     estimated scf accuracy    <          3.0E-10 Ry

     total magnetization       =    11.02 Bohr mag/cell
     absolute magnetization    =    12.52 Bohr mag/cell

     iteration #168     ecut=    60.00 Ry     beta= 0.30
     Davidson diagonalization with overlap
     ethr =  1.26E-13,  avg # of iterations =  7.1

     total cpu time spent up to now is    45678.5 secs

     total energy              =   -4457.63610224 Ry
     estimated scf accuracy    <          8.7E-10 Ry

     total magnetization       =    11.02 Bohr mag/cell
     absolute magnetization    =    12.52 Bohr mag/cell

     iteration #169     ecut=    60.00 Ry     beta= 0.30
     Davidson diagonalization with overlap
     ethr =  1.26E-13,  avg # of iterations =  5.8

     total cpu time spent up to now is    45730.2 secs

     total energy              =   -4457.63610224 Ry
     estimated scf accuracy    <          9.9E-10 Ry

     total magnetization       =    11.02 Bohr mag/cell
     absolute magnetization    =    12.52 Bohr mag/cell

     iteration #170     ecut=    60.00 Ry     beta= 0.30
     Davidson diagonalization with overlap
     ethr =  1.26E-13,  avg # of iterations =  5.2

     total cpu time spent up to now is    45780.5 secs

     total energy              =   -4457.63610224 Ry
     estimated scf accuracy    <          4.9E-10 Ry

     total magnetization       =    11.02 Bohr mag/cell
     absolute magnetization    =    12.52 Bohr mag/cell

     iteration #171     ecut=    60.00 Ry     beta= 0.30
     Davidson diagonalization with overlap
     ethr =  1.26E-13,  avg # of iterations =  4.7

     total cpu time spent up to now is    45823.8 secs

     total energy              =   -4457.63610224 Ry
     estimated scf accuracy    <          1.3E-09 Ry

     total magnetization       =    11.02 Bohr mag/cell
     absolute magnetization    =    12.52 Bohr mag/cell

     iteration #172     ecut=    60.00 Ry     beta= 0.30
     Davidson diagonalization with overlap
     ethr =  1.26E-13,  avg # of iterations =  5.3

     total cpu time spent up to now is    45872.0 secs

     total energy              =   -4457.63610224 Ry
     estimated scf accuracy    <          4.0E-10 Ry

     total magnetization       =    11.02 Bohr mag/cell
     absolute magnetization    =    12.52 Bohr mag/cell

     iteration #173     ecut=    60.00 Ry     beta= 0.30
     Davidson diagonalization with overlap
     ethr =  1.26E-13,  avg # of iterations =  1.0

     total cpu time spent up to now is    45906.3 secs

     total energy              =   -4457.63610224 Ry
     estimated scf accuracy    <          3.1E-10 Ry

     total magnetization       =    11.02 Bohr mag/cell
     absolute magnetization    =    12.52 Bohr mag/cell

     iteration #174     ecut=    60.00 Ry     beta= 0.30
     Davidson diagonalization with overlap
     ethr =  1.26E-13,  avg # of iterations =  4.0

     total cpu time spent up to now is    45949.5 secs

     total energy              =   -4457.63610224 Ry
     estimated scf accuracy    <          4.9E-10 Ry

     total magnetization       =    11.02 Bohr mag/cell
     absolute magnetization    =    12.52 Bohr mag/cell

     iteration #175     ecut=    60.00 Ry     beta= 0.30
     Davidson diagonalization with overlap
     ethr =  1.26E-13,  avg # of iterations =  2.9

     total cpu time spent up to now is    45988.4 secs

     total energy              =   -4457.63610224 Ry
     estimated scf accuracy    <          4.8E-10 Ry

     total magnetization       =    11.02 Bohr mag/cell
     absolute magnetization    =    12.52 Bohr mag/cell

     iteration #176     ecut=    60.00 Ry     beta= 0.30
     Davidson diagonalization with overlap
     ethr =  1.26E-13,  avg # of iterations =  1.0

     total cpu time spent up to now is    46023.1 secs

     total energy              =   -4457.63610224 Ry
     estimated scf accuracy    <          3.2E-10 Ry

     total magnetization       =    11.02 Bohr mag/cell
     absolute magnetization    =    12.52 Bohr mag/cell

     iteration #177     ecut=    60.00 Ry     beta= 0.30
     Davidson diagonalization with overlap
     ethr =  1.26E-13,  avg # of iterations =  4.2

     total cpu time spent up to now is    46066.3 secs

     total energy              =   -4457.63610224 Ry
     estimated scf accuracy    <          1.0E-09 Ry

     total magnetization       =    11.02 Bohr mag/cell
     absolute magnetization    =    12.52 Bohr mag/cell

     iteration #178     ecut=    60.00 Ry     beta= 0.30
     Davidson diagonalization with overlap
     ethr =  1.26E-13,  avg # of iterations =  2.4

     total cpu time spent up to now is    46104.4 secs

     total energy              =   -4457.63610224 Ry
     estimated scf accuracy    <          4.1E-10 Ry

     total magnetization       =    11.02 Bohr mag/cell
     absolute magnetization    =    12.52 Bohr mag/cell

     iteration #179     ecut=    60.00 Ry     beta= 0.30
     Davidson diagonalization with overlap
     ethr =  1.26E-13,  avg # of iterations =  1.9

     total cpu time spent up to now is    46142.5 secs

     total energy              =   -4457.63610224 Ry
     estimated scf accuracy    <          4.4E-10 Ry

     total magnetization       =    11.02 Bohr mag/cell
     absolute magnetization    =    12.52 Bohr mag/cell

     iteration #180     ecut=    60.00 Ry     beta= 0.30
     Davidson diagonalization with overlap
     ethr =  1.26E-13,  avg # of iterations =  1.7

     total cpu time spent up to now is    46180.0 secs

     total energy              =   -4457.63610224 Ry
     estimated scf accuracy    <          3.2E-10 Ry

     total magnetization       =    11.02 Bohr mag/cell
     absolute magnetization    =    12.52 Bohr mag/cell

     iteration #181     ecut=    60.00 Ry     beta= 0.30
     Davidson diagonalization with overlap
     ethr =  1.26E-13,  avg # of iterations =  7.6

     total cpu time spent up to now is    46239.2 secs

     total energy              =   -4457.63610225 Ry
     estimated scf accuracy    <          1.4E-09 Ry

     total magnetization       =    11.02 Bohr mag/cell
     absolute magnetization    =    12.52 Bohr mag/cell

     iteration #182     ecut=    60.00 Ry     beta= 0.30
     Davidson diagonalization with overlap
     ethr =  1.26E-13,  avg # of iterations =  6.8

     total cpu time spent up to now is    46293.8 secs

     total energy              =   -4457.63610225 Ry
     estimated scf accuracy    <          1.8E-09 Ry

     total magnetization       =    11.02 Bohr mag/cell
     absolute magnetization    =    12.52 Bohr mag/cell

     iteration #183     ecut=    60.00 Ry     beta= 0.30
     Davidson diagonalization with overlap
     ethr =  1.26E-13,  avg # of iterations =  7.5

     total cpu time spent up to now is    46351.8 secs

     total energy              =   -4457.63610225 Ry
     estimated scf accuracy    <          8.9E-10 Ry

     total magnetization       =    11.02 Bohr mag/cell
     absolute magnetization    =    12.52 Bohr mag/cell

     iteration #184     ecut=    60.00 Ry     beta= 0.30
     Davidson diagonalization with overlap
     ethr =  1.26E-13,  avg # of iterations =  6.9

     total cpu time spent up to now is    46408.2 secs

     total energy              =   -4457.63610225 Ry
     estimated scf accuracy    <          8.2E-10 Ry

     total magnetization       =    11.02 Bohr mag/cell
     absolute magnetization    =    12.52 Bohr mag/cell

     iteration #185     ecut=    60.00 Ry     beta= 0.30
     Davidson diagonalization with overlap
     ethr =  1.26E-13,  avg # of iterations =  1.0

     total cpu time spent up to now is    46443.8 secs

     total energy              =   -4457.63610224 Ry
     estimated scf accuracy    <          7.8E-10 Ry

     total magnetization       =    11.02 Bohr mag/cell
     absolute magnetization    =    12.52 Bohr mag/cell

     iteration #186     ecut=    60.00 Ry     beta= 0.30
     Davidson diagonalization with overlap
     ethr =  1.26E-13,  avg # of iterations = 10.7

     total cpu time spent up to now is    46516.1 secs

     total energy              =   -4457.63610225 Ry
     estimated scf accuracy    <          3.9E-10 Ry

     total magnetization       =    11.02 Bohr mag/cell
     absolute magnetization    =    12.52 Bohr mag/cell

     iteration #187     ecut=    60.00 Ry     beta= 0.30
     Davidson diagonalization with overlap
     ethr =  1.26E-13,  avg # of iterations =  5.1

     total cpu time spent up to now is    46562.9 secs

     total energy              =   -4457.63610225 Ry
     estimated scf accuracy    <          1.8E-09 Ry

     total magnetization       =    11.02 Bohr mag/cell
     absolute magnetization    =    12.52 Bohr mag/cell

     iteration #188     ecut=    60.00 Ry     beta= 0.30
     Davidson diagonalization with overlap
     ethr =  1.26E-13,  avg # of iterations =  6.8

     total cpu time spent up to now is    46618.9 secs

     total energy              =   -4457.63610225 Ry
     estimated scf accuracy    <          7.0E-10 Ry

     total magnetization       =    11.02 Bohr mag/cell
     absolute magnetization    =    12.52 Bohr mag/cell

     iteration #189     ecut=    60.00 Ry     beta= 0.30
     Davidson diagonalization with overlap
     ethr =  1.26E-13,  avg # of iterations =  5.3

     total cpu time spent up to now is    46669.0 secs

     total energy              =   -4457.63610225 Ry
     estimated scf accuracy    <          3.4E-10 Ry

     total magnetization       =    11.02 Bohr mag/cell
     absolute magnetization    =    12.52 Bohr mag/cell

     iteration #190     ecut=    60.00 Ry     beta= 0.30
     Davidson diagonalization with overlap
     ethr =  1.26E-13,  avg # of iterations =  5.0

     total cpu time spent up to now is    46714.8 secs

     total energy              =   -4457.63610222 Ry
     estimated scf accuracy    <          2.3E-10 Ry

     total magnetization       =    11.02 Bohr mag/cell
     absolute magnetization    =    12.52 Bohr mag/cell

     iteration #191     ecut=    60.00 Ry     beta= 0.30
     Davidson diagonalization with overlap
     ethr =  1.00E-13,  avg # of iterations = 12.1

     total cpu time spent up to now is    46791.9 secs

     total energy              =   -4457.63610225 Ry
     estimated scf accuracy    <          5.4E-10 Ry

     total magnetization       =    11.02 Bohr mag/cell
     absolute magnetization    =    12.52 Bohr mag/cell

     iteration #192     ecut=    60.00 Ry     beta= 0.30
     Davidson diagonalization with overlap
     ethr =  1.00E-13,  avg # of iterations =  7.9
 
     Magnetic moment per site  (integrated on atomic sphere of radius R)
     atom   1 (R=0.179)  charge= 12.1593  magn=  0.1173
     atom   2 (R=0.179)  charge= 14.4530  magn=  1.7301
     atom   3 (R=0.179)  charge= 14.4317  magn=  1.8520
     atom   4 (R=0.179)  charge= 12.1756  magn= -0.0190
     atom   5 (R=0.179)  charge= 12.1591  magn=  0.1171
     atom   6 (R=0.179)  charge= 14.4530  magn=  1.7301
     atom   7 (R=0.179)  charge= 12.1565  magn=  0.1205
     atom   8 (R=0.179)  charge= 12.1756  magn= -0.0190
     atom   9 (R=0.179)  charge= 12.1564  magn=  0.1212
     atom  10 (R=0.179)  charge= 12.1756  magn= -0.0190
     atom  11 (R=0.179)  charge= 12.1598  magn=  0.1164
     atom  12 (R=0.179)  charge= 14.4530  magn=  1.7301
     atom  13 (R=0.179)  charge= 14.4318  magn=  1.8521
     atom  14 (R=0.179)  charge= 12.1756  magn= -0.0190
     atom  15 (R=0.179)  charge= 12.1596  magn=  0.1162
     atom  16 (R=0.179)  charge= 14.4530  magn=  1.7301

     total cpu time spent up to now is    46852.8 secs

     End of self-consistent calculation

     Number of k-points >= 100: set verbosity='high' to print the bands.

     the Fermi energy is    19.4959 ev

!    total energy              =   -4457.63610225 Ry
     total all-electron energy =    -36290.742086 Ry
     estimated scf accuracy    <          8.9E-11 Ry
     smearing contrib. (-TS)   =      -0.00220850 Ry
     internal energy E=F+TS    =   -4457.63389375 Ry

     The total energy is F=E-TS. E is the sum of the following terms:
     one-electron contribution =   -1209.69067877 Ry
     hartree contribution      =     753.83978407 Ry
     xc contribution           =    -389.16883112 Ry
     ewald contribution        =   -2373.37917922 Ry
     one-center paw contrib.   =   -1239.23498872 Ry

     total magnetization       =    11.02 Bohr mag/cell
     absolute magnetization    =    12.52 Bohr mag/cell

     convergence has been achieved in 192 iterations

     Forces acting on atoms (cartesian axes, Ry/au):

     atom    1 type  2   force =     0.00000000    0.00000000    0.00000000
     atom    2 type  1   force =     0.00000824    0.00000885    0.00001233
     atom    3 type  1   force =     0.00000000    0.00000000    0.00000000
     atom    4 type  2   force =    -0.00001362    0.00004074    0.00001625
     atom    5 type  2   force =     0.00000000    0.00000000    0.00000000
     atom    6 type  1   force =     0.00000824   -0.00000885    0.00001233
     atom    7 type  2   force =     0.00000000    0.00000000    0.00000000
     atom    8 type  2   force =    -0.00001362   -0.00004074    0.00001625
     atom    9 type  2   force =     0.00000000    0.00000000    0.00000000
     atom   10 type  2   force =     0.00001362    0.00004074   -0.00001625
     atom   11 type  2   force =     0.00000000    0.00000000    0.00000000
     atom   12 type  1   force =    -0.00000824    0.00000885   -0.00001233
     atom   13 type  1   force =     0.00000000    0.00000000    0.00000000
     atom   14 type  2   force =     0.00001362   -0.00004074   -0.00001625
     atom   15 type  2   force =     0.00000000    0.00000000    0.00000000
     atom   16 type  1   force =    -0.00000824   -0.00000885   -0.00001233

     Total force =     0.000098     Total SCF correction =     0.000014
     SCF correction compared to forces is large: reduce conv_thr to get better values


     Computing stress (Cartesian axis) and pressure

          total   stress  (Ry/bohr**3)                   (kbar)     P=        0.11
   0.00000173   0.00000000  -0.00000234            0.25        0.00       -0.34
   0.00000000  -0.00000120   0.00000000            0.00       -0.18        0.00
  -0.00000234   0.00000000   0.00000173           -0.34        0.00        0.25


     Writing all to output data dir ./tmp/fecr_fe06cr10_vcr.save/ :
     XML data file, charge density, pseudopotentials, collected wavefunctions
 
     init_run     :     76.54s CPU     53.79s WALL (       2 calls)
     electrons    :  58097.35s CPU  46348.61s WALL (       7 calls)
     update_pot   :    152.05s CPU     89.66s WALL (       5 calls)
     forces       :     64.44s CPU     61.40s WALL (       7 calls)
     stress       :    165.82s CPU    163.94s WALL (       7 calls)

     Called by init_run:
     wfcinit      :     14.60s CPU     16.32s WALL (       2 calls)
     potinit      :     60.24s CPU     35.58s WALL (       2 calls)
     hinit0       :      1.17s CPU      1.16s WALL (       2 calls)

     Called by electrons:
     c_bands      :  27238.37s CPU  27313.29s WALL (     947 calls)
     sum_band     :   2139.36s CPU   2139.68s WALL (     947 calls)
     v_of_rho     :     51.53s CPU     42.45s WALL (     951 calls)
     newd         :     37.06s CPU     37.22s WALL (     951 calls)
                                       37.21s GPU  (     951 calls)
     PAW_pot      :  28937.66s CPU  16972.21s WALL (     956 calls)
     mix_rho      :     31.98s CPU     32.27s WALL (     947 calls)

     Called by c_bands:
     init_us_2    :    186.46s CPU    175.41s WALL (  306400 calls)
     cegterg      :  24981.31s CPU  25058.49s WALL (  151618 calls)

     Called by *egterg:
     cdiaghg      :   8904.92s CPU   8970.41s WALL (  973179 calls)
                                     8966.32s GPU  (  973179 calls)
     h_psi        :   7309.15s CPU   7350.12s WALL (  974877 calls)
                                     7343.14s GPU  (  974877 calls)
     s_psi        :    493.50s CPU    500.95s WALL (  974877 calls)
     g_psi        :      4.58s CPU     45.02s WALL (  822939 calls)
                                       42.62s GPU  (  822939 calls)

     Called by h_psi:
     h_psi:calbec :     34.10s CPU   1543.50s WALL (  974877 calls)
                                     1540.00s GPU  (  974877 calls)
     vloc_psi     :   3842.05s CPU   3832.03s WALL (  974877 calls)
                                     3828.75s GPU  (  974877 calls)
     add_vuspsi   :    483.11s CPU   1922.96s WALL (  974877 calls)
                                     1919.44s GPU  (  974877 calls)

     General routines
     calbec       :    151.17s CPU    109.65s WALL ( 1132797 calls)
     fft          :     10.95s CPU     13.32s WALL (   24052 calls)
                                        2.93s GPU  (   22150 calls)
     ffts         :      3.56s CPU      3.62s WALL (    3796 calls)
                                        0.10s GPU  (    1894 calls)
     fftw         :    211.27s CPU   3524.27s WALL ( 9805748 calls)
                                     3501.36s GPU  ( 9805748 calls)
     interpolate  :     15.24s CPU     15.32s WALL (    1902 calls)
 
     Parallel routines
 
     PWSCF        :     16h20m CPU     13h 1m WALL

 
   This run was terminated on:   5:54:15  20May2026            

=------------------------------------------------------------------------------=
   JOB DONE.
=------------------------------------------------------------------------------=
Warning: ieee_divide_by_zero is signaling
Warning: ieee_inexact is signaling
FORTRAN STOP
