--------------------------------------------------------------------------
WARNING: Open MPI tried to bind a process but failed.  This is a
warning only; your job will continue, though performance may
be degraded.

  Local host:        4b82db919bf5
  Application name:  /root/q-e-qe-7.3.1/bin/pw.x
  Error message:     failed to bind memory
  Location:          ../../../../../orte/mca/rtc/hwloc/rtc_hwloc.c:447

--------------------------------------------------------------------------

     Program PWSCF v.7.3.1 starts on 20May2026 at 12:39: 4 

     This program is part of the open-source Quantum ESPRESSO suite
     for quantum simulation of materials; please cite
         "P. Giannozzi et al., J. Phys.:Condens. Matter 21 395502 (2009);
         "P. Giannozzi et al., J. Phys.:Condens. Matter 29 465901 (2017);
         "P. Giannozzi et al., J. Chem. Phys. 152 154105 (2020);
          URL http://www.quantum-espresso.org", 
     in publications or presentations arising from this work. More details at
     http://www.quantum-espresso.org/quote

     Parallel version (MPI & OpenMP), running on       8 processor cores
     Number of MPI processes:                 1
     Threads/MPI process:                     8

     MPI processes distributed on     1 nodes
     185765 MiB available memory on the printing compute node when the environment starts
 
     Reading input from inputs/fecr_fe06cr10_t0.01.in

     Current dimensions of program PWSCF are:
     Max number of different atomic species (ntypx) = 10
     Max number of k-points (npk) =  40000
     Max angular momentum in pseudopotentials (lmaxx) =  4
     file Fe.pbe-spn-kjpaw_psl.1.0.0.UPF: wavefunction(s)  3P 3D renormalized
     file Cr.pbe-spn-kjpaw_psl.1.0.0.UPF: wavefunction(s)  3S 3P 3D renormalized
     Found identity + ( -0.5000 -0.5000 -0.5000) symmetry
     This is a supercell, fractional translations are disabled
     Message from routine setup:
     using ibrav=0 with symmetry is DISCOURAGED, use correct ibrav instead
 
     Subspace diagonalization in iterative solution of the eigenvalue problem:
     a serial algorithm will be used

 
     G-vector sticks info
     --------------------
     sticks:   dense  smooth     PW     G-vecs:    dense   smooth      PW
     Sum        4273    2145    601               213379    75349   11365
 
     Using Slab Decomposition
 


     bravais-lattice index     =            0
     lattice parameter (alat)  =      10.5766  a.u.
     unit-cell volume          =    1200.9353 (a.u.)^3
     number of atoms/cell      =           16
     number of atomic types    =            2
     number of electrons       =       236.00
     number of Kohn-Sham states=          142
     kinetic-energy cutoff     =      60.0000  Ry
     charge density cutoff     =     480.0000  Ry
     scf convergence threshold =      1.0E-07
     mixing beta               =       0.3000
     number of iterations used =            8  plain     mixing
     Exchange-correlation= SLA  PW   PBX  PBC
                           (   1   4   3   4   0   0   0)

     GPU acceleration is ACTIVE.  1 visible GPUs per MPI rank


     celldm(1)=  10.576595  celldm(2)=   0.000000  celldm(3)=   0.000000
     celldm(4)=   0.000000  celldm(5)=   0.000000  celldm(6)=   0.000000

     crystal axes: (cart. coord. in units of alat)
               a(1) = (   1.000000   0.000000   0.000000 )  
               a(2) = (   0.000000   1.000000   0.000000 )  
               a(3) = (   0.000000   0.000000   1.015037 )  

     reciprocal axes: (cart. coord. in units 2 pi/alat)
               b(1) = (  1.000000  0.000000  0.000000 )  
               b(2) = (  0.000000  1.000000  0.000000 )  
               b(3) = (  0.000000  0.000000  0.985185 )  


     PseudoPot. # 1 for Fe read from file:
     ./pseudo/Fe.pbe-spn-kjpaw_psl.1.0.0.UPF
     MD5 check sum: fc81f059e5c5069939230b1155715ae8
     Pseudo is Projector augmented-wave + core cor, Zval = 16.0
     Generated using &quot;atomic&quot; code by A. Dal Corso  v.6.3
     Shape of augmentation charge: PSQ
     Using radial grid of 1191 points,  6 beta functions with: 
                l(1) =   0
                l(2) =   0
                l(3) =   1
                l(4) =   1
                l(5) =   2
                l(6) =   2
     Q(r) pseudized with 0 coefficients 


     PseudoPot. # 2 for Cr read from file:
     ./pseudo/Cr.pbe-spn-kjpaw_psl.1.0.0.UPF
     MD5 check sum: 198f1a2427a48552563eee314eba32ba
     Pseudo is Projector augmented-wave + core cor, Zval = 14.0
     Generated using &quot;atomic&quot; code by A. Dal Corso  v.6.3
     Shape of augmentation charge: PSQ
     Using radial grid of 1183 points,  6 beta functions with: 
                l(1) =   0
                l(2) =   0
                l(3) =   1
                l(4) =   1
                l(5) =   2
                l(6) =   2
     Q(r) pseudized with 0 coefficients 


     atomic species   valence    mass     pseudopotential
     Fe               16.00    55.84500     Fe( 1.00)
     Cr               14.00    51.99600     Cr( 1.00)

     Starting magnetic structure 
     atomic species   magnetization
     Fe              0.500
     Cr              0.300

      4 Sym. Ops., with inversion, found



   Cartesian axes

     site n.     atom                  positions (alat units)
         1        Cr     tau(   1) = (   0.0000000   0.0000000   0.0000000  )
         2        Fe     tau(   2) = (   0.2500000   0.2500000   0.2537593  )
         3        Fe     tau(   3) = (   0.0000000   0.0000000   0.5075186  )
         4        Cr     tau(   4) = (   0.2500000   0.2500000   0.7612780  )
         5        Cr     tau(   5) = (   0.0000000   0.5000000   0.0000000  )
         6        Fe     tau(   6) = (   0.2500000   0.7500000   0.2537593  )
         7        Cr     tau(   7) = (   0.0000000   0.5000000   0.5075186  )
         8        Cr     tau(   8) = (   0.2500000   0.7500000   0.7612780  )
         9        Cr     tau(   9) = (   0.5000000   0.0000000   0.0000000  )
        10        Cr     tau(  10) = (   0.7500000   0.2500000   0.2537593  )
        11        Cr     tau(  11) = (   0.5000000   0.0000000   0.5075186  )
        12        Fe     tau(  12) = (   0.7500000   0.2500000   0.7612780  )
        13        Fe     tau(  13) = (   0.5000000   0.5000000   0.0000000  )
        14        Cr     tau(  14) = (   0.7500000   0.7500000   0.2537593  )
        15        Cr     tau(  15) = (   0.5000000   0.5000000   0.5075186  )
        16        Fe     tau(  16) = (   0.7500000   0.7500000   0.7612780  )

     number of k points=    80  Marzari-Vanderbilt smearing, width (Ry)=  0.0200
                       cart. coord. in units 2pi/alat
        k(    1) = (   0.0000000   0.0000000   0.0000000), wk =   0.0046296
        k(    2) = (   0.0000000   0.0000000   0.1641976), wk =   0.0092593
        k(    3) = (   0.0000000   0.0000000   0.3283952), wk =   0.0092593
        k(    4) = (   0.0000000   0.0000000  -0.4925927), wk =   0.0046296
        k(    5) = (   0.0000000   0.1666667   0.0000000), wk =   0.0092593
        k(    6) = (   0.0000000   0.1666667   0.1641976), wk =   0.0185185
        k(    7) = (   0.0000000   0.1666667   0.3283952), wk =   0.0185185
        k(    8) = (   0.0000000   0.1666667  -0.4925927), wk =   0.0092593
        k(    9) = (   0.0000000   0.3333333   0.0000000), wk =   0.0092593
        k(   10) = (   0.0000000   0.3333333   0.1641976), wk =   0.0185185
        k(   11) = (   0.0000000   0.3333333   0.3283952), wk =   0.0185185
        k(   12) = (   0.0000000   0.3333333  -0.4925927), wk =   0.0092593
        k(   13) = (   0.0000000  -0.5000000   0.0000000), wk =   0.0046296
        k(   14) = (   0.0000000  -0.5000000   0.1641976), wk =   0.0092593
        k(   15) = (   0.0000000  -0.5000000   0.3283952), wk =   0.0092593
        k(   16) = (   0.0000000  -0.5000000  -0.4925927), wk =   0.0046296
        k(   17) = (   0.1666667   0.1666667   0.0000000), wk =   0.0185185
        k(   18) = (   0.1666667   0.1666667   0.1641976), wk =   0.0185185
        k(   19) = (   0.1666667   0.1666667   0.3283952), wk =   0.0185185
        k(   20) = (   0.1666667   0.1666667  -0.4925927), wk =   0.0185185
        k(   21) = (   0.1666667   0.3333333   0.0000000), wk =   0.0185185
        k(   22) = (   0.1666667   0.3333333   0.1641976), wk =   0.0185185
        k(   23) = (   0.1666667   0.3333333   0.3283952), wk =   0.0185185
        k(   24) = (   0.1666667   0.3333333  -0.4925927), wk =   0.0185185
        k(   25) = (   0.1666667  -0.5000000   0.0000000), wk =   0.0092593
        k(   26) = (   0.1666667  -0.5000000   0.1641976), wk =   0.0092593
        k(   27) = (   0.1666667  -0.5000000   0.3283952), wk =   0.0092593
        k(   28) = (   0.1666667  -0.5000000  -0.4925927), wk =   0.0092593
        k(   29) = (   0.3333333   0.3333333   0.0000000), wk =   0.0185185
        k(   30) = (   0.3333333   0.3333333   0.1641976), wk =   0.0185185
        k(   31) = (   0.3333333   0.3333333   0.3283952), wk =   0.0185185
        k(   32) = (   0.3333333   0.3333333  -0.4925927), wk =   0.0185185
        k(   33) = (   0.3333333  -0.5000000   0.0000000), wk =   0.0092593
        k(   34) = (   0.3333333  -0.5000000   0.1641976), wk =   0.0092593
        k(   35) = (   0.3333333  -0.5000000   0.3283952), wk =   0.0092593
        k(   36) = (   0.3333333  -0.5000000  -0.4925927), wk =   0.0092593
        k(   37) = (  -0.5000000  -0.5000000   0.0000000), wk =   0.0046296
        k(   38) = (  -0.5000000  -0.5000000   0.1641976), wk =   0.0092593
        k(   39) = (  -0.5000000  -0.5000000   0.3283952), wk =   0.0092593
        k(   40) = (  -0.5000000  -0.5000000  -0.4925927), wk =   0.0046296
        k(   41) = (   0.1666667   0.0000000   0.0000000), wk =   0.0092593
        k(   42) = (   0.1666667   0.0000000  -0.1641976), wk =   0.0092593
        k(   43) = (  -0.1666667   0.0000000  -0.1641976), wk =   0.0092593
        k(   44) = (   0.1666667   0.0000000  -0.3283952), wk =   0.0092593
        k(   45) = (  -0.1666667   0.0000000  -0.3283952), wk =   0.0092593
        k(   46) = (   0.1666667   0.0000000   0.4925927), wk =   0.0092593
        k(   47) = (   0.3333333   0.0000000   0.0000000), wk =   0.0092593
        k(   48) = (   0.3333333   0.0000000  -0.1641976), wk =   0.0092593
        k(   49) = (  -0.3333333   0.0000000  -0.1641976), wk =   0.0092593
        k(   50) = (   0.3333333   0.0000000  -0.3283952), wk =   0.0092593
        k(   51) = (  -0.3333333   0.0000000  -0.3283952), wk =   0.0092593
        k(   52) = (   0.3333333   0.0000000   0.4925927), wk =   0.0092593
        k(   53) = (  -0.5000000   0.0000000   0.0000000), wk =   0.0046296
        k(   54) = (  -0.5000000   0.0000000  -0.1641976), wk =   0.0092593
        k(   55) = (  -0.5000000   0.0000000  -0.3283952), wk =   0.0092593
        k(   56) = (  -0.5000000   0.0000000   0.4925927), wk =   0.0046296
        k(   57) = (   0.1666667   0.1666667  -0.1641976), wk =   0.0185185
        k(   58) = (   0.1666667   0.1666667  -0.3283952), wk =   0.0185185
        k(   59) = (   0.3333333   0.1666667   0.0000000), wk =   0.0185185
        k(   60) = (   0.3333333   0.1666667  -0.1641976), wk =   0.0185185
        k(   61) = (  -0.3333333  -0.1666667  -0.1641976), wk =   0.0185185
        k(   62) = (  -0.1666667  -0.3333333   0.1641976), wk =   0.0185185
        k(   63) = (   0.3333333   0.1666667  -0.3283952), wk =   0.0185185
        k(   64) = (  -0.3333333  -0.1666667  -0.3283952), wk =   0.0185185
        k(   65) = (  -0.1666667  -0.3333333   0.3283952), wk =   0.0185185
        k(   66) = (   0.3333333   0.1666667   0.4925927), wk =   0.0185185
        k(   67) = (  -0.5000000   0.1666667   0.0000000), wk =   0.0092593
        k(   68) = (  -0.5000000   0.1666667  -0.1641976), wk =   0.0185185
        k(   69) = (  -0.1666667   0.5000000   0.1641976), wk =   0.0092593
        k(   70) = (  -0.5000000   0.1666667  -0.3283952), wk =   0.0185185
        k(   71) = (  -0.1666667   0.5000000   0.3283952), wk =   0.0092593
        k(   72) = (  -0.5000000   0.1666667   0.4925927), wk =   0.0092593
        k(   73) = (   0.3333333   0.3333333  -0.1641976), wk =   0.0185185
        k(   74) = (   0.3333333   0.3333333  -0.3283952), wk =   0.0185185
        k(   75) = (  -0.5000000   0.3333333   0.0000000), wk =   0.0092593
        k(   76) = (  -0.5000000   0.3333333  -0.1641976), wk =   0.0185185
        k(   77) = (  -0.3333333   0.5000000   0.1641976), wk =   0.0092593
        k(   78) = (  -0.5000000   0.3333333  -0.3283952), wk =   0.0185185
        k(   79) = (  -0.3333333   0.5000000   0.3283952), wk =   0.0092593
        k(   80) = (  -0.5000000   0.3333333   0.4925927), wk =   0.0092593

     Dense  grid:   213379 G-vectors     FFT dimensions: (  75,  75,  75)

     Smooth grid:    75349 G-vectors     FFT dimensions: (  54,  54,  54)

     Estimated max dynamical RAM per process >       4.10 GB

     Check: negative core charge=   -0.000003
     Generating pointlists ...
     new r_m :   0.1795 (alat units)  1.8987 (a.u.) for type    1
     new r_m :   0.1795 (alat units)  1.8987 (a.u.) for type    2

     Initial potential from superposition of free atoms

     starting charge     235.9896, renormalised to     236.0000
     Starting wfcs are  160 randomized atomic wfcs
     Checking if some PAW data can be deallocated... 

     total cpu time spent up to now is       27.5 secs

     Self-consistent Calculation

     iteration #  1     ecut=    60.00 Ry     beta= 0.30
     Davidson diagonalization with overlap
     ethr =  1.00E-02,  avg # of iterations =  5.2

     negative rho (up, down):  1.617E-01 1.721E+00

     total cpu time spent up to now is       73.8 secs

     total energy              =   -4442.66009651 Ry
     estimated scf accuracy    <     237.32260766 Ry

     total magnetization       =    46.24 Bohr mag/cell
     absolute magnetization    =    65.03 Bohr mag/cell

     iteration #  2     ecut=    60.00 Ry     beta= 0.30
     Davidson diagonalization with overlap
     ethr =  1.00E-02,  avg # of iterations =  5.1

     negative rho (up, down):  1.156E-01 1.298E+00

     total cpu time spent up to now is      119.3 secs

     total energy              =   -4444.56993595 Ry
     estimated scf accuracy    <      72.66734496 Ry

     total magnetization       =    23.50 Bohr mag/cell
     absolute magnetization    =    24.24 Bohr mag/cell

     iteration #  3     ecut=    60.00 Ry     beta= 0.30
     Davidson diagonalization with overlap
     ethr =  1.00E-02,  avg # of iterations =  5.5

     negative rho (up, down):  9.013E-02 1.135E+00

     total cpu time spent up to now is      169.0 secs

     total energy              =   -4445.76018320 Ry
     estimated scf accuracy    <     144.17488761 Ry

     total magnetization       =    23.32 Bohr mag/cell
     absolute magnetization    =    23.66 Bohr mag/cell

     iteration #  4     ecut=    60.00 Ry     beta= 0.30
     Davidson diagonalization with overlap
     ethr =  1.00E-02,  avg # of iterations =  3.4

     negative rho (up, down):  7.568E-02 1.029E+00

     total cpu time spent up to now is      211.0 secs

     total energy              =   -4454.01246752 Ry
     estimated scf accuracy    <      18.67931619 Ry

     total magnetization       =    24.34 Bohr mag/cell
     absolute magnetization    =    25.29 Bohr mag/cell

     iteration #  5     ecut=    60.00 Ry     beta= 0.30
     Davidson diagonalization with overlap
     ethr =  7.91E-03,  avg # of iterations =  3.2

     negative rho (up, down):  3.560E-02 6.865E-01

     total cpu time spent up to now is      250.7 secs

     total energy              =   -4455.51429234 Ry
     estimated scf accuracy    <      16.72780214 Ry

     total magnetization       =    25.25 Bohr mag/cell
     absolute magnetization    =    25.92 Bohr mag/cell

     iteration #  6     ecut=    60.00 Ry     beta= 0.30
     Davidson diagonalization with overlap
     ethr =  7.09E-03,  avg # of iterations =  1.8

     negative rho (up, down):  9.426E-03 3.706E-01

     total cpu time spent up to now is      287.6 secs

     total energy              =   -4455.97421994 Ry
     estimated scf accuracy    <      13.87956438 Ry

     total magnetization       =    23.88 Bohr mag/cell
     absolute magnetization    =    24.59 Bohr mag/cell

     iteration #  7     ecut=    60.00 Ry     beta= 0.30
     Davidson diagonalization with overlap
     ethr =  5.88E-03,  avg # of iterations =  1.3

     negative rho (up, down):  1.471E-03 2.040E-01

     total cpu time spent up to now is      322.9 secs

     total energy              =   -4456.89104461 Ry
     estimated scf accuracy    <       7.17763753 Ry

     total magnetization       =    21.62 Bohr mag/cell
     absolute magnetization    =    22.40 Bohr mag/cell

     iteration #  8     ecut=    60.00 Ry     beta= 0.30
     Davidson diagonalization with overlap
     ethr =  3.04E-03,  avg # of iterations =  1.3

     negative rho (up, down):  0.000E+00 7.126E-02

     total cpu time spent up to now is      359.4 secs

     total energy              =   -4457.19379991 Ry
     estimated scf accuracy    <       3.10170944 Ry

     total magnetization       =    19.10 Bohr mag/cell
     absolute magnetization    =    20.12 Bohr mag/cell

     iteration #  9     ecut=    60.00 Ry     beta= 0.30
     Davidson diagonalization with overlap
     ethr =  1.31E-03,  avg # of iterations =  2.3

     negative rho (up, down):  0.000E+00 3.449E-03

     total cpu time spent up to now is      396.8 secs

     total energy              =   -4457.38083260 Ry
     estimated scf accuracy    <       3.09650063 Ry

     total magnetization       =    17.86 Bohr mag/cell
     absolute magnetization    =    19.02 Bohr mag/cell

     iteration # 10     ecut=    60.00 Ry     beta= 0.30
     Davidson diagonalization with overlap
     ethr =  1.31E-03,  avg # of iterations =  1.5

     negative rho (up, down):  0.000E+00 4.136E-04

     total cpu time spent up to now is      432.6 secs

     total energy              =   -4457.42145962 Ry
     estimated scf accuracy    <       2.47016276 Ry

     total magnetization       =    16.14 Bohr mag/cell
     absolute magnetization    =    17.50 Bohr mag/cell

     iteration # 11     ecut=    60.00 Ry     beta= 0.30
     Davidson diagonalization with overlap
     ethr =  1.05E-03,  avg # of iterations =  1.3

     negative rho (up, down):  0.000E+00 2.051E-04

     total cpu time spent up to now is      467.7 secs

     total energy              =   -4457.52917188 Ry
     estimated scf accuracy    <       0.27177491 Ry

     total magnetization       =    14.29 Bohr mag/cell
     absolute magnetization    =    15.96 Bohr mag/cell

     iteration # 12     ecut=    60.00 Ry     beta= 0.30
     Davidson diagonalization with overlap
     ethr =  1.15E-04,  avg # of iterations =  9.2

     negative rho (up, down):  0.000E+00 1.034E-04

     total cpu time spent up to now is      524.1 secs

     total energy              =   -4457.56485624 Ry
     estimated scf accuracy    <       0.44650641 Ry

     total magnetization       =    13.48 Bohr mag/cell
     absolute magnetization    =    14.98 Bohr mag/cell

     iteration # 13     ecut=    60.00 Ry     beta= 0.30
     Davidson diagonalization with overlap
     ethr =  1.15E-04,  avg # of iterations =  1.1

     total cpu time spent up to now is      558.9 secs

     total energy              =   -4457.58853298 Ry
     estimated scf accuracy    <       0.06750108 Ry

     total magnetization       =    13.24 Bohr mag/cell
     absolute magnetization    =    14.74 Bohr mag/cell

     iteration # 14     ecut=    60.00 Ry     beta= 0.30
     Davidson diagonalization with overlap
     c_bands:  1 eigenvalues not converged
     c_bands:  1 eigenvalues not converged
     ethr =  2.86E-05,  avg # of iterations =  5.9

     total cpu time spent up to now is      606.5 secs

     total energy              =   -4457.59326012 Ry
     estimated scf accuracy    <       0.17338216 Ry

     total magnetization       =    12.84 Bohr mag/cell
     absolute magnetization    =    14.39 Bohr mag/cell

     iteration # 15     ecut=    60.00 Ry     beta= 0.30
     Davidson diagonalization with overlap
     ethr =  2.86E-05,  avg # of iterations =  2.1

     total cpu time spent up to now is      644.2 secs

     total energy              =   -4457.60243886 Ry
     estimated scf accuracy    <       0.08452902 Ry

     total magnetization       =    12.59 Bohr mag/cell
     absolute magnetization    =    14.12 Bohr mag/cell

     iteration # 16     ecut=    60.00 Ry     beta= 0.30
     Davidson diagonalization with overlap
     ethr =  2.86E-05,  avg # of iterations =  3.0

     total cpu time spent up to now is      683.6 secs

     total energy              =   -4457.60388154 Ry
     estimated scf accuracy    <       0.10582085 Ry

     total magnetization       =    12.19 Bohr mag/cell
     absolute magnetization    =    13.74 Bohr mag/cell

     iteration # 17     ecut=    60.00 Ry     beta= 0.30
     Davidson diagonalization with overlap
     ethr =  2.86E-05,  avg # of iterations =  1.6

     total cpu time spent up to now is      719.6 secs

     total energy              =   -4457.61370310 Ry
     estimated scf accuracy    <       0.04982105 Ry

     total magnetization       =    12.16 Bohr mag/cell
     absolute magnetization    =    13.64 Bohr mag/cell

     iteration # 18     ecut=    60.00 Ry     beta= 0.30
     Davidson diagonalization with overlap
     ethr =  2.11E-05,  avg # of iterations =  2.1

     total cpu time spent up to now is      756.5 secs

     total energy              =   -4457.61785315 Ry
     estimated scf accuracy    <       0.06009665 Ry

     total magnetization       =    11.39 Bohr mag/cell
     absolute magnetization    =    13.02 Bohr mag/cell

     iteration # 19     ecut=    60.00 Ry     beta= 0.30
     Davidson diagonalization with overlap
     ethr =  2.11E-05,  avg # of iterations =  1.1

     total cpu time spent up to now is      791.2 secs

     total energy              =   -4457.62126396 Ry
     estimated scf accuracy    <       0.01364632 Ry

     total magnetization       =    11.07 Bohr mag/cell
     absolute magnetization    =    12.72 Bohr mag/cell

     iteration # 20     ecut=    60.00 Ry     beta= 0.30
     Davidson diagonalization with overlap
     c_bands:  1 eigenvalues not converged
     c_bands:  2 eigenvalues not converged
     c_bands:  3 eigenvalues not converged
     c_bands:  1 eigenvalues not converged
     c_bands:  1 eigenvalues not converged
     ethr =  5.78E-06,  avg # of iterations =  4.9

     total cpu time spent up to now is      835.4 secs

     total energy              =   -4457.62205823 Ry
     estimated scf accuracy    <       0.01019410 Ry

     total magnetization       =    10.91 Bohr mag/cell
     absolute magnetization    =    12.57 Bohr mag/cell

     iteration # 21     ecut=    60.00 Ry     beta= 0.30
     Davidson diagonalization with overlap
     c_bands:  1 eigenvalues not converged
     c_bands:  1 eigenvalues not converged
     ethr =  4.32E-06,  avg # of iterations =  3.1

     total cpu time spent up to now is      875.3 secs

     total energy              =   -4457.62256501 Ry
     estimated scf accuracy    <       0.00191483 Ry

     total magnetization       =    10.87 Bohr mag/cell
     absolute magnetization    =    12.52 Bohr mag/cell

     iteration # 22     ecut=    60.00 Ry     beta= 0.30
     Davidson diagonalization with overlap
     c_bands:  1 eigenvalues not converged
     c_bands:  1 eigenvalues not converged
     c_bands:  1 eigenvalues not converged
     c_bands:  2 eigenvalues not converged
     c_bands:  2 eigenvalues not converged
     c_bands:  1 eigenvalues not converged
     c_bands:  1 eigenvalues not converged
     c_bands:  1 eigenvalues not converged
     ethr =  8.11E-07,  avg # of iterations = 10.0

     total cpu time spent up to now is      931.9 secs

     total energy              =   -4457.62295727 Ry
     estimated scf accuracy    <       0.00146196 Ry

     total magnetization       =    10.83 Bohr mag/cell
     absolute magnetization    =    12.47 Bohr mag/cell

     iteration # 23     ecut=    60.00 Ry     beta= 0.30
     Davidson diagonalization with overlap
     ethr =  6.19E-07,  avg # of iterations =  2.3

     total cpu time spent up to now is      969.7 secs

     total energy              =   -4457.62314742 Ry
     estimated scf accuracy    <       0.00037949 Ry

     total magnetization       =    10.67 Bohr mag/cell
     absolute magnetization    =    12.34 Bohr mag/cell

     iteration # 24     ecut=    60.00 Ry     beta= 0.30
     Davidson diagonalization with overlap
     ethr =  1.61E-07,  avg # of iterations =  6.7

     total cpu time spent up to now is     1020.0 secs

     total energy              =   -4457.62318536 Ry
     estimated scf accuracy    <       0.00191615 Ry

     total magnetization       =    10.64 Bohr mag/cell
     absolute magnetization    =    12.29 Bohr mag/cell

     iteration # 25     ecut=    60.00 Ry     beta= 0.30
     Davidson diagonalization with overlap
     ethr =  1.61E-07,  avg # of iterations =  4.3

     total cpu time spent up to now is     1063.2 secs

     total energy              =   -4457.62331108 Ry
     estimated scf accuracy    <       0.00058286 Ry

     total magnetization       =    10.58 Bohr mag/cell
     absolute magnetization    =    12.24 Bohr mag/cell

     iteration # 26     ecut=    60.00 Ry     beta= 0.30
     Davidson diagonalization with overlap
     ethr =  1.61E-07,  avg # of iterations =  3.3

     total cpu time spent up to now is     1103.5 secs

     total energy              =   -4457.62328390 Ry
     estimated scf accuracy    <       0.00048478 Ry

     total magnetization       =    10.57 Bohr mag/cell
     absolute magnetization    =    12.20 Bohr mag/cell

     iteration # 27     ecut=    60.00 Ry     beta= 0.30
     Davidson diagonalization with overlap
     ethr =  1.61E-07,  avg # of iterations =  2.6

     total cpu time spent up to now is     1142.5 secs

     total energy              =   -4457.62334872 Ry
     estimated scf accuracy    <       0.00047244 Ry

     total magnetization       =    10.56 Bohr mag/cell
     absolute magnetization    =    12.20 Bohr mag/cell

     iteration # 28     ecut=    60.00 Ry     beta= 0.30
     Davidson diagonalization with overlap
     ethr =  1.61E-07,  avg # of iterations =  1.9

     total cpu time spent up to now is     1179.7 secs

     total energy              =   -4457.62339379 Ry
     estimated scf accuracy    <       0.00015344 Ry

     total magnetization       =    10.52 Bohr mag/cell
     absolute magnetization    =    12.15 Bohr mag/cell

     iteration # 29     ecut=    60.00 Ry     beta= 0.30
     Davidson diagonalization with overlap
     ethr =  6.50E-08,  avg # of iterations =  3.7

     total cpu time spent up to now is     1220.7 secs

     total energy              =   -4457.62342732 Ry
     estimated scf accuracy    <       0.00026917 Ry

     total magnetization       =    10.55 Bohr mag/cell
     absolute magnetization    =    12.15 Bohr mag/cell

     iteration # 30     ecut=    60.00 Ry     beta= 0.30
     Davidson diagonalization with overlap
     ethr =  6.50E-08,  avg # of iterations =  3.6

     total cpu time spent up to now is     1261.5 secs

     total energy              =   -4457.62342336 Ry
     estimated scf accuracy    <       0.00016604 Ry

     total magnetization       =    10.57 Bohr mag/cell
     absolute magnetization    =    12.15 Bohr mag/cell

     iteration # 31     ecut=    60.00 Ry     beta= 0.30
     Davidson diagonalization with overlap
     ethr =  6.50E-08,  avg # of iterations =  2.1

     total cpu time spent up to now is     1299.1 secs

     total energy              =   -4457.62344667 Ry
     estimated scf accuracy    <       0.00007685 Ry

     total magnetization       =    10.53 Bohr mag/cell
     absolute magnetization    =    12.12 Bohr mag/cell

     iteration # 32     ecut=    60.00 Ry     beta= 0.30
     Davidson diagonalization with overlap
     ethr =  3.26E-08,  avg # of iterations =  4.6

     total cpu time spent up to now is     1342.3 secs

     total energy              =   -4457.62346042 Ry
     estimated scf accuracy    <       0.00014016 Ry

     total magnetization       =    10.53 Bohr mag/cell
     absolute magnetization    =    12.11 Bohr mag/cell

     iteration # 33     ecut=    60.00 Ry     beta= 0.30
     Davidson diagonalization with overlap
     ethr =  3.26E-08,  avg # of iterations =  3.1

     total cpu time spent up to now is     1382.4 secs

     total energy              =   -4457.62347612 Ry
     estimated scf accuracy    <       0.00007717 Ry

     total magnetization       =    10.54 Bohr mag/cell
     absolute magnetization    =    12.11 Bohr mag/cell

     iteration # 34     ecut=    60.00 Ry     beta= 0.30
     Davidson diagonalization with overlap
     ethr =  3.26E-08,  avg # of iterations =  3.2

     total cpu time spent up to now is     1421.8 secs

     total energy              =   -4457.62349492 Ry
     estimated scf accuracy    <       0.00002311 Ry

     total magnetization       =    10.54 Bohr mag/cell
     absolute magnetization    =    12.09 Bohr mag/cell

     iteration # 35     ecut=    60.00 Ry     beta= 0.30
     Davidson diagonalization with overlap
     ethr =  9.79E-09,  avg # of iterations =  6.1

     total cpu time spent up to now is     1472.0 secs

     total energy              =   -4457.62350662 Ry
     estimated scf accuracy    <       0.00012324 Ry

     total magnetization       =    10.56 Bohr mag/cell
     absolute magnetization    =    12.08 Bohr mag/cell

     iteration # 36     ecut=    60.00 Ry     beta= 0.30
     Davidson diagonalization with overlap
     ethr =  9.79E-09,  avg # of iterations =  4.3

     total cpu time spent up to now is     1515.4 secs

     total energy              =   -4457.62350987 Ry
     estimated scf accuracy    <       0.00002366 Ry

     total magnetization       =    10.56 Bohr mag/cell
     absolute magnetization    =    12.07 Bohr mag/cell

     iteration # 37     ecut=    60.00 Ry     beta= 0.30
     Davidson diagonalization with overlap
     ethr =  9.79E-09,  avg # of iterations =  2.0

     total cpu time spent up to now is     1552.6 secs

     total energy              =   -4457.62351687 Ry
     estimated scf accuracy    <       0.00003295 Ry

     total magnetization       =    10.55 Bohr mag/cell
     absolute magnetization    =    12.07 Bohr mag/cell

     iteration # 38     ecut=    60.00 Ry     beta= 0.30
     Davidson diagonalization with overlap
     ethr =  9.79E-09,  avg # of iterations =  3.1

     total cpu time spent up to now is     1592.4 secs

     total energy              =   -4457.62352623 Ry
     estimated scf accuracy    <       0.00001394 Ry

     total magnetization       =    10.56 Bohr mag/cell
     absolute magnetization    =    12.06 Bohr mag/cell

     iteration # 39     ecut=    60.00 Ry     beta= 0.30
     Davidson diagonalization with overlap
     ethr =  5.91E-09,  avg # of iterations =  5.7

     total cpu time spent up to now is     1640.3 secs

     total energy              =   -4457.62352836 Ry
     estimated scf accuracy    <       0.00006314 Ry

     total magnetization       =    10.56 Bohr mag/cell
     absolute magnetization    =    12.05 Bohr mag/cell

     iteration # 40     ecut=    60.00 Ry     beta= 0.30
     Davidson diagonalization with overlap
     ethr =  5.91E-09,  avg # of iterations =  2.5

     total cpu time spent up to now is     1678.6 secs

     total energy              =   -4457.62353559 Ry
     estimated scf accuracy    <       0.00003030 Ry

     total magnetization       =    10.56 Bohr mag/cell
     absolute magnetization    =    12.05 Bohr mag/cell

     iteration # 41     ecut=    60.00 Ry     beta= 0.30
     Davidson diagonalization with overlap
     ethr =  5.91E-09,  avg # of iterations =  4.6

     total cpu time spent up to now is     1723.4 secs

     total energy              =   -4457.62354275 Ry
     estimated scf accuracy    <       0.00001767 Ry

     total magnetization       =    10.56 Bohr mag/cell
     absolute magnetization    =    12.05 Bohr mag/cell

     iteration # 42     ecut=    60.00 Ry     beta= 0.30
     Davidson diagonalization with overlap
     ethr =  5.91E-09,  avg # of iterations =  4.6

     total cpu time spent up to now is     1766.4 secs

     total energy              =   -4457.62354951 Ry
     estimated scf accuracy    <       0.00001881 Ry

     total magnetization       =    10.57 Bohr mag/cell
     absolute magnetization    =    12.04 Bohr mag/cell

     iteration # 43     ecut=    60.00 Ry     beta= 0.30
     Davidson diagonalization with overlap
     ethr =  5.91E-09,  avg # of iterations =  3.6

     total cpu time spent up to now is     1807.8 secs

     total energy              =   -4457.62355348 Ry
     estimated scf accuracy    <       0.00003964 Ry

     total magnetization       =    10.57 Bohr mag/cell
     absolute magnetization    =    12.04 Bohr mag/cell

     iteration # 44     ecut=    60.00 Ry     beta= 0.30
     Davidson diagonalization with overlap
     ethr =  5.91E-09,  avg # of iterations =  3.8

     total cpu time spent up to now is     1849.3 secs

     total energy              =   -4457.62355827 Ry
     estimated scf accuracy    <       0.00000985 Ry

     total magnetization       =    10.57 Bohr mag/cell
     absolute magnetization    =    12.03 Bohr mag/cell

     iteration # 45     ecut=    60.00 Ry     beta= 0.30
     Davidson diagonalization with overlap
     ethr =  4.17E-09,  avg # of iterations =  3.0

     total cpu time spent up to now is     1889.9 secs

     total energy              =   -4457.62356340 Ry
     estimated scf accuracy    <       0.00000994 Ry

     total magnetization       =    10.57 Bohr mag/cell
     absolute magnetization    =    12.03 Bohr mag/cell

     iteration # 46     ecut=    60.00 Ry     beta= 0.30
     Davidson diagonalization with overlap
     ethr =  4.17E-09,  avg # of iterations =  5.5

     total cpu time spent up to now is     1936.3 secs

     total energy              =   -4457.62356332 Ry
     estimated scf accuracy    <       0.00001212 Ry

     total magnetization       =    10.58 Bohr mag/cell
     absolute magnetization    =    12.02 Bohr mag/cell

     iteration # 47     ecut=    60.00 Ry     beta= 0.30
     Davidson diagonalization with overlap
     ethr =  4.17E-09,  avg # of iterations =  1.3

     total cpu time spent up to now is     1972.2 secs

     total energy              =   -4457.62356103 Ry
     estimated scf accuracy    <       0.00001317 Ry

     total magnetization       =    10.57 Bohr mag/cell
     absolute magnetization    =    12.03 Bohr mag/cell

     iteration # 48     ecut=    60.00 Ry     beta= 0.30
     Davidson diagonalization with overlap
     ethr =  4.17E-09,  avg # of iterations =  2.5

     total cpu time spent up to now is     2011.2 secs

     total energy              =   -4457.62356374 Ry
     estimated scf accuracy    <       0.00001510 Ry

     total magnetization       =    10.57 Bohr mag/cell
     absolute magnetization    =    12.03 Bohr mag/cell

     iteration # 49     ecut=    60.00 Ry     beta= 0.30
     Davidson diagonalization with overlap
     ethr =  4.17E-09,  avg # of iterations =  1.0

     total cpu time spent up to now is     2045.6 secs

     total energy              =   -4457.62354426 Ry
     estimated scf accuracy    <       0.00001237 Ry

     total magnetization       =    10.58 Bohr mag/cell
     absolute magnetization    =    12.03 Bohr mag/cell

     iteration # 50     ecut=    60.00 Ry     beta= 0.30
     Davidson diagonalization with overlap
     ethr =  4.17E-09,  avg # of iterations =  5.4

     total cpu time spent up to now is     2093.3 secs

     total energy              =   -4457.62355251 Ry
     estimated scf accuracy    <       0.00001430 Ry

     total magnetization       =    10.57 Bohr mag/cell
     absolute magnetization    =    12.03 Bohr mag/cell

     iteration # 51     ecut=    60.00 Ry     beta= 0.30
     Davidson diagonalization with overlap
     ethr =  4.17E-09,  avg # of iterations =  1.0

     total cpu time spent up to now is     2127.9 secs

     total energy              =   -4457.62354806 Ry
     estimated scf accuracy    <       0.00001620 Ry

     total magnetization       =    10.57 Bohr mag/cell
     absolute magnetization    =    12.03 Bohr mag/cell

     iteration # 52     ecut=    60.00 Ry     beta= 0.30
     Davidson diagonalization with overlap
     ethr =  4.17E-09,  avg # of iterations =  1.3

     total cpu time spent up to now is     2163.0 secs

     total energy              =   -4457.62355327 Ry
     estimated scf accuracy    <       0.00001475 Ry

     total magnetization       =    10.57 Bohr mag/cell
     absolute magnetization    =    12.04 Bohr mag/cell

     iteration # 53     ecut=    60.00 Ry     beta= 0.30
     Davidson diagonalization with overlap
     ethr =  4.17E-09,  avg # of iterations =  1.8

     total cpu time spent up to now is     2199.9 secs

     total energy              =   -4457.62355625 Ry
     estimated scf accuracy    <       0.00002353 Ry

     total magnetization       =    10.57 Bohr mag/cell
     absolute magnetization    =    12.03 Bohr mag/cell

     iteration # 54     ecut=    60.00 Ry     beta= 0.30
     Davidson diagonalization with overlap
     ethr =  4.17E-09,  avg # of iterations =  3.2

     total cpu time spent up to now is     2239.9 secs

     total energy              =   -4457.62355631 Ry
     estimated scf accuracy    <       0.00003174 Ry

     total magnetization       =    10.57 Bohr mag/cell
     absolute magnetization    =    12.03 Bohr mag/cell

     iteration # 55     ecut=    60.00 Ry     beta= 0.30
     Davidson diagonalization with overlap
     ethr =  4.17E-09,  avg # of iterations =  6.9

     total cpu time spent up to now is     2295.2 secs

     total energy              =   -4457.62354050 Ry
     estimated scf accuracy    <       0.00006617 Ry

     total magnetization       =    10.58 Bohr mag/cell
     absolute magnetization    =    12.02 Bohr mag/cell

     iteration # 56     ecut=    60.00 Ry     beta= 0.30
     Davidson diagonalization with overlap
     ethr =  4.17E-09,  avg # of iterations =  7.1

     total cpu time spent up to now is     2350.3 secs

     total energy              =   -4457.62354309 Ry
     estimated scf accuracy    <       0.00011038 Ry

     total magnetization       =    10.57 Bohr mag/cell
     absolute magnetization    =    12.03 Bohr mag/cell

     iteration # 57     ecut=    60.00 Ry     beta= 0.30
     Davidson diagonalization with overlap
     ethr =  4.17E-09,  avg # of iterations =  7.4

     total cpu time spent up to now is     2406.6 secs

     total energy              =   -4457.62357943 Ry
     estimated scf accuracy    <       0.00002657 Ry

     total magnetization       =    10.58 Bohr mag/cell
     absolute magnetization    =    12.02 Bohr mag/cell

     iteration # 58     ecut=    60.00 Ry     beta= 0.30
     Davidson diagonalization with overlap
     ethr =  4.17E-09,  avg # of iterations =  7.1

     total cpu time spent up to now is     2461.7 secs

     total energy              =   -4457.62360111 Ry
     estimated scf accuracy    <       0.00002922 Ry

     total magnetization       =    10.59 Bohr mag/cell
     absolute magnetization    =    12.02 Bohr mag/cell

     iteration # 59     ecut=    60.00 Ry     beta= 0.30
     Davidson diagonalization with overlap
     ethr =  4.17E-09,  avg # of iterations =  5.2

     total cpu time spent up to now is     2510.8 secs

     total energy              =   -4457.62359626 Ry
     estimated scf accuracy    <       0.00014223 Ry

     total magnetization       =    10.59 Bohr mag/cell
     absolute magnetization    =    12.02 Bohr mag/cell

     iteration # 60     ecut=    60.00 Ry     beta= 0.30
     Davidson diagonalization with overlap
     ethr =  4.17E-09,  avg # of iterations =  7.2

     total cpu time spent up to now is     2565.6 secs

     total energy              =   -4457.62362562 Ry
     estimated scf accuracy    <       0.00007173 Ry

     total magnetization       =    10.59 Bohr mag/cell
     absolute magnetization    =    12.02 Bohr mag/cell

     iteration # 61     ecut=    60.00 Ry     beta= 0.30
     Davidson diagonalization with overlap
     ethr =  4.17E-09,  avg # of iterations =  5.8

     total cpu time spent up to now is     2614.2 secs

     total energy              =   -4457.62352976 Ry
     estimated scf accuracy    <       0.00006836 Ry

     total magnetization       =    10.59 Bohr mag/cell
     absolute magnetization    =    12.02 Bohr mag/cell

     iteration # 62     ecut=    60.00 Ry     beta= 0.30
     Davidson diagonalization with overlap
     ethr =  4.17E-09,  avg # of iterations =  8.1

     total cpu time spent up to now is     2673.0 secs

     total energy              =   -4457.62360201 Ry
     estimated scf accuracy    <       0.00001730 Ry

     total magnetization       =    10.59 Bohr mag/cell
     absolute magnetization    =    12.02 Bohr mag/cell

     iteration # 63     ecut=    60.00 Ry     beta= 0.30
     Davidson diagonalization with overlap
     ethr =  4.17E-09,  avg # of iterations =  5.1

     total cpu time spent up to now is     2719.2 secs

     total energy              =   -4457.62361032 Ry
     estimated scf accuracy    <       0.00001578 Ry

     total magnetization       =    10.59 Bohr mag/cell
     absolute magnetization    =    12.02 Bohr mag/cell

     iteration # 64     ecut=    60.00 Ry     beta= 0.30
     Davidson diagonalization with overlap
     ethr =  4.17E-09,  avg # of iterations =  1.5

     total cpu time spent up to now is     2755.9 secs

     total energy              =   -4457.62361346 Ry
     estimated scf accuracy    <       0.00000655 Ry

     total magnetization       =    10.59 Bohr mag/cell
     absolute magnetization    =    12.02 Bohr mag/cell

     iteration # 65     ecut=    60.00 Ry     beta= 0.30
     Davidson diagonalization with overlap
     ethr =  2.77E-09,  avg # of iterations =  6.0

     total cpu time spent up to now is     2806.4 secs

     total energy              =   -4457.62362413 Ry
     estimated scf accuracy    <       0.00001656 Ry

     total magnetization       =    10.59 Bohr mag/cell
     absolute magnetization    =    12.02 Bohr mag/cell

     iteration # 66     ecut=    60.00 Ry     beta= 0.30
     Davidson diagonalization with overlap
     ethr =  2.77E-09,  avg # of iterations =  5.1

     total cpu time spent up to now is     2850.9 secs

     total energy              =   -4457.62360865 Ry
     estimated scf accuracy    <       0.00001821 Ry

     total magnetization       =    10.60 Bohr mag/cell
     absolute magnetization    =    12.02 Bohr mag/cell

     iteration # 67     ecut=    60.00 Ry     beta= 0.30
     Davidson diagonalization with overlap
     ethr =  2.77E-09,  avg # of iterations =  5.2

     total cpu time spent up to now is     2897.5 secs

     total energy              =   -4457.62361851 Ry
     estimated scf accuracy    <       0.00000921 Ry

     total magnetization       =    10.59 Bohr mag/cell
     absolute magnetization    =    12.02 Bohr mag/cell

     iteration # 68     ecut=    60.00 Ry     beta= 0.30
     Davidson diagonalization with overlap
     ethr =  2.77E-09,  avg # of iterations =  3.2

     total cpu time spent up to now is     2938.2 secs

     total energy              =   -4457.62356373 Ry
     estimated scf accuracy    <       0.00000621 Ry

     total magnetization       =    10.59 Bohr mag/cell
     absolute magnetization    =    12.02 Bohr mag/cell

     iteration # 69     ecut=    60.00 Ry     beta= 0.30
     Davidson diagonalization with overlap
     ethr =  2.63E-09,  avg # of iterations =  9.4

     total cpu time spent up to now is     3003.0 secs

     total energy              =   -4457.62364460 Ry
     estimated scf accuracy    <       0.00001989 Ry

     total magnetization       =    10.61 Bohr mag/cell
     absolute magnetization    =    12.04 Bohr mag/cell

     iteration # 70     ecut=    60.00 Ry     beta= 0.30
     Davidson diagonalization with overlap
     ethr =  2.63E-09,  avg # of iterations =  4.6

     total cpu time spent up to now is     3047.0 secs

     total energy              =   -4457.62363815 Ry
     estimated scf accuracy    <       0.00001695 Ry

     total magnetization       =    10.61 Bohr mag/cell
     absolute magnetization    =    12.04 Bohr mag/cell

     iteration # 71     ecut=    60.00 Ry     beta= 0.30
     Davidson diagonalization with overlap
     ethr =  2.63E-09,  avg # of iterations =  6.7

     total cpu time spent up to now is     3100.7 secs

     total energy              =   -4457.62345484 Ry
     estimated scf accuracy    <       0.00001146 Ry

     total magnetization       =    10.61 Bohr mag/cell
     absolute magnetization    =    12.05 Bohr mag/cell

     iteration # 72     ecut=    60.00 Ry     beta= 0.30
     Davidson diagonalization with overlap
     ethr =  2.63E-09,  avg # of iterations = 10.7

     total cpu time spent up to now is     3170.1 secs

     total energy              =   -4457.62344624 Ry
     estimated scf accuracy    <       0.00006319 Ry

     total magnetization       =    10.59 Bohr mag/cell
     absolute magnetization    =    12.02 Bohr mag/cell

     iteration # 73     ecut=    60.00 Ry     beta= 0.30
     Davidson diagonalization with overlap
     ethr =  2.63E-09,  avg # of iterations = 10.8

     total cpu time spent up to now is     3241.4 secs

     total energy              =   -4457.62358494 Ry
     estimated scf accuracy    <       0.00001610 Ry

     total magnetization       =    10.62 Bohr mag/cell
     absolute magnetization    =    12.06 Bohr mag/cell

     iteration # 74     ecut=    60.00 Ry     beta= 0.30
     Davidson diagonalization with overlap
     ethr =  2.63E-09,  avg # of iterations =  8.7

     total cpu time spent up to now is     3304.2 secs

     total energy              =   -4457.62360201 Ry
     estimated scf accuracy    <       0.00001019 Ry

     total magnetization       =    10.60 Bohr mag/cell
     absolute magnetization    =    12.03 Bohr mag/cell

     iteration # 75     ecut=    60.00 Ry     beta= 0.30
     Davidson diagonalization with overlap
     ethr =  2.63E-09,  avg # of iterations =  8.7

     total cpu time spent up to now is     3366.3 secs

     total energy              =   -4457.62366260 Ry
     estimated scf accuracy    <       0.00001325 Ry

     total magnetization       =    10.62 Bohr mag/cell
     absolute magnetization    =    12.06 Bohr mag/cell

     iteration # 76     ecut=    60.00 Ry     beta= 0.30
     Davidson diagonalization with overlap
     ethr =  2.63E-09,  avg # of iterations =  4.9

     total cpu time spent up to now is     3411.2 secs

     total energy              =   -4457.62365870 Ry
     estimated scf accuracy    <       0.00001524 Ry

     total magnetization       =    10.61 Bohr mag/cell
     absolute magnetization    =    12.06 Bohr mag/cell

     iteration # 77     ecut=    60.00 Ry     beta= 0.30
     Davidson diagonalization with overlap
     ethr =  2.63E-09,  avg # of iterations =  5.1

     total cpu time spent up to now is     3457.5 secs

     total energy              =   -4457.62366184 Ry
     estimated scf accuracy    <       0.00001268 Ry

     total magnetization       =    10.61 Bohr mag/cell
     absolute magnetization    =    12.05 Bohr mag/cell

     iteration # 78     ecut=    60.00 Ry     beta= 0.30
     Davidson diagonalization with overlap
     ethr =  2.63E-09,  avg # of iterations =  1.2

     total cpu time spent up to now is     3492.4 secs

     total energy              =   -4457.62364824 Ry
     estimated scf accuracy    <       0.00000523 Ry

     total magnetization       =    10.61 Bohr mag/cell
     absolute magnetization    =    12.05 Bohr mag/cell

     iteration # 79     ecut=    60.00 Ry     beta= 0.30
     Davidson diagonalization with overlap
     ethr =  2.22E-09,  avg # of iterations =  7.5

     total cpu time spent up to now is     3549.3 secs

     total energy              =   -4457.62365776 Ry
     estimated scf accuracy    <       0.00000719 Ry

     total magnetization       =    10.62 Bohr mag/cell
     absolute magnetization    =    12.08 Bohr mag/cell

     iteration # 80     ecut=    60.00 Ry     beta= 0.30
     Davidson diagonalization with overlap
     ethr =  2.22E-09,  avg # of iterations =  5.6

     total cpu time spent up to now is     3599.1 secs

     total energy              =   -4457.62366803 Ry
     estimated scf accuracy    <       0.00001136 Ry

     total magnetization       =    10.62 Bohr mag/cell
     absolute magnetization    =    12.06 Bohr mag/cell

     iteration # 81     ecut=    60.00 Ry     beta= 0.30
     Davidson diagonalization with overlap
     ethr =  2.22E-09,  avg # of iterations =  1.3

     total cpu time spent up to now is     3634.3 secs

     total energy              =   -4457.62365527 Ry
     estimated scf accuracy    <       0.00000371 Ry

     total magnetization       =    10.62 Bohr mag/cell
     absolute magnetization    =    12.06 Bohr mag/cell

     iteration # 82     ecut=    60.00 Ry     beta= 0.30
     Davidson diagonalization with overlap
     ethr =  1.57E-09,  avg # of iterations =  7.6

     total cpu time spent up to now is     3693.0 secs

     total energy              =   -4457.62368061 Ry
     estimated scf accuracy    <       0.00001622 Ry

     total magnetization       =    10.62 Bohr mag/cell
     absolute magnetization    =    12.09 Bohr mag/cell

     iteration # 83     ecut=    60.00 Ry     beta= 0.30
     Davidson diagonalization with overlap
     ethr =  1.57E-09,  avg # of iterations =  5.3

     total cpu time spent up to now is     3741.3 secs

     total energy              =   -4457.62366054 Ry
     estimated scf accuracy    <       0.00000636 Ry

     total magnetization       =    10.63 Bohr mag/cell
     absolute magnetization    =    12.10 Bohr mag/cell

     iteration # 84     ecut=    60.00 Ry     beta= 0.30
     Davidson diagonalization with overlap
     ethr =  1.57E-09,  avg # of iterations =  7.0

     total cpu time spent up to now is     3796.8 secs

     total energy              =   -4457.62365097 Ry
     estimated scf accuracy    <       0.00001305 Ry

     total magnetization       =    10.62 Bohr mag/cell
     absolute magnetization    =    12.08 Bohr mag/cell

     iteration # 85     ecut=    60.00 Ry     beta= 0.30
     Davidson diagonalization with overlap
     ethr =  1.57E-09,  avg # of iterations =  8.5

     total cpu time spent up to now is     3858.4 secs

     total energy              =   -4457.62368695 Ry
     estimated scf accuracy    <       0.00000614 Ry

     total magnetization       =    10.63 Bohr mag/cell
     absolute magnetization    =    12.11 Bohr mag/cell

     iteration # 86     ecut=    60.00 Ry     beta= 0.30
     Davidson diagonalization with overlap
     ethr =  1.57E-09,  avg # of iterations =  4.4

     total cpu time spent up to now is     3900.5 secs

     total energy              =   -4457.62368642 Ry
     estimated scf accuracy    <       0.00000796 Ry

     total magnetization       =    10.63 Bohr mag/cell
     absolute magnetization    =    12.11 Bohr mag/cell

     iteration # 87     ecut=    60.00 Ry     beta= 0.30
     Davidson diagonalization with overlap
     ethr =  1.57E-09,  avg # of iterations =  5.6

     total cpu time spent up to now is     3950.8 secs

     total energy              =   -4457.62362646 Ry
     estimated scf accuracy    <       0.00001008 Ry

     total magnetization       =    10.63 Bohr mag/cell
     absolute magnetization    =    12.12 Bohr mag/cell

     iteration # 88     ecut=    60.00 Ry     beta= 0.30
     Davidson diagonalization with overlap
     ethr =  1.57E-09,  avg # of iterations =  8.7

     total cpu time spent up to now is     4014.7 secs

     total energy              =   -4457.62362014 Ry
     estimated scf accuracy    <       0.00001090 Ry

     total magnetization       =    10.62 Bohr mag/cell
     absolute magnetization    =    12.08 Bohr mag/cell

     iteration # 89     ecut=    60.00 Ry     beta= 0.30
     Davidson diagonalization with overlap
     ethr =  1.57E-09,  avg # of iterations =  9.8

     total cpu time spent up to now is     4081.6 secs

     total energy              =   -4457.62364574 Ry
     estimated scf accuracy    <       0.00000417 Ry

     total magnetization       =    10.63 Bohr mag/cell
     absolute magnetization    =    12.13 Bohr mag/cell

     iteration # 90     ecut=    60.00 Ry     beta= 0.30
     Davidson diagonalization with overlap
     ethr =  1.57E-09,  avg # of iterations =  9.9

     total cpu time spent up to now is     4149.4 secs

     total energy              =   -4457.62361862 Ry
     estimated scf accuracy    <       0.00000392 Ry

     total magnetization       =    10.64 Bohr mag/cell
     absolute magnetization    =    12.19 Bohr mag/cell

     iteration # 91     ecut=    60.00 Ry     beta= 0.30
     Davidson diagonalization with overlap
     ethr =  1.57E-09,  avg # of iterations = 10.1

     total cpu time spent up to now is     4217.6 secs

     total energy              =   -4457.62354616 Ry
     estimated scf accuracy    <       0.00000831 Ry

     total magnetization       =    10.63 Bohr mag/cell
     absolute magnetization    =    12.13 Bohr mag/cell

     iteration # 92     ecut=    60.00 Ry     beta= 0.30
     Davidson diagonalization with overlap
     ethr =  1.57E-09,  avg # of iterations = 11.2

     total cpu time spent up to now is     4290.3 secs

     total energy              =   -4457.62368000 Ry
     estimated scf accuracy    <       0.00000682 Ry

     total magnetization       =    10.65 Bohr mag/cell
     absolute magnetization    =    12.23 Bohr mag/cell

     iteration # 93     ecut=    60.00 Ry     beta= 0.30
     Davidson diagonalization with overlap
     ethr =  1.57E-09,  avg # of iterations =  7.9

     total cpu time spent up to now is     4348.5 secs

     total energy              =   -4457.62369289 Ry
     estimated scf accuracy    <       0.00000345 Ry

     total magnetization       =    10.64 Bohr mag/cell
     absolute magnetization    =    12.18 Bohr mag/cell

     iteration # 94     ecut=    60.00 Ry     beta= 0.30
     Davidson diagonalization with overlap
     ethr =  1.46E-09,  avg # of iterations =  7.1

     total cpu time spent up to now is     4403.6 secs

     total energy              =   -4457.62370372 Ry
     estimated scf accuracy    <       0.00000876 Ry

     total magnetization       =    10.64 Bohr mag/cell
     absolute magnetization    =    12.22 Bohr mag/cell

     iteration # 95     ecut=    60.00 Ry     beta= 0.30
     Davidson diagonalization with overlap
     ethr =  1.46E-09,  avg # of iterations =  5.0

     total cpu time spent up to now is     4449.8 secs

     total energy              =   -4457.62370628 Ry
     estimated scf accuracy    <       0.00000176 Ry

     total magnetization       =    10.64 Bohr mag/cell
     absolute magnetization    =    12.20 Bohr mag/cell

     iteration # 96     ecut=    60.00 Ry     beta= 0.30
     Davidson diagonalization with overlap
     ethr =  7.46E-10,  avg # of iterations =  3.9

     total cpu time spent up to now is     4491.4 secs

     total energy              =   -4457.62370444 Ry
     estimated scf accuracy    <       0.00000452 Ry

     total magnetization       =    10.64 Bohr mag/cell
     absolute magnetization    =    12.20 Bohr mag/cell

     iteration # 97     ecut=    60.00 Ry     beta= 0.30
     Davidson diagonalization with overlap
     ethr =  7.46E-10,  avg # of iterations =  6.1

     total cpu time spent up to now is     4543.5 secs

     total energy              =   -4457.62369729 Ry
     estimated scf accuracy    <       0.00000205 Ry

     total magnetization       =    10.64 Bohr mag/cell
     absolute magnetization    =    12.22 Bohr mag/cell

     iteration # 98     ecut=    60.00 Ry     beta= 0.30
     Davidson diagonalization with overlap
     ethr =  7.46E-10,  avg # of iterations =  8.1

     total cpu time spent up to now is     4603.1 secs

     total energy              =   -4457.62369527 Ry
     estimated scf accuracy    <       0.00000368 Ry

     total magnetization       =    10.65 Bohr mag/cell
     absolute magnetization    =    12.25 Bohr mag/cell

     iteration # 99     ecut=    60.00 Ry     beta= 0.30
     Davidson diagonalization with overlap
     ethr =  7.46E-10,  avg # of iterations =  7.7

     total cpu time spent up to now is     4661.8 secs

     total energy              =   -4457.62370670 Ry
     estimated scf accuracy    <       0.00000098 Ry

     total magnetization       =    10.64 Bohr mag/cell
     absolute magnetization    =    12.22 Bohr mag/cell

     iteration #100     ecut=    60.00 Ry     beta= 0.30
     Davidson diagonalization with overlap
     ethr =  4.15E-10,  avg # of iterations =  5.5

     total cpu time spent up to now is     4713.3 secs

     total energy              =   -4457.62370615 Ry
     estimated scf accuracy    <       0.00000059 Ry

     total magnetization       =    10.65 Bohr mag/cell
     absolute magnetization    =    12.23 Bohr mag/cell

     iteration #101     ecut=    60.00 Ry     beta= 0.30
     Davidson diagonalization with overlap
     ethr =  2.51E-10,  avg # of iterations =  6.7

     total cpu time spent up to now is     4767.2 secs

     total energy              =   -4457.62370427 Ry
     estimated scf accuracy    <       0.00000310 Ry

     total magnetization       =    10.64 Bohr mag/cell
     absolute magnetization    =    12.22 Bohr mag/cell

     iteration #102     ecut=    60.00 Ry     beta= 0.30
     Davidson diagonalization with overlap
     ethr =  2.51E-10,  avg # of iterations =  8.1

     total cpu time spent up to now is     4827.8 secs

     total energy              =   -4457.62370923 Ry
     estimated scf accuracy    <       0.00000081 Ry

     total magnetization       =    10.65 Bohr mag/cell
     absolute magnetization    =    12.24 Bohr mag/cell

     iteration #103     ecut=    60.00 Ry     beta= 0.30
     Davidson diagonalization with overlap
     ethr =  2.51E-10,  avg # of iterations =  2.9

     total cpu time spent up to now is     4866.7 secs

     total energy              =   -4457.62370527 Ry
     estimated scf accuracy    <       0.00000102 Ry

     total magnetization       =    10.64 Bohr mag/cell
     absolute magnetization    =    12.24 Bohr mag/cell

     iteration #104     ecut=    60.00 Ry     beta= 0.30
     Davidson diagonalization with overlap
     ethr =  2.51E-10,  avg # of iterations =  8.5

     total cpu time spent up to now is     4928.5 secs

     total energy              =   -4457.62370195 Ry
     estimated scf accuracy    <       0.00000133 Ry

     total magnetization       =    10.65 Bohr mag/cell
     absolute magnetization    =    12.26 Bohr mag/cell

     iteration #105     ecut=    60.00 Ry     beta= 0.30
     Davidson diagonalization with overlap
     ethr =  2.51E-10,  avg # of iterations =  8.2

     total cpu time spent up to now is     4991.1 secs

     total energy              =   -4457.62369294 Ry
     estimated scf accuracy    <       0.00000110 Ry

     total magnetization       =    10.64 Bohr mag/cell
     absolute magnetization    =    12.24 Bohr mag/cell

     iteration #106     ecut=    60.00 Ry     beta= 0.30
     Davidson diagonalization with overlap
     ethr =  2.51E-10,  avg # of iterations = 10.8

     total cpu time spent up to now is     5062.4 secs

     total energy              =   -4457.62370503 Ry
     estimated scf accuracy    <       0.00000257 Ry

     total magnetization       =    10.65 Bohr mag/cell
     absolute magnetization    =    12.27 Bohr mag/cell

     iteration #107     ecut=    60.00 Ry     beta= 0.30
     Davidson diagonalization with overlap
     ethr =  2.51E-10,  avg # of iterations =  8.3

     total cpu time spent up to now is     5123.2 secs

     total energy              =   -4457.62370762 Ry
     estimated scf accuracy    <       0.00000124 Ry

     total magnetization       =    10.64 Bohr mag/cell
     absolute magnetization    =    12.25 Bohr mag/cell

     iteration #108     ecut=    60.00 Ry     beta= 0.30
     Davidson diagonalization with overlap
     ethr =  2.51E-10,  avg # of iterations =  7.5

     total cpu time spent up to now is     5180.1 secs

     total energy              =   -4457.62370855 Ry
     estimated scf accuracy    <       0.00000147 Ry

     total magnetization       =    10.65 Bohr mag/cell
     absolute magnetization    =    12.27 Bohr mag/cell

     iteration #109     ecut=    60.00 Ry     beta= 0.30
     Davidson diagonalization with overlap
     ethr =  2.51E-10,  avg # of iterations =  6.5

     total cpu time spent up to now is     5233.4 secs

     total energy              =   -4457.62371021 Ry
     estimated scf accuracy    <       0.00000129 Ry

     total magnetization       =    10.64 Bohr mag/cell
     absolute magnetization    =    12.26 Bohr mag/cell

     iteration #110     ecut=    60.00 Ry     beta= 0.30
     Davidson diagonalization with overlap
     ethr =  2.51E-10,  avg # of iterations =  1.8

     total cpu time spent up to now is     5269.7 secs

     total energy              =   -4457.62370175 Ry
     estimated scf accuracy    <       0.00000054 Ry

     total magnetization       =    10.64 Bohr mag/cell
     absolute magnetization    =    12.26 Bohr mag/cell

     iteration #111     ecut=    60.00 Ry     beta= 0.30
     Davidson diagonalization with overlap
     ethr =  2.31E-10,  avg # of iterations =  9.6

     total cpu time spent up to now is     5336.7 secs

     total energy              =   -4457.62370952 Ry
     estimated scf accuracy    <       0.00000066 Ry

     total magnetization       =    10.65 Bohr mag/cell
     absolute magnetization    =    12.28 Bohr mag/cell

     iteration #112     ecut=    60.00 Ry     beta= 0.30
     Davidson diagonalization with overlap
     ethr =  2.31E-10,  avg # of iterations =  6.3

     total cpu time spent up to now is     5388.7 secs

     total energy              =   -4457.62371086 Ry
     estimated scf accuracy    <       0.00000032 Ry

     total magnetization       =    10.64 Bohr mag/cell
     absolute magnetization    =    12.27 Bohr mag/cell

     iteration #113     ecut=    60.00 Ry     beta= 0.30
     Davidson diagonalization with overlap
     ethr =  1.37E-10,  avg # of iterations =  3.2

     total cpu time spent up to now is     5429.5 secs

     total energy              =   -4457.62371067 Ry
     estimated scf accuracy    <       0.00000074 Ry

     total magnetization       =    10.65 Bohr mag/cell
     absolute magnetization    =    12.27 Bohr mag/cell

     iteration #114     ecut=    60.00 Ry     beta= 0.30
     Davidson diagonalization with overlap
     ethr =  1.37E-10,  avg # of iterations =  5.5

     total cpu time spent up to now is     5477.5 secs

     total energy              =   -4457.62371082 Ry
     estimated scf accuracy    <       0.00000024 Ry

     total magnetization       =    10.65 Bohr mag/cell
     absolute magnetization    =    12.28 Bohr mag/cell

     iteration #115     ecut=    60.00 Ry     beta= 0.30
     Davidson diagonalization with overlap
     ethr =  1.01E-10,  avg # of iterations =  5.1

     total cpu time spent up to now is     5524.2 secs

     total energy              =   -4457.62370965 Ry
     estimated scf accuracy    <       0.00000081 Ry

     total magnetization       =    10.64 Bohr mag/cell
     absolute magnetization    =    12.28 Bohr mag/cell

     iteration #116     ecut=    60.00 Ry     beta= 0.30
     Davidson diagonalization with overlap
     ethr =  1.01E-10,  avg # of iterations =  7.5
 
     Magnetic moment per site  (integrated on atomic sphere of radius R)
     atom   1 (R=0.180)  charge= 12.1485  magn=  0.1630
     atom   2 (R=0.180)  charge= 14.4453  magn=  1.6370
     atom   3 (R=0.180)  charge= 14.4234  magn=  1.7987
     atom   4 (R=0.180)  charge= 12.1661  magn= -0.0751
     atom   5 (R=0.180)  charge= 12.1472  magn=  0.1465
     atom   6 (R=0.180)  charge= 14.4453  magn=  1.6370
     atom   7 (R=0.180)  charge= 12.1486  magn=  0.2061
     atom   8 (R=0.180)  charge= 12.1661  magn= -0.0751
     atom   9 (R=0.180)  charge= 12.1485  magn=  0.2059
     atom  10 (R=0.180)  charge= 12.1661  magn= -0.0751
     atom  11 (R=0.180)  charge= 12.1474  magn=  0.1469
     atom  12 (R=0.180)  charge= 14.4453  magn=  1.6370
     atom  13 (R=0.180)  charge= 14.4241  magn=  1.7987
     atom  14 (R=0.180)  charge= 12.1661  magn= -0.0751
     atom  15 (R=0.180)  charge= 12.1484  magn=  0.1631
     atom  16 (R=0.180)  charge= 14.4453  magn=  1.6370

     total cpu time spent up to now is     5582.2 secs

     End of self-consistent calculation

     Number of k-points >= 100: set verbosity='high' to print the bands.

     the Fermi energy is    19.9285 ev

!    total energy              =   -4457.62371104 Ry
     total all-electron energy =    -36290.729695 Ry
     estimated scf accuracy    <       0.00000008 Ry
     smearing contrib. (-TS)   =      -0.00278800 Ry
     internal energy E=F+TS    =   -4457.62092304 Ry

     The total energy is F=E-TS. E is the sum of the following terms:
     one-electron contribution =   -1187.40444199 Ry
     hartree contribution      =     746.31747406 Ry
     xc contribution           =    -389.40574679 Ry
     ewald contribution        =   -2387.88366089 Ry
     one-center paw contrib.   =   -1239.24454743 Ry

     total magnetization       =    10.65 Bohr mag/cell
     absolute magnetization    =    12.29 Bohr mag/cell

     convergence has been achieved in 116 iterations


     Computing stress (Cartesian axis) and pressure

          total   stress  (Ry/bohr**3)                   (kbar)     P=       44.80
   0.00028149   0.00000000   0.00017313           41.41        0.00       25.47
   0.00000000   0.00051893   0.00000000            0.00       76.34        0.00
   0.00017313   0.00000000   0.00011322           25.47        0.00       16.65


     Writing all to output data dir ./tmp/fecr_fe06cr10_t0.01.save/ :
     XML data file, charge density, pseudopotentials, collected wavefunctions
 
     init_run     :     36.96s CPU     27.04s WALL (       1 calls)
     electrons    :   6995.74s CPU   5554.67s WALL (       1 calls)
     stress       :     23.40s CPU     23.10s WALL (       1 calls)

     Called by init_run:
     wfcinit      :      7.32s CPU      8.96s WALL (       1 calls)
     potinit      :     28.74s CPU     17.11s WALL (       1 calls)
     hinit0       :      0.61s CPU      0.58s WALL (       1 calls)

     Called by electrons:
     c_bands      :   3208.21s CPU   3216.78s WALL (     116 calls)
     sum_band     :    261.73s CPU    261.98s WALL (     116 calls)
     v_of_rho     :      6.50s CPU      5.36s WALL (     117 calls)
     newd         :      4.55s CPU      4.59s WALL (     117 calls)
                                        4.59s GPU  (     117 calls)
     PAW_pot      :   3536.34s CPU   2075.82s WALL (     117 calls)
     mix_rho      :      3.98s CPU      4.13s WALL (     116 calls)

     Called by c_bands:
     init_us_2    :     22.10s CPU     20.90s WALL (   37440 calls)
     cegterg      :   2933.34s CPU   2942.10s WALL (   18560 calls)

     Called by *egterg:
     cdiaghg      :   1044.45s CPU   1052.08s WALL (  113821 calls)
                                     1051.60s GPU  (  113821 calls)
     h_psi        :    864.73s CPU    869.38s WALL (  113981 calls)
                                      868.55s GPU  (  113981 calls)
     s_psi        :     57.79s CPU     58.60s WALL (  113981 calls)
     g_psi        :      0.52s CPU      5.11s WALL (   95261 calls)
                                        4.84s GPU  (   95261 calls)

     Called by h_psi:
     h_psi:calbec :      4.11s CPU    181.20s WALL (  113981 calls)
                                      180.79s GPU  (  113981 calls)
     vloc_psi     :    456.23s CPU    455.37s WALL (  113981 calls)
                                      454.98s GPU  (  113981 calls)
     add_vuspsi   :     56.55s CPU    226.76s WALL (  113981 calls)
                                      226.36s GPU  (  113981 calls)

     General routines
     calbec       :      4.89s CPU      5.09s WALL (  132701 calls)
     fft          :      1.35s CPU      1.64s WALL (    2944 calls)
                                        0.36s GPU  (    2710 calls)
     ffts         :      0.44s CPU      0.45s WALL (     466 calls)
                                        0.01s GPU  (     232 calls)
     fftw         :     25.18s CPU    421.41s WALL ( 1169210 calls)
                                      418.70s GPU  ( 1169210 calls)
     interpolate  :      1.89s CPU      1.90s WALL (     234 calls)
 
     Parallel routines
 
     PWSCF        :      1h57m CPU      1h33m WALL

 
   This run was terminated on:  14:12:36  20May2026            

=------------------------------------------------------------------------------=
   JOB DONE.
=------------------------------------------------------------------------------=
Warning: ieee_divide_by_zero is signaling
Warning: ieee_inexact is signaling
FORTRAN STOP
