--------------------------------------------------------------------------
WARNING: Open MPI tried to bind a process but failed.  This is a
warning only; your job will continue, though performance may
be degraded.

  Local host:        b1c76c1b6516
  Application name:  /workspace/q-e-qe-7.3.1/bin/pw.x
  Error message:     failed to bind memory
  Location:          ../../../../../orte/mca/rtc/hwloc/rtc_hwloc.c:447

--------------------------------------------------------------------------

     Program PWSCF v.7.3.1 starts on 14May2026 at 10: 3:28 

     This program is part of the open-source Quantum ESPRESSO suite
     for quantum simulation of materials; please cite
         "P. Giannozzi et al., J. Phys.:Condens. Matter 21 395502 (2009);
         "P. Giannozzi et al., J. Phys.:Condens. Matter 29 465901 (2017);
         "P. Giannozzi et al., J. Chem. Phys. 152 154105 (2020);
          URL http://www.quantum-espresso.org", 
     in publications or presentations arising from this work. More details at
     http://www.quantum-espresso.org/quote

     Parallel version (MPI & OpenMP), running on       8 processor cores
     Number of MPI processes:                 1
     Threads/MPI process:                     8

     MPI processes distributed on     1 nodes
     188122 MiB available memory on the printing compute node when the environment starts
 
     Reading input from inputs/fecr_fe09cr07_vcr.in

     Current dimensions of program PWSCF are:
     Max number of different atomic species (ntypx) = 10
     Max number of k-points (npk) =  40000
     Max angular momentum in pseudopotentials (lmaxx) =  4
     file Fe.pbe-spn-kjpaw_psl.1.0.0.UPF: wavefunction(s)  3P 3D renormalized
     file Cr.pbe-spn-kjpaw_psl.1.0.0.UPF: wavefunction(s)  3S 3P 3D renormalized
     Message from routine setup:
     using ibrav=0 with symmetry is DISCOURAGED, use correct ibrav instead
 
     Subspace diagonalization in iterative solution of the eigenvalue problem:
     a serial algorithm will be used

 
     G-vector sticks info
     --------------------
     sticks:   dense  smooth     PW     G-vecs:    dense   smooth      PW
     Sum        4373    2185    613               216775    76693   11513
 
     Using Slab Decomposition
 


     bravais-lattice index     =            0
     lattice parameter (alat)  =      10.6819  a.u.
     unit-cell volume          =    1218.8451 (a.u.)^3
     number of atoms/cell      =           16
     number of atomic types    =            2
     number of electrons       =       242.00
     number of Kohn-Sham states=          145
     kinetic-energy cutoff     =      60.0000  Ry
     charge density cutoff     =     480.0000  Ry
     scf convergence threshold =      1.0E-08
     mixing beta               =       0.3000
     number of iterations used =            8  plain     mixing
     energy convergence thresh.=      1.0E-04
     force convergence thresh. =      1.0E-04
     press convergence thresh. =      5.0E-01
     Exchange-correlation= SLA  PW   PBX  PBC
                           (   1   4   3   4   0   0   0)
     nstep                     =           50


     GPU acceleration is ACTIVE.  1 visible GPUs per MPI rank


     celldm(1)=  10.681924  celldm(2)=   0.000000  celldm(3)=   0.000000
     celldm(4)=   0.000000  celldm(5)=   0.000000  celldm(6)=   0.000000

     crystal axes: (cart. coord. in units of alat)
               a(1) = (   1.000000   0.000000   0.000000 )  
               a(2) = (   0.000000   1.000000   0.000000 )  
               a(3) = (   0.000000   0.000000   1.000000 )  

     reciprocal axes: (cart. coord. in units 2 pi/alat)
               b(1) = (  1.000000  0.000000  0.000000 )  
               b(2) = (  0.000000  1.000000  0.000000 )  
               b(3) = (  0.000000  0.000000  1.000000 )  


     PseudoPot. # 1 for Fe read from file:
     ./pseudo/Fe.pbe-spn-kjpaw_psl.1.0.0.UPF
     MD5 check sum: fc81f059e5c5069939230b1155715ae8
     Pseudo is Projector augmented-wave + core cor, Zval = 16.0
     Generated using &quot;atomic&quot; code by A. Dal Corso  v.6.3
     Shape of augmentation charge: PSQ
     Using radial grid of 1191 points,  6 beta functions with: 
                l(1) =   0
                l(2) =   0
                l(3) =   1
                l(4) =   1
                l(5) =   2
                l(6) =   2
     Q(r) pseudized with 0 coefficients 


     PseudoPot. # 2 for Cr read from file:
     ./pseudo/Cr.pbe-spn-kjpaw_psl.1.0.0.UPF
     MD5 check sum: 198f1a2427a48552563eee314eba32ba
     Pseudo is Projector augmented-wave + core cor, Zval = 14.0
     Generated using &quot;atomic&quot; code by A. Dal Corso  v.6.3
     Shape of augmentation charge: PSQ
     Using radial grid of 1183 points,  6 beta functions with: 
                l(1) =   0
                l(2) =   0
                l(3) =   1
                l(4) =   1
                l(5) =   2
                l(6) =   2
     Q(r) pseudized with 0 coefficients 


     atomic species   valence    mass     pseudopotential
     Fe               16.00    55.84500     Fe( 1.00)
     Cr               14.00    51.99600     Cr( 1.00)

     Starting magnetic structure 
     atomic species   magnetization
     Fe              0.500
     Cr              0.300

      4 Sym. Ops., with inversion, found ( 2 have fractional translation)



   Cartesian axes

     site n.     atom                  positions (alat units)
         1        Cr     tau(   1) = (   0.0000000   0.0000000   0.0000000  )
         2        Fe     tau(   2) = (   0.2500000   0.2500000   0.2500000  )
         3        Fe     tau(   3) = (   0.0000000   0.0000000   0.5000000  )
         4        Cr     tau(   4) = (   0.2500000   0.2500000   0.7500000  )
         5        Cr     tau(   5) = (   0.0000000   0.5000000   0.0000000  )
         6        Fe     tau(   6) = (   0.2500000   0.7500000   0.2500000  )
         7        Cr     tau(   7) = (   0.0000000   0.5000000   0.5000000  )
         8        Fe     tau(   8) = (   0.2500000   0.7500000   0.7500000  )
         9        Cr     tau(   9) = (   0.5000000   0.0000000   0.0000000  )
        10        Fe     tau(  10) = (   0.7500000   0.2500000   0.2500000  )
        11        Fe     tau(  11) = (   0.5000000   0.0000000   0.5000000  )
        12        Fe     tau(  12) = (   0.7500000   0.2500000   0.7500000  )
        13        Fe     tau(  13) = (   0.5000000   0.5000000   0.0000000  )
        14        Cr     tau(  14) = (   0.7500000   0.7500000   0.2500000  )
        15        Cr     tau(  15) = (   0.5000000   0.5000000   0.5000000  )
        16        Fe     tau(  16) = (   0.7500000   0.7500000   0.7500000  )

     number of k points=    68  Marzari-Vanderbilt smearing, width (Ry)=  0.0200
                       cart. coord. in units 2pi/alat
        k(    1) = (   0.0000000   0.0000000   0.0000000), wk =   0.0046296
        k(    2) = (   0.0000000   0.0000000   0.1666667), wk =   0.0185185
        k(    3) = (   0.0000000   0.0000000   0.3333333), wk =   0.0185185
        k(    4) = (   0.0000000   0.0000000  -0.5000000), wk =   0.0092593
        k(    5) = (   0.0000000   0.1666667   0.1666667), wk =   0.0092593
        k(    6) = (   0.0000000   0.1666667   0.3333333), wk =   0.0185185
        k(    7) = (   0.0000000   0.1666667  -0.5000000), wk =   0.0185185
        k(    8) = (   0.0000000   0.3333333   0.3333333), wk =   0.0092593
        k(    9) = (   0.0000000   0.3333333  -0.5000000), wk =   0.0185185
        k(   10) = (   0.0000000  -0.5000000  -0.5000000), wk =   0.0046296
        k(   11) = (   0.1666667   0.1666667   0.1666667), wk =   0.0092593
        k(   12) = (   0.1666667   0.1666667   0.3333333), wk =   0.0185185
        k(   13) = (   0.1666667   0.1666667  -0.5000000), wk =   0.0185185
        k(   14) = (   0.1666667   0.3333333   0.3333333), wk =   0.0092593
        k(   15) = (   0.1666667   0.3333333  -0.5000000), wk =   0.0185185
        k(   16) = (   0.1666667  -0.5000000  -0.5000000), wk =   0.0092593
        k(   17) = (   0.3333333   0.3333333   0.3333333), wk =   0.0092593
        k(   18) = (   0.3333333   0.3333333  -0.5000000), wk =   0.0185185
        k(   19) = (   0.3333333  -0.5000000  -0.5000000), wk =   0.0092593
        k(   20) = (  -0.5000000  -0.5000000  -0.5000000), wk =   0.0046296
        k(   21) = (   0.1666667   0.0000000   0.0000000), wk =   0.0092593
        k(   22) = (   0.3333333   0.0000000   0.0000000), wk =   0.0092593
        k(   23) = (  -0.5000000   0.0000000   0.0000000), wk =   0.0046296
        k(   24) = (   0.1666667   0.0000000  -0.1666667), wk =   0.0185185
        k(   25) = (  -0.1666667   0.0000000  -0.1666667), wk =   0.0185185
        k(   26) = (   0.0000000  -0.1666667   0.1666667), wk =   0.0092593
        k(   27) = (   0.1666667   0.0000000  -0.3333333), wk =   0.0185185
        k(   28) = (  -0.1666667   0.0000000  -0.3333333), wk =   0.0185185
        k(   29) = (   0.3333333  -0.1666667   0.0000000), wk =   0.0185185
        k(   30) = (  -0.3333333  -0.1666667   0.0000000), wk =   0.0185185
        k(   31) = (   0.0000000  -0.1666667   0.3333333), wk =   0.0185185
        k(   32) = (   0.1666667   0.0000000   0.5000000), wk =   0.0185185
        k(   33) = (  -0.5000000  -0.1666667   0.0000000), wk =   0.0185185
        k(   34) = (   0.3333333   0.0000000  -0.3333333), wk =   0.0185185
        k(   35) = (  -0.3333333   0.0000000  -0.3333333), wk =   0.0185185
        k(   36) = (   0.0000000  -0.3333333   0.3333333), wk =   0.0092593
        k(   37) = (   0.3333333   0.0000000   0.5000000), wk =   0.0185185
        k(   38) = (  -0.5000000  -0.3333333   0.0000000), wk =   0.0185185
        k(   39) = (  -0.5000000   0.0000000   0.5000000), wk =   0.0092593
        k(   40) = (   0.1666667   0.1666667  -0.1666667), wk =   0.0185185
        k(   41) = (  -0.1666667   0.1666667   0.1666667), wk =   0.0092593
        k(   42) = (   0.1666667   0.1666667  -0.3333333), wk =   0.0185185
        k(   43) = (   0.1666667  -0.1666667   0.3333333), wk =   0.0185185
        k(   44) = (  -0.1666667   0.1666667   0.3333333), wk =   0.0185185
        k(   45) = (   0.3333333  -0.1666667   0.1666667), wk =   0.0185185
        k(   46) = (  -0.3333333  -0.1666667  -0.1666667), wk =   0.0092593
        k(   47) = (  -0.3333333   0.1666667   0.1666667), wk =   0.0092593
        k(   48) = (   0.1666667  -0.1666667  -0.5000000), wk =   0.0185185
        k(   49) = (  -0.5000000  -0.1666667   0.1666667), wk =   0.0092593
        k(   50) = (   0.5000000  -0.1666667  -0.1666667), wk =   0.0092593
        k(   51) = (   0.3333333   0.1666667  -0.3333333), wk =   0.0185185
        k(   52) = (  -0.3333333  -0.1666667  -0.3333333), wk =   0.0185185
        k(   53) = (   0.3333333  -0.1666667   0.3333333), wk =   0.0185185
        k(   54) = (  -0.3333333   0.1666667   0.3333333), wk =   0.0185185
        k(   55) = (  -0.1666667   0.3333333   0.3333333), wk =   0.0092593
        k(   56) = (  -0.1666667  -0.3333333   0.3333333), wk =   0.0185185
        k(   57) = (   0.3333333   0.1666667   0.5000000), wk =   0.0185185
        k(   58) = (   0.3333333  -0.1666667  -0.5000000), wk =   0.0185185
        k(   59) = (  -0.5000000  -0.3333333   0.1666667), wk =   0.0185185
        k(   60) = (   0.5000000  -0.3333333  -0.1666667), wk =   0.0185185
        k(   61) = (  -0.1666667  -0.5000000   0.3333333), wk =   0.0185185
        k(   62) = (  -0.5000000   0.1666667   0.5000000), wk =   0.0185185
        k(   63) = (   0.3333333   0.3333333  -0.3333333), wk =   0.0185185
        k(   64) = (  -0.3333333   0.3333333   0.3333333), wk =   0.0092593
        k(   65) = (   0.3333333  -0.3333333  -0.5000000), wk =   0.0185185
        k(   66) = (  -0.5000000  -0.3333333   0.3333333), wk =   0.0092593
        k(   67) = (   0.5000000  -0.3333333  -0.3333333), wk =   0.0092593
        k(   68) = (  -0.5000000   0.3333333   0.5000000), wk =   0.0185185

     Dense  grid:   216775 G-vectors     FFT dimensions: (  75,  80,  80)

     Smooth grid:    76693 G-vectors     FFT dimensions: (  54,  54,  54)

     Estimated max dynamical RAM per process >       3.77 GB

     Check: negative core charge=   -0.000003
     Generating pointlists ...
     new r_m :   0.1786 (alat units)  1.9080 (a.u.) for type    1
     new r_m :   0.1786 (alat units)  1.9080 (a.u.) for type    2

     Initial potential from superposition of free atoms

     starting charge     241.9907, renormalised to     242.0000
     Starting wfcs are  160 randomized atomic wfcs
     Checking if some PAW data can be deallocated... 

     total cpu time spent up to now is       21.6 secs

     Self-consistent Calculation

     iteration #  1     ecut=    60.00 Ry     beta= 0.30
     Davidson diagonalization with overlap
     ethr =  1.00E-02,  avg # of iterations =  3.9

     negative rho (up, down):  0.000E+00 7.203E-01

     total cpu time spent up to now is       68.9 secs

     total energy              =   -4690.15859147 Ry
     estimated scf accuracy    <      51.07739747 Ry

     total magnetization       =    48.14 Bohr mag/cell
     absolute magnetization    =    58.28 Bohr mag/cell

     iteration #  2     ecut=    60.00 Ry     beta= 0.30
     Davidson diagonalization with overlap
     ethr =  1.00E-02,  avg # of iterations =  4.3

     negative rho (up, down):  0.000E+00 5.957E-01

     total cpu time spent up to now is      115.4 secs

     total energy              =   -4688.49923711 Ry
     estimated scf accuracy    <      82.73295618 Ry

     total magnetization       =    18.64 Bohr mag/cell
     absolute magnetization    =    19.73 Bohr mag/cell

     iteration #  3     ecut=    60.00 Ry     beta= 0.30
     Davidson diagonalization with overlap
     ethr =  1.00E-02,  avg # of iterations =  2.4

     negative rho (up, down):  0.000E+00 4.321E-01

     total cpu time spent up to now is      157.8 secs

     total energy              =   -4696.69534019 Ry
     estimated scf accuracy    <      19.72269674 Ry

     total magnetization       =    41.35 Bohr mag/cell
     absolute magnetization    =    41.86 Bohr mag/cell

     iteration #  4     ecut=    60.00 Ry     beta= 0.30
     Davidson diagonalization with overlap
     ethr =  8.15E-03,  avg # of iterations =  1.6

     negative rho (up, down):  0.000E+00 3.645E-01

     total cpu time spent up to now is      193.3 secs

     total energy              =   -4698.17586676 Ry
     estimated scf accuracy    <      10.80559581 Ry

     total magnetization       =    34.08 Bohr mag/cell
     absolute magnetization    =    34.68 Bohr mag/cell

     iteration #  5     ecut=    60.00 Ry     beta= 0.30
     Davidson diagonalization with overlap
     ethr =  4.47E-03,  avg # of iterations =  1.3

     negative rho (up, down):  0.000E+00 1.989E-01

     total cpu time spent up to now is      227.9 secs

     total energy              =   -4699.11512877 Ry
     estimated scf accuracy    <       6.25943337 Ry

     total magnetization       =    33.17 Bohr mag/cell
     absolute magnetization    =    33.74 Bohr mag/cell

     iteration #  6     ecut=    60.00 Ry     beta= 0.30
     Davidson diagonalization with overlap
     ethr =  2.59E-03,  avg # of iterations =  2.3

     negative rho (up, down):  0.000E+00 3.666E-03

     total cpu time spent up to now is      266.7 secs

     total energy              =   -4699.69542064 Ry
     estimated scf accuracy    <      11.60503529 Ry

     total magnetization       =    30.56 Bohr mag/cell
     absolute magnetization    =    31.67 Bohr mag/cell

     iteration #  7     ecut=    60.00 Ry     beta= 0.30
     Davidson diagonalization with overlap
     ethr =  2.59E-03,  avg # of iterations =  2.4

     negative rho (up, down):  0.000E+00 2.666E-03

     total cpu time spent up to now is      305.5 secs

     total energy              =   -4700.21882565 Ry
     estimated scf accuracy    <       5.29942055 Ry

     total magnetization       =    24.91 Bohr mag/cell
     absolute magnetization    =    26.45 Bohr mag/cell

     iteration #  8     ecut=    60.00 Ry     beta= 0.30
     Davidson diagonalization with overlap
     ethr =  2.19E-03,  avg # of iterations =  1.1

     negative rho (up, down):  0.000E+00 2.610E-03

     total cpu time spent up to now is      339.3 secs

     total energy              =   -4700.48404302 Ry
     estimated scf accuracy    <       0.77182123 Ry

     total magnetization       =    24.66 Bohr mag/cell
     absolute magnetization    =    26.42 Bohr mag/cell

     iteration #  9     ecut=    60.00 Ry     beta= 0.30
     Davidson diagonalization with overlap
     ethr =  3.19E-04,  avg # of iterations =  5.4

     negative rho (up, down):  0.000E+00 2.549E-03

     total cpu time spent up to now is      386.6 secs

     total energy              =   -4700.56259213 Ry
     estimated scf accuracy    <       0.55666093 Ry

     total magnetization       =    23.43 Bohr mag/cell
     absolute magnetization    =    25.31 Bohr mag/cell

     iteration # 10     ecut=    60.00 Ry     beta= 0.30
     Davidson diagonalization with overlap
     ethr =  2.30E-04,  avg # of iterations =  2.2

     negative rho (up, down):  0.000E+00 2.114E-03

     total cpu time spent up to now is      424.7 secs

     total energy              =   -4700.62306609 Ry
     estimated scf accuracy    <       1.06050810 Ry

     total magnetization       =    22.73 Bohr mag/cell
     absolute magnetization    =    24.63 Bohr mag/cell

     iteration # 11     ecut=    60.00 Ry     beta= 0.30
     Davidson diagonalization with overlap
     ethr =  2.30E-04,  avg # of iterations =  1.5

     negative rho (up, down):  0.000E+00 1.543E-03

     total cpu time spent up to now is      460.5 secs

     total energy              =   -4700.66082826 Ry
     estimated scf accuracy    <       0.68696221 Ry

     total magnetization       =    20.57 Bohr mag/cell
     absolute magnetization    =    22.80 Bohr mag/cell

     iteration # 12     ecut=    60.00 Ry     beta= 0.30
     Davidson diagonalization with overlap
     ethr =  2.30E-04,  avg # of iterations =  1.6

     negative rho (up, down):  0.000E+00 1.371E-03

     total cpu time spent up to now is      496.2 secs

     total energy              =   -4700.69418733 Ry
     estimated scf accuracy    <       0.39097681 Ry

     total magnetization       =    19.08 Bohr mag/cell
     absolute magnetization    =    21.50 Bohr mag/cell

     iteration # 13     ecut=    60.00 Ry     beta= 0.30
     Davidson diagonalization with overlap
     ethr =  1.62E-04,  avg # of iterations =  1.3

     negative rho (up, down):  0.000E+00 8.869E-04

     total cpu time spent up to now is      530.8 secs

     total energy              =   -4700.71943608 Ry
     estimated scf accuracy    <       0.06550061 Ry

     total magnetization       =    18.91 Bohr mag/cell
     absolute magnetization    =    21.22 Bohr mag/cell

     iteration # 14     ecut=    60.00 Ry     beta= 0.30
     Davidson diagonalization with overlap
     c_bands:  2 eigenvalues not converged
     c_bands:  3 eigenvalues not converged
     c_bands:  1 eigenvalues not converged
     c_bands:  1 eigenvalues not converged
     ethr =  2.71E-05,  avg # of iterations =  9.8

     negative rho (up, down):  0.000E+00 5.933E-04

     total cpu time spent up to now is      596.1 secs

     total energy              =   -4700.73076916 Ry
     estimated scf accuracy    <       0.16672834 Ry

     total magnetization       =    18.78 Bohr mag/cell
     absolute magnetization    =    20.85 Bohr mag/cell

     iteration # 15     ecut=    60.00 Ry     beta= 0.30
     Davidson diagonalization with overlap
     ethr =  2.71E-05,  avg # of iterations =  1.9

     negative rho (up, down):  0.000E+00 4.936E-04

     total cpu time spent up to now is      632.9 secs

     total energy              =   -4700.73423311 Ry
     estimated scf accuracy    <       0.08564396 Ry

     total magnetization       =    18.59 Bohr mag/cell
     absolute magnetization    =    20.66 Bohr mag/cell

     iteration # 16     ecut=    60.00 Ry     beta= 0.30
     Davidson diagonalization with overlap
     ethr =  2.71E-05,  avg # of iterations =  2.0

     negative rho (up, down):  0.000E+00 9.288E-05

     total cpu time spent up to now is      670.3 secs

     total energy              =   -4700.74416631 Ry
     estimated scf accuracy    <       0.04546581 Ry

     total magnetization       =    17.89 Bohr mag/cell
     absolute magnetization    =    20.16 Bohr mag/cell

     iteration # 17     ecut=    60.00 Ry     beta= 0.30
     Davidson diagonalization with overlap
     ethr =  1.88E-05,  avg # of iterations =  2.0

     negative rho (up, down):  0.000E+00 8.023E-05

     total cpu time spent up to now is      707.7 secs

     total energy              =   -4700.74875433 Ry
     estimated scf accuracy    <       0.01025275 Ry

     total magnetization       =    17.04 Bohr mag/cell
     absolute magnetization    =    19.46 Bohr mag/cell

     iteration # 18     ecut=    60.00 Ry     beta= 0.30
     Davidson diagonalization with overlap
     c_bands:  1 eigenvalues not converged
     c_bands:  3 eigenvalues not converged
     ethr =  4.24E-06,  avg # of iterations = 10.3

     negative rho (up, down):  0.000E+00 8.008E-05

     total cpu time spent up to now is      776.3 secs

     total energy              =   -4700.74810401 Ry
     estimated scf accuracy    <       0.05134559 Ry

     total magnetization       =    16.89 Bohr mag/cell
     absolute magnetization    =    19.33 Bohr mag/cell

     iteration # 19     ecut=    60.00 Ry     beta= 0.30
     Davidson diagonalization with overlap
     ethr =  4.24E-06,  avg # of iterations =  3.9

     negative rho (up, down):  0.000E+00 7.284E-05

     total cpu time spent up to now is      819.7 secs

     total energy              =   -4700.74995824 Ry
     estimated scf accuracy    <       0.01931001 Ry

     total magnetization       =    17.04 Bohr mag/cell
     absolute magnetization    =    19.33 Bohr mag/cell

     iteration # 20     ecut=    60.00 Ry     beta= 0.30
     Davidson diagonalization with overlap
     ethr =  4.24E-06,  avg # of iterations =  1.1

     negative rho (up, down):  0.000E+00 7.149E-05

     total cpu time spent up to now is      853.0 secs

     total energy              =   -4700.75105992 Ry
     estimated scf accuracy    <       0.00152089 Ry

     total magnetization       =    16.85 Bohr mag/cell
     absolute magnetization    =    19.27 Bohr mag/cell

     iteration # 21     ecut=    60.00 Ry     beta= 0.30
     Davidson diagonalization with overlap
     c_bands:  1 eigenvalues not converged
     c_bands:  1 eigenvalues not converged
     ethr =  6.28E-07,  avg # of iterations =  7.5

     negative rho (up, down):  0.000E+00 6.689E-05

     total cpu time spent up to now is      911.9 secs

     total energy              =   -4700.75140562 Ry
     estimated scf accuracy    <       0.00914334 Ry

     total magnetization       =    16.84 Bohr mag/cell
     absolute magnetization    =    19.25 Bohr mag/cell

     iteration # 22     ecut=    60.00 Ry     beta= 0.30
     Davidson diagonalization with overlap
     ethr =  6.28E-07,  avg # of iterations =  3.3

     negative rho (up, down):  0.000E+00 6.397E-05

     total cpu time spent up to now is      954.7 secs

     total energy              =   -4700.75187254 Ry
     estimated scf accuracy    <       0.00270623 Ry

     total magnetization       =    16.72 Bohr mag/cell
     absolute magnetization    =    19.19 Bohr mag/cell

     iteration # 23     ecut=    60.00 Ry     beta= 0.30
     Davidson diagonalization with overlap
     ethr =  6.28E-07,  avg # of iterations =  1.7

     negative rho (up, down):  0.000E+00 6.671E-05

     total cpu time spent up to now is      990.9 secs

     total energy              =   -4700.75198145 Ry
     estimated scf accuracy    <       0.00092526 Ry

     total magnetization       =    16.66 Bohr mag/cell
     absolute magnetization    =    19.16 Bohr mag/cell

     iteration # 24     ecut=    60.00 Ry     beta= 0.30
     Davidson diagonalization with overlap
     ethr =  3.82E-07,  avg # of iterations =  2.8

     negative rho (up, down):  0.000E+00 6.030E-05

     total cpu time spent up to now is     1030.6 secs

     total energy              =   -4700.75219414 Ry
     estimated scf accuracy    <       0.00122794 Ry

     total magnetization       =    16.70 Bohr mag/cell
     absolute magnetization    =    19.19 Bohr mag/cell

     iteration # 25     ecut=    60.00 Ry     beta= 0.30
     Davidson diagonalization with overlap
     ethr =  3.82E-07,  avg # of iterations =  4.7

     negative rho (up, down):  0.000E+00 6.034E-05

     total cpu time spent up to now is     1079.2 secs

     total energy              =   -4700.75254027 Ry
     estimated scf accuracy    <       0.00100642 Ry

     total magnetization       =    16.53 Bohr mag/cell
     absolute magnetization    =    19.14 Bohr mag/cell

     iteration # 26     ecut=    60.00 Ry     beta= 0.30
     Davidson diagonalization with overlap
     ethr =  3.82E-07,  avg # of iterations =  1.4

     negative rho (up, down):  0.000E+00 6.167E-05

     total cpu time spent up to now is     1114.2 secs

     total energy              =   -4700.75264713 Ry
     estimated scf accuracy    <       0.00038684 Ry

     total magnetization       =    16.50 Bohr mag/cell
     absolute magnetization    =    19.15 Bohr mag/cell

     iteration # 27     ecut=    60.00 Ry     beta= 0.30
     Davidson diagonalization with overlap
     ethr =  1.60E-07,  avg # of iterations =  4.2

     negative rho (up, down):  0.000E+00 6.140E-05

     total cpu time spent up to now is     1158.1 secs

     total energy              =   -4700.75269106 Ry
     estimated scf accuracy    <       0.00053239 Ry

     total magnetization       =    16.48 Bohr mag/cell
     absolute magnetization    =    19.16 Bohr mag/cell

     iteration # 28     ecut=    60.00 Ry     beta= 0.30
     Davidson diagonalization with overlap
     ethr =  1.60E-07,  avg # of iterations =  1.2

     negative rho (up, down):  0.000E+00 6.716E-05

     total cpu time spent up to now is     1192.3 secs

     total energy              =   -4700.75279926 Ry
     estimated scf accuracy    <       0.00021807 Ry

     total magnetization       =    16.49 Bohr mag/cell
     absolute magnetization    =    19.18 Bohr mag/cell

     iteration # 29     ecut=    60.00 Ry     beta= 0.30
     Davidson diagonalization with overlap
     ethr =  9.01E-08,  avg # of iterations =  6.5

     negative rho (up, down):  0.000E+00 6.383E-05

     total cpu time spent up to now is     1249.4 secs

     total energy              =   -4700.75287925 Ry
     estimated scf accuracy    <       0.00057572 Ry

     total magnetization       =    16.48 Bohr mag/cell
     absolute magnetization    =    19.29 Bohr mag/cell

     iteration # 30     ecut=    60.00 Ry     beta= 0.30
     Davidson diagonalization with overlap
     ethr =  9.01E-08,  avg # of iterations =  2.1

     negative rho (up, down):  0.000E+00 6.513E-05

     total cpu time spent up to now is     1287.1 secs

     total energy              =   -4700.75295047 Ry
     estimated scf accuracy    <       0.00030869 Ry

     total magnetization       =    16.45 Bohr mag/cell
     absolute magnetization    =    19.26 Bohr mag/cell

     iteration # 31     ecut=    60.00 Ry     beta= 0.30
     Davidson diagonalization with overlap
     ethr =  9.01E-08,  avg # of iterations =  1.8

     negative rho (up, down):  0.000E+00 6.815E-05

     total cpu time spent up to now is     1323.6 secs

     total energy              =   -4700.75300354 Ry
     estimated scf accuracy    <       0.00022198 Ry

     total magnetization       =    16.44 Bohr mag/cell
     absolute magnetization    =    19.28 Bohr mag/cell

     iteration # 32     ecut=    60.00 Ry     beta= 0.30
     Davidson diagonalization with overlap
     ethr =  9.01E-08,  avg # of iterations =  3.4

     negative rho (up, down):  0.000E+00 6.948E-05

     total cpu time spent up to now is     1365.9 secs

     total energy              =   -4700.75302148 Ry
     estimated scf accuracy    <       0.00043947 Ry

     total magnetization       =    16.46 Bohr mag/cell
     absolute magnetization    =    19.32 Bohr mag/cell

     iteration # 33     ecut=    60.00 Ry     beta= 0.30
     Davidson diagonalization with overlap
     ethr =  9.01E-08,  avg # of iterations =  4.9

     negative rho (up, down):  0.000E+00 7.107E-05

     total cpu time spent up to now is     1411.9 secs

     total energy              =   -4700.75310038 Ry
     estimated scf accuracy    <       0.00010927 Ry

     total magnetization       =    16.44 Bohr mag/cell
     absolute magnetization    =    19.38 Bohr mag/cell

     iteration # 34     ecut=    60.00 Ry     beta= 0.30
     Davidson diagonalization with overlap
     ethr =  4.52E-08,  avg # of iterations =  5.8

     negative rho (up, down):  0.000E+00 7.231E-05

     total cpu time spent up to now is     1462.4 secs

     total energy              =   -4700.75314980 Ry
     estimated scf accuracy    <       0.00022289 Ry

     total magnetization       =    16.44 Bohr mag/cell
     absolute magnetization    =    19.43 Bohr mag/cell

     iteration # 35     ecut=    60.00 Ry     beta= 0.30
     Davidson diagonalization with overlap
     ethr =  4.52E-08,  avg # of iterations =  2.3

     negative rho (up, down):  0.000E+00 7.272E-05

     total cpu time spent up to now is     1500.7 secs

     total energy              =   -4700.75317408 Ry
     estimated scf accuracy    <       0.00006510 Ry

     total magnetization       =    16.46 Bohr mag/cell
     absolute magnetization    =    19.47 Bohr mag/cell

     iteration # 36     ecut=    60.00 Ry     beta= 0.30
     Davidson diagonalization with overlap
     ethr =  2.69E-08,  avg # of iterations =  3.9

     negative rho (up, down):  0.000E+00 7.394E-05

     total cpu time spent up to now is     1545.2 secs

     total energy              =   -4700.75318839 Ry
     estimated scf accuracy    <       0.00016191 Ry

     total magnetization       =    16.47 Bohr mag/cell
     absolute magnetization    =    19.50 Bohr mag/cell

     iteration # 37     ecut=    60.00 Ry     beta= 0.30
     Davidson diagonalization with overlap
     ethr =  2.69E-08,  avg # of iterations =  5.0

     negative rho (up, down):  0.000E+00 7.407E-05

     total cpu time spent up to now is     1592.6 secs

     total energy              =   -4700.75321757 Ry
     estimated scf accuracy    <       0.00003460 Ry

     total magnetization       =    16.46 Bohr mag/cell
     absolute magnetization    =    19.55 Bohr mag/cell

     iteration # 38     ecut=    60.00 Ry     beta= 0.30
     Davidson diagonalization with overlap
     ethr =  1.43E-08,  avg # of iterations =  5.1

     negative rho (up, down):  0.000E+00 7.397E-05

     total cpu time spent up to now is     1639.4 secs

     total energy              =   -4700.75323576 Ry
     estimated scf accuracy    <       0.00002422 Ry

     total magnetization       =    16.45 Bohr mag/cell
     absolute magnetization    =    19.58 Bohr mag/cell

     iteration # 39     ecut=    60.00 Ry     beta= 0.30
     Davidson diagonalization with overlap
     ethr =  1.00E-08,  avg # of iterations =  4.9

     negative rho (up, down):  0.000E+00 7.405E-05

     total cpu time spent up to now is     1685.1 secs

     total energy              =   -4700.75324607 Ry
     estimated scf accuracy    <       0.00002647 Ry

     total magnetization       =    16.45 Bohr mag/cell
     absolute magnetization    =    19.61 Bohr mag/cell

     iteration # 40     ecut=    60.00 Ry     beta= 0.30
     Davidson diagonalization with overlap
     ethr =  1.00E-08,  avg # of iterations =  3.2

     negative rho (up, down):  0.000E+00 7.277E-05

     total cpu time spent up to now is     1726.0 secs

     total energy              =   -4700.75325527 Ry
     estimated scf accuracy    <       0.00002422 Ry

     total magnetization       =    16.45 Bohr mag/cell
     absolute magnetization    =    19.62 Bohr mag/cell

     iteration # 41     ecut=    60.00 Ry     beta= 0.30
     Davidson diagonalization with overlap
     ethr =  1.00E-08,  avg # of iterations =  5.5

     negative rho (up, down):  0.000E+00 7.306E-05

     total cpu time spent up to now is     1776.0 secs

     total energy              =   -4700.75327276 Ry
     estimated scf accuracy    <       0.00002370 Ry

     total magnetization       =    16.45 Bohr mag/cell
     absolute magnetization    =    19.66 Bohr mag/cell

     iteration # 42     ecut=    60.00 Ry     beta= 0.30
     Davidson diagonalization with overlap
     ethr =  9.79E-09,  avg # of iterations =  4.6

     negative rho (up, down):  0.000E+00 7.330E-05

     total cpu time spent up to now is     1822.1 secs

     total energy              =   -4700.75328300 Ry
     estimated scf accuracy    <       0.00001935 Ry

     total magnetization       =    16.45 Bohr mag/cell
     absolute magnetization    =    19.69 Bohr mag/cell

     iteration # 43     ecut=    60.00 Ry     beta= 0.30
     Davidson diagonalization with overlap
     ethr =  8.00E-09,  avg # of iterations =  3.2

     negative rho (up, down):  0.000E+00 7.216E-05

     total cpu time spent up to now is     1862.7 secs

     total energy              =   -4700.75329281 Ry
     estimated scf accuracy    <       0.00002092 Ry

     total magnetization       =    16.44 Bohr mag/cell
     absolute magnetization    =    19.71 Bohr mag/cell

     iteration # 44     ecut=    60.00 Ry     beta= 0.30
     Davidson diagonalization with overlap
     ethr =  8.00E-09,  avg # of iterations =  5.2

     negative rho (up, down):  0.000E+00 7.249E-05

     total cpu time spent up to now is     1911.0 secs

     total energy              =   -4700.75329796 Ry
     estimated scf accuracy    <       0.00002433 Ry

     total magnetization       =    16.43 Bohr mag/cell
     absolute magnetization    =    19.73 Bohr mag/cell

     iteration # 45     ecut=    60.00 Ry     beta= 0.30
     Davidson diagonalization with overlap
     ethr =  8.00E-09,  avg # of iterations =  5.9

     negative rho (up, down):  0.000E+00 7.197E-05

     total cpu time spent up to now is     1969.9 secs

     total energy              =   -4700.75331786 Ry
     estimated scf accuracy    <       0.00004679 Ry

     total magnetization       =    16.42 Bohr mag/cell
     absolute magnetization    =    19.81 Bohr mag/cell

     iteration # 46     ecut=    60.00 Ry     beta= 0.30
     Davidson diagonalization with overlap
     ethr =  8.00E-09,  avg # of iterations =  6.0

     negative rho (up, down):  0.000E+00 7.221E-05

     total cpu time spent up to now is     2029.2 secs

     total energy              =   -4700.75334065 Ry
     estimated scf accuracy    <       0.00003769 Ry

     total magnetization       =    16.40 Bohr mag/cell
     absolute magnetization    =    19.90 Bohr mag/cell

     iteration # 47     ecut=    60.00 Ry     beta= 0.30
     Davidson diagonalization with overlap
     ethr =  8.00E-09,  avg # of iterations =  3.7

     negative rho (up, down):  0.000E+00 7.219E-05

     total cpu time spent up to now is     2071.5 secs

     total energy              =   -4700.75334474 Ry
     estimated scf accuracy    <       0.00002266 Ry

     total magnetization       =    16.40 Bohr mag/cell
     absolute magnetization    =    19.87 Bohr mag/cell

     iteration # 48     ecut=    60.00 Ry     beta= 0.30
     Davidson diagonalization with overlap
     ethr =  8.00E-09,  avg # of iterations =  1.4

     negative rho (up, down):  0.000E+00 7.207E-05

     total cpu time spent up to now is     2106.8 secs

     total energy              =   -4700.75334965 Ry
     estimated scf accuracy    <       0.00002254 Ry

     total magnetization       =    16.41 Bohr mag/cell
     absolute magnetization    =    19.88 Bohr mag/cell

     iteration # 49     ecut=    60.00 Ry     beta= 0.30
     Davidson diagonalization with overlap
     ethr =  8.00E-09,  avg # of iterations =  2.6

     negative rho (up, down):  0.000E+00 7.175E-05

     total cpu time spent up to now is     2145.5 secs

     total energy              =   -4700.75334689 Ry
     estimated scf accuracy    <       0.00000987 Ry

     total magnetization       =    16.40 Bohr mag/cell
     absolute magnetization    =    19.90 Bohr mag/cell

     iteration # 50     ecut=    60.00 Ry     beta= 0.30
     Davidson diagonalization with overlap
     ethr =  4.08E-09,  avg # of iterations =  6.8

     negative rho (up, down):  0.000E+00 7.150E-05

     total cpu time spent up to now is     2207.8 secs

     total energy              =   -4700.75337374 Ry
     estimated scf accuracy    <       0.00001324 Ry

     total magnetization       =    16.39 Bohr mag/cell
     absolute magnetization    =    19.97 Bohr mag/cell

     iteration # 51     ecut=    60.00 Ry     beta= 0.30
     Davidson diagonalization with overlap
     ethr =  4.08E-09,  avg # of iterations =  5.2

     negative rho (up, down):  0.000E+00 7.150E-05

     total cpu time spent up to now is     2256.9 secs

     total energy              =   -4700.75337872 Ry
     estimated scf accuracy    <       0.00001222 Ry

     total magnetization       =    16.38 Bohr mag/cell
     absolute magnetization    =    20.01 Bohr mag/cell

     iteration # 52     ecut=    60.00 Ry     beta= 0.30
     Davidson diagonalization with overlap
     ethr =  4.08E-09,  avg # of iterations =  1.1

     negative rho (up, down):  0.000E+00 7.087E-05

     total cpu time spent up to now is     2290.3 secs

     total energy              =   -4700.75335631 Ry
     estimated scf accuracy    <       0.00000798 Ry

     total magnetization       =    16.38 Bohr mag/cell
     absolute magnetization    =    20.01 Bohr mag/cell

     iteration # 53     ecut=    60.00 Ry     beta= 0.30
     Davidson diagonalization with overlap
     ethr =  3.30E-09,  avg # of iterations =  8.2

     negative rho (up, down):  0.000E+00 7.083E-05

     total cpu time spent up to now is     2361.8 secs

     total energy              =   -4700.75340211 Ry
     estimated scf accuracy    <       0.00000993 Ry

     total magnetization       =    16.36 Bohr mag/cell
     absolute magnetization    =    20.11 Bohr mag/cell

     iteration # 54     ecut=    60.00 Ry     beta= 0.30
     Davidson diagonalization with overlap
     ethr =  3.30E-09,  avg # of iterations =  4.5

     negative rho (up, down):  0.000E+00 7.024E-05

     total cpu time spent up to now is     2407.4 secs

     total energy              =   -4700.75336990 Ry
     estimated scf accuracy    <       0.00001479 Ry

     total magnetization       =    16.35 Bohr mag/cell
     absolute magnetization    =    20.14 Bohr mag/cell

     iteration # 55     ecut=    60.00 Ry     beta= 0.30
     Davidson diagonalization with overlap
     ethr =  3.30E-09,  avg # of iterations =  8.4

     negative rho (up, down):  0.000E+00 7.076E-05

     total cpu time spent up to now is     2480.6 secs

     total energy              =   -4700.75337435 Ry
     estimated scf accuracy    <       0.00001380 Ry

     total magnetization       =    16.33 Bohr mag/cell
     absolute magnetization    =    20.25 Bohr mag/cell

     iteration # 56     ecut=    60.00 Ry     beta= 0.30
     Davidson diagonalization with overlap
     ethr =  3.30E-09,  avg # of iterations =  8.2

     negative rho (up, down):  0.000E+00 7.038E-05

     total cpu time spent up to now is     2550.5 secs

     total energy              =   -4700.75340195 Ry
     estimated scf accuracy    <       0.00002625 Ry

     total magnetization       =    16.35 Bohr mag/cell
     absolute magnetization    =    20.15 Bohr mag/cell

     iteration # 57     ecut=    60.00 Ry     beta= 0.30
     Davidson diagonalization with overlap
     ethr =  3.30E-09,  avg # of iterations =  6.8

     negative rho (up, down):  0.000E+00 6.992E-05

     total cpu time spent up to now is     2612.6 secs

     total energy              =   -4700.75340005 Ry
     estimated scf accuracy    <       0.00001829 Ry

     total magnetization       =    16.33 Bohr mag/cell
     absolute magnetization    =    20.22 Bohr mag/cell

     iteration # 58     ecut=    60.00 Ry     beta= 0.30
     Davidson diagonalization with overlap
     ethr =  3.30E-09,  avg # of iterations =  7.9

     negative rho (up, down):  0.000E+00 6.968E-05

     total cpu time spent up to now is     2681.7 secs

     total energy              =   -4700.75342459 Ry
     estimated scf accuracy    <       0.00001140 Ry

     total magnetization       =    16.31 Bohr mag/cell
     absolute magnetization    =    20.31 Bohr mag/cell

     iteration # 59     ecut=    60.00 Ry     beta= 0.30
     Davidson diagonalization with overlap
     ethr =  3.30E-09,  avg # of iterations =  5.4

     negative rho (up, down):  0.000E+00 6.931E-05

     total cpu time spent up to now is     2737.5 secs

     total energy              =   -4700.75340953 Ry
     estimated scf accuracy    <       0.00003148 Ry

     total magnetization       =    16.30 Bohr mag/cell
     absolute magnetization    =    20.36 Bohr mag/cell

     iteration # 60     ecut=    60.00 Ry     beta= 0.30
     Davidson diagonalization with overlap
     ethr =  3.30E-09,  avg # of iterations =  7.3

     negative rho (up, down):  0.000E+00 6.971E-05

     total cpu time spent up to now is     2804.8 secs

     total energy              =   -4700.75340792 Ry
     estimated scf accuracy    <       0.00000864 Ry

     total magnetization       =    16.28 Bohr mag/cell
     absolute magnetization    =    20.45 Bohr mag/cell

     iteration # 61     ecut=    60.00 Ry     beta= 0.30
     Davidson diagonalization with overlap
     ethr =  3.30E-09,  avg # of iterations =  7.0

     negative rho (up, down):  0.000E+00 6.956E-05

     total cpu time spent up to now is     2870.1 secs

     total energy              =   -4700.75342980 Ry
     estimated scf accuracy    <       0.00001809 Ry

     total magnetization       =    16.30 Bohr mag/cell
     absolute magnetization    =    20.36 Bohr mag/cell

     iteration # 62     ecut=    60.00 Ry     beta= 0.30
     Davidson diagonalization with overlap
     ethr =  3.30E-09,  avg # of iterations =  5.2

     negative rho (up, down):  0.000E+00 6.945E-05

     total cpu time spent up to now is     2923.7 secs

     total energy              =   -4700.75343749 Ry
     estimated scf accuracy    <       0.00000884 Ry

     total magnetization       =    16.29 Bohr mag/cell
     absolute magnetization    =    20.41 Bohr mag/cell

     iteration # 63     ecut=    60.00 Ry     beta= 0.30
     Davidson diagonalization with overlap
     ethr =  3.30E-09,  avg # of iterations =  4.2

     negative rho (up, down):  0.000E+00 6.951E-05

     total cpu time spent up to now is     2968.2 secs

     total energy              =   -4700.75343924 Ry
     estimated scf accuracy    <       0.00000427 Ry

     total magnetization       =    16.29 Bohr mag/cell
     absolute magnetization    =    20.43 Bohr mag/cell

     iteration # 64     ecut=    60.00 Ry     beta= 0.30
     Davidson diagonalization with overlap
     ethr =  1.77E-09,  avg # of iterations =  3.1

     negative rho (up, down):  0.000E+00 6.952E-05

     total cpu time spent up to now is     3008.9 secs

     total energy              =   -4700.75343897 Ry
     estimated scf accuracy    <       0.00000624 Ry

     total magnetization       =    16.29 Bohr mag/cell
     absolute magnetization    =    20.42 Bohr mag/cell

     iteration # 65     ecut=    60.00 Ry     beta= 0.30
     Davidson diagonalization with overlap
     ethr =  1.77E-09,  avg # of iterations =  2.0

     negative rho (up, down):  0.000E+00 6.936E-05

     total cpu time spent up to now is     3045.8 secs

     total energy              =   -4700.75343382 Ry
     estimated scf accuracy    <       0.00000356 Ry

     total magnetization       =    16.29 Bohr mag/cell
     absolute magnetization    =    20.42 Bohr mag/cell

     iteration # 66     ecut=    60.00 Ry     beta= 0.30
     Davidson diagonalization with overlap
     ethr =  1.47E-09,  avg # of iterations =  6.2

     negative rho (up, down):  0.000E+00 6.952E-05

     total cpu time spent up to now is     3106.1 secs

     total energy              =   -4700.75343709 Ry
     estimated scf accuracy    <       0.00000622 Ry

     total magnetization       =    16.28 Bohr mag/cell
     absolute magnetization    =    20.46 Bohr mag/cell

     iteration # 67     ecut=    60.00 Ry     beta= 0.30
     Davidson diagonalization with overlap
     ethr =  1.47E-09,  avg # of iterations =  5.1

     negative rho (up, down):  0.000E+00 6.953E-05

     total cpu time spent up to now is     3157.1 secs

     total energy              =   -4700.75344015 Ry
     estimated scf accuracy    <       0.00000473 Ry

     total magnetization       =    16.29 Bohr mag/cell
     absolute magnetization    =    20.44 Bohr mag/cell

     iteration # 68     ecut=    60.00 Ry     beta= 0.30
     Davidson diagonalization with overlap
     ethr =  1.47E-09,  avg # of iterations =  1.1

     negative rho (up, down):  0.000E+00 6.956E-05

     total cpu time spent up to now is     3190.6 secs

     total energy              =   -4700.75344044 Ry
     estimated scf accuracy    <       0.00000138 Ry

     total magnetization       =    16.28 Bohr mag/cell
     absolute magnetization    =    20.44 Bohr mag/cell

     iteration # 69     ecut=    60.00 Ry     beta= 0.30
     Davidson diagonalization with overlap
     ethr =  5.68E-10,  avg # of iterations =  3.9

     negative rho (up, down):  0.000E+00 6.954E-05

     total cpu time spent up to now is     3235.0 secs

     total energy              =   -4700.75344010 Ry
     estimated scf accuracy    <       0.00000430 Ry

     total magnetization       =    16.28 Bohr mag/cell
     absolute magnetization    =    20.44 Bohr mag/cell

     iteration # 70     ecut=    60.00 Ry     beta= 0.30
     Davidson diagonalization with overlap
     ethr =  5.68E-10,  avg # of iterations =  2.7

     negative rho (up, down):  0.000E+00 6.958E-05

     total cpu time spent up to now is     3273.8 secs

     total energy              =   -4700.75344051 Ry
     estimated scf accuracy    <       0.00000100 Ry

     total magnetization       =    16.28 Bohr mag/cell
     absolute magnetization    =    20.44 Bohr mag/cell

     iteration # 71     ecut=    60.00 Ry     beta= 0.30
     Davidson diagonalization with overlap
     ethr =  4.13E-10,  avg # of iterations =  3.4

     negative rho (up, down):  0.000E+00 6.960E-05

     total cpu time spent up to now is     3316.7 secs

     total energy              =   -4700.75344069 Ry
     estimated scf accuracy    <       0.00000231 Ry

     total magnetization       =    16.28 Bohr mag/cell
     absolute magnetization    =    20.44 Bohr mag/cell

     iteration # 72     ecut=    60.00 Ry     beta= 0.30
     Davidson diagonalization with overlap
     ethr =  4.13E-10,  avg # of iterations =  5.6

     negative rho (up, down):  0.000E+00 6.959E-05

     total cpu time spent up to now is     3366.4 secs

     total energy              =   -4700.75344084 Ry
     estimated scf accuracy    <       0.00000130 Ry

     total magnetization       =    16.28 Bohr mag/cell
     absolute magnetization    =    20.45 Bohr mag/cell

     iteration # 73     ecut=    60.00 Ry     beta= 0.30
     Davidson diagonalization with overlap
     ethr =  4.13E-10,  avg # of iterations =  1.7

     negative rho (up, down):  0.000E+00 6.964E-05

     total cpu time spent up to now is     3402.7 secs

     total energy              =   -4700.75344088 Ry
     estimated scf accuracy    <       0.00000097 Ry

     total magnetization       =    16.28 Bohr mag/cell
     absolute magnetization    =    20.45 Bohr mag/cell

     iteration # 74     ecut=    60.00 Ry     beta= 0.30
     Davidson diagonalization with overlap
     ethr =  4.00E-10,  avg # of iterations =  4.9

     negative rho (up, down):  0.000E+00 6.967E-05

     total cpu time spent up to now is     3450.7 secs

     total energy              =   -4700.75344100 Ry
     estimated scf accuracy    <       0.00000181 Ry

     total magnetization       =    16.28 Bohr mag/cell
     absolute magnetization    =    20.46 Bohr mag/cell

     iteration # 75     ecut=    60.00 Ry     beta= 0.30
     Davidson diagonalization with overlap
     ethr =  4.00E-10,  avg # of iterations =  4.2

     negative rho (up, down):  0.000E+00 6.975E-05

     total cpu time spent up to now is     3495.2 secs

     total energy              =   -4700.75344053 Ry
     estimated scf accuracy    <       0.00000381 Ry

     total magnetization       =    16.28 Bohr mag/cell
     absolute magnetization    =    20.45 Bohr mag/cell

     iteration # 76     ecut=    60.00 Ry     beta= 0.30
     Davidson diagonalization with overlap
     ethr =  4.00E-10,  avg # of iterations =  5.6

     negative rho (up, down):  0.000E+00 6.980E-05

     total cpu time spent up to now is     3550.4 secs

     total energy              =   -4700.75344124 Ry
     estimated scf accuracy    <       0.00000070 Ry

     total magnetization       =    16.28 Bohr mag/cell
     absolute magnetization    =    20.47 Bohr mag/cell

     iteration # 77     ecut=    60.00 Ry     beta= 0.30
     Davidson diagonalization with overlap
     ethr =  2.88E-10,  avg # of iterations =  5.2

     negative rho (up, down):  0.000E+00 6.973E-05

     total cpu time spent up to now is     3600.9 secs

     total energy              =   -4700.75344063 Ry
     estimated scf accuracy    <       0.00000072 Ry

     total magnetization       =    16.27 Bohr mag/cell
     absolute magnetization    =    20.48 Bohr mag/cell

     iteration # 78     ecut=    60.00 Ry     beta= 0.30
     Davidson diagonalization with overlap
     ethr =  2.88E-10,  avg # of iterations =  5.5

     negative rho (up, down):  0.000E+00 6.980E-05

     total cpu time spent up to now is     3655.2 secs

     total energy              =   -4700.75344129 Ry
     estimated scf accuracy    <       0.00000085 Ry

     total magnetization       =    16.28 Bohr mag/cell
     absolute magnetization    =    20.46 Bohr mag/cell

     iteration # 79     ecut=    60.00 Ry     beta= 0.30
     Davidson diagonalization with overlap
     ethr =  2.88E-10,  avg # of iterations =  5.2

     negative rho (up, down):  0.000E+00 6.979E-05

     total cpu time spent up to now is     3703.3 secs

     total energy              =   -4700.75344155 Ry
     estimated scf accuracy    <       0.00000032 Ry

     total magnetization       =    16.27 Bohr mag/cell
     absolute magnetization    =    20.47 Bohr mag/cell

     iteration # 80     ecut=    60.00 Ry     beta= 0.30
     Davidson diagonalization with overlap
     ethr =  1.33E-10,  avg # of iterations =  5.1

     negative rho (up, down):  0.000E+00 6.984E-05

     total cpu time spent up to now is     3749.6 secs

     total energy              =   -4700.75344150 Ry
     estimated scf accuracy    <       0.00000095 Ry

     total magnetization       =    16.28 Bohr mag/cell
     absolute magnetization    =    20.47 Bohr mag/cell

     iteration # 81     ecut=    60.00 Ry     beta= 0.30
     Davidson diagonalization with overlap
     ethr =  1.33E-10,  avg # of iterations =  5.0

     negative rho (up, down):  0.000E+00 6.985E-05

     total cpu time spent up to now is     3797.6 secs

     total energy              =   -4700.75344166 Ry
     estimated scf accuracy    <       0.00000018 Ry

     total magnetization       =    16.27 Bohr mag/cell
     absolute magnetization    =    20.47 Bohr mag/cell

     iteration # 82     ecut=    60.00 Ry     beta= 0.30
     Davidson diagonalization with overlap
     ethr =  7.48E-11,  avg # of iterations =  3.1

     negative rho (up, down):  0.000E+00 6.990E-05

     total cpu time spent up to now is     3838.0 secs

     total energy              =   -4700.75344165 Ry
     estimated scf accuracy    <       0.00000002 Ry

     total magnetization       =    16.27 Bohr mag/cell
     absolute magnetization    =    20.48 Bohr mag/cell

     iteration # 83     ecut=    60.00 Ry     beta= 0.30
     Davidson diagonalization with overlap
     ethr =  8.30E-12,  avg # of iterations =  9.3

     negative rho (up, down):  0.000E+00 6.989E-05

     total cpu time spent up to now is     3912.9 secs

     total energy              =   -4700.75344168 Ry
     estimated scf accuracy    <       0.00000010 Ry

     total magnetization       =    16.27 Bohr mag/cell
     absolute magnetization    =    20.48 Bohr mag/cell

     iteration # 84     ecut=    60.00 Ry     beta= 0.30
     Davidson diagonalization with overlap
     ethr =  8.30E-12,  avg # of iterations =  5.2

     negative rho (up, down):  0.000E+00 6.991E-05

     total cpu time spent up to now is     3963.9 secs

     total energy              =   -4700.75344169 Ry
     estimated scf accuracy    <       0.00000004 Ry

     total magnetization       =    16.27 Bohr mag/cell
     absolute magnetization    =    20.48 Bohr mag/cell

     iteration # 85     ecut=    60.00 Ry     beta= 0.30
     Davidson diagonalization with overlap
     ethr =  8.30E-12,  avg # of iterations =  5.2

     negative rho (up, down):  0.000E+00 6.990E-05

     total cpu time spent up to now is     4012.2 secs

     total energy              =   -4700.75344170 Ry
     estimated scf accuracy    <       0.00000002 Ry

     total magnetization       =    16.27 Bohr mag/cell
     absolute magnetization    =    20.48 Bohr mag/cell

     iteration # 86     ecut=    60.00 Ry     beta= 0.30
     Davidson diagonalization with overlap
     ethr =  8.08E-12,  avg # of iterations =  2.3

     negative rho (up, down):  0.000E+00 6.990E-05

     total cpu time spent up to now is     4049.9 secs

     total energy              =   -4700.75344170 Ry
     estimated scf accuracy    <       0.00000001 Ry

     total magnetization       =    16.27 Bohr mag/cell
     absolute magnetization    =    20.48 Bohr mag/cell

     iteration # 87     ecut=    60.00 Ry     beta= 0.30
     Davidson diagonalization with overlap
     ethr =  4.63E-12,  avg # of iterations =  2.2

     negative rho (up, down):  0.000E+00 6.995E-05

     total cpu time spent up to now is     4088.0 secs

     total energy              =   -4700.75344169 Ry
     estimated scf accuracy    <       0.00000002 Ry

     total magnetization       =    16.27 Bohr mag/cell
     absolute magnetization    =    20.48 Bohr mag/cell

     iteration # 88     ecut=    60.00 Ry     beta= 0.30
     Davidson diagonalization with overlap
     ethr =  4.63E-12,  avg # of iterations =  5.8

     negative rho (up, down):  0.000E+00 6.995E-05

     total cpu time spent up to now is     4147.3 secs

     total energy              =   -4700.75344170 Ry
     estimated scf accuracy    <       0.00000002 Ry

     total magnetization       =    16.27 Bohr mag/cell
     absolute magnetization    =    20.48 Bohr mag/cell

     iteration # 89     ecut=    60.00 Ry     beta= 0.30
     Davidson diagonalization with overlap
     ethr =  4.63E-12,  avg # of iterations =  1.7

     negative rho (up, down):  0.000E+00 6.996E-05
 
     Magnetic moment per site  (integrated on atomic sphere of radius R)
     atom   1 (R=0.179)  charge= 12.1374  magn= -0.2533
     atom   2 (R=0.179)  charge= 14.4370  magn=  1.8816
     atom   3 (R=0.179)  charge= 14.4132  magn=  2.0388
     atom   4 (R=0.179)  charge= 12.1662  magn=  0.2587
     atom   5 (R=0.179)  charge= 12.1399  magn= -0.0079
     atom   6 (R=0.179)  charge= 14.4365  magn=  1.8993
     atom   7 (R=0.179)  charge= 12.1374  magn= -0.2533
     atom   8 (R=0.179)  charge= 14.4370  magn=  1.8816
     atom   9 (R=0.179)  charge= 12.1302  magn= -0.3963
     atom  10 (R=0.179)  charge= 14.4370  magn=  1.8816
     atom  11 (R=0.179)  charge= 14.4123  magn=  2.2580
     atom  12 (R=0.179)  charge= 14.4365  magn=  1.8993
     atom  13 (R=0.179)  charge= 14.4187  magn=  1.9182
     atom  14 (R=0.179)  charge= 12.1662  magn=  0.2587
     atom  15 (R=0.179)  charge= 12.1302  magn= -0.3963
     atom  16 (R=0.179)  charge= 14.4370  magn=  1.8816

     total cpu time spent up to now is     4184.1 secs

     End of self-consistent calculation

     Number of k-points >= 100: set verbosity='high' to print the bands.

     the Fermi energy is    19.3501 ev

!    total energy              =   -4700.75344170 Ry
     total all-electron energy =    -37622.150989 Ry
     estimated scf accuracy    <          9.0E-09 Ry
     smearing contrib. (-TS)   =      -0.00279868 Ry
     internal energy E=F+TS    =   -4700.75064302 Ry

     The total energy is F=E-TS. E is the sum of the following terms:
     one-electron contribution =   -1371.29560906 Ry
     hartree contribution      =     839.43537478 Ry
     xc contribution           =    -405.56861282 Ry
     ewald contribution        =   -2498.45309696 Ry
     one-center paw contrib.   =   -1264.86869895 Ry

     total magnetization       =    16.27 Bohr mag/cell
     absolute magnetization    =    20.48 Bohr mag/cell

     convergence has been achieved in  89 iterations

     negative rho (up, down):  0.000E+00 6.996E-05

     Forces acting on atoms (cartesian axes, Ry/au):

     atom    1 type  2   force =     0.00000000    0.00000000    0.00000000
     atom    2 type  1   force =     0.00029734   -0.00024549   -0.00043024
     atom    3 type  1   force =     0.00000000    0.00000000    0.00000000
     atom    4 type  2   force =    -0.00838737    0.00327902    0.00327902
     atom    5 type  2   force =     0.00000000    0.00000000    0.00000000
     atom    6 type  1   force =     0.00254971    0.00163762    0.00163762
     atom    7 type  2   force =     0.00000000    0.00000000    0.00000000
     atom    8 type  1   force =     0.00029734   -0.00043024   -0.00024549
     atom    9 type  2   force =     0.00000000    0.00000000    0.00000000
     atom   10 type  1   force =    -0.00029734    0.00043024    0.00024549
     atom   11 type  1   force =     0.00000000    0.00000000    0.00000000
     atom   12 type  1   force =    -0.00254971   -0.00163762   -0.00163762
     atom   13 type  1   force =     0.00000000    0.00000000    0.00000000
     atom   14 type  2   force =     0.00838737   -0.00327902   -0.00327902
     atom   15 type  2   force =     0.00000000    0.00000000    0.00000000
     atom   16 type  1   force =    -0.00029734    0.00024549    0.00043024

     Total force =     0.014449     Total SCF correction =     0.000304


     Computing stress (Cartesian axis) and pressure


     negative rho (up, down):  0.000E+00 6.996E-05
          total   stress  (Ry/bohr**3)                   (kbar)     P=        5.82
   0.00010073   0.00005298   0.00005298           14.82        7.79        7.79
   0.00005298   0.00000900   0.00009115            7.79        1.32       13.41
   0.00005298   0.00009115   0.00000900            7.79       13.41        1.32


     BFGS Geometry Optimization
     Energy error            =      0.0E+00 Ry
     Gradient error          =      8.4E-03 Ry/Bohr
     Cell gradient error     =      1.5E+01 kbar

     number of scf cycles    =   1
     number of bfgs steps    =   0

     enthalpy           new  =   -4700.7534417005 Ry

     new trust radius        =       0.0219146836 bohr
     new conv_thr            =       0.0000000100 Ry

     new unit-cell volume =   1222.45403 a.u.^3 (   181.14900 Ang^3 )
     density =      7.94365 g/cm^3

CELL_PARAMETERS (angstrom)
   5.666866199   0.007486897   0.007486897
   0.007486897   5.653903254   0.012881195
   0.007486897   0.012881195   5.653903254

ATOMIC_POSITIONS (crystal)
Cr               0.0000000000        0.0000000000        0.0000000000
Fe               0.2500278357        0.2499770180        0.2499597228
Fe              -0.0000000000       -0.0000000000        0.5000000000
Cr               0.2492148075        0.2503069686        0.7503069686
Cr               0.0000000000        0.5000000000       -0.0000000000
Fe               0.2502386936        0.7501533079        0.2501533079
Cr              -0.0000000000        0.5000000000        0.5000000000
Fe               0.2500278357        0.7499597228        0.7499770180
Cr               0.5000000000       -0.0000000000       -0.0000000000
Fe               0.7499721643        0.2500402772        0.2500229820
Fe               0.5000000000       -0.0000000000        0.5000000000
Fe               0.7497613064        0.2498466921        0.7498466921
Fe               0.5000000000        0.5000000000       -0.0000000000
Cr               0.7507851925        0.7496930314        0.2496930314
Cr               0.5000000000        0.5000000000        0.5000000000
Fe               0.7499721643        0.7500229820        0.7500402772



     Writing config-only to output data dir ./tmp/fecr_fe09cr07_vcr.save/ :
     XML data file
     NEW-OLD atomic charge density approx. for the potential

     Check: negative core charge=   -0.000003

     negative rho (up, down):  0.000E+00 7.011E-05
     Generating pointlists ...

     total cpu time spent up to now is     4253.6 secs

     Self-consistent Calculation

     iteration #  1     ecut=    60.00 Ry     beta= 0.30
     Davidson diagonalization with overlap
     ethr =  1.00E-06,  avg # of iterations =  7.3

     negative rho (up, down):  0.000E+00 7.026E-05

     total cpu time spent up to now is     4334.3 secs

     total energy              =   -4700.75437509 Ry
     estimated scf accuracy    <       0.00025994 Ry

     total magnetization       =    16.31 Bohr mag/cell
     absolute magnetization    =    20.55 Bohr mag/cell

     iteration #  2     ecut=    60.00 Ry     beta= 0.30
     Davidson diagonalization with overlap
     ethr =  1.07E-07,  avg # of iterations =  8.0

     negative rho (up, down):  0.000E+00 7.050E-05

     total cpu time spent up to now is     4400.1 secs

     total energy              =   -4700.75424838 Ry
     estimated scf accuracy    <       0.00595323 Ry

     total magnetization       =    16.33 Bohr mag/cell
     absolute magnetization    =    20.54 Bohr mag/cell

     iteration #  3     ecut=    60.00 Ry     beta= 0.30
     Davidson diagonalization with overlap
     ethr =  1.07E-07,  avg # of iterations =  6.0

     negative rho (up, down):  0.000E+00 7.083E-05

     total cpu time spent up to now is     4453.7 secs

     total energy              =   -4700.75448630 Ry
     estimated scf accuracy    <       0.00009946 Ry

     total magnetization       =    16.32 Bohr mag/cell
     absolute magnetization    =    20.56 Bohr mag/cell

     iteration #  4     ecut=    60.00 Ry     beta= 0.30
     Davidson diagonalization with overlap
     ethr =  4.11E-08,  avg # of iterations =  3.0

     negative rho (up, down):  0.000E+00 7.097E-05

     total cpu time spent up to now is     4495.4 secs

     total energy              =   -4700.75448599 Ry
     estimated scf accuracy    <       0.00034026 Ry

     total magnetization       =    16.31 Bohr mag/cell
     absolute magnetization    =    20.56 Bohr mag/cell

     iteration #  5     ecut=    60.00 Ry     beta= 0.30
     Davidson diagonalization with overlap
     ethr =  4.11E-08,  avg # of iterations =  1.4

     negative rho (up, down):  0.000E+00 7.108E-05

     total cpu time spent up to now is     4530.0 secs

     total energy              =   -4700.75450414 Ry
     estimated scf accuracy    <       0.00002768 Ry

     total magnetization       =    16.32 Bohr mag/cell
     absolute magnetization    =    20.57 Bohr mag/cell

     iteration #  6     ecut=    60.00 Ry     beta= 0.30
     Davidson diagonalization with overlap
     ethr =  1.14E-08,  avg # of iterations =  3.2

     negative rho (up, down):  0.000E+00 7.143E-05

     total cpu time spent up to now is     4572.1 secs

     total energy              =   -4700.75451312 Ry
     estimated scf accuracy    <       0.00008713 Ry

     total magnetization       =    16.32 Bohr mag/cell
     absolute magnetization    =    20.58 Bohr mag/cell

     iteration #  7     ecut=    60.00 Ry     beta= 0.30
     Davidson diagonalization with overlap
     ethr =  1.14E-08,  avg # of iterations =  2.3

     negative rho (up, down):  0.000E+00 7.149E-05

     total cpu time spent up to now is     4612.2 secs

     total energy              =   -4700.75451877 Ry
     estimated scf accuracy    <       0.00001439 Ry

     total magnetization       =    16.32 Bohr mag/cell
     absolute magnetization    =    20.59 Bohr mag/cell

     iteration #  8     ecut=    60.00 Ry     beta= 0.30
     Davidson diagonalization with overlap
     ethr =  5.95E-09,  avg # of iterations =  2.1

     negative rho (up, down):  0.000E+00 7.176E-05

     total cpu time spent up to now is     4650.1 secs

     total energy              =   -4700.75452251 Ry
     estimated scf accuracy    <       0.00000953 Ry

     total magnetization       =    16.32 Bohr mag/cell
     absolute magnetization    =    20.60 Bohr mag/cell

     iteration #  9     ecut=    60.00 Ry     beta= 0.30
     Davidson diagonalization with overlap
     ethr =  3.94E-09,  avg # of iterations =  5.2

     negative rho (up, down):  0.000E+00 7.178E-05

     total cpu time spent up to now is     4699.2 secs

     total energy              =   -4700.75452495 Ry
     estimated scf accuracy    <       0.00002138 Ry

     total magnetization       =    16.32 Bohr mag/cell
     absolute magnetization    =    20.62 Bohr mag/cell

     iteration # 10     ecut=    60.00 Ry     beta= 0.30
     Davidson diagonalization with overlap
     ethr =  3.94E-09,  avg # of iterations =  1.8

     negative rho (up, down):  0.000E+00 7.187E-05

     total cpu time spent up to now is     4735.6 secs

     total energy              =   -4700.75452607 Ry
     estimated scf accuracy    <       0.00000689 Ry

     total magnetization       =    16.32 Bohr mag/cell
     absolute magnetization    =    20.62 Bohr mag/cell

     iteration # 11     ecut=    60.00 Ry     beta= 0.30
     Davidson diagonalization with overlap
     ethr =  2.85E-09,  avg # of iterations =  2.6

     negative rho (up, down):  0.000E+00 7.194E-05

     total cpu time spent up to now is     4774.2 secs

     total energy              =   -4700.75452678 Ry
     estimated scf accuracy    <       0.00000329 Ry

     total magnetization       =    16.32 Bohr mag/cell
     absolute magnetization    =    20.63 Bohr mag/cell

     iteration # 12     ecut=    60.00 Ry     beta= 0.30
     Davidson diagonalization with overlap
     ethr =  1.36E-09,  avg # of iterations =  3.9

     negative rho (up, down):  0.000E+00 7.199E-05

     total cpu time spent up to now is     4817.9 secs

     total energy              =   -4700.75452765 Ry
     estimated scf accuracy    <       0.00000397 Ry

     total magnetization       =    16.32 Bohr mag/cell
     absolute magnetization    =    20.64 Bohr mag/cell

     iteration # 13     ecut=    60.00 Ry     beta= 0.30
     Davidson diagonalization with overlap
     ethr =  1.36E-09,  avg # of iterations =  2.4

     negative rho (up, down):  0.000E+00 7.203E-05

     total cpu time spent up to now is     4856.1 secs

     total energy              =   -4700.75452805 Ry
     estimated scf accuracy    <       0.00000179 Ry

     total magnetization       =    16.32 Bohr mag/cell
     absolute magnetization    =    20.64 Bohr mag/cell

     iteration # 14     ecut=    60.00 Ry     beta= 0.30
     Davidson diagonalization with overlap
     ethr =  7.38E-10,  avg # of iterations =  2.1

     negative rho (up, down):  0.000E+00 7.212E-05

     total cpu time spent up to now is     4893.9 secs

     total energy              =   -4700.75452878 Ry
     estimated scf accuracy    <       0.00000209 Ry

     total magnetization       =    16.32 Bohr mag/cell
     absolute magnetization    =    20.65 Bohr mag/cell

     iteration # 15     ecut=    60.00 Ry     beta= 0.30
     Davidson diagonalization with overlap
     ethr =  7.38E-10,  avg # of iterations =  5.3

     negative rho (up, down):  0.000E+00 7.204E-05

     total cpu time spent up to now is     4941.0 secs

     total energy              =   -4700.75452831 Ry
     estimated scf accuracy    <       0.00000341 Ry

     total magnetization       =    16.32 Bohr mag/cell
     absolute magnetization    =    20.66 Bohr mag/cell

     iteration # 16     ecut=    60.00 Ry     beta= 0.30
     Davidson diagonalization with overlap
     ethr =  7.38E-10,  avg # of iterations =  3.7

     negative rho (up, down):  0.000E+00 7.221E-05

     total cpu time spent up to now is     4983.4 secs

     total energy              =   -4700.75452917 Ry
     estimated scf accuracy    <       0.00000608 Ry

     total magnetization       =    16.32 Bohr mag/cell
     absolute magnetization    =    20.65 Bohr mag/cell

     iteration # 17     ecut=    60.00 Ry     beta= 0.30
     Davidson diagonalization with overlap
     ethr =  7.38E-10,  avg # of iterations =  5.3

     negative rho (up, down):  0.000E+00 7.220E-05

     total cpu time spent up to now is     5033.9 secs

     total energy              =   -4700.75453028 Ry
     estimated scf accuracy    <       0.00000196 Ry

     total magnetization       =    16.32 Bohr mag/cell
     absolute magnetization    =    20.67 Bohr mag/cell

     iteration # 18     ecut=    60.00 Ry     beta= 0.30
     Davidson diagonalization with overlap
     ethr =  7.38E-10,  avg # of iterations =  1.0

     negative rho (up, down):  0.000E+00 7.215E-05

     total cpu time spent up to now is     5066.9 secs

     total energy              =   -4700.75453041 Ry
     estimated scf accuracy    <       0.00000153 Ry

     total magnetization       =    16.32 Bohr mag/cell
     absolute magnetization    =    20.67 Bohr mag/cell

     iteration # 19     ecut=    60.00 Ry     beta= 0.30
     Davidson diagonalization with overlap
     ethr =  6.30E-10,  avg # of iterations =  1.8

     negative rho (up, down):  0.000E+00 7.226E-05

     total cpu time spent up to now is     5103.6 secs

     total energy              =   -4700.75453110 Ry
     estimated scf accuracy    <       0.00000289 Ry

     total magnetization       =    16.32 Bohr mag/cell
     absolute magnetization    =    20.67 Bohr mag/cell

     iteration # 20     ecut=    60.00 Ry     beta= 0.30
     Davidson diagonalization with overlap
     ethr =  6.30E-10,  avg # of iterations =  4.9

     negative rho (up, down):  0.000E+00 7.231E-05

     total cpu time spent up to now is     5150.4 secs

     total energy              =   -4700.75453210 Ry
     estimated scf accuracy    <       0.00000112 Ry

     total magnetization       =    16.32 Bohr mag/cell
     absolute magnetization    =    20.68 Bohr mag/cell

     iteration # 21     ecut=    60.00 Ry     beta= 0.30
     Davidson diagonalization with overlap
     ethr =  4.61E-10,  avg # of iterations =  6.9

     negative rho (up, down):  0.000E+00 7.236E-05

     total cpu time spent up to now is     5212.2 secs

     total energy              =   -4700.75453343 Ry
     estimated scf accuracy    <       0.00000564 Ry

     total magnetization       =    16.31 Bohr mag/cell
     absolute magnetization    =    20.71 Bohr mag/cell

     iteration # 22     ecut=    60.00 Ry     beta= 0.30
     Davidson diagonalization with overlap
     ethr =  4.61E-10,  avg # of iterations =  4.1

     negative rho (up, down):  0.000E+00 7.241E-05

     total cpu time spent up to now is     5256.2 secs

     total energy              =   -4700.75453352 Ry
     estimated scf accuracy    <       0.00000179 Ry

     total magnetization       =    16.31 Bohr mag/cell
     absolute magnetization    =    20.71 Bohr mag/cell

     iteration # 23     ecut=    60.00 Ry     beta= 0.30
     Davidson diagonalization with overlap
     ethr =  4.61E-10,  avg # of iterations =  7.0

     negative rho (up, down):  0.000E+00 7.241E-05

     total cpu time spent up to now is     5318.7 secs

     total energy              =   -4700.75453589 Ry
     estimated scf accuracy    <       0.00000189 Ry

     total magnetization       =    16.31 Bohr mag/cell
     absolute magnetization    =    20.74 Bohr mag/cell

     iteration # 24     ecut=    60.00 Ry     beta= 0.30
     Davidson diagonalization with overlap
     ethr =  4.61E-10,  avg # of iterations =  1.7

     negative rho (up, down):  0.000E+00 7.239E-05

     total cpu time spent up to now is     5354.7 secs

     total energy              =   -4700.75453622 Ry
     estimated scf accuracy    <       0.00000117 Ry

     total magnetization       =    16.31 Bohr mag/cell
     absolute magnetization    =    20.74 Bohr mag/cell

     iteration # 25     ecut=    60.00 Ry     beta= 0.30
     Davidson diagonalization with overlap
     ethr =  4.61E-10,  avg # of iterations =  5.7

     negative rho (up, down):  0.000E+00 7.240E-05

     total cpu time spent up to now is     5406.2 secs

     total energy              =   -4700.75453671 Ry
     estimated scf accuracy    <       0.00000078 Ry

     total magnetization       =    16.30 Bohr mag/cell
     absolute magnetization    =    20.76 Bohr mag/cell

     iteration # 26     ecut=    60.00 Ry     beta= 0.30
     Davidson diagonalization with overlap
     ethr =  3.22E-10,  avg # of iterations =  2.9

     negative rho (up, down):  0.000E+00 7.237E-05

     total cpu time spent up to now is     5446.2 secs

     total energy              =   -4700.75453698 Ry
     estimated scf accuracy    <       0.00000216 Ry

     total magnetization       =    16.30 Bohr mag/cell
     absolute magnetization    =    20.75 Bohr mag/cell

     iteration # 27     ecut=    60.00 Ry     beta= 0.30
     Davidson diagonalization with overlap
     ethr =  3.22E-10,  avg # of iterations =  3.1

     negative rho (up, down):  0.000E+00 7.231E-05

     total cpu time spent up to now is     5486.9 secs

     total energy              =   -4700.75453706 Ry
     estimated scf accuracy    <       0.00000079 Ry

     total magnetization       =    16.30 Bohr mag/cell
     absolute magnetization    =    20.76 Bohr mag/cell

     iteration # 28     ecut=    60.00 Ry     beta= 0.30
     Davidson diagonalization with overlap
     ethr =  3.22E-10,  avg # of iterations =  6.8

     negative rho (up, down):  0.000E+00 7.228E-05

     total cpu time spent up to now is     5548.4 secs

     total energy              =   -4700.75453848 Ry
     estimated scf accuracy    <       0.00000059 Ry

     total magnetization       =    16.30 Bohr mag/cell
     absolute magnetization    =    20.78 Bohr mag/cell

     iteration # 29     ecut=    60.00 Ry     beta= 0.30
     Davidson diagonalization with overlap
     ethr =  2.45E-10,  avg # of iterations =  5.6

     negative rho (up, down):  0.000E+00 7.206E-05

     total cpu time spent up to now is     5603.3 secs

     total energy              =   -4700.75453555 Ry
     estimated scf accuracy    <       0.00000082 Ry

     total magnetization       =    16.30 Bohr mag/cell
     absolute magnetization    =    20.79 Bohr mag/cell

     iteration # 30     ecut=    60.00 Ry     beta= 0.30
     Davidson diagonalization with overlap
     ethr =  2.45E-10,  avg # of iterations =  9.4

     negative rho (up, down):  0.000E+00 7.191E-05

     total cpu time spent up to now is     5682.2 secs

     total energy              =   -4700.75454066 Ry
     estimated scf accuracy    <       0.00000096 Ry

     total magnetization       =    16.29 Bohr mag/cell
     absolute magnetization    =    20.83 Bohr mag/cell

     iteration # 31     ecut=    60.00 Ry     beta= 0.30
     Davidson diagonalization with overlap
     ethr =  2.45E-10,  avg # of iterations =  6.0

     negative rho (up, down):  0.000E+00 7.207E-05

     total cpu time spent up to now is     5740.9 secs

     total energy              =   -4700.75453951 Ry
     estimated scf accuracy    <       0.00000144 Ry

     total magnetization       =    16.28 Bohr mag/cell
     absolute magnetization    =    20.85 Bohr mag/cell

     iteration # 32     ecut=    60.00 Ry     beta= 0.30
     Davidson diagonalization with overlap
     ethr =  2.45E-10,  avg # of iterations =  5.7

     negative rho (up, down):  0.000E+00 7.183E-05

     total cpu time spent up to now is     5799.6 secs

     total energy              =   -4700.75453406 Ry
     estimated scf accuracy    <       0.00000089 Ry

     total magnetization       =    16.29 Bohr mag/cell
     absolute magnetization    =    20.83 Bohr mag/cell

     iteration # 33     ecut=    60.00 Ry     beta= 0.30
     Davidson diagonalization with overlap
     ethr =  2.45E-10,  avg # of iterations = 10.4

     negative rho (up, down):  0.000E+00 7.189E-05

     total cpu time spent up to now is     5882.8 secs

     total energy              =   -4700.75454066 Ry
     estimated scf accuracy    <       0.00000052 Ry

     total magnetization       =    16.28 Bohr mag/cell
     absolute magnetization    =    20.88 Bohr mag/cell

     iteration # 34     ecut=    60.00 Ry     beta= 0.30
     Davidson diagonalization with overlap
     ethr =  2.17E-10,  avg # of iterations =  6.0

     negative rho (up, down):  0.000E+00 7.175E-05

     total cpu time spent up to now is     5941.9 secs

     total energy              =   -4700.75453970 Ry
     estimated scf accuracy    <       0.00000070 Ry

     total magnetization       =    16.28 Bohr mag/cell
     absolute magnetization    =    20.86 Bohr mag/cell

     iteration # 35     ecut=    60.00 Ry     beta= 0.30
     Davidson diagonalization with overlap
     ethr =  2.17E-10,  avg # of iterations =  7.9

     negative rho (up, down):  0.000E+00 7.168E-05

     total cpu time spent up to now is     6011.4 secs

     total energy              =   -4700.75454202 Ry
     estimated scf accuracy    <       0.00000011 Ry

     total magnetization       =    16.27 Bohr mag/cell
     absolute magnetization    =    20.89 Bohr mag/cell

     iteration # 36     ecut=    60.00 Ry     beta= 0.30
     Davidson diagonalization with overlap
     ethr =  4.68E-11,  avg # of iterations =  8.1

     negative rho (up, down):  0.000E+00 7.173E-05

     total cpu time spent up to now is     6080.6 secs

     total energy              =   -4700.75454231 Ry
     estimated scf accuracy    <       0.00000061 Ry

     total magnetization       =    16.27 Bohr mag/cell
     absolute magnetization    =    20.90 Bohr mag/cell

     iteration # 37     ecut=    60.00 Ry     beta= 0.30
     Davidson diagonalization with overlap
     ethr =  4.68E-11,  avg # of iterations =  5.4

     negative rho (up, down):  0.000E+00 7.168E-05

     total cpu time spent up to now is     6133.8 secs

     total energy              =   -4700.75454219 Ry
     estimated scf accuracy    <       0.00000051 Ry

     total magnetization       =    16.27 Bohr mag/cell
     absolute magnetization    =    20.90 Bohr mag/cell

     iteration # 38     ecut=    60.00 Ry     beta= 0.30
     Davidson diagonalization with overlap
     ethr =  4.68E-11,  avg # of iterations =  7.0

     negative rho (up, down):  0.000E+00 7.166E-05

     total cpu time spent up to now is     6196.6 secs

     total energy              =   -4700.75454232 Ry
     estimated scf accuracy    <       0.00000013 Ry

     total magnetization       =    16.27 Bohr mag/cell
     absolute magnetization    =    20.91 Bohr mag/cell

     iteration # 39     ecut=    60.00 Ry     beta= 0.30
     Davidson diagonalization with overlap
     ethr =  4.68E-11,  avg # of iterations =  5.3

     negative rho (up, down):  0.000E+00 7.165E-05

     total cpu time spent up to now is     6250.0 secs

     total energy              =   -4700.75454240 Ry
     estimated scf accuracy    <       0.00000005 Ry

     total magnetization       =    16.27 Bohr mag/cell
     absolute magnetization    =    20.91 Bohr mag/cell

     iteration # 40     ecut=    60.00 Ry     beta= 0.30
     Davidson diagonalization with overlap
     ethr =  2.06E-11,  avg # of iterations =  5.4

     negative rho (up, down):  0.000E+00 7.166E-05

     total cpu time spent up to now is     6300.7 secs

     total energy              =   -4700.75454242 Ry
     estimated scf accuracy    <       0.00000004 Ry

     total magnetization       =    16.27 Bohr mag/cell
     absolute magnetization    =    20.91 Bohr mag/cell

     iteration # 41     ecut=    60.00 Ry     beta= 0.30
     Davidson diagonalization with overlap
     ethr =  1.75E-11,  avg # of iterations =  1.1

     negative rho (up, down):  0.000E+00 7.168E-05

     total cpu time spent up to now is     6333.8 secs

     total energy              =   -4700.75454241 Ry
     estimated scf accuracy    <       0.00000002 Ry

     total magnetization       =    16.27 Bohr mag/cell
     absolute magnetization    =    20.91 Bohr mag/cell

     iteration # 42     ecut=    60.00 Ry     beta= 0.30
     Davidson diagonalization with overlap
     ethr =  9.33E-12,  avg # of iterations =  5.7

     negative rho (up, down):  0.000E+00 7.167E-05

     total cpu time spent up to now is     6386.2 secs

     total energy              =   -4700.75454239 Ry
     estimated scf accuracy    <       0.00000011 Ry

     total magnetization       =    16.27 Bohr mag/cell
     absolute magnetization    =    20.91 Bohr mag/cell

     iteration # 43     ecut=    60.00 Ry     beta= 0.30
     Davidson diagonalization with overlap
     ethr =  9.33E-12,  avg # of iterations =  5.9

     negative rho (up, down):  0.000E+00 7.167E-05

     total cpu time spent up to now is     6442.2 secs

     total energy              =   -4700.75454242 Ry
     estimated scf accuracy    <       0.00000002 Ry

     total magnetization       =    16.27 Bohr mag/cell
     absolute magnetization    =    20.91 Bohr mag/cell

     iteration # 44     ecut=    60.00 Ry     beta= 0.30
     Davidson diagonalization with overlap
     ethr =  9.26E-12,  avg # of iterations =  3.5

     negative rho (up, down):  0.000E+00 7.168E-05

     total cpu time spent up to now is     6484.6 secs

     total energy              =   -4700.75454242 Ry
     estimated scf accuracy    <       0.00000006 Ry

     total magnetization       =    16.27 Bohr mag/cell
     absolute magnetization    =    20.91 Bohr mag/cell

     iteration # 45     ecut=    60.00 Ry     beta= 0.30
     Davidson diagonalization with overlap
     ethr =  9.26E-12,  avg # of iterations =  3.2

     negative rho (up, down):  0.000E+00 7.171E-05
 
     Magnetic moment per site  (integrated on atomic sphere of radius R)
     atom   1 (R=0.179)  charge= 12.1346  magn= -0.2979
     atom   2 (R=0.179)  charge= 14.4324  magn=  1.9032
     atom   3 (R=0.179)  charge= 14.4099  magn=  2.0475
     atom   4 (R=0.179)  charge= 12.1634  magn=  0.3103
     atom   5 (R=0.179)  charge= 12.1377  magn= -0.0338
     atom   6 (R=0.179)  charge= 14.4323  magn=  1.9081
     atom   7 (R=0.179)  charge= 12.1346  magn= -0.2979
     atom   8 (R=0.179)  charge= 14.4324  magn=  1.9032
     atom   9 (R=0.179)  charge= 12.1259  magn= -0.4491
     atom  10 (R=0.179)  charge= 14.4324  magn=  1.9032
     atom  11 (R=0.179)  charge= 14.4084  magn=  2.2596
     atom  12 (R=0.179)  charge= 14.4323  magn=  1.9081
     atom  13 (R=0.179)  charge= 14.4150  magn=  1.9292
     atom  14 (R=0.179)  charge= 12.1634  magn=  0.3103
     atom  15 (R=0.179)  charge= 12.1259  magn= -0.4491
     atom  16 (R=0.179)  charge= 14.4324  magn=  1.9032

     total cpu time spent up to now is     6525.6 secs

     End of self-consistent calculation

     Number of k-points >= 100: set verbosity='high' to print the bands.

     the Fermi energy is    19.2853 ev

!    total energy              =   -4700.75454242 Ry
     total all-electron energy =    -37622.152090 Ry
     estimated scf accuracy    <          8.9E-09 Ry
     smearing contrib. (-TS)   =      -0.00290560 Ry
     internal energy E=F+TS    =   -4700.75163683 Ry

     The total energy is F=E-TS. E is the sum of the following terms:
     one-electron contribution =   -1375.13078381 Ry
     hartree contribution      =     840.77914580 Ry
     xc contribution           =    -405.54484202 Ry
     ewald contribution        =   -2495.98828676 Ry
     one-center paw contrib.   =   -1264.86687004 Ry

     total magnetization       =    16.27 Bohr mag/cell
     absolute magnetization    =    20.92 Bohr mag/cell

     convergence has been achieved in  45 iterations

     negative rho (up, down):  0.000E+00 7.171E-05

     Forces acting on atoms (cartesian axes, Ry/au):

     atom    1 type  2   force =     0.00000000    0.00000000    0.00000000
     atom    2 type  1   force =     0.00014707   -0.00018970   -0.00008193
     atom    3 type  1   force =     0.00000000    0.00000000    0.00000000
     atom    4 type  2   force =    -0.00697569    0.00260101    0.00260101
     atom    5 type  2   force =     0.00000000    0.00000000    0.00000000
     atom    6 type  1   force =     0.00257740    0.00133509    0.00133509
     atom    7 type  2   force =     0.00000000    0.00000000    0.00000000
     atom    8 type  1   force =     0.00014707   -0.00008193   -0.00018970
     atom    9 type  2   force =     0.00000000    0.00000000    0.00000000
     atom   10 type  1   force =    -0.00014707    0.00008193    0.00018970
     atom   11 type  1   force =     0.00000000    0.00000000    0.00000000
     atom   12 type  1   force =    -0.00257740   -0.00133509   -0.00133509
     atom   13 type  1   force =     0.00000000    0.00000000    0.00000000
     atom   14 type  2   force =     0.00697569   -0.00260101   -0.00260101
     atom   15 type  2   force =     0.00000000    0.00000000    0.00000000
     atom   16 type  1   force =    -0.00014707    0.00018970    0.00008193

     Total force =     0.012044     Total SCF correction =     0.000143


     Computing stress (Cartesian axis) and pressure


     negative rho (up, down):  0.000E+00 7.171E-05
          total   stress  (Ry/bohr**3)                   (kbar)     P=        0.43
   0.00005320   0.00003239   0.00003239            7.83        4.77        4.77
   0.00003239  -0.00002223   0.00005432            4.77       -3.27        7.99
   0.00003239   0.00005432  -0.00002223            4.77        7.99       -3.27

     Energy error            =      1.1E-03 Ry
     Gradient error          =      7.0E-03 Ry/Bohr
     Cell gradient error     =      8.0E+00 kbar

     number of scf cycles    =   2
     number of bfgs steps    =   1

     enthalpy           old  =   -4700.7534417005 Ry
     enthalpy           new  =   -4700.7545424237 Ry

     CASE: enthalpy          _new < enthalpy          _old

     new trust radius        =       0.0327794837 bohr
     new conv_thr            =       0.0000000011 Ry

     new unit-cell volume =   1223.85709 a.u.^3 (   181.35691 Ang^3 )
     density =      7.93455 g/cm^3

CELL_PARAMETERS (angstrom)
   5.687245800   0.019597747   0.019597747
   0.019589093   5.647142985   0.033338816
   0.019589093   0.033338816   5.647142985

ATOMIC_POSITIONS (crystal)
Cr               0.0000000000        0.0000000000        0.0000000000
Fe               0.2500656433        0.2499315318        0.2499323132
Fe               0.0000000000       -0.0000000000        0.5000000000
Cr               0.2475554743        0.2509278867        0.7509278867
Cr               0.0000000000        0.5000000000        0.0000000000
Fe               0.2508399899        0.7504726458        0.2504726458
Cr              -0.0000000000        0.5000000000        0.5000000000
Fe               0.2500656433        0.7499323132        0.7499315318
Cr               0.5000000000       -0.0000000000       -0.0000000000
Fe               0.7499343567        0.2500676868        0.2500684682
Fe               0.5000000000       -0.0000000000        0.5000000000
Fe               0.7491600101        0.2495273542        0.7495273542
Fe               0.5000000000        0.5000000000       -0.0000000000
Cr               0.7524445257        0.7490721133        0.2490721133
Cr               0.5000000000        0.5000000000        0.5000000000
Fe               0.7499343567        0.7500684682        0.7500676868



     Writing config-only to output data dir ./tmp/fecr_fe09cr07_vcr.save/ :
     XML data file
     NEW-OLD atomic charge density approx. for the potential

     Check: negative core charge=   -0.000003

     negative rho (up, down):  0.000E+00 8.033E-05
     Generating pointlists ...

     total cpu time spent up to now is     6594.3 secs

     Self-consistent Calculation

     iteration #  1     ecut=    60.00 Ry     beta= 0.30
     Davidson diagonalization with overlap
     ethr =  1.00E-06,  avg # of iterations =  9.0

     negative rho (up, down):  0.000E+00 8.289E-05

     total cpu time spent up to now is     6688.9 secs

     total energy              =   -4700.75464261 Ry
     estimated scf accuracy    <       0.00088921 Ry

     total magnetization       =    16.30 Bohr mag/cell
     absolute magnetization    =    20.98 Bohr mag/cell

     iteration #  2     ecut=    60.00 Ry     beta= 0.30
     Davidson diagonalization with overlap
     ethr =  3.67E-07,  avg # of iterations =  7.3

     negative rho (up, down):  0.000E+00 8.286E-05

     total cpu time spent up to now is     6751.4 secs

     total energy              =   -4700.75398479 Ry
     estimated scf accuracy    <       0.02693307 Ry

     total magnetization       =    16.29 Bohr mag/cell
     absolute magnetization    =    20.92 Bohr mag/cell

     iteration #  3     ecut=    60.00 Ry     beta= 0.30
     Davidson diagonalization with overlap
     ethr =  3.67E-07,  avg # of iterations =  6.4

     negative rho (up, down):  0.000E+00 8.286E-05

     total cpu time spent up to now is     6808.1 secs

     total energy              =   -4700.75510132 Ry
     estimated scf accuracy    <       0.00024578 Ry

     total magnetization       =    16.30 Bohr mag/cell
     absolute magnetization    =    20.97 Bohr mag/cell

     iteration #  4     ecut=    60.00 Ry     beta= 0.30
     Davidson diagonalization with overlap
     ethr =  1.02E-07,  avg # of iterations =  4.5

     negative rho (up, down):  0.000E+00 8.415E-05

     total cpu time spent up to now is     6854.1 secs

     total energy              =   -4700.75526202 Ry
     estimated scf accuracy    <       0.00104550 Ry

     total magnetization       =    16.30 Bohr mag/cell
     absolute magnetization    =    21.00 Bohr mag/cell

     iteration #  5     ecut=    60.00 Ry     beta= 0.30
     Davidson diagonalization with overlap
     ethr =  1.02E-07,  avg # of iterations =  2.1

     negative rho (up, down):  0.000E+00 8.441E-05

     total cpu time spent up to now is     6892.2 secs

     total energy              =   -4700.75532593 Ry
     estimated scf accuracy    <       0.00011569 Ry

     total magnetization       =    16.31 Bohr mag/cell
     absolute magnetization    =    21.00 Bohr mag/cell

     iteration #  6     ecut=    60.00 Ry     beta= 0.30
     Davidson diagonalization with overlap
     ethr =  4.78E-08,  avg # of iterations =  2.1

     negative rho (up, down):  0.000E+00 8.397E-05

     total cpu time spent up to now is     6929.5 secs

     total energy              =   -4700.75538774 Ry
     estimated scf accuracy    <       0.00006457 Ry

     total magnetization       =    16.30 Bohr mag/cell
     absolute magnetization    =    21.00 Bohr mag/cell

     iteration #  7     ecut=    60.00 Ry     beta= 0.30
     Davidson diagonalization with overlap
     ethr =  2.67E-08,  avg # of iterations =  3.3

     negative rho (up, down):  0.000E+00 8.387E-05

     total cpu time spent up to now is     6971.4 secs

     total energy              =   -4700.75539888 Ry
     estimated scf accuracy    <       0.00003299 Ry

     total magnetization       =    16.30 Bohr mag/cell
     absolute magnetization    =    21.01 Bohr mag/cell

     iteration #  8     ecut=    60.00 Ry     beta= 0.30
     Davidson diagonalization with overlap
     ethr =  1.36E-08,  avg # of iterations =  2.2

     negative rho (up, down):  0.000E+00 8.271E-05

     total cpu time spent up to now is     7009.5 secs

     total energy              =   -4700.75541696 Ry
     estimated scf accuracy    <       0.00002249 Ry

     total magnetization       =    16.30 Bohr mag/cell
     absolute magnetization    =    21.01 Bohr mag/cell

     iteration #  9     ecut=    60.00 Ry     beta= 0.30
     Davidson diagonalization with overlap
     ethr =  9.29E-09,  avg # of iterations =  3.6

     negative rho (up, down):  0.000E+00 8.244E-05

     total cpu time spent up to now is     7053.7 secs

     total energy              =   -4700.75541992 Ry
     estimated scf accuracy    <       0.00002721 Ry

     total magnetization       =    16.30 Bohr mag/cell
     absolute magnetization    =    21.03 Bohr mag/cell

     iteration # 10     ecut=    60.00 Ry     beta= 0.30
     Davidson diagonalization with overlap
     ethr =  9.29E-09,  avg # of iterations =  1.3

     negative rho (up, down):  0.000E+00 8.227E-05

     total cpu time spent up to now is     7088.5 secs

     total energy              =   -4700.75542176 Ry
     estimated scf accuracy    <       0.00000521 Ry

     total magnetization       =    16.30 Bohr mag/cell
     absolute magnetization    =    21.03 Bohr mag/cell

     iteration # 11     ecut=    60.00 Ry     beta= 0.30
     Davidson diagonalization with overlap
     ethr =  2.15E-09,  avg # of iterations =  6.1

     negative rho (up, down):  0.000E+00 8.218E-05

     total cpu time spent up to now is     7140.6 secs

     total energy              =   -4700.75542243 Ry
     estimated scf accuracy    <       0.00001477 Ry

     total magnetization       =    16.30 Bohr mag/cell
     absolute magnetization    =    21.04 Bohr mag/cell

     iteration # 12     ecut=    60.00 Ry     beta= 0.30
     Davidson diagonalization with overlap
     ethr =  2.15E-09,  avg # of iterations =  3.8

     negative rho (up, down):  0.000E+00 8.208E-05

     total cpu time spent up to now is     7183.4 secs

     total energy              =   -4700.75542321 Ry
     estimated scf accuracy    <       0.00000820 Ry

     total magnetization       =    16.30 Bohr mag/cell
     absolute magnetization    =    21.05 Bohr mag/cell

     iteration # 13     ecut=    60.00 Ry     beta= 0.30
     Davidson diagonalization with overlap
     ethr =  2.15E-09,  avg # of iterations =  1.3

     negative rho (up, down):  0.000E+00 8.195E-05

     total cpu time spent up to now is     7218.2 secs

     total energy              =   -4700.75542439 Ry
     estimated scf accuracy    <       0.00000179 Ry

     total magnetization       =    16.30 Bohr mag/cell
     absolute magnetization    =    21.05 Bohr mag/cell

     iteration # 14     ecut=    60.00 Ry     beta= 0.30
     Davidson diagonalization with overlap
     ethr =  7.40E-10,  avg # of iterations =  4.6

     negative rho (up, down):  0.000E+00 8.192E-05

     total cpu time spent up to now is     7262.9 secs

     total energy              =   -4700.75542516 Ry
     estimated scf accuracy    <       0.00000161 Ry

     total magnetization       =    16.30 Bohr mag/cell
     absolute magnetization    =    21.06 Bohr mag/cell

     iteration # 15     ecut=    60.00 Ry     beta= 0.30
     Davidson diagonalization with overlap
     ethr =  6.67E-10,  avg # of iterations =  3.8

     negative rho (up, down):  0.000E+00 8.188E-05

     total cpu time spent up to now is     7305.9 secs

     total energy              =   -4700.75542612 Ry
     estimated scf accuracy    <       0.00000360 Ry

     total magnetization       =    16.30 Bohr mag/cell
     absolute magnetization    =    21.06 Bohr mag/cell

     iteration # 16     ecut=    60.00 Ry     beta= 0.30
     Davidson diagonalization with overlap
     ethr =  6.67E-10,  avg # of iterations =  4.2

     negative rho (up, down):  0.000E+00 8.182E-05

     total cpu time spent up to now is     7352.1 secs

     total energy              =   -4700.75542656 Ry
     estimated scf accuracy    <       0.00000319 Ry

     total magnetization       =    16.30 Bohr mag/cell
     absolute magnetization    =    21.07 Bohr mag/cell

     iteration # 17     ecut=    60.00 Ry     beta= 0.30
     Davidson diagonalization with overlap
     ethr =  6.67E-10,  avg # of iterations =  1.7

     negative rho (up, down):  0.000E+00 8.187E-05

     total cpu time spent up to now is     7388.2 secs

     total energy              =   -4700.75542743 Ry
     estimated scf accuracy    <       0.00000156 Ry

     total magnetization       =    16.30 Bohr mag/cell
     absolute magnetization    =    21.07 Bohr mag/cell

     iteration # 18     ecut=    60.00 Ry     beta= 0.30
     Davidson diagonalization with overlap
     ethr =  6.46E-10,  avg # of iterations =  3.9

     negative rho (up, down):  0.000E+00 8.188E-05

     total cpu time spent up to now is     7431.8 secs

     total energy              =   -4700.75542821 Ry
     estimated scf accuracy    <       0.00000314 Ry

     total magnetization       =    16.29 Bohr mag/cell
     absolute magnetization    =    21.08 Bohr mag/cell

     iteration # 19     ecut=    60.00 Ry     beta= 0.30
     Davidson diagonalization with overlap
     ethr =  6.46E-10,  avg # of iterations =  5.8

     negative rho (up, down):  0.000E+00 8.194E-05

     total cpu time spent up to now is     7487.1 secs

     total energy              =   -4700.75542995 Ry
     estimated scf accuracy    <       0.00000201 Ry

     total magnetization       =    16.29 Bohr mag/cell
     absolute magnetization    =    21.11 Bohr mag/cell

     iteration # 20     ecut=    60.00 Ry     beta= 0.30
     Davidson diagonalization with overlap
     ethr =  6.46E-10,  avg # of iterations =  2.4

     negative rho (up, down):  0.000E+00 8.183E-05

     total cpu time spent up to now is     7525.8 secs

     total energy              =   -4700.75542913 Ry
     estimated scf accuracy    <       0.00000374 Ry

     total magnetization       =    16.29 Bohr mag/cell
     absolute magnetization    =    21.11 Bohr mag/cell

     iteration # 21     ecut=    60.00 Ry     beta= 0.30
     Davidson diagonalization with overlap
     ethr =  6.46E-10,  avg # of iterations =  2.9

     negative rho (up, down):  0.000E+00 8.201E-05

     total cpu time spent up to now is     7566.9 secs

     total energy              =   -4700.75542981 Ry
     estimated scf accuracy    <       0.00000274 Ry

     total magnetization       =    16.29 Bohr mag/cell
     absolute magnetization    =    21.10 Bohr mag/cell

     iteration # 22     ecut=    60.00 Ry     beta= 0.30
     Davidson diagonalization with overlap
     ethr =  6.46E-10,  avg # of iterations =  5.6

     negative rho (up, down):  0.000E+00 8.203E-05

     total cpu time spent up to now is     7618.9 secs

     total energy              =   -4700.75543179 Ry
     estimated scf accuracy    <       0.00000093 Ry

     total magnetization       =    16.29 Bohr mag/cell
     absolute magnetization    =    21.12 Bohr mag/cell

     iteration # 23     ecut=    60.00 Ry     beta= 0.30
     Davidson diagonalization with overlap
     ethr =  3.83E-10,  avg # of iterations =  5.1

     negative rho (up, down):  0.000E+00 8.223E-05

     total cpu time spent up to now is     7666.9 secs

     total energy              =   -4700.75543255 Ry
     estimated scf accuracy    <       0.00000219 Ry

     total magnetization       =    16.28 Bohr mag/cell
     absolute magnetization    =    21.14 Bohr mag/cell

     iteration # 24     ecut=    60.00 Ry     beta= 0.30
     Davidson diagonalization with overlap
     ethr =  3.83E-10,  avg # of iterations =  6.3

     negative rho (up, down):  0.000E+00 8.221E-05

     total cpu time spent up to now is     7724.5 secs

     total energy              =   -4700.75543356 Ry
     estimated scf accuracy    <       0.00000183 Ry

     total magnetization       =    16.28 Bohr mag/cell
     absolute magnetization    =    21.15 Bohr mag/cell

     iteration # 25     ecut=    60.00 Ry     beta= 0.30
     Davidson diagonalization with overlap
     ethr =  3.83E-10,  avg # of iterations =  4.5

     negative rho (up, down):  0.000E+00 8.220E-05

     total cpu time spent up to now is     7770.4 secs

     total energy              =   -4700.75543284 Ry
     estimated scf accuracy    <       0.00000298 Ry

     total magnetization       =    16.28 Bohr mag/cell
     absolute magnetization    =    21.16 Bohr mag/cell

     iteration # 26     ecut=    60.00 Ry     beta= 0.30
     Davidson diagonalization with overlap
     ethr =  3.83E-10,  avg # of iterations =  4.4

     negative rho (up, down):  0.000E+00 8.237E-05

     total cpu time spent up to now is     7815.8 secs

     total energy              =   -4700.75543278 Ry
     estimated scf accuracy    <       0.00000164 Ry

     total magnetization       =    16.28 Bohr mag/cell
     absolute magnetization    =    21.15 Bohr mag/cell

     iteration # 27     ecut=    60.00 Ry     beta= 0.30
     Davidson diagonalization with overlap
     ethr =  3.83E-10,  avg # of iterations =  6.3

     negative rho (up, down):  0.000E+00 8.243E-05

     total cpu time spent up to now is     7876.1 secs

     total energy              =   -4700.75543523 Ry
     estimated scf accuracy    <       0.00000077 Ry

     total magnetization       =    16.28 Bohr mag/cell
     absolute magnetization    =    21.18 Bohr mag/cell

     iteration # 28     ecut=    60.00 Ry     beta= 0.30
     Davidson diagonalization with overlap
     ethr =  3.19E-10,  avg # of iterations =  4.9

     negative rho (up, down):  0.000E+00 8.250E-05

     total cpu time spent up to now is     7922.0 secs

     total energy              =   -4700.75543563 Ry
     estimated scf accuracy    <       0.00000086 Ry

     total magnetization       =    16.27 Bohr mag/cell
     absolute magnetization    =    21.18 Bohr mag/cell

     iteration # 29     ecut=    60.00 Ry     beta= 0.30
     Davidson diagonalization with overlap
     ethr =  3.19E-10,  avg # of iterations =  5.5

     negative rho (up, down):  0.000E+00 8.272E-05

     total cpu time spent up to now is     7975.4 secs

     total energy              =   -4700.75543461 Ry
     estimated scf accuracy    <       0.00000199 Ry

     total magnetization       =    16.27 Bohr mag/cell
     absolute magnetization    =    21.20 Bohr mag/cell

     iteration # 30     ecut=    60.00 Ry     beta= 0.30
     Davidson diagonalization with overlap
     ethr =  3.19E-10,  avg # of iterations =  7.8

     negative rho (up, down):  0.000E+00 8.258E-05

     total cpu time spent up to now is     8044.1 secs

     total energy              =   -4700.75543525 Ry
     estimated scf accuracy    <       0.00000075 Ry

     total magnetization       =    16.27 Bohr mag/cell
     absolute magnetization    =    21.23 Bohr mag/cell

     iteration # 31     ecut=    60.00 Ry     beta= 0.30
     Davidson diagonalization with overlap
     ethr =  3.10E-10,  avg # of iterations =  6.1

     negative rho (up, down):  0.000E+00 8.276E-05

     total cpu time spent up to now is     8103.9 secs

     total energy              =   -4700.75543603 Ry
     estimated scf accuracy    <       0.00000120 Ry

     total magnetization       =    16.27 Bohr mag/cell
     absolute magnetization    =    21.21 Bohr mag/cell

     iteration # 32     ecut=    60.00 Ry     beta= 0.30
     Davidson diagonalization with overlap
     ethr =  3.10E-10,  avg # of iterations =  6.4

     negative rho (up, down):  0.000E+00 8.317E-05

     total cpu time spent up to now is     8164.2 secs

     total energy              =   -4700.75543134 Ry
     estimated scf accuracy    <       0.00000049 Ry

     total magnetization       =    16.26 Bohr mag/cell
     absolute magnetization    =    21.23 Bohr mag/cell

     iteration # 33     ecut=    60.00 Ry     beta= 0.30
     Davidson diagonalization with overlap
     ethr =  2.02E-10,  avg # of iterations = 10.6

     negative rho (up, down):  0.000E+00 8.323E-05

     total cpu time spent up to now is     8249.4 secs

     total energy              =   -4700.75543905 Ry
     estimated scf accuracy    <       0.00000041 Ry

     total magnetization       =    16.25 Bohr mag/cell
     absolute magnetization    =    21.28 Bohr mag/cell

     iteration # 34     ecut=    60.00 Ry     beta= 0.30
     Davidson diagonalization with overlap
     ethr =  1.69E-10,  avg # of iterations =  4.9

     negative rho (up, down):  0.000E+00 8.332E-05

     total cpu time spent up to now is     8294.5 secs

     total energy              =   -4700.75543907 Ry
     estimated scf accuracy    <       0.00000045 Ry

     total magnetization       =    16.25 Bohr mag/cell
     absolute magnetization    =    21.28 Bohr mag/cell

     iteration # 35     ecut=    60.00 Ry     beta= 0.30
     Davidson diagonalization with overlap
     ethr =  1.69E-10,  avg # of iterations =  5.2

     negative rho (up, down):  0.000E+00 8.323E-05

     total cpu time spent up to now is     8345.1 secs

     total energy              =   -4700.75543623 Ry
     estimated scf accuracy    <       0.00000051 Ry

     total magnetization       =    16.25 Bohr mag/cell
     absolute magnetization    =    21.29 Bohr mag/cell

     iteration # 36     ecut=    60.00 Ry     beta= 0.30
     Davidson diagonalization with overlap
     ethr =  1.69E-10,  avg # of iterations =  8.3

     negative rho (up, down):  0.000E+00 8.346E-05

     total cpu time spent up to now is     8417.6 secs

     total energy              =   -4700.75543526 Ry
     estimated scf accuracy    <       0.00000145 Ry

     total magnetization       =    16.26 Bohr mag/cell
     absolute magnetization    =    21.26 Bohr mag/cell

     iteration # 37     ecut=    60.00 Ry     beta= 0.30
     Davidson diagonalization with overlap
     ethr =  1.69E-10,  avg # of iterations =  9.2

     negative rho (up, down):  0.000E+00 8.363E-05

     total cpu time spent up to now is     8495.6 secs

     total energy              =   -4700.75543888 Ry
     estimated scf accuracy    <       0.00000031 Ry

     total magnetization       =    16.25 Bohr mag/cell
     absolute magnetization    =    21.30 Bohr mag/cell

     iteration # 38     ecut=    60.00 Ry     beta= 0.30
     Davidson diagonalization with overlap
     ethr =  1.29E-10,  avg # of iterations =  7.0

     negative rho (up, down):  0.000E+00 8.371E-05

     total cpu time spent up to now is     8558.5 secs

     total energy              =   -4700.75543950 Ry
     estimated scf accuracy    <       0.00000027 Ry

     total magnetization       =    16.25 Bohr mag/cell
     absolute magnetization    =    21.31 Bohr mag/cell

     iteration # 39     ecut=    60.00 Ry     beta= 0.30
     Davidson diagonalization with overlap
     ethr =  1.11E-10,  avg # of iterations =  2.6

     negative rho (up, down):  0.000E+00 8.385E-05

     total cpu time spent up to now is     8597.5 secs

     total energy              =   -4700.75543954 Ry
     estimated scf accuracy    <       0.00000036 Ry

     total magnetization       =    16.25 Bohr mag/cell
     absolute magnetization    =    21.31 Bohr mag/cell

     iteration # 40     ecut=    60.00 Ry     beta= 0.30
     Davidson diagonalization with overlap
     ethr =  1.11E-10,  avg # of iterations =  4.4

     negative rho (up, down):  0.000E+00 8.395E-05

     total cpu time spent up to now is     8641.7 secs

     total energy              =   -4700.75543948 Ry
     estimated scf accuracy    <       0.00000042 Ry

     total magnetization       =    16.25 Bohr mag/cell
     absolute magnetization    =    21.32 Bohr mag/cell

     iteration # 41     ecut=    60.00 Ry     beta= 0.30
     Davidson diagonalization with overlap
     ethr =  1.11E-10,  avg # of iterations =  5.5

     negative rho (up, down):  0.000E+00 8.409E-05

     total cpu time spent up to now is     8692.9 secs

     total energy              =   -4700.75543937 Ry
     estimated scf accuracy    <       0.00000039 Ry

     total magnetization       =    16.24 Bohr mag/cell
     absolute magnetization    =    21.32 Bohr mag/cell

     iteration # 42     ecut=    60.00 Ry     beta= 0.30
     Davidson diagonalization with overlap
     ethr =  1.11E-10,  avg # of iterations =  5.3

     negative rho (up, down):  0.000E+00 8.401E-05

     total cpu time spent up to now is     8745.6 secs

     total energy              =   -4700.75543941 Ry
     estimated scf accuracy    <       0.00000010 Ry

     total magnetization       =    16.24 Bohr mag/cell
     absolute magnetization    =    21.33 Bohr mag/cell

     iteration # 43     ecut=    60.00 Ry     beta= 0.30
     Davidson diagonalization with overlap
     ethr =  3.99E-11,  avg # of iterations =  6.9

     negative rho (up, down):  0.000E+00 8.429E-05

     total cpu time spent up to now is     8808.4 secs

     total energy              =   -4700.75543918 Ry
     estimated scf accuracy    <       0.00000041 Ry

     total magnetization       =    16.24 Bohr mag/cell
     absolute magnetization    =    21.32 Bohr mag/cell

     iteration # 44     ecut=    60.00 Ry     beta= 0.30
     Davidson diagonalization with overlap
     ethr =  3.99E-11,  avg # of iterations =  7.8

     negative rho (up, down):  0.000E+00 8.431E-05

     total cpu time spent up to now is     8877.2 secs

     total energy              =   -4700.75543963 Ry
     estimated scf accuracy    <       0.00000005 Ry

     total magnetization       =    16.24 Bohr mag/cell
     absolute magnetization    =    21.33 Bohr mag/cell

     iteration # 45     ecut=    60.00 Ry     beta= 0.30
     Davidson diagonalization with overlap
     ethr =  2.17E-11,  avg # of iterations =  3.9

     negative rho (up, down):  0.000E+00 8.449E-05

     total cpu time spent up to now is     8920.5 secs

     total energy              =   -4700.75543946 Ry
     estimated scf accuracy    <       0.00000008 Ry

     total magnetization       =    16.24 Bohr mag/cell
     absolute magnetization    =    21.33 Bohr mag/cell

     iteration # 46     ecut=    60.00 Ry     beta= 0.30
     Davidson diagonalization with overlap
     ethr =  2.17E-11,  avg # of iterations =  7.1

     negative rho (up, down):  0.000E+00 8.448E-05

     total cpu time spent up to now is     8984.7 secs

     total energy              =   -4700.75543961 Ry
     estimated scf accuracy    <       0.00000012 Ry

     total magnetization       =    16.24 Bohr mag/cell
     absolute magnetization    =    21.34 Bohr mag/cell

     iteration # 47     ecut=    60.00 Ry     beta= 0.30
     Davidson diagonalization with overlap
     ethr =  2.17E-11,  avg # of iterations =  2.8

     negative rho (up, down):  0.000E+00 8.454E-05

     total cpu time spent up to now is     9024.6 secs

     total energy              =   -4700.75543962 Ry
     estimated scf accuracy    <       0.00000003 Ry

     total magnetization       =    16.24 Bohr mag/cell
     absolute magnetization    =    21.34 Bohr mag/cell

     iteration # 48     ecut=    60.00 Ry     beta= 0.30
     Davidson diagonalization with overlap
     ethr =  1.21E-11,  avg # of iterations =  4.4

     negative rho (up, down):  0.000E+00 8.462E-05

     total cpu time spent up to now is     9069.4 secs

     total energy              =   -4700.75543960 Ry
     estimated scf accuracy    <       0.00000010 Ry

     total magnetization       =    16.24 Bohr mag/cell
     absolute magnetization    =    21.34 Bohr mag/cell

     iteration # 49     ecut=    60.00 Ry     beta= 0.30
     Davidson diagonalization with overlap
     ethr =  1.21E-11,  avg # of iterations =  3.8

     negative rho (up, down):  0.000E+00 8.462E-05

     total cpu time spent up to now is     9113.4 secs

     total energy              =   -4700.75543962 Ry
     estimated scf accuracy    <       0.00000002 Ry

     total magnetization       =    16.24 Bohr mag/cell
     absolute magnetization    =    21.34 Bohr mag/cell

     iteration # 50     ecut=    60.00 Ry     beta= 0.30
     Davidson diagonalization with overlap
     ethr =  8.73E-12,  avg # of iterations =  1.8

     negative rho (up, down):  0.000E+00 8.465E-05

     total cpu time spent up to now is     9149.9 secs

     total energy              =   -4700.75543962 Ry
     estimated scf accuracy    <       0.00000002 Ry

     total magnetization       =    16.24 Bohr mag/cell
     absolute magnetization    =    21.34 Bohr mag/cell

     iteration # 51     ecut=    60.00 Ry     beta= 0.30
     Davidson diagonalization with overlap
     ethr =  8.73E-12,  avg # of iterations =  2.1

     negative rho (up, down):  0.000E+00 8.466E-05

     total cpu time spent up to now is     9187.1 secs

     total energy              =   -4700.75543963 Ry
     estimated scf accuracy    <       0.00000002 Ry

     total magnetization       =    16.24 Bohr mag/cell
     absolute magnetization    =    21.34 Bohr mag/cell

     iteration # 52     ecut=    60.00 Ry     beta= 0.30
     Davidson diagonalization with overlap
     ethr =  6.31E-12,  avg # of iterations =  2.8

     negative rho (up, down):  0.000E+00 8.468E-05

     total cpu time spent up to now is     9227.0 secs

     total energy              =   -4700.75543963 Ry
     estimated scf accuracy    <       0.00000002 Ry

     total magnetization       =    16.24 Bohr mag/cell
     absolute magnetization    =    21.34 Bohr mag/cell

     iteration # 53     ecut=    60.00 Ry     beta= 0.30
     Davidson diagonalization with overlap
     ethr =  6.31E-12,  avg # of iterations =  5.9

     negative rho (up, down):  0.000E+00 8.467E-05

     total cpu time spent up to now is     9283.7 secs

     total energy              =   -4700.75543964 Ry
     estimated scf accuracy    <       0.00000008 Ry

     total magnetization       =    16.24 Bohr mag/cell
     absolute magnetization    =    21.33 Bohr mag/cell

     iteration # 54     ecut=    60.00 Ry     beta= 0.30
     Davidson diagonalization with overlap
     ethr =  6.31E-12,  avg # of iterations =  5.3

     negative rho (up, down):  0.000E+00 8.468E-05

     total cpu time spent up to now is     9337.8 secs

     total energy              =   -4700.75543966 Ry
     estimated scf accuracy    <          7.2E-09 Ry

     total magnetization       =    16.24 Bohr mag/cell
     absolute magnetization    =    21.33 Bohr mag/cell

     iteration # 55     ecut=    60.00 Ry     beta= 0.30
     Davidson diagonalization with overlap
     ethr =  2.97E-12,  avg # of iterations =  5.4

     negative rho (up, down):  0.000E+00 8.466E-05

     total cpu time spent up to now is     9386.1 secs

     total energy              =   -4700.75543966 Ry
     estimated scf accuracy    <       0.00000005 Ry

     total magnetization       =    16.24 Bohr mag/cell
     absolute magnetization    =    21.33 Bohr mag/cell

     iteration # 56     ecut=    60.00 Ry     beta= 0.30
     Davidson diagonalization with overlap
     ethr =  2.97E-12,  avg # of iterations =  4.5

     negative rho (up, down):  0.000E+00 8.470E-05

     total cpu time spent up to now is     9431.8 secs

     total energy              =   -4700.75543966 Ry
     estimated scf accuracy    <       0.00000001 Ry

     total magnetization       =    16.24 Bohr mag/cell
     absolute magnetization    =    21.33 Bohr mag/cell

     iteration # 57     ecut=    60.00 Ry     beta= 0.30
     Davidson diagonalization with overlap
     ethr =  2.97E-12,  avg # of iterations =  2.7

     negative rho (up, down):  0.000E+00 8.470E-05

     total cpu time spent up to now is     9471.9 secs

     total energy              =   -4700.75543966 Ry
     estimated scf accuracy    <          9.2E-09 Ry

     total magnetization       =    16.24 Bohr mag/cell
     absolute magnetization    =    21.33 Bohr mag/cell

     iteration # 58     ecut=    60.00 Ry     beta= 0.30
     Davidson diagonalization with overlap
     ethr =  2.97E-12,  avg # of iterations =  1.0

     negative rho (up, down):  0.000E+00 8.468E-05

     total cpu time spent up to now is     9505.4 secs

     total energy              =   -4700.75543966 Ry
     estimated scf accuracy    <          4.4E-09 Ry

     total magnetization       =    16.24 Bohr mag/cell
     absolute magnetization    =    21.33 Bohr mag/cell

     iteration # 59     ecut=    60.00 Ry     beta= 0.30
     Davidson diagonalization with overlap
     ethr =  1.81E-12,  avg # of iterations =  3.1

     negative rho (up, down):  0.000E+00 8.468E-05

     total cpu time spent up to now is     9546.2 secs

     total energy              =   -4700.75543966 Ry
     estimated scf accuracy    <       0.00000001 Ry

     total magnetization       =    16.24 Bohr mag/cell
     absolute magnetization    =    21.33 Bohr mag/cell

     iteration # 60     ecut=    60.00 Ry     beta= 0.30
     Davidson diagonalization with overlap
     ethr =  1.81E-12,  avg # of iterations =  5.6

     negative rho (up, down):  0.000E+00 8.467E-05

     total cpu time spent up to now is     9599.8 secs

     total energy              =   -4700.75543967 Ry
     estimated scf accuracy    <          4.3E-09 Ry

     total magnetization       =    16.24 Bohr mag/cell
     absolute magnetization    =    21.33 Bohr mag/cell

     iteration # 61     ecut=    60.00 Ry     beta= 0.30
     Davidson diagonalization with overlap
     ethr =  1.76E-12,  avg # of iterations =  2.2

     negative rho (up, down):  0.000E+00 8.464E-05

     total cpu time spent up to now is     9637.4 secs

     total energy              =   -4700.75543967 Ry
     estimated scf accuracy    <          7.4E-09 Ry

     total magnetization       =    16.24 Bohr mag/cell
     absolute magnetization    =    21.33 Bohr mag/cell

     iteration # 62     ecut=    60.00 Ry     beta= 0.30
     Davidson diagonalization with overlap
     ethr =  1.76E-12,  avg # of iterations =  7.2

     negative rho (up, down):  0.000E+00 8.461E-05

     total cpu time spent up to now is     9701.6 secs

     total energy              =   -4700.75543967 Ry
     estimated scf accuracy    <       0.00000002 Ry

     total magnetization       =    16.24 Bohr mag/cell
     absolute magnetization    =    21.33 Bohr mag/cell

     iteration # 63     ecut=    60.00 Ry     beta= 0.30
     Davidson diagonalization with overlap
     ethr =  1.76E-12,  avg # of iterations =  8.2

     negative rho (up, down):  0.000E+00 8.457E-05

     total cpu time spent up to now is     9772.8 secs

     total energy              =   -4700.75543968 Ry
     estimated scf accuracy    <       0.00000003 Ry

     total magnetization       =    16.24 Bohr mag/cell
     absolute magnetization    =    21.33 Bohr mag/cell

     iteration # 64     ecut=    60.00 Ry     beta= 0.30
     Davidson diagonalization with overlap
     ethr =  1.76E-12,  avg # of iterations =  6.6

     negative rho (up, down):  0.000E+00 8.455E-05

     total cpu time spent up to now is     9834.7 secs

     total energy              =   -4700.75543969 Ry
     estimated scf accuracy    <          8.1E-09 Ry

     total magnetization       =    16.24 Bohr mag/cell
     absolute magnetization    =    21.33 Bohr mag/cell

     iteration # 65     ecut=    60.00 Ry     beta= 0.30
     Davidson diagonalization with overlap
     ethr =  1.76E-12,  avg # of iterations =  6.0

     negative rho (up, down):  0.000E+00 8.457E-05

     total cpu time spent up to now is     9891.8 secs

     total energy              =   -4700.75543968 Ry
     estimated scf accuracy    <          4.4E-09 Ry

     total magnetization       =    16.24 Bohr mag/cell
     absolute magnetization    =    21.32 Bohr mag/cell

     iteration # 66     ecut=    60.00 Ry     beta= 0.30
     Davidson diagonalization with overlap
     ethr =  1.76E-12,  avg # of iterations =  6.7

     negative rho (up, down):  0.000E+00 8.454E-05

     total cpu time spent up to now is     9952.2 secs

     total energy              =   -4700.75543968 Ry
     estimated scf accuracy    <       0.00000001 Ry

     total magnetization       =    16.24 Bohr mag/cell
     absolute magnetization    =    21.33 Bohr mag/cell

     iteration # 67     ecut=    60.00 Ry     beta= 0.30
     Davidson diagonalization with overlap
     ethr =  1.76E-12,  avg # of iterations =  7.1

     negative rho (up, down):  0.000E+00 8.452E-05
 
     Magnetic moment per site  (integrated on atomic sphere of radius R)
     atom   1 (R=0.179)  charge= 12.1350  magn= -0.3411
     atom   2 (R=0.179)  charge= 14.4303  magn=  1.9214
     atom   3 (R=0.179)  charge= 14.4093  magn=  2.0535
     atom   4 (R=0.179)  charge= 12.1639  magn=  0.3651
     atom   5 (R=0.179)  charge= 12.1393  magn= -0.0541
     atom   6 (R=0.179)  charge= 14.4307  magn=  1.9072
     atom   7 (R=0.179)  charge= 12.1350  magn= -0.3411
     atom   8 (R=0.179)  charge= 14.4303  magn=  1.9214
     atom   9 (R=0.179)  charge= 12.1231  magn= -0.5048
     atom  10 (R=0.179)  charge= 14.4303  magn=  1.9214
     atom  11 (R=0.179)  charge= 14.4061  magn=  2.2594
     atom  12 (R=0.179)  charge= 14.4307  magn=  1.9072
     atom  13 (R=0.179)  charge= 14.4131  magn=  1.9428
     atom  14 (R=0.179)  charge= 12.1639  magn=  0.3651
     atom  15 (R=0.179)  charge= 12.1231  magn= -0.5048
     atom  16 (R=0.179)  charge= 14.4303  magn=  1.9214

     total cpu time spent up to now is    10015.8 secs

     End of self-consistent calculation

     Number of k-points >= 100: set verbosity='high' to print the bands.

     the Fermi energy is    19.2623 ev

!    total energy              =   -4700.75543969 Ry
     total all-electron energy =    -37622.152987 Ry
     estimated scf accuracy    <          1.1E-09 Ry
     smearing contrib. (-TS)   =      -0.00300365 Ry
     internal energy E=F+TS    =   -4700.75243605 Ry

     The total energy is F=E-TS. E is the sum of the following terms:
     one-electron contribution =   -1376.71922769 Ry
     hartree contribution      =     841.36461754 Ry
     xc contribution           =    -405.54687480 Ry
     ewald contribution        =   -2494.98532659 Ry
     one-center paw contrib.   =   -1264.86562450 Ry

     total magnetization       =    16.24 Bohr mag/cell
     absolute magnetization    =    21.32 Bohr mag/cell

     convergence has been achieved in  67 iterations

     negative rho (up, down):  0.000E+00 8.452E-05

     Forces acting on atoms (cartesian axes, Ry/au):

     atom    1 type  2   force =     0.00000000    0.00000000    0.00000000
     atom    2 type  1   force =     0.00005129   -0.00008040    0.00050219
     atom    3 type  1   force =     0.00000000    0.00000000    0.00000000
     atom    4 type  2   force =    -0.00382955    0.00115036    0.00115036
     atom    5 type  2   force =     0.00000000    0.00000000    0.00000000
     atom    6 type  1   force =     0.00233774    0.00076113    0.00076113
     atom    7 type  2   force =     0.00000000    0.00000000    0.00000000
     atom    8 type  1   force =     0.00005129    0.00050219   -0.00008040
     atom    9 type  2   force =     0.00000000    0.00000000    0.00000000
     atom   10 type  1   force =    -0.00005129   -0.00050219    0.00008040
     atom   11 type  1   force =     0.00000000    0.00000000    0.00000000
     atom   12 type  1   force =    -0.00233774   -0.00076113   -0.00076113
     atom   13 type  1   force =     0.00000000    0.00000000    0.00000000
     atom   14 type  2   force =     0.00382955   -0.00115036   -0.00115036
     atom   15 type  2   force =     0.00000000    0.00000000    0.00000000
     atom   16 type  1   force =    -0.00005129    0.00008040   -0.00050219

     Total force =     0.006994     Total SCF correction =     0.000080


     Computing stress (Cartesian axis) and pressure


     negative rho (up, down):  0.000E+00 8.452E-05
          total   stress  (Ry/bohr**3)                   (kbar)     P=       -0.78
   0.00002114  -0.00000095  -0.00000095            3.11       -0.14       -0.14
  -0.00000095  -0.00001849  -0.00000330           -0.14       -2.72       -0.49
  -0.00000095  -0.00000330  -0.00001849           -0.14       -0.49       -2.72

     Energy error            =      9.0E-04 Ry
     Gradient error          =      3.8E-03 Ry/Bohr
     Cell gradient error     =      3.1E+00 kbar

     number of scf cycles    =   3
     number of bfgs steps    =   2

     enthalpy           old  =   -4700.7545424237 Ry
     enthalpy           new  =   -4700.7554396948 Ry

     CASE: enthalpy          _new < enthalpy          _old

     new trust radius        =       0.0113957680 bohr
     new conv_thr            =       0.0000000009 Ry

     new unit-cell volume =   1223.85654 a.u.^3 (   181.35683 Ang^3 )
     density =      7.93455 g/cm^3

CELL_PARAMETERS (angstrom)
   5.695816012   0.022167295   0.022167295
   0.022130604   5.642935722   0.037398302
   0.022130604   0.037398302   5.642935722

ATOMIC_POSITIONS (crystal)
Cr               0.0000000000        0.0000000000        0.0000000000
Fe               0.2500809928        0.2499127242        0.2499829799
Fe               0.0000000000       -0.0000000000        0.5000000000
Cr               0.2467532855        0.2511944309        0.7511944309
Cr               0.0000000000        0.5000000000       -0.0000000000
Fe               0.2512398431        0.7506312107        0.2506312107
Cr               0.0000000000        0.5000000000        0.5000000000
Fe               0.2500809928        0.7499829799        0.7499127242
Cr               0.5000000000       -0.0000000000       -0.0000000000
Fe               0.7499190072        0.2500170201        0.2500872758
Fe               0.5000000000       -0.0000000000        0.5000000000
Fe               0.7487601569        0.2493687893        0.7493687893
Fe               0.5000000000        0.5000000000       -0.0000000000
Cr               0.7532467145        0.7488055691        0.2488055691
Cr               0.5000000000        0.5000000000        0.5000000000
Fe               0.7499190072        0.7500872758        0.7500170201



     Writing config-only to output data dir ./tmp/fecr_fe09cr07_vcr.save/ :
     XML data file
     NEW-OLD atomic charge density approx. for the potential

     Check: negative core charge=   -0.000003

     negative rho (up, down):  0.000E+00 9.570E-05
     Generating pointlists ...

     total cpu time spent up to now is    10084.0 secs

     Self-consistent Calculation

     iteration #  1     ecut=    60.00 Ry     beta= 0.30
     Davidson diagonalization with overlap
     ethr =  1.00E-06,  avg # of iterations =  7.3

     Threshold (ethr) on eigenvalues was too large:
     Diagonalizing with lowered threshold

     Davidson diagonalization with overlap
     ethr =  6.17E-08,  avg # of iterations =  5.0

     negative rho (up, down):  0.000E+00 9.685E-05

     total cpu time spent up to now is    10197.4 secs

     total energy              =   -4700.75538412 Ry
     estimated scf accuracy    <       0.00016483 Ry

     total magnetization       =    16.25 Bohr mag/cell
     absolute magnetization    =    21.34 Bohr mag/cell

     iteration #  2     ecut=    60.00 Ry     beta= 0.30
     Davidson diagonalization with overlap
     ethr =  6.81E-08,  avg # of iterations =  6.6

     negative rho (up, down):  0.000E+00 9.692E-05

     total cpu time spent up to now is    10256.2 secs

     total energy              =   -4700.75525284 Ry
     estimated scf accuracy    <       0.00527180 Ry

     total magnetization       =    16.24 Bohr mag/cell
     absolute magnetization    =    21.31 Bohr mag/cell

     iteration #  3     ecut=    60.00 Ry     beta= 0.30
     Davidson diagonalization with overlap
     ethr =  6.81E-08,  avg # of iterations =  5.9

     negative rho (up, down):  0.000E+00 9.702E-05

     total cpu time spent up to now is    10311.6 secs

     total energy              =   -4700.75548399 Ry
     estimated scf accuracy    <       0.00003328 Ry

     total magnetization       =    16.24 Bohr mag/cell
     absolute magnetization    =    21.33 Bohr mag/cell

     iteration #  4     ecut=    60.00 Ry     beta= 0.30
     Davidson diagonalization with overlap
     ethr =  1.38E-08,  avg # of iterations =  5.4

     negative rho (up, down):  0.000E+00 9.748E-05

     total cpu time spent up to now is    10361.3 secs

     total energy              =   -4700.75551558 Ry
     estimated scf accuracy    <       0.00026771 Ry

     total magnetization       =    16.24 Bohr mag/cell
     absolute magnetization    =    21.35 Bohr mag/cell

     iteration #  5     ecut=    60.00 Ry     beta= 0.30
     Davidson diagonalization with overlap
     ethr =  1.38E-08,  avg # of iterations =  4.3

     negative rho (up, down):  0.000E+00 9.758E-05

     total cpu time spent up to now is    10407.2 secs

     total energy              =   -4700.75553020 Ry
     estimated scf accuracy    <       0.00001678 Ry

     total magnetization       =    16.25 Bohr mag/cell
     absolute magnetization    =    21.34 Bohr mag/cell

     iteration #  6     ecut=    60.00 Ry     beta= 0.30
     Davidson diagonalization with overlap
     ethr =  6.93E-09,  avg # of iterations =  2.7

     negative rho (up, down):  0.000E+00 9.722E-05

     total cpu time spent up to now is    10446.5 secs

     total energy              =   -4700.75554820 Ry
     estimated scf accuracy    <       0.00000621 Ry

     total magnetization       =    16.24 Bohr mag/cell
     absolute magnetization    =    21.34 Bohr mag/cell

     iteration #  7     ecut=    60.00 Ry     beta= 0.30
     Davidson diagonalization with overlap
     ethr =  2.57E-09,  avg # of iterations =  5.4

     negative rho (up, down):  0.000E+00 9.716E-05

     total cpu time spent up to now is    10496.9 secs

     total energy              =   -4700.75555121 Ry
     estimated scf accuracy    <       0.00000967 Ry

     total magnetization       =    16.24 Bohr mag/cell
     absolute magnetization    =    21.34 Bohr mag/cell

     iteration #  8     ecut=    60.00 Ry     beta= 0.30
     Davidson diagonalization with overlap
     ethr =  2.57E-09,  avg # of iterations =  1.2

     negative rho (up, down):  0.000E+00 9.672E-05

     total cpu time spent up to now is    10530.9 secs

     total energy              =   -4700.75555475 Ry
     estimated scf accuracy    <       0.00000584 Ry

     total magnetization       =    16.24 Bohr mag/cell
     absolute magnetization    =    21.34 Bohr mag/cell

     iteration #  9     ecut=    60.00 Ry     beta= 0.30
     Davidson diagonalization with overlap
     ethr =  2.41E-09,  avg # of iterations =  1.9

     negative rho (up, down):  0.000E+00 9.666E-05

     total cpu time spent up to now is    10569.2 secs

     total energy              =   -4700.75555542 Ry
     estimated scf accuracy    <       0.00000161 Ry

     total magnetization       =    16.24 Bohr mag/cell
     absolute magnetization    =    21.35 Bohr mag/cell

     iteration # 10     ecut=    60.00 Ry     beta= 0.30
     Davidson diagonalization with overlap
     ethr =  6.65E-10,  avg # of iterations =  4.9

     negative rho (up, down):  0.000E+00 9.656E-05

     total cpu time spent up to now is    10614.4 secs

     total energy              =   -4700.75555554 Ry
     estimated scf accuracy    <       0.00000245 Ry

     total magnetization       =    16.24 Bohr mag/cell
     absolute magnetization    =    21.35 Bohr mag/cell

     iteration # 11     ecut=    60.00 Ry     beta= 0.30
     Davidson diagonalization with overlap
     ethr =  6.65E-10,  avg # of iterations =  2.0

     negative rho (up, down):  0.000E+00 9.654E-05

     total cpu time spent up to now is    10651.5 secs

     total energy              =   -4700.75555556 Ry
     estimated scf accuracy    <       0.00000114 Ry

     total magnetization       =    16.24 Bohr mag/cell
     absolute magnetization    =    21.35 Bohr mag/cell

     iteration # 12     ecut=    60.00 Ry     beta= 0.30
     Davidson diagonalization with overlap
     ethr =  4.73E-10,  avg # of iterations =  2.2

     negative rho (up, down):  0.000E+00 9.655E-05

     total cpu time spent up to now is    10689.5 secs

     total energy              =   -4700.75555558 Ry
     estimated scf accuracy    <       0.00000077 Ry

     total magnetization       =    16.24 Bohr mag/cell
     absolute magnetization    =    21.35 Bohr mag/cell

     iteration # 13     ecut=    60.00 Ry     beta= 0.30
     Davidson diagonalization with overlap
     ethr =  3.20E-10,  avg # of iterations =  2.8

     negative rho (up, down):  0.000E+00 9.649E-05

     total cpu time spent up to now is    10728.7 secs

     total energy              =   -4700.75555576 Ry
     estimated scf accuracy    <       0.00000038 Ry

     total magnetization       =    16.24 Bohr mag/cell
     absolute magnetization    =    21.35 Bohr mag/cell

     iteration # 14     ecut=    60.00 Ry     beta= 0.30
     Davidson diagonalization with overlap
     ethr =  1.57E-10,  avg # of iterations =  3.4

     negative rho (up, down):  0.000E+00 9.648E-05

     total cpu time spent up to now is    10769.8 secs

     total energy              =   -4700.75555576 Ry
     estimated scf accuracy    <       0.00000018 Ry

     total magnetization       =    16.24 Bohr mag/cell
     absolute magnetization    =    21.35 Bohr mag/cell

     iteration # 15     ecut=    60.00 Ry     beta= 0.30
     Davidson diagonalization with overlap
     ethr =  7.50E-11,  avg # of iterations =  4.4

     negative rho (up, down):  0.000E+00 9.648E-05

     total cpu time spent up to now is    10813.9 secs

     total energy              =   -4700.75555585 Ry
     estimated scf accuracy    <       0.00000031 Ry

     total magnetization       =    16.24 Bohr mag/cell
     absolute magnetization    =    21.35 Bohr mag/cell

     iteration # 16     ecut=    60.00 Ry     beta= 0.30
     Davidson diagonalization with overlap
     ethr =  7.50E-11,  avg # of iterations =  2.7

     negative rho (up, down):  0.000E+00 9.647E-05

     total cpu time spent up to now is    10852.9 secs

     total energy              =   -4700.75555594 Ry
     estimated scf accuracy    <       0.00000023 Ry

     total magnetization       =    16.24 Bohr mag/cell
     absolute magnetization    =    21.36 Bohr mag/cell

     iteration # 17     ecut=    60.00 Ry     beta= 0.30
     Davidson diagonalization with overlap
     ethr =  7.50E-11,  avg # of iterations =  3.2

     negative rho (up, down):  0.000E+00 9.650E-05

     total cpu time spent up to now is    10894.3 secs

     total energy              =   -4700.75555599 Ry
     estimated scf accuracy    <       0.00000011 Ry

     total magnetization       =    16.24 Bohr mag/cell
     absolute magnetization    =    21.36 Bohr mag/cell

     iteration # 18     ecut=    60.00 Ry     beta= 0.30
     Davidson diagonalization with overlap
     ethr =  4.56E-11,  avg # of iterations =  6.1

     negative rho (up, down):  0.000E+00 9.650E-05

     total cpu time spent up to now is    10952.3 secs

     total energy              =   -4700.75555609 Ry
     estimated scf accuracy    <       0.00000025 Ry

     total magnetization       =    16.24 Bohr mag/cell
     absolute magnetization    =    21.36 Bohr mag/cell

     iteration # 19     ecut=    60.00 Ry     beta= 0.30
     Davidson diagonalization with overlap
     ethr =  4.56E-11,  avg # of iterations =  1.6

     negative rho (up, down):  0.000E+00 9.651E-05

     total cpu time spent up to now is    10987.8 secs

     total energy              =   -4700.75555613 Ry
     estimated scf accuracy    <       0.00000009 Ry

     total magnetization       =    16.24 Bohr mag/cell
     absolute magnetization    =    21.36 Bohr mag/cell

     iteration # 20     ecut=    60.00 Ry     beta= 0.30
     Davidson diagonalization with overlap
     ethr =  3.53E-11,  avg # of iterations =  2.9

     negative rho (up, down):  0.000E+00 9.650E-05

     total cpu time spent up to now is    11027.9 secs

     total energy              =   -4700.75555615 Ry
     estimated scf accuracy    <       0.00000020 Ry

     total magnetization       =    16.24 Bohr mag/cell
     absolute magnetization    =    21.36 Bohr mag/cell

     iteration # 21     ecut=    60.00 Ry     beta= 0.30
     Davidson diagonalization with overlap
     ethr =  3.53E-11,  avg # of iterations =  4.9

     negative rho (up, down):  0.000E+00 9.652E-05

     total cpu time spent up to now is    11073.8 secs

     total energy              =   -4700.75555623 Ry
     estimated scf accuracy    <       0.00000008 Ry

     total magnetization       =    16.24 Bohr mag/cell
     absolute magnetization    =    21.37 Bohr mag/cell

     iteration # 22     ecut=    60.00 Ry     beta= 0.30
     Davidson diagonalization with overlap
     ethr =  3.42E-11,  avg # of iterations =  5.8

     negative rho (up, down):  0.000E+00 9.653E-05

     total cpu time spent up to now is    11128.1 secs

     total energy              =   -4700.75555634 Ry
     estimated scf accuracy    <       0.00000013 Ry

     total magnetization       =    16.24 Bohr mag/cell
     absolute magnetization    =    21.37 Bohr mag/cell

     iteration # 23     ecut=    60.00 Ry     beta= 0.30
     Davidson diagonalization with overlap
     ethr =  3.42E-11,  avg # of iterations =  4.0

     negative rho (up, down):  0.000E+00 9.652E-05

     total cpu time spent up to now is    11171.4 secs

     total energy              =   -4700.75555637 Ry
     estimated scf accuracy    <       0.00000011 Ry

     total magnetization       =    16.24 Bohr mag/cell
     absolute magnetization    =    21.37 Bohr mag/cell

     iteration # 24     ecut=    60.00 Ry     beta= 0.30
     Davidson diagonalization with overlap
     ethr =  3.42E-11,  avg # of iterations =  7.0

     negative rho (up, down):  0.000E+00 9.654E-05

     total cpu time spent up to now is    11233.0 secs

     total energy              =   -4700.75555642 Ry
     estimated scf accuracy    <       0.00000039 Ry

     total magnetization       =    16.24 Bohr mag/cell
     absolute magnetization    =    21.38 Bohr mag/cell

     iteration # 25     ecut=    60.00 Ry     beta= 0.30
     Davidson diagonalization with overlap
     ethr =  3.42E-11,  avg # of iterations =  5.5

     negative rho (up, down):  0.000E+00 9.654E-05

     total cpu time spent up to now is    11280.5 secs

     total energy              =   -4700.75555647 Ry
     estimated scf accuracy    <       0.00000028 Ry

     total magnetization       =    16.24 Bohr mag/cell
     absolute magnetization    =    21.38 Bohr mag/cell

     iteration # 26     ecut=    60.00 Ry     beta= 0.30
     Davidson diagonalization with overlap
     ethr =  3.42E-11,  avg # of iterations =  4.7

     negative rho (up, down):  0.000E+00 9.657E-05

     total cpu time spent up to now is    11327.6 secs

     total energy              =   -4700.75555635 Ry
     estimated scf accuracy    <       0.00000036 Ry

     total magnetization       =    16.24 Bohr mag/cell
     absolute magnetization    =    21.38 Bohr mag/cell

     iteration # 27     ecut=    60.00 Ry     beta= 0.30
     Davidson diagonalization with overlap
     ethr =  3.42E-11,  avg # of iterations =  7.4

     negative rho (up, down):  0.000E+00 9.659E-05

     total cpu time spent up to now is    11394.1 secs

     total energy              =   -4700.75555666 Ry
     estimated scf accuracy    <       0.00000006 Ry

     total magnetization       =    16.23 Bohr mag/cell
     absolute magnetization    =    21.39 Bohr mag/cell

     iteration # 28     ecut=    60.00 Ry     beta= 0.30
     Davidson diagonalization with overlap
     ethr =  2.31E-11,  avg # of iterations =  5.2

     negative rho (up, down):  0.000E+00 9.661E-05

     total cpu time spent up to now is    11443.0 secs

     total energy              =   -4700.75555670 Ry
     estimated scf accuracy    <       0.00000006 Ry

     total magnetization       =    16.23 Bohr mag/cell
     absolute magnetization    =    21.39 Bohr mag/cell

     iteration # 29     ecut=    60.00 Ry     beta= 0.30
     Davidson diagonalization with overlap
     ethr =  2.31E-11,  avg # of iterations =  5.2

     negative rho (up, down):  0.000E+00 9.668E-05

     total cpu time spent up to now is    11494.1 secs

     total energy              =   -4700.75555671 Ry
     estimated scf accuracy    <       0.00000003 Ry

     total magnetization       =    16.23 Bohr mag/cell
     absolute magnetization    =    21.39 Bohr mag/cell

     iteration # 30     ecut=    60.00 Ry     beta= 0.30
     Davidson diagonalization with overlap
     ethr =  1.30E-11,  avg # of iterations =  7.1

     negative rho (up, down):  0.000E+00 9.668E-05

     total cpu time spent up to now is    11558.4 secs

     total energy              =   -4700.75555678 Ry
     estimated scf accuracy    <       0.00000004 Ry

     total magnetization       =    16.23 Bohr mag/cell
     absolute magnetization    =    21.40 Bohr mag/cell

     iteration # 31     ecut=    60.00 Ry     beta= 0.30
     Davidson diagonalization with overlap
     ethr =  1.30E-11,  avg # of iterations =  5.4

     negative rho (up, down):  0.000E+00 9.671E-05

     total cpu time spent up to now is    11607.4 secs

     total energy              =   -4700.75555679 Ry
     estimated scf accuracy    <       0.00000007 Ry

     total magnetization       =    16.23 Bohr mag/cell
     absolute magnetization    =    21.40 Bohr mag/cell

     iteration # 32     ecut=    60.00 Ry     beta= 0.30
     Davidson diagonalization with overlap
     ethr =  1.30E-11,  avg # of iterations =  2.9

     negative rho (up, down):  0.000E+00 9.671E-05

     total cpu time spent up to now is    11647.7 secs

     total energy              =   -4700.75555680 Ry
     estimated scf accuracy    <       0.00000004 Ry

     total magnetization       =    16.23 Bohr mag/cell
     absolute magnetization    =    21.40 Bohr mag/cell

     iteration # 33     ecut=    60.00 Ry     beta= 0.30
     Davidson diagonalization with overlap
     ethr =  1.30E-11,  avg # of iterations =  4.6

     negative rho (up, down):  0.000E+00 9.674E-05

     total cpu time spent up to now is    11695.8 secs

     total energy              =   -4700.75555682 Ry
     estimated scf accuracy    <       0.00000008 Ry

     total magnetization       =    16.23 Bohr mag/cell
     absolute magnetization    =    21.40 Bohr mag/cell

     iteration # 34     ecut=    60.00 Ry     beta= 0.30
     Davidson diagonalization with overlap
     ethr =  1.30E-11,  avg # of iterations =  5.1

     negative rho (up, down):  0.000E+00 9.681E-05

     total cpu time spent up to now is    11745.5 secs

     total energy              =   -4700.75555683 Ry
     estimated scf accuracy    <       0.00000002 Ry

     total magnetization       =    16.23 Bohr mag/cell
     absolute magnetization    =    21.40 Bohr mag/cell

     iteration # 35     ecut=    60.00 Ry     beta= 0.30
     Davidson diagonalization with overlap
     ethr =  7.73E-12,  avg # of iterations =  6.2

     negative rho (up, down):  0.000E+00 9.685E-05

     total cpu time spent up to now is    11806.0 secs

     total energy              =   -4700.75555686 Ry
     estimated scf accuracy    <       0.00000002 Ry

     total magnetization       =    16.23 Bohr mag/cell
     absolute magnetization    =    21.41 Bohr mag/cell

     iteration # 36     ecut=    60.00 Ry     beta= 0.30
     Davidson diagonalization with overlap
     ethr =  7.73E-12,  avg # of iterations =  5.3

     negative rho (up, down):  0.000E+00 9.682E-05

     total cpu time spent up to now is    11854.4 secs

     total energy              =   -4700.75555686 Ry
     estimated scf accuracy    <       0.00000003 Ry

     total magnetization       =    16.23 Bohr mag/cell
     absolute magnetization    =    21.41 Bohr mag/cell

     iteration # 37     ecut=    60.00 Ry     beta= 0.30
     Davidson diagonalization with overlap
     ethr =  7.73E-12,  avg # of iterations =  4.1

     negative rho (up, down):  0.000E+00 9.706E-05

     total cpu time spent up to now is    11897.4 secs

     total energy              =   -4700.75555653 Ry
     estimated scf accuracy    <       0.00000003 Ry

     total magnetization       =    16.23 Bohr mag/cell
     absolute magnetization    =    21.41 Bohr mag/cell

     iteration # 38     ecut=    60.00 Ry     beta= 0.30
     Davidson diagonalization with overlap
     ethr =  7.73E-12,  avg # of iterations = 11.2

     negative rho (up, down):  0.000E+00 9.706E-05

     total cpu time spent up to now is    11985.7 secs

     total energy              =   -4700.75555691 Ry
     estimated scf accuracy    <       0.00000004 Ry

     total magnetization       =    16.23 Bohr mag/cell
     absolute magnetization    =    21.42 Bohr mag/cell

     iteration # 39     ecut=    60.00 Ry     beta= 0.30
     Davidson diagonalization with overlap
     ethr =  7.73E-12,  avg # of iterations =  5.4

     negative rho (up, down):  0.000E+00 9.702E-05

     total cpu time spent up to now is    12034.8 secs

     total energy              =   -4700.75555688 Ry
     estimated scf accuracy    <       0.00000002 Ry

     total magnetization       =    16.23 Bohr mag/cell
     absolute magnetization    =    21.42 Bohr mag/cell

     iteration # 40     ecut=    60.00 Ry     beta= 0.30
     Davidson diagonalization with overlap
     ethr =  6.25E-12,  avg # of iterations =  6.1

     negative rho (up, down):  0.000E+00 9.713E-05

     total cpu time spent up to now is    12094.1 secs

     total energy              =   -4700.75555683 Ry
     estimated scf accuracy    <       0.00000006 Ry

     total magnetization       =    16.23 Bohr mag/cell
     absolute magnetization    =    21.42 Bohr mag/cell

     iteration # 41     ecut=    60.00 Ry     beta= 0.30
     Davidson diagonalization with overlap
     ethr =  6.25E-12,  avg # of iterations =  8.1

     negative rho (up, down):  0.000E+00 9.712E-05

     total cpu time spent up to now is    12165.8 secs

     total energy              =   -4700.75555692 Ry
     estimated scf accuracy    <          4.1E-09 Ry

     total magnetization       =    16.23 Bohr mag/cell
     absolute magnetization    =    21.42 Bohr mag/cell

     iteration # 42     ecut=    60.00 Ry     beta= 0.30
     Davidson diagonalization with overlap
     ethr =  1.68E-12,  avg # of iterations =  2.2

     negative rho (up, down):  0.000E+00 9.714E-05

     total cpu time spent up to now is    12203.5 secs

     total energy              =   -4700.75555691 Ry
     estimated scf accuracy    <          3.1E-09 Ry

     total magnetization       =    16.23 Bohr mag/cell
     absolute magnetization    =    21.42 Bohr mag/cell

     iteration # 43     ecut=    60.00 Ry     beta= 0.30
     Davidson diagonalization with overlap
     ethr =  1.27E-12,  avg # of iterations =  5.5

     negative rho (up, down):  0.000E+00 9.716E-05

     total cpu time spent up to now is    12256.3 secs

     total energy              =   -4700.75555691 Ry
     estimated scf accuracy    <          2.7E-09 Ry

     total magnetization       =    16.23 Bohr mag/cell
     absolute magnetization    =    21.42 Bohr mag/cell

     iteration # 44     ecut=    60.00 Ry     beta= 0.30
     Davidson diagonalization with overlap
     ethr =  1.11E-12,  avg # of iterations =  5.1

     negative rho (up, down):  0.000E+00 9.715E-05

     total cpu time spent up to now is    12306.8 secs

     total energy              =   -4700.75555692 Ry
     estimated scf accuracy    <          4.6E-09 Ry

     total magnetization       =    16.23 Bohr mag/cell
     absolute magnetization    =    21.42 Bohr mag/cell

     iteration # 45     ecut=    60.00 Ry     beta= 0.30
     Davidson diagonalization with overlap
     ethr =  1.11E-12,  avg # of iterations =  3.2

     negative rho (up, down):  0.000E+00 9.714E-05

     total cpu time spent up to now is    12347.6 secs

     total energy              =   -4700.75555692 Ry
     estimated scf accuracy    <          1.3E-09 Ry

     total magnetization       =    16.23 Bohr mag/cell
     absolute magnetization    =    21.42 Bohr mag/cell

     iteration # 46     ecut=    60.00 Ry     beta= 0.30
     Davidson diagonalization with overlap
     ethr =  5.43E-13,  avg # of iterations =  5.8

     negative rho (up, down):  0.000E+00 9.715E-05

     total cpu time spent up to now is    12405.0 secs

     total energy              =   -4700.75555692 Ry
     estimated scf accuracy    <          1.9E-09 Ry

     total magnetization       =    16.23 Bohr mag/cell
     absolute magnetization    =    21.42 Bohr mag/cell

     iteration # 47     ecut=    60.00 Ry     beta= 0.30
     Davidson diagonalization with overlap
     ethr =  5.43E-13,  avg # of iterations =  5.3

     negative rho (up, down):  0.000E+00 9.714E-05

     total cpu time spent up to now is    12457.7 secs

     total energy              =   -4700.75555692 Ry
     estimated scf accuracy    <          3.6E-09 Ry

     total magnetization       =    16.23 Bohr mag/cell
     absolute magnetization    =    21.42 Bohr mag/cell

     iteration # 48     ecut=    60.00 Ry     beta= 0.30
     Davidson diagonalization with overlap
     ethr =  5.43E-13,  avg # of iterations =  3.2

     negative rho (up, down):  0.000E+00 9.715E-05

     total cpu time spent up to now is    12498.4 secs

     total energy              =   -4700.75555692 Ry
     estimated scf accuracy    <          1.3E-09 Ry

     total magnetization       =    16.23 Bohr mag/cell
     absolute magnetization    =    21.42 Bohr mag/cell

     iteration # 49     ecut=    60.00 Ry     beta= 0.30
     Davidson diagonalization with overlap
     ethr =  5.19E-13,  avg # of iterations =  3.4

     negative rho (up, down):  0.000E+00 9.714E-05
 
     Magnetic moment per site  (integrated on atomic sphere of radius R)
     atom   1 (R=0.179)  charge= 12.1357  magn= -0.3518
     atom   2 (R=0.179)  charge= 14.4303  magn=  1.9241
     atom   3 (R=0.179)  charge= 14.4098  magn=  2.0523
     atom   4 (R=0.179)  charge= 12.1645  magn=  0.3794
     atom   5 (R=0.179)  charge= 12.1405  magn= -0.0556
     atom   6 (R=0.179)  charge= 14.4306  magn=  1.9071
     atom   7 (R=0.179)  charge= 12.1357  magn= -0.3518
     atom   8 (R=0.179)  charge= 14.4303  magn=  1.9241
     atom   9 (R=0.179)  charge= 12.1225  magn= -0.5227
     atom  10 (R=0.179)  charge= 14.4303  magn=  1.9241
     atom  11 (R=0.179)  charge= 14.4059  magn=  2.2589
     atom  12 (R=0.179)  charge= 14.4306  magn=  1.9071
     atom  13 (R=0.179)  charge= 14.4129  magn=  1.9460
     atom  14 (R=0.179)  charge= 12.1645  magn=  0.3794
     atom  15 (R=0.179)  charge= 12.1225  magn= -0.5227
     atom  16 (R=0.179)  charge= 14.4303  magn=  1.9241

     total cpu time spent up to now is    12540.1 secs

     End of self-consistent calculation

     Number of k-points >= 100: set verbosity='high' to print the bands.

     the Fermi energy is    19.2635 ev

!    total energy              =   -4700.75555692 Ry
     total all-electron energy =    -37622.153104 Ry
     estimated scf accuracy    <          4.4E-10 Ry
     smearing contrib. (-TS)   =      -0.00304737 Ry
     internal energy E=F+TS    =   -4700.75250955 Ry

     The total energy is F=E-TS. E is the sum of the following terms:
     one-electron contribution =   -1376.76431241 Ry
     hartree contribution      =     841.39248986 Ry
     xc contribution           =    -405.55114849 Ry
     ewald contribution        =   -2494.96410291 Ry
     one-center paw contrib.   =   -1264.86543561 Ry

     total magnetization       =    16.23 Bohr mag/cell
     absolute magnetization    =    21.42 Bohr mag/cell

     convergence has been achieved in  49 iterations

     negative rho (up, down):  0.000E+00 9.714E-05

     Forces acting on atoms (cartesian axes, Ry/au):

     atom    1 type  2   force =     0.00000000    0.00000000    0.00000000
     atom    2 type  1   force =     0.00006598   -0.00001260    0.00062137
     atom    3 type  1   force =     0.00000000    0.00000000    0.00000000
     atom    4 type  2   force =    -0.00228953    0.00053977    0.00053977
     atom    5 type  2   force =     0.00000000    0.00000000    0.00000000
     atom    6 type  1   force =     0.00189883    0.00047538    0.00047538
     atom    7 type  2   force =     0.00000000    0.00000000    0.00000000
     atom    8 type  1   force =     0.00006598    0.00062137   -0.00001260
     atom    9 type  2   force =     0.00000000    0.00000000    0.00000000
     atom   10 type  1   force =    -0.00006598   -0.00062137    0.00001260
     atom   11 type  1   force =     0.00000000    0.00000000    0.00000000
     atom   12 type  1   force =    -0.00189883   -0.00047538   -0.00047538
     atom   13 type  1   force =     0.00000000    0.00000000    0.00000000
     atom   14 type  2   force =     0.00228953   -0.00053977   -0.00053977
     atom   15 type  2   force =     0.00000000    0.00000000    0.00000000
     atom   16 type  1   force =    -0.00006598    0.00001260   -0.00062137

     Total force =     0.004618     Total SCF correction =     0.000065


     Computing stress (Cartesian axis) and pressure


     negative rho (up, down):  0.000E+00 9.714E-05
          total   stress  (Ry/bohr**3)                   (kbar)     P=       -0.42
   0.00001176  -0.00000786  -0.00000786            1.73       -1.16       -1.16
  -0.00000786  -0.00001012  -0.00001422           -1.16       -1.49       -2.09
  -0.00000786  -0.00001422  -0.00001012           -1.16       -2.09       -1.49

     Energy error            =      1.2E-04 Ry
     Gradient error          =      2.3E-03 Ry/Bohr
     Cell gradient error     =      2.1E+00 kbar

     number of scf cycles    =   4
     number of bfgs steps    =   3

     enthalpy           old  =   -4700.7554396948 Ry
     enthalpy           new  =   -4700.7555569176 Ry

     CASE: enthalpy          _new < enthalpy          _old

     new trust radius        =       0.0092345345 bohr
     new conv_thr            =       0.0000000001 Ry

     new unit-cell volume =   1223.79158 a.u.^3 (   181.34720 Ang^3 )
     density =      7.93497 g/cm^3

CELL_PARAMETERS (angstrom)
   5.703333465   0.022234580   0.022234580
   0.022150341   5.639064826   0.037167355
   0.022150341   0.037167355   5.639064826

ATOMIC_POSITIONS (crystal)
Cr               0.0000000000        0.0000000000        0.0000000000
Fe               0.2501002631        0.2499016053        0.2500917306
Fe              -0.0000000000       -0.0000000000        0.5000000000
Cr               0.2460064303        0.2514128282        0.7514128282
Cr               0.0000000000        0.5000000000       -0.0000000000
Fe               0.2517110203        0.7507830579        0.2507830579
Cr               0.0000000000        0.5000000000        0.5000000000
Fe               0.2501002631        0.7500917306        0.7499016053
Cr               0.5000000000       -0.0000000000       -0.0000000000
Fe               0.7498997369        0.2499082694        0.2500983947
Fe               0.5000000000       -0.0000000000        0.5000000000
Fe               0.7482889797        0.2492169421        0.7492169421
Fe               0.5000000000        0.5000000000       -0.0000000000
Cr               0.7539935697        0.7485871718        0.2485871718
Cr               0.5000000000        0.5000000000        0.5000000000
Fe               0.7498997369        0.7500983947        0.7499082694



     Writing config-only to output data dir ./tmp/fecr_fe09cr07_vcr.save/ :
     XML data file
     NEW-OLD atomic charge density approx. for the potential

     Check: negative core charge=   -0.000003

     negative rho (up, down):  0.000E+00 1.071E-04
     Generating pointlists ...

     total cpu time spent up to now is    12609.0 secs

     Self-consistent Calculation

     iteration #  1     ecut=    60.00 Ry     beta= 0.30
     Davidson diagonalization with overlap
     ethr =  1.00E-06,  avg # of iterations =  7.1

     Threshold (ethr) on eigenvalues was too large:
     Diagonalizing with lowered threshold

     Davidson diagonalization with overlap
     ethr =  4.91E-08,  avg # of iterations =  4.9

     negative rho (up, down):  0.000E+00 1.080E-04

     total cpu time spent up to now is    12721.6 secs

     total energy              =   -4700.75547696 Ry
     estimated scf accuracy    <       0.00012897 Ry

     total magnetization       =    16.22 Bohr mag/cell
     absolute magnetization    =    21.43 Bohr mag/cell

     iteration #  2     ecut=    60.00 Ry     beta= 0.30
     Davidson diagonalization with overlap
     ethr =  5.33E-08,  avg # of iterations =  6.4

     negative rho (up, down):  0.000E+00 1.082E-04

     total cpu time spent up to now is    12779.9 secs

     total energy              =   -4700.75538407 Ry
     estimated scf accuracy    <       0.00377993 Ry

     total magnetization       =    16.22 Bohr mag/cell
     absolute magnetization    =    21.41 Bohr mag/cell

     iteration #  3     ecut=    60.00 Ry     beta= 0.30
     Davidson diagonalization with overlap
     ethr =  5.33E-08,  avg # of iterations =  5.8

     negative rho (up, down):  0.000E+00 1.085E-04

     total cpu time spent up to now is    12834.3 secs

     total energy              =   -4700.75556943 Ry
     estimated scf accuracy    <       0.00002558 Ry

     total magnetization       =    16.22 Bohr mag/cell
     absolute magnetization    =    21.43 Bohr mag/cell

     iteration #  4     ecut=    60.00 Ry     beta= 0.30
     Davidson diagonalization with overlap
     ethr =  1.06E-08,  avg # of iterations =  5.5

     negative rho (up, down):  0.000E+00 1.088E-04

     total cpu time spent up to now is    12885.4 secs

     total energy              =   -4700.75558762 Ry
     estimated scf accuracy    <       0.00025088 Ry

     total magnetization       =    16.22 Bohr mag/cell
     absolute magnetization    =    21.44 Bohr mag/cell

     iteration #  5     ecut=    60.00 Ry     beta= 0.30
     Davidson diagonalization with overlap
     ethr =  1.06E-08,  avg # of iterations =  4.9

     negative rho (up, down):  0.000E+00 1.088E-04

     total cpu time spent up to now is    12932.1 secs

     total energy              =   -4700.75560149 Ry
     estimated scf accuracy    <       0.00001046 Ry

     total magnetization       =    16.22 Bohr mag/cell
     absolute magnetization    =    21.43 Bohr mag/cell

     iteration #  6     ecut=    60.00 Ry     beta= 0.30
     Davidson diagonalization with overlap
     ethr =  4.32E-09,  avg # of iterations =  3.7

     negative rho (up, down):  0.000E+00 1.086E-04

     total cpu time spent up to now is    12973.9 secs

     total energy              =   -4700.75562132 Ry
     estimated scf accuracy    <       0.00000549 Ry

     total magnetization       =    16.22 Bohr mag/cell
     absolute magnetization    =    21.43 Bohr mag/cell

     iteration #  7     ecut=    60.00 Ry     beta= 0.30
     Davidson diagonalization with overlap
     ethr =  2.27E-09,  avg # of iterations =  4.9

     negative rho (up, down):  0.000E+00 1.085E-04

     total cpu time spent up to now is    13023.2 secs

     total energy              =   -4700.75562499 Ry
     estimated scf accuracy    <       0.00000984 Ry

     total magnetization       =    16.22 Bohr mag/cell
     absolute magnetization    =    21.43 Bohr mag/cell

     iteration #  8     ecut=    60.00 Ry     beta= 0.30
     Davidson diagonalization with overlap
     ethr =  2.27E-09,  avg # of iterations =  1.5

     negative rho (up, down):  0.000E+00 1.083E-04

     total cpu time spent up to now is    13058.6 secs

     total energy              =   -4700.75562825 Ry
     estimated scf accuracy    <       0.00000381 Ry

     total magnetization       =    16.22 Bohr mag/cell
     absolute magnetization    =    21.43 Bohr mag/cell

     iteration #  9     ecut=    60.00 Ry     beta= 0.30
     Davidson diagonalization with overlap
     ethr =  1.58E-09,  avg # of iterations =  2.4

     negative rho (up, down):  0.000E+00 1.082E-04

     total cpu time spent up to now is    13099.5 secs

     total energy              =   -4700.75562880 Ry
     estimated scf accuracy    <       0.00000423 Ry

     total magnetization       =    16.22 Bohr mag/cell
     absolute magnetization    =    21.43 Bohr mag/cell

     iteration # 10     ecut=    60.00 Ry     beta= 0.30
     Davidson diagonalization with overlap
     ethr =  1.58E-09,  avg # of iterations =  1.6

     negative rho (up, down):  0.000E+00 1.082E-04

     total cpu time spent up to now is    13135.0 secs

     total energy              =   -4700.75562901 Ry
     estimated scf accuracy    <       0.00000125 Ry

     total magnetization       =    16.22 Bohr mag/cell
     absolute magnetization    =    21.43 Bohr mag/cell

     iteration # 11     ecut=    60.00 Ry     beta= 0.30
     Davidson diagonalization with overlap
     ethr =  5.16E-10,  avg # of iterations =  2.8

     negative rho (up, down):  0.000E+00 1.082E-04

     total cpu time spent up to now is    13175.0 secs

     total energy              =   -4700.75562899 Ry
     estimated scf accuracy    <       0.00000090 Ry

     total magnetization       =    16.22 Bohr mag/cell
     absolute magnetization    =    21.44 Bohr mag/cell

     iteration # 12     ecut=    60.00 Ry     beta= 0.30
     Davidson diagonalization with overlap
     ethr =  3.71E-10,  avg # of iterations =  2.5

     negative rho (up, down):  0.000E+00 1.082E-04

     total cpu time spent up to now is    13213.9 secs

     total energy              =   -4700.75562908 Ry
     estimated scf accuracy    <       0.00000058 Ry

     total magnetization       =    16.21 Bohr mag/cell
     absolute magnetization    =    21.44 Bohr mag/cell

     iteration # 13     ecut=    60.00 Ry     beta= 0.30
     Davidson diagonalization with overlap
     ethr =  2.41E-10,  avg # of iterations =  2.8

     negative rho (up, down):  0.000E+00 1.082E-04

     total cpu time spent up to now is    13253.3 secs

     total energy              =   -4700.75562917 Ry
     estimated scf accuracy    <       0.00000013 Ry

     total magnetization       =    16.21 Bohr mag/cell
     absolute magnetization    =    21.44 Bohr mag/cell

     iteration # 14     ecut=    60.00 Ry     beta= 0.30
     Davidson diagonalization with overlap
     ethr =  5.30E-11,  avg # of iterations =  6.2

     negative rho (up, down):  0.000E+00 1.082E-04

     total cpu time spent up to now is    13305.5 secs

     total energy              =   -4700.75562914 Ry
     estimated scf accuracy    <       0.00000039 Ry

     total magnetization       =    16.21 Bohr mag/cell
     absolute magnetization    =    21.44 Bohr mag/cell

     iteration # 15     ecut=    60.00 Ry     beta= 0.30
     Davidson diagonalization with overlap
     ethr =  5.30E-11,  avg # of iterations =  1.7

     negative rho (up, down):  0.000E+00 1.082E-04

     total cpu time spent up to now is    13342.0 secs

     total energy              =   -4700.75562919 Ry
     estimated scf accuracy    <       0.00000010 Ry

     total magnetization       =    16.21 Bohr mag/cell
     absolute magnetization    =    21.44 Bohr mag/cell

     iteration # 16     ecut=    60.00 Ry     beta= 0.30
     Davidson diagonalization with overlap
     ethr =  4.14E-11,  avg # of iterations =  1.4

     negative rho (up, down):  0.000E+00 1.082E-04

     total cpu time spent up to now is    13376.8 secs

     total energy              =   -4700.75562924 Ry
     estimated scf accuracy    <       0.00000007 Ry

     total magnetization       =    16.21 Bohr mag/cell
     absolute magnetization    =    21.44 Bohr mag/cell

     iteration # 17     ecut=    60.00 Ry     beta= 0.30
     Davidson diagonalization with overlap
     ethr =  2.93E-11,  avg # of iterations =  2.2

     negative rho (up, down):  0.000E+00 1.082E-04

     total cpu time spent up to now is    13415.0 secs

     total energy              =   -4700.75562926 Ry
     estimated scf accuracy    <       0.00000009 Ry

     total magnetization       =    16.21 Bohr mag/cell
     absolute magnetization    =    21.44 Bohr mag/cell

     iteration # 18     ecut=    60.00 Ry     beta= 0.30
     Davidson diagonalization with overlap
     ethr =  2.93E-11,  avg # of iterations =  4.0

     negative rho (up, down):  0.000E+00 1.082E-04

     total cpu time spent up to now is    13458.1 secs

     total energy              =   -4700.75562931 Ry
     estimated scf accuracy    <       0.00000006 Ry

     total magnetization       =    16.21 Bohr mag/cell
     absolute magnetization    =    21.44 Bohr mag/cell

     iteration # 19     ecut=    60.00 Ry     beta= 0.30
     Davidson diagonalization with overlap
     ethr =  2.55E-11,  avg # of iterations =  5.5

     negative rho (up, down):  0.000E+00 1.082E-04

     total cpu time spent up to now is    13507.6 secs

     total energy              =   -4700.75562933 Ry
     estimated scf accuracy    <       0.00000019 Ry

     total magnetization       =    16.21 Bohr mag/cell
     absolute magnetization    =    21.44 Bohr mag/cell

     iteration # 20     ecut=    60.00 Ry     beta= 0.30
     Davidson diagonalization with overlap
     ethr =  2.55E-11,  avg # of iterations =  2.3

     negative rho (up, down):  0.000E+00 1.083E-04

     total cpu time spent up to now is    13546.1 secs

     total energy              =   -4700.75562934 Ry
     estimated scf accuracy    <       0.00000019 Ry

     total magnetization       =    16.21 Bohr mag/cell
     absolute magnetization    =    21.44 Bohr mag/cell

     iteration # 21     ecut=    60.00 Ry     beta= 0.30
     Davidson diagonalization with overlap
     ethr =  2.55E-11,  avg # of iterations =  5.9

     negative rho (up, down):  0.000E+00 1.083E-04

     total cpu time spent up to now is    13604.1 secs

     total energy              =   -4700.75562940 Ry
     estimated scf accuracy    <       0.00000009 Ry

     total magnetization       =    16.21 Bohr mag/cell
     absolute magnetization    =    21.45 Bohr mag/cell

     iteration # 22     ecut=    60.00 Ry     beta= 0.30
     Davidson diagonalization with overlap
     ethr =  2.55E-11,  avg # of iterations =  4.3

     negative rho (up, down):  0.000E+00 1.083E-04

     total cpu time spent up to now is    13648.0 secs

     total energy              =   -4700.75562942 Ry
     estimated scf accuracy    <       0.00000026 Ry

     total magnetization       =    16.21 Bohr mag/cell
     absolute magnetization    =    21.45 Bohr mag/cell

     iteration # 23     ecut=    60.00 Ry     beta= 0.30
     Davidson diagonalization with overlap
     ethr =  2.55E-11,  avg # of iterations =  3.6

     negative rho (up, down):  0.000E+00 1.083E-04

     total cpu time spent up to now is    13689.1 secs

     total energy              =   -4700.75562945 Ry
     estimated scf accuracy    <       0.00000004 Ry

     total magnetization       =    16.21 Bohr mag/cell
     absolute magnetization    =    21.45 Bohr mag/cell

     iteration # 24     ecut=    60.00 Ry     beta= 0.30
     Davidson diagonalization with overlap
     ethr =  1.82E-11,  avg # of iterations =  4.9

     negative rho (up, down):  0.000E+00 1.083E-04

     total cpu time spent up to now is    13735.0 secs

     total energy              =   -4700.75562948 Ry
     estimated scf accuracy    <       0.00000005 Ry

     total magnetization       =    16.21 Bohr mag/cell
     absolute magnetization    =    21.45 Bohr mag/cell

     iteration # 25     ecut=    60.00 Ry     beta= 0.30
     Davidson diagonalization with overlap
     ethr =  1.82E-11,  avg # of iterations =  5.0

     negative rho (up, down):  0.000E+00 1.083E-04

     total cpu time spent up to now is    13781.7 secs

     total energy              =   -4700.75562949 Ry
     estimated scf accuracy    <       0.00000007 Ry

     total magnetization       =    16.21 Bohr mag/cell
     absolute magnetization    =    21.45 Bohr mag/cell

     iteration # 26     ecut=    60.00 Ry     beta= 0.30
     Davidson diagonalization with overlap
     ethr =  1.82E-11,  avg # of iterations =  5.4

     negative rho (up, down):  0.000E+00 1.084E-04

     total cpu time spent up to now is    13832.3 secs

     total energy              =   -4700.75562952 Ry
     estimated scf accuracy    <       0.00000004 Ry

     total magnetization       =    16.21 Bohr mag/cell
     absolute magnetization    =    21.45 Bohr mag/cell

     iteration # 27     ecut=    60.00 Ry     beta= 0.30
     Davidson diagonalization with overlap
     ethr =  1.58E-11,  avg # of iterations =  5.4

     negative rho (up, down):  0.000E+00 1.084E-04

     total cpu time spent up to now is    13887.6 secs

     total energy              =   -4700.75562956 Ry
     estimated scf accuracy    <       0.00000005 Ry

     total magnetization       =    16.21 Bohr mag/cell
     absolute magnetization    =    21.46 Bohr mag/cell

     iteration # 28     ecut=    60.00 Ry     beta= 0.30
     Davidson diagonalization with overlap
     ethr =  1.58E-11,  avg # of iterations =  3.5

     negative rho (up, down):  0.000E+00 1.084E-04

     total cpu time spent up to now is    13929.6 secs

     total energy              =   -4700.75562959 Ry
     estimated scf accuracy    <       0.00000002 Ry

     total magnetization       =    16.21 Bohr mag/cell
     absolute magnetization    =    21.46 Bohr mag/cell

     iteration # 29     ecut=    60.00 Ry     beta= 0.30
     Davidson diagonalization with overlap
     ethr =  8.35E-12,  avg # of iterations =  5.6

     negative rho (up, down):  0.000E+00 1.084E-04

     total cpu time spent up to now is    13981.3 secs

     total energy              =   -4700.75562957 Ry
     estimated scf accuracy    <       0.00000005 Ry

     total magnetization       =    16.21 Bohr mag/cell
     absolute magnetization    =    21.46 Bohr mag/cell

     iteration # 30     ecut=    60.00 Ry     beta= 0.30
     Davidson diagonalization with overlap
     ethr =  8.35E-12,  avg # of iterations =  4.7

     negative rho (up, down):  0.000E+00 1.084E-04

     total cpu time spent up to now is    14028.0 secs

     total energy              =   -4700.75562958 Ry
     estimated scf accuracy    <       0.00000006 Ry

     total magnetization       =    16.21 Bohr mag/cell
     absolute magnetization    =    21.46 Bohr mag/cell

     iteration # 31     ecut=    60.00 Ry     beta= 0.30
     Davidson diagonalization with overlap
     ethr =  8.35E-12,  avg # of iterations =  5.8

     negative rho (up, down):  0.000E+00 1.084E-04

     total cpu time spent up to now is    14085.8 secs

     total energy              =   -4700.75562963 Ry
     estimated scf accuracy    <       0.00000004 Ry

     total magnetization       =    16.21 Bohr mag/cell
     absolute magnetization    =    21.46 Bohr mag/cell

     iteration # 32     ecut=    60.00 Ry     beta= 0.30
     Davidson diagonalization with overlap
     ethr =  8.35E-12,  avg # of iterations =  3.4

     negative rho (up, down):  0.000E+00 1.084E-04

     total cpu time spent up to now is    14127.2 secs

     total energy              =   -4700.75562962 Ry
     estimated scf accuracy    <       0.00000008 Ry

     total magnetization       =    16.21 Bohr mag/cell
     absolute magnetization    =    21.46 Bohr mag/cell

     iteration # 33     ecut=    60.00 Ry     beta= 0.30
     Davidson diagonalization with overlap
     ethr =  8.35E-12,  avg # of iterations =  4.9

     negative rho (up, down):  0.000E+00 1.084E-04

     total cpu time spent up to now is    14175.2 secs

     total energy              =   -4700.75562963 Ry
     estimated scf accuracy    <       0.00000007 Ry

     total magnetization       =    16.21 Bohr mag/cell
     absolute magnetization    =    21.46 Bohr mag/cell

     iteration # 34     ecut=    60.00 Ry     beta= 0.30
     Davidson diagonalization with overlap
     ethr =  8.35E-12,  avg # of iterations =  3.6

     negative rho (up, down):  0.000E+00 1.085E-04

     total cpu time spent up to now is    14217.4 secs

     total energy              =   -4700.75562961 Ry
     estimated scf accuracy    <       0.00000003 Ry

     total magnetization       =    16.21 Bohr mag/cell
     absolute magnetization    =    21.46 Bohr mag/cell

     iteration # 35     ecut=    60.00 Ry     beta= 0.30
     Davidson diagonalization with overlap
     ethr =  8.35E-12,  avg # of iterations =  7.0

     negative rho (up, down):  0.000E+00 1.085E-04

     total cpu time spent up to now is    14280.9 secs

     total energy              =   -4700.75562967 Ry
     estimated scf accuracy    <       0.00000003 Ry

     total magnetization       =    16.21 Bohr mag/cell
     absolute magnetization    =    21.47 Bohr mag/cell

     iteration # 36     ecut=    60.00 Ry     beta= 0.30
     Davidson diagonalization with overlap
     ethr =  8.35E-12,  avg # of iterations =  5.4

     negative rho (up, down):  0.000E+00 1.086E-04

     total cpu time spent up to now is    14332.0 secs

     total energy              =   -4700.75562966 Ry
     estimated scf accuracy    <       0.00000001 Ry

     total magnetization       =    16.21 Bohr mag/cell
     absolute magnetization    =    21.47 Bohr mag/cell

     iteration # 37     ecut=    60.00 Ry     beta= 0.30
     Davidson diagonalization with overlap
     ethr =  5.46E-12,  avg # of iterations =  7.7

     negative rho (up, down):  0.000E+00 1.086E-04

     total cpu time spent up to now is    14399.2 secs

     total energy              =   -4700.75562970 Ry
     estimated scf accuracy    <       0.00000002 Ry

     total magnetization       =    16.21 Bohr mag/cell
     absolute magnetization    =    21.47 Bohr mag/cell

     iteration # 38     ecut=    60.00 Ry     beta= 0.30
     Davidson diagonalization with overlap
     ethr =  5.46E-12,  avg # of iterations =  5.7

     negative rho (up, down):  0.000E+00 1.086E-04

     total cpu time spent up to now is    14452.9 secs

     total energy              =   -4700.75562971 Ry
     estimated scf accuracy    <       0.00000002 Ry

     total magnetization       =    16.21 Bohr mag/cell
     absolute magnetization    =    21.47 Bohr mag/cell

     iteration # 39     ecut=    60.00 Ry     beta= 0.30
     Davidson diagonalization with overlap
     ethr =  5.46E-12,  avg # of iterations =  3.4

     negative rho (up, down):  0.000E+00 1.086E-04

     total cpu time spent up to now is    14494.3 secs

     total energy              =   -4700.75562972 Ry
     estimated scf accuracy    <       0.00000001 Ry

     total magnetization       =    16.21 Bohr mag/cell
     absolute magnetization    =    21.47 Bohr mag/cell

     iteration # 40     ecut=    60.00 Ry     beta= 0.30
     Davidson diagonalization with overlap
     ethr =  4.68E-12,  avg # of iterations =  5.6

     negative rho (up, down):  0.000E+00 1.086E-04

     total cpu time spent up to now is    14546.9 secs

     total energy              =   -4700.75562972 Ry
     estimated scf accuracy    <       0.00000002 Ry

     total magnetization       =    16.21 Bohr mag/cell
     absolute magnetization    =    21.48 Bohr mag/cell

     iteration # 41     ecut=    60.00 Ry     beta= 0.30
     Davidson diagonalization with overlap
     ethr =  4.68E-12,  avg # of iterations =  5.4

     negative rho (up, down):  0.000E+00 1.086E-04

     total cpu time spent up to now is    14596.6 secs

     total energy              =   -4700.75562972 Ry
     estimated scf accuracy    <       0.00000001 Ry

     total magnetization       =    16.21 Bohr mag/cell
     absolute magnetization    =    21.48 Bohr mag/cell

     iteration # 42     ecut=    60.00 Ry     beta= 0.30
     Davidson diagonalization with overlap
     ethr =  4.27E-12,  avg # of iterations =  5.7

     negative rho (up, down):  0.000E+00 1.086E-04

     total cpu time spent up to now is    14652.2 secs

     total energy              =   -4700.75562973 Ry
     estimated scf accuracy    <       0.00000002 Ry

     total magnetization       =    16.21 Bohr mag/cell
     absolute magnetization    =    21.48 Bohr mag/cell

     iteration # 43     ecut=    60.00 Ry     beta= 0.30
     Davidson diagonalization with overlap
     ethr =  4.27E-12,  avg # of iterations =  1.8

     negative rho (up, down):  0.000E+00 1.087E-04

     total cpu time spent up to now is    14688.4 secs

     total energy              =   -4700.75562973 Ry
     estimated scf accuracy    <          3.4E-09 Ry

     total magnetization       =    16.21 Bohr mag/cell
     absolute magnetization    =    21.48 Bohr mag/cell

     iteration # 44     ecut=    60.00 Ry     beta= 0.30
     Davidson diagonalization with overlap
     ethr =  1.39E-12,  avg # of iterations =  8.2

     negative rho (up, down):  0.000E+00 1.087E-04

     total cpu time spent up to now is    14760.4 secs

     total energy              =   -4700.75562974 Ry
     estimated scf accuracy    <          7.8E-09 Ry

     total magnetization       =    16.20 Bohr mag/cell
     absolute magnetization    =    21.48 Bohr mag/cell

     iteration # 45     ecut=    60.00 Ry     beta= 0.30
     Davidson diagonalization with overlap
     ethr =  1.39E-12,  avg # of iterations =  3.5

     negative rho (up, down):  0.000E+00 1.087E-04

     total cpu time spent up to now is    14803.1 secs

     total energy              =   -4700.75562974 Ry
     estimated scf accuracy    <          4.7E-09 Ry

     total magnetization       =    16.20 Bohr mag/cell
     absolute magnetization    =    21.48 Bohr mag/cell

     iteration # 46     ecut=    60.00 Ry     beta= 0.30
     Davidson diagonalization with overlap
     ethr =  1.39E-12,  avg # of iterations =  7.0

     negative rho (up, down):  0.000E+00 1.087E-04

     total cpu time spent up to now is    14863.8 secs

     total energy              =   -4700.75562974 Ry
     estimated scf accuracy    <          8.6E-09 Ry

     total magnetization       =    16.20 Bohr mag/cell
     absolute magnetization    =    21.48 Bohr mag/cell

     iteration # 47     ecut=    60.00 Ry     beta= 0.30
     Davidson diagonalization with overlap
     ethr =  1.39E-12,  avg # of iterations =  5.8

     negative rho (up, down):  0.000E+00 1.087E-04

     total cpu time spent up to now is    14920.2 secs

     total energy              =   -4700.75562974 Ry
     estimated scf accuracy    <       0.00000001 Ry

     total magnetization       =    16.20 Bohr mag/cell
     absolute magnetization    =    21.48 Bohr mag/cell

     iteration # 48     ecut=    60.00 Ry     beta= 0.30
     Davidson diagonalization with overlap
     ethr =  1.39E-12,  avg # of iterations =  7.2

     negative rho (up, down):  0.000E+00 1.087E-04

     total cpu time spent up to now is    14985.8 secs

     total energy              =   -4700.75562975 Ry
     estimated scf accuracy    <          2.6E-09 Ry

     total magnetization       =    16.20 Bohr mag/cell
     absolute magnetization    =    21.48 Bohr mag/cell

     iteration # 49     ecut=    60.00 Ry     beta= 0.30
     Davidson diagonalization with overlap
     ethr =  1.06E-12,  avg # of iterations =  2.2

     negative rho (up, down):  0.000E+00 1.087E-04

     total cpu time spent up to now is    15023.8 secs

     total energy              =   -4700.75562975 Ry
     estimated scf accuracy    <          1.9E-09 Ry

     total magnetization       =    16.20 Bohr mag/cell
     absolute magnetization    =    21.48 Bohr mag/cell

     iteration # 50     ecut=    60.00 Ry     beta= 0.30
     Davidson diagonalization with overlap
     ethr =  8.06E-13,  avg # of iterations =  4.1

     negative rho (up, down):  0.000E+00 1.087E-04

     total cpu time spent up to now is    15067.7 secs

     total energy              =   -4700.75562975 Ry
     estimated scf accuracy    <          1.2E-09 Ry

     total magnetization       =    16.20 Bohr mag/cell
     absolute magnetization    =    21.48 Bohr mag/cell

     iteration # 51     ecut=    60.00 Ry     beta= 0.30
     Davidson diagonalization with overlap
     ethr =  5.14E-13,  avg # of iterations =  4.5

     negative rho (up, down):  0.000E+00 1.087E-04

     total cpu time spent up to now is    15113.8 secs

     total energy              =   -4700.75562975 Ry
     estimated scf accuracy    <          1.3E-09 Ry

     total magnetization       =    16.20 Bohr mag/cell
     absolute magnetization    =    21.48 Bohr mag/cell

     iteration # 52     ecut=    60.00 Ry     beta= 0.30
     Davidson diagonalization with overlap
     ethr =  5.14E-13,  avg # of iterations =  2.3

     negative rho (up, down):  0.000E+00 1.087E-04

     total cpu time spent up to now is    15152.1 secs

     total energy              =   -4700.75562975 Ry
     estimated scf accuracy    <          1.9E-09 Ry

     total magnetization       =    16.20 Bohr mag/cell
     absolute magnetization    =    21.48 Bohr mag/cell

     iteration # 53     ecut=    60.00 Ry     beta= 0.30
     Davidson diagonalization with overlap
     ethr =  5.14E-13,  avg # of iterations =  2.7

     negative rho (up, down):  0.000E+00 1.087E-04

     total cpu time spent up to now is    15192.2 secs

     total energy              =   -4700.75562975 Ry
     estimated scf accuracy    <          7.1E-10 Ry

     total magnetization       =    16.20 Bohr mag/cell
     absolute magnetization    =    21.48 Bohr mag/cell

     iteration # 54     ecut=    60.00 Ry     beta= 0.30
     Davidson diagonalization with overlap
     ethr =  2.92E-13,  avg # of iterations =  5.9

     negative rho (up, down):  0.000E+00 1.087E-04

     total cpu time spent up to now is    15249.7 secs

     total energy              =   -4700.75562975 Ry
     estimated scf accuracy    <          2.1E-10 Ry

     total magnetization       =    16.20 Bohr mag/cell
     absolute magnetization    =    21.48 Bohr mag/cell

     iteration # 55     ecut=    60.00 Ry     beta= 0.30
     Davidson diagonalization with overlap
     ethr =  1.00E-13,  avg # of iterations =  1.2

     negative rho (up, down):  0.000E+00 1.087E-04

     total cpu time spent up to now is    15283.9 secs

     total energy              =   -4700.75562975 Ry
     estimated scf accuracy    <          3.1E-10 Ry

     total magnetization       =    16.20 Bohr mag/cell
     absolute magnetization    =    21.48 Bohr mag/cell

     iteration # 56     ecut=    60.00 Ry     beta= 0.30
     Davidson diagonalization with overlap
     ethr =  1.00E-13,  avg # of iterations =  8.8

     negative rho (up, down):  0.000E+00 1.087E-04

     total cpu time spent up to now is    15361.8 secs

     total energy              =   -4700.75562975 Ry
     estimated scf accuracy    <          1.5E-10 Ry

     total magnetization       =    16.20 Bohr mag/cell
     absolute magnetization    =    21.48 Bohr mag/cell

     iteration # 57     ecut=    60.00 Ry     beta= 0.30
     Davidson diagonalization with overlap
     ethr =  1.00E-13,  avg # of iterations =  3.8

     negative rho (up, down):  0.000E+00 1.087E-04

     total cpu time spent up to now is    15404.2 secs

     total energy              =   -4700.75562975 Ry
     estimated scf accuracy    <          1.9E-10 Ry

     total magnetization       =    16.20 Bohr mag/cell
     absolute magnetization    =    21.48 Bohr mag/cell

     iteration # 58     ecut=    60.00 Ry     beta= 0.30
     Davidson diagonalization with overlap
     ethr =  1.00E-13,  avg # of iterations =  5.8

     negative rho (up, down):  0.000E+00 1.087E-04

     total cpu time spent up to now is    15460.5 secs

     total energy              =   -4700.75562975 Ry
     estimated scf accuracy    <          9.5E-10 Ry

     total magnetization       =    16.20 Bohr mag/cell
     absolute magnetization    =    21.48 Bohr mag/cell

     iteration # 59     ecut=    60.00 Ry     beta= 0.30
     Davidson diagonalization with overlap
     ethr =  1.00E-13,  avg # of iterations =  6.0

     negative rho (up, down):  0.000E+00 1.087E-04

     total cpu time spent up to now is    15517.0 secs

     total energy              =   -4700.75562975 Ry
     estimated scf accuracy    <          3.1E-10 Ry

     total magnetization       =    16.20 Bohr mag/cell
     absolute magnetization    =    21.48 Bohr mag/cell

     iteration # 60     ecut=    60.00 Ry     beta= 0.30
     Davidson diagonalization with overlap
     ethr =  1.00E-13,  avg # of iterations =  5.0

     negative rho (up, down):  0.000E+00 1.087E-04
 
     Magnetic moment per site  (integrated on atomic sphere of radius R)
     atom   1 (R=0.179)  charge= 12.1361  magn= -0.3590
     atom   2 (R=0.179)  charge= 14.4303  magn=  1.9243
     atom   3 (R=0.179)  charge= 14.4105  magn=  2.0489
     atom   4 (R=0.179)  charge= 12.1649  magn=  0.3884
     atom   5 (R=0.179)  charge= 12.1413  magn= -0.0538
     atom   6 (R=0.179)  charge= 14.4306  magn=  1.9088
     atom   7 (R=0.179)  charge= 12.1361  magn= -0.3590
     atom   8 (R=0.179)  charge= 14.4303  magn=  1.9243
     atom   9 (R=0.179)  charge= 12.1219  magn= -0.5364
     atom  10 (R=0.179)  charge= 14.4303  magn=  1.9243
     atom  11 (R=0.179)  charge= 14.4059  magn=  2.2582
     atom  12 (R=0.179)  charge= 14.4306  magn=  1.9088
     atom  13 (R=0.179)  charge= 14.4127  magn=  1.9473
     atom  14 (R=0.179)  charge= 12.1649  magn=  0.3884
     atom  15 (R=0.179)  charge= 12.1219  magn= -0.5364
     atom  16 (R=0.179)  charge= 14.4303  magn=  1.9243

     total cpu time spent up to now is    15565.1 secs

     End of self-consistent calculation

     Number of k-points >= 100: set verbosity='high' to print the bands.

     the Fermi energy is    19.2656 ev

!    total energy              =   -4700.75562975 Ry
     total all-electron energy =    -37622.153177 Ry
     estimated scf accuracy    <          4.1E-11 Ry
     smearing contrib. (-TS)   =      -0.00309668 Ry
     internal energy E=F+TS    =   -4700.75253307 Ry

     The total energy is F=E-TS. E is the sum of the following terms:
     one-electron contribution =   -1376.71963105 Ry
     hartree contribution      =     841.38335305 Ry
     xc contribution           =    -405.55383443 Ry
     ewald contribution        =   -2494.99702154 Ry
     one-center paw contrib.   =   -1264.86539910 Ry

     total magnetization       =    16.20 Bohr mag/cell
     absolute magnetization    =    21.48 Bohr mag/cell

     convergence has been achieved in  60 iterations

     negative rho (up, down):  0.000E+00 1.087E-04

     Forces acting on atoms (cartesian axes, Ry/au):

     atom    1 type  2   force =     0.00000000    0.00000000    0.00000000
     atom    2 type  1   force =     0.00009204    0.00005875    0.00057349
     atom    3 type  1   force =     0.00000000    0.00000000    0.00000000
     atom    4 type  2   force =    -0.00089016    0.00008830    0.00008830
     atom    5 type  2   force =     0.00000000    0.00000000    0.00000000
     atom    6 type  1   force =     0.00121087    0.00019417    0.00019417
     atom    7 type  2   force =     0.00000000    0.00000000    0.00000000
     atom    8 type  1   force =     0.00009204    0.00057349    0.00005875
     atom    9 type  2   force =     0.00000000    0.00000000    0.00000000
     atom   10 type  1   force =    -0.00009204   -0.00057349   -0.00005875
     atom   11 type  1   force =     0.00000000    0.00000000    0.00000000
     atom   12 type  1   force =    -0.00121087   -0.00019417   -0.00019417
     atom   13 type  1   force =     0.00000000    0.00000000    0.00000000
     atom   14 type  2   force =     0.00089016   -0.00008830   -0.00008830
     atom   15 type  2   force =     0.00000000    0.00000000    0.00000000
     atom   16 type  1   force =    -0.00009204   -0.00005875   -0.00057349

     Total force =     0.002462     Total SCF correction =     0.000029


     Computing stress (Cartesian axis) and pressure


     negative rho (up, down):  0.000E+00 1.087E-04
          total   stress  (Ry/bohr**3)                   (kbar)     P=       -0.11
   0.00000297  -0.00000764  -0.00000764            0.44       -1.12       -1.12
  -0.00000764  -0.00000265  -0.00001285           -1.12       -0.39       -1.89
  -0.00000764  -0.00001285  -0.00000265           -1.12       -1.89       -0.39

     Energy error            =      7.3E-05 Ry
     Gradient error          =      1.2E-03 Ry/Bohr
     Cell gradient error     =      1.9E+00 kbar

     number of scf cycles    =   5
     number of bfgs steps    =   4

     enthalpy           old  =   -4700.7555569176 Ry
     enthalpy           new  =   -4700.7556297485 Ry

     CASE: enthalpy          _new < enthalpy          _old

     new trust radius        =       0.0059784039 bohr
     new conv_thr            =            1.0E-10 Ry

     new unit-cell volume =   1223.71769 a.u.^3 (   181.33625 Ang^3 )
     density =      7.93545 g/cm^3

CELL_PARAMETERS (angstrom)
   5.707624530   0.020687429   0.020687429
   0.020557913   5.636745101   0.034361674
   0.020557913   0.034361674   5.636745101

ATOMIC_POSITIONS (crystal)
Cr               0.0000000000        0.0000000000        0.0000000000
Fe               0.2501231120        0.2499053100        0.2502242838
Fe              -0.0000000000       -0.0000000000        0.5000000000
Cr               0.2455234180        0.2515294285        0.7515294285
Cr               0.0000000000        0.5000000000       -0.0000000000
Fe               0.2521079275        0.7508836159        0.2508836159
Cr               0.0000000000        0.5000000000        0.5000000000
Fe               0.2501231120        0.7502242838        0.7499053100
Cr               0.5000000000       -0.0000000000       -0.0000000000
Fe               0.7498768880        0.2497757162        0.2500946900
Fe               0.5000000000       -0.0000000000        0.5000000000
Fe               0.7478920725        0.2491163841        0.7491163841
Fe               0.5000000000        0.5000000000       -0.0000000000
Cr               0.7544765820        0.7484705715        0.2484705715
Cr               0.5000000000        0.5000000000        0.5000000000
Fe               0.7498768880        0.7500946900        0.7497757162



     Writing config-only to output data dir ./tmp/fecr_fe09cr07_vcr.save/ :
     XML data file
     NEW-OLD atomic charge density approx. for the potential

     Check: negative core charge=   -0.000003

     negative rho (up, down):  0.000E+00 1.147E-04
     Generating pointlists ...

     total cpu time spent up to now is    15634.7 secs

     Self-consistent Calculation

     iteration #  1     ecut=    60.00 Ry     beta= 0.30
     Davidson diagonalization with overlap
     ethr =  1.00E-06,  avg # of iterations =  6.2

     Threshold (ethr) on eigenvalues was too large:
     Diagonalizing with lowered threshold

     Davidson diagonalization with overlap
     ethr =  1.98E-08,  avg # of iterations =  4.9

     negative rho (up, down):  0.000E+00 1.152E-04

     total cpu time spent up to now is    15748.1 secs

     total energy              =   -4700.75559491 Ry
     estimated scf accuracy    <       0.00004949 Ry

     total magnetization       =    16.20 Bohr mag/cell
     absolute magnetization    =    21.48 Bohr mag/cell

     iteration #  2     ecut=    60.00 Ry     beta= 0.30
     Davidson diagonalization with overlap
     ethr =  2.04E-08,  avg # of iterations =  6.2

     negative rho (up, down):  0.000E+00 1.154E-04

     total cpu time spent up to now is    15803.9 secs

     total energy              =   -4700.75557223 Ry
     estimated scf accuracy    <       0.00093192 Ry

     total magnetization       =    16.20 Bohr mag/cell
     absolute magnetization    =    21.48 Bohr mag/cell

     iteration #  3     ecut=    60.00 Ry     beta= 0.30
     Davidson diagonalization with overlap
     ethr =  2.04E-08,  avg # of iterations =  5.8

     negative rho (up, down):  0.000E+00 1.158E-04

     total cpu time spent up to now is    15855.8 secs

     total energy              =   -4700.75562928 Ry
     estimated scf accuracy    <       0.00001972 Ry

     total magnetization       =    16.20 Bohr mag/cell
     absolute magnetization    =    21.48 Bohr mag/cell

     iteration #  4     ecut=    60.00 Ry     beta= 0.30
     Davidson diagonalization with overlap
     ethr =  8.15E-09,  avg # of iterations =  4.9

     negative rho (up, down):  0.000E+00 1.158E-04

     total cpu time spent up to now is    15904.2 secs

     total energy              =   -4700.75564027 Ry
     estimated scf accuracy    <       0.00011149 Ry

     total magnetization       =    16.19 Bohr mag/cell
     absolute magnetization    =    21.48 Bohr mag/cell

     iteration #  5     ecut=    60.00 Ry     beta= 0.30
     Davidson diagonalization with overlap
     ethr =  8.15E-09,  avg # of iterations =  3.0

     negative rho (up, down):  0.000E+00 1.159E-04

     total cpu time spent up to now is    15946.6 secs

     total energy              =   -4700.75564729 Ry
     estimated scf accuracy    <       0.00000624 Ry

     total magnetization       =    16.20 Bohr mag/cell
     absolute magnetization    =    21.48 Bohr mag/cell

     iteration #  6     ecut=    60.00 Ry     beta= 0.30
     Davidson diagonalization with overlap
     ethr =  2.58E-09,  avg # of iterations =  3.6

     negative rho (up, down):  0.000E+00 1.158E-04

     total cpu time spent up to now is    15988.2 secs

     total energy              =   -4700.75565823 Ry
     estimated scf accuracy    <       0.00000333 Ry

     total magnetization       =    16.20 Bohr mag/cell
     absolute magnetization    =    21.48 Bohr mag/cell

     iteration #  7     ecut=    60.00 Ry     beta= 0.30
     Davidson diagonalization with overlap
     ethr =  1.38E-09,  avg # of iterations =  4.8

     negative rho (up, down):  0.000E+00 1.157E-04

     total cpu time spent up to now is    16037.4 secs

     total energy              =   -4700.75566106 Ry
     estimated scf accuracy    <       0.00000850 Ry

     total magnetization       =    16.20 Bohr mag/cell
     absolute magnetization    =    21.48 Bohr mag/cell

     iteration #  8     ecut=    60.00 Ry     beta= 0.30
     Davidson diagonalization with overlap
     ethr =  1.38E-09,  avg # of iterations =  1.9

     negative rho (up, down):  0.000E+00 1.157E-04

     total cpu time spent up to now is    16076.0 secs

     total energy              =   -4700.75566273 Ry
     estimated scf accuracy    <       0.00000276 Ry

     total magnetization       =    16.19 Bohr mag/cell
     absolute magnetization    =    21.48 Bohr mag/cell

     iteration #  9     ecut=    60.00 Ry     beta= 0.30
     Davidson diagonalization with overlap
     ethr =  1.14E-09,  avg # of iterations =  2.6

     negative rho (up, down):  0.000E+00 1.157E-04

     total cpu time spent up to now is    16117.1 secs

     total energy              =   -4700.75566301 Ry
     estimated scf accuracy    <       0.00000223 Ry

     total magnetization       =    16.19 Bohr mag/cell
     absolute magnetization    =    21.48 Bohr mag/cell

     iteration # 10     ecut=    60.00 Ry     beta= 0.30
     Davidson diagonalization with overlap
     ethr =  9.23E-10,  avg # of iterations =  1.5

     negative rho (up, down):  0.000E+00 1.157E-04

     total cpu time spent up to now is    16152.4 secs

     total energy              =   -4700.75566314 Ry
     estimated scf accuracy    <       0.00000041 Ry

     total magnetization       =    16.19 Bohr mag/cell
     absolute magnetization    =    21.48 Bohr mag/cell

     iteration # 11     ecut=    60.00 Ry     beta= 0.30
     Davidson diagonalization with overlap
     ethr =  1.69E-10,  avg # of iterations =  5.9

     negative rho (up, down):  0.000E+00 1.157E-04

     total cpu time spent up to now is    16201.7 secs

     total energy              =   -4700.75566314 Ry
     estimated scf accuracy    <       0.00000083 Ry

     total magnetization       =    16.19 Bohr mag/cell
     absolute magnetization    =    21.48 Bohr mag/cell

     iteration # 12     ecut=    60.00 Ry     beta= 0.30
     Davidson diagonalization with overlap
     ethr =  1.69E-10,  avg # of iterations =  2.3

     negative rho (up, down):  0.000E+00 1.157E-04

     total cpu time spent up to now is    16239.6 secs

     total energy              =   -4700.75566320 Ry
     estimated scf accuracy    <       0.00000007 Ry

     total magnetization       =    16.19 Bohr mag/cell
     absolute magnetization    =    21.48 Bohr mag/cell

     iteration # 13     ecut=    60.00 Ry     beta= 0.30
     Davidson diagonalization with overlap
     ethr =  2.90E-11,  avg # of iterations =  5.8

     negative rho (up, down):  0.000E+00 1.157E-04

     total cpu time spent up to now is    16290.1 secs

     total energy              =   -4700.75566322 Ry
     estimated scf accuracy    <       0.00000011 Ry

     total magnetization       =    16.19 Bohr mag/cell
     absolute magnetization    =    21.48 Bohr mag/cell

     iteration # 14     ecut=    60.00 Ry     beta= 0.30
     Davidson diagonalization with overlap
     ethr =  2.90E-11,  avg # of iterations =  5.0

     negative rho (up, down):  0.000E+00 1.157E-04

     total cpu time spent up to now is    16337.6 secs

     total energy              =   -4700.75566320 Ry
     estimated scf accuracy    <       0.00000031 Ry

     total magnetization       =    16.19 Bohr mag/cell
     absolute magnetization    =    21.48 Bohr mag/cell

     iteration # 15     ecut=    60.00 Ry     beta= 0.30
     Davidson diagonalization with overlap
     ethr =  2.90E-11,  avg # of iterations =  2.8

     negative rho (up, down):  0.000E+00 1.157E-04

     total cpu time spent up to now is    16377.5 secs

     total energy              =   -4700.75566323 Ry
     estimated scf accuracy    <       0.00000004 Ry

     total magnetization       =    16.19 Bohr mag/cell
     absolute magnetization    =    21.48 Bohr mag/cell

     iteration # 16     ecut=    60.00 Ry     beta= 0.30
     Davidson diagonalization with overlap
     ethr =  1.61E-11,  avg # of iterations =  3.2

     negative rho (up, down):  0.000E+00 1.157E-04

     total cpu time spent up to now is    16418.4 secs

     total energy              =   -4700.75566325 Ry
     estimated scf accuracy    <       0.00000006 Ry

     total magnetization       =    16.19 Bohr mag/cell
     absolute magnetization    =    21.48 Bohr mag/cell

     iteration # 17     ecut=    60.00 Ry     beta= 0.30
     Davidson diagonalization with overlap
     ethr =  1.61E-11,  avg # of iterations =  3.9

     negative rho (up, down):  0.000E+00 1.157E-04

     total cpu time spent up to now is    16463.0 secs

     total energy              =   -4700.75566325 Ry
     estimated scf accuracy    <       0.00000004 Ry

     total magnetization       =    16.19 Bohr mag/cell
     absolute magnetization    =    21.49 Bohr mag/cell

     iteration # 18     ecut=    60.00 Ry     beta= 0.30
     Davidson diagonalization with overlap
     ethr =  1.61E-11,  avg # of iterations =  2.0

     negative rho (up, down):  0.000E+00 1.157E-04

     total cpu time spent up to now is    16500.6 secs

     total energy              =   -4700.75566327 Ry
     estimated scf accuracy    <       0.00000005 Ry

     total magnetization       =    16.19 Bohr mag/cell
     absolute magnetization    =    21.48 Bohr mag/cell

     iteration # 19     ecut=    60.00 Ry     beta= 0.30
     Davidson diagonalization with overlap
     ethr =  1.61E-11,  avg # of iterations =  4.2

     negative rho (up, down):  0.000E+00 1.158E-04

     total cpu time spent up to now is    16546.0 secs

     total energy              =   -4700.75566327 Ry
     estimated scf accuracy    <       0.00000004 Ry

     total magnetization       =    16.19 Bohr mag/cell
     absolute magnetization    =    21.49 Bohr mag/cell

     iteration # 20     ecut=    60.00 Ry     beta= 0.30
     Davidson diagonalization with overlap
     ethr =  1.52E-11,  avg # of iterations =  5.7

     negative rho (up, down):  0.000E+00 1.158E-04

     total cpu time spent up to now is    16596.5 secs

     total energy              =   -4700.75566329 Ry
     estimated scf accuracy    <       0.00000002 Ry

     total magnetization       =    16.19 Bohr mag/cell
     absolute magnetization    =    21.49 Bohr mag/cell

     iteration # 21     ecut=    60.00 Ry     beta= 0.30
     Davidson diagonalization with overlap
     ethr =  6.23E-12,  avg # of iterations =  4.8

     negative rho (up, down):  0.000E+00 1.158E-04

     total cpu time spent up to now is    16643.3 secs

     total energy              =   -4700.75566329 Ry
     estimated scf accuracy    <       0.00000002 Ry

     total magnetization       =    16.19 Bohr mag/cell
     absolute magnetization    =    21.49 Bohr mag/cell

     iteration # 22     ecut=    60.00 Ry     beta= 0.30
     Davidson diagonalization with overlap
     ethr =  6.23E-12,  avg # of iterations =  1.8

     negative rho (up, down):  0.000E+00 1.158E-04

     total cpu time spent up to now is    16679.7 secs

     total energy              =   -4700.75566330 Ry
     estimated scf accuracy    <          7.5E-09 Ry

     total magnetization       =    16.19 Bohr mag/cell
     absolute magnetization    =    21.49 Bohr mag/cell

     iteration # 23     ecut=    60.00 Ry     beta= 0.30
     Davidson diagonalization with overlap
     ethr =  3.11E-12,  avg # of iterations =  3.9

     negative rho (up, down):  0.000E+00 1.158E-04

     total cpu time spent up to now is    16722.6 secs

     total energy              =   -4700.75566330 Ry
     estimated scf accuracy    <       0.00000001 Ry

     total magnetization       =    16.19 Bohr mag/cell
     absolute magnetization    =    21.49 Bohr mag/cell

     iteration # 24     ecut=    60.00 Ry     beta= 0.30
     Davidson diagonalization with overlap
     ethr =  3.11E-12,  avg # of iterations =  5.6

     negative rho (up, down):  0.000E+00 1.158E-04

     total cpu time spent up to now is    16774.1 secs

     total energy              =   -4700.75566330 Ry
     estimated scf accuracy    <       0.00000002 Ry

     total magnetization       =    16.19 Bohr mag/cell
     absolute magnetization    =    21.49 Bohr mag/cell

     iteration # 25     ecut=    60.00 Ry     beta= 0.30
     Davidson diagonalization with overlap
     ethr =  3.11E-12,  avg # of iterations =  1.8

     negative rho (up, down):  0.000E+00 1.158E-04

     total cpu time spent up to now is    16811.1 secs

     total energy              =   -4700.75566330 Ry
     estimated scf accuracy    <          7.6E-09 Ry

     total magnetization       =    16.19 Bohr mag/cell
     absolute magnetization    =    21.49 Bohr mag/cell

     iteration # 26     ecut=    60.00 Ry     beta= 0.30
     Davidson diagonalization with overlap
     ethr =  3.11E-12,  avg # of iterations =  1.8

     negative rho (up, down):  0.000E+00 1.158E-04

     total cpu time spent up to now is    16847.9 secs

     total energy              =   -4700.75566330 Ry
     estimated scf accuracy    <       0.00000001 Ry

     total magnetization       =    16.19 Bohr mag/cell
     absolute magnetization    =    21.49 Bohr mag/cell

     iteration # 27     ecut=    60.00 Ry     beta= 0.30
     Davidson diagonalization with overlap
     ethr =  3.11E-12,  avg # of iterations =  1.3

     negative rho (up, down):  0.000E+00 1.159E-04

     total cpu time spent up to now is    16882.3 secs

     total energy              =   -4700.75566331 Ry
     estimated scf accuracy    <          8.9E-09 Ry

     total magnetization       =    16.19 Bohr mag/cell
     absolute magnetization    =    21.49 Bohr mag/cell

     iteration # 28     ecut=    60.00 Ry     beta= 0.30
     Davidson diagonalization with overlap
     ethr =  3.11E-12,  avg # of iterations =  6.0

     negative rho (up, down):  0.000E+00 1.159E-04

     total cpu time spent up to now is    16938.3 secs

     total energy              =   -4700.75566332 Ry
     estimated scf accuracy    <          6.4E-09 Ry

     total magnetization       =    16.19 Bohr mag/cell
     absolute magnetization    =    21.49 Bohr mag/cell

     iteration # 29     ecut=    60.00 Ry     beta= 0.30
     Davidson diagonalization with overlap
     ethr =  2.64E-12,  avg # of iterations =  4.6

     negative rho (up, down):  0.000E+00 1.159E-04

     total cpu time spent up to now is    16984.8 secs

     total energy              =   -4700.75566332 Ry
     estimated scf accuracy    <          8.2E-09 Ry

     total magnetization       =    16.19 Bohr mag/cell
     absolute magnetization    =    21.49 Bohr mag/cell

     iteration # 30     ecut=    60.00 Ry     beta= 0.30
     Davidson diagonalization with overlap
     ethr =  2.64E-12,  avg # of iterations =  4.4

     negative rho (up, down):  0.000E+00 1.159E-04

     total cpu time spent up to now is    17031.4 secs

     total energy              =   -4700.75566332 Ry
     estimated scf accuracy    <          6.3E-09 Ry

     total magnetization       =    16.19 Bohr mag/cell
     absolute magnetization    =    21.49 Bohr mag/cell

     iteration # 31     ecut=    60.00 Ry     beta= 0.30
     Davidson diagonalization with overlap
     ethr =  2.60E-12,  avg # of iterations =  2.6

     negative rho (up, down):  0.000E+00 1.159E-04

     total cpu time spent up to now is    17070.1 secs

     total energy              =   -4700.75566332 Ry
     estimated scf accuracy    <          3.4E-09 Ry

     total magnetization       =    16.19 Bohr mag/cell
     absolute magnetization    =    21.49 Bohr mag/cell

     iteration # 32     ecut=    60.00 Ry     beta= 0.30
     Davidson diagonalization with overlap
     ethr =  1.42E-12,  avg # of iterations =  5.4

     negative rho (up, down):  0.000E+00 1.159E-04

     total cpu time spent up to now is    17121.3 secs

     total energy              =   -4700.75566332 Ry
     estimated scf accuracy    <       0.00000001 Ry

     total magnetization       =    16.19 Bohr mag/cell
     absolute magnetization    =    21.49 Bohr mag/cell

     iteration # 33     ecut=    60.00 Ry     beta= 0.30
     Davidson diagonalization with overlap
     ethr =  1.42E-12,  avg # of iterations =  4.7

     negative rho (up, down):  0.000E+00 1.159E-04

     total cpu time spent up to now is    17166.1 secs

     total energy              =   -4700.75566332 Ry
     estimated scf accuracy    <          3.3E-09 Ry

     total magnetization       =    16.19 Bohr mag/cell
     absolute magnetization    =    21.49 Bohr mag/cell

     iteration # 34     ecut=    60.00 Ry     beta= 0.30
     Davidson diagonalization with overlap
     ethr =  1.36E-12,  avg # of iterations =  2.6

     negative rho (up, down):  0.000E+00 1.159E-04

     total cpu time spent up to now is    17205.8 secs

     total energy              =   -4700.75566332 Ry
     estimated scf accuracy    <          5.8E-09 Ry

     total magnetization       =    16.19 Bohr mag/cell
     absolute magnetization    =    21.49 Bohr mag/cell

     iteration # 35     ecut=    60.00 Ry     beta= 0.30
     Davidson diagonalization with overlap
     ethr =  1.36E-12,  avg # of iterations =  3.7

     negative rho (up, down):  0.000E+00 1.159E-04

     total cpu time spent up to now is    17248.5 secs

     total energy              =   -4700.75566333 Ry
     estimated scf accuracy    <          3.1E-09 Ry

     total magnetization       =    16.19 Bohr mag/cell
     absolute magnetization    =    21.49 Bohr mag/cell

     iteration # 36     ecut=    60.00 Ry     beta= 0.30
     Davidson diagonalization with overlap
     ethr =  1.28E-12,  avg # of iterations =  5.4

     negative rho (up, down):  0.000E+00 1.159E-04

     total cpu time spent up to now is    17298.2 secs

     total energy              =   -4700.75566333 Ry
     estimated scf accuracy    <          4.2E-09 Ry

     total magnetization       =    16.19 Bohr mag/cell
     absolute magnetization    =    21.49 Bohr mag/cell

     iteration # 37     ecut=    60.00 Ry     beta= 0.30
     Davidson diagonalization with overlap
     ethr =  1.28E-12,  avg # of iterations =  1.1

     negative rho (up, down):  0.000E+00 1.159E-04

     total cpu time spent up to now is    17331.5 secs

     total energy              =   -4700.75566333 Ry
     estimated scf accuracy    <          2.2E-09 Ry

     total magnetization       =    16.19 Bohr mag/cell
     absolute magnetization    =    21.49 Bohr mag/cell

     iteration # 38     ecut=    60.00 Ry     beta= 0.30
     Davidson diagonalization with overlap
     ethr =  8.98E-13,  avg # of iterations =  4.9

     negative rho (up, down):  0.000E+00 1.159E-04

     total cpu time spent up to now is    17378.4 secs

     total energy              =   -4700.75566333 Ry
     estimated scf accuracy    <          2.5E-09 Ry

     total magnetization       =    16.19 Bohr mag/cell
     absolute magnetization    =    21.49 Bohr mag/cell

     iteration # 39     ecut=    60.00 Ry     beta= 0.30
     Davidson diagonalization with overlap
     ethr =  8.98E-13,  avg # of iterations =  5.2

     negative rho (up, down):  0.000E+00 1.159E-04

     total cpu time spent up to now is    17426.7 secs

     total energy              =   -4700.75566333 Ry
     estimated scf accuracy    <          3.1E-09 Ry

     total magnetization       =    16.19 Bohr mag/cell
     absolute magnetization    =    21.49 Bohr mag/cell

     iteration # 40     ecut=    60.00 Ry     beta= 0.30
     Davidson diagonalization with overlap
     ethr =  8.98E-13,  avg # of iterations =  1.7

     negative rho (up, down):  0.000E+00 1.159E-04

     total cpu time spent up to now is    17463.2 secs

     total energy              =   -4700.75566333 Ry
     estimated scf accuracy    <          2.0E-09 Ry

     total magnetization       =    16.19 Bohr mag/cell
     absolute magnetization    =    21.49 Bohr mag/cell

     iteration # 41     ecut=    60.00 Ry     beta= 0.30
     Davidson diagonalization with overlap
     ethr =  8.18E-13,  avg # of iterations =  5.7

     negative rho (up, down):  0.000E+00 1.159E-04

     total cpu time spent up to now is    17518.1 secs

     total energy              =   -4700.75566333 Ry
     estimated scf accuracy    <          2.3E-09 Ry

     total magnetization       =    16.19 Bohr mag/cell
     absolute magnetization    =    21.49 Bohr mag/cell

     iteration # 42     ecut=    60.00 Ry     beta= 0.30
     Davidson diagonalization with overlap
     ethr =  8.18E-13,  avg # of iterations =  5.2

     negative rho (up, down):  0.000E+00 1.159E-04

     total cpu time spent up to now is    17568.3 secs

     total energy              =   -4700.75566333 Ry
     estimated scf accuracy    <          1.9E-09 Ry

     total magnetization       =    16.19 Bohr mag/cell
     absolute magnetization    =    21.49 Bohr mag/cell

     iteration # 43     ecut=    60.00 Ry     beta= 0.30
     Davidson diagonalization with overlap
     ethr =  8.00E-13,  avg # of iterations =  5.3

     negative rho (up, down):  0.000E+00 1.159E-04

     total cpu time spent up to now is    17621.7 secs

     total energy              =   -4700.75566333 Ry
     estimated scf accuracy    <          2.2E-09 Ry

     total magnetization       =    16.19 Bohr mag/cell
     absolute magnetization    =    21.50 Bohr mag/cell

     iteration # 44     ecut=    60.00 Ry     beta= 0.30
     Davidson diagonalization with overlap
     ethr =  8.00E-13,  avg # of iterations =  5.1

     negative rho (up, down):  0.000E+00 1.160E-04

     total cpu time spent up to now is    17671.6 secs

     total energy              =   -4700.75566333 Ry
     estimated scf accuracy    <          1.4E-09 Ry

     total magnetization       =    16.19 Bohr mag/cell
     absolute magnetization    =    21.50 Bohr mag/cell

     iteration # 45     ecut=    60.00 Ry     beta= 0.30
     Davidson diagonalization with overlap
     ethr =  5.86E-13,  avg # of iterations =  5.4

     negative rho (up, down):  0.000E+00 1.160E-04

     total cpu time spent up to now is    17729.5 secs

     total energy              =   -4700.75566334 Ry
     estimated scf accuracy    <          1.7E-09 Ry

     total magnetization       =    16.19 Bohr mag/cell
     absolute magnetization    =    21.50 Bohr mag/cell

     iteration # 46     ecut=    60.00 Ry     beta= 0.30
     Davidson diagonalization with overlap
     ethr =  5.86E-13,  avg # of iterations =  3.9

     negative rho (up, down):  0.000E+00 1.160E-04

     total cpu time spent up to now is    17772.9 secs

     total energy              =   -4700.75566334 Ry
     estimated scf accuracy    <          2.3E-09 Ry

     total magnetization       =    16.19 Bohr mag/cell
     absolute magnetization    =    21.50 Bohr mag/cell

     iteration # 47     ecut=    60.00 Ry     beta= 0.30
     Davidson diagonalization with overlap
     ethr =  5.86E-13,  avg # of iterations =  5.1

     negative rho (up, down):  0.000E+00 1.160E-04

     total cpu time spent up to now is    17820.7 secs

     total energy              =   -4700.75566333 Ry
     estimated scf accuracy    <          1.1E-09 Ry

     total magnetization       =    16.19 Bohr mag/cell
     absolute magnetization    =    21.50 Bohr mag/cell

     iteration # 48     ecut=    60.00 Ry     beta= 0.30
     Davidson diagonalization with overlap
     ethr =  4.38E-13,  avg # of iterations =  8.1

     negative rho (up, down):  0.000E+00 1.160E-04

     total cpu time spent up to now is    17892.2 secs

     total energy              =   -4700.75566333 Ry
     estimated scf accuracy    <          1.0E-09 Ry

     total magnetization       =    16.19 Bohr mag/cell
     absolute magnetization    =    21.50 Bohr mag/cell

     iteration # 49     ecut=    60.00 Ry     beta= 0.30
     Davidson diagonalization with overlap
     ethr =  4.16E-13,  avg # of iterations =  8.2

     negative rho (up, down):  0.000E+00 1.160E-04

     total cpu time spent up to now is    17964.0 secs

     total energy              =   -4700.75566333 Ry
     estimated scf accuracy    <          3.0E-09 Ry

     total magnetization       =    16.19 Bohr mag/cell
     absolute magnetization    =    21.50 Bohr mag/cell

     iteration # 50     ecut=    60.00 Ry     beta= 0.30
     Davidson diagonalization with overlap
     ethr =  4.16E-13,  avg # of iterations =  8.0

     negative rho (up, down):  0.000E+00 1.160E-04

     total cpu time spent up to now is    18036.9 secs

     total energy              =   -4700.75566334 Ry
     estimated scf accuracy    <          7.4E-10 Ry

     total magnetization       =    16.19 Bohr mag/cell
     absolute magnetization    =    21.50 Bohr mag/cell

     iteration # 51     ecut=    60.00 Ry     beta= 0.30
     Davidson diagonalization with overlap
     ethr =  3.04E-13,  avg # of iterations =  5.4

     negative rho (up, down):  0.000E+00 1.160E-04

     total cpu time spent up to now is    18086.5 secs

     total energy              =   -4700.75566334 Ry
     estimated scf accuracy    <          1.0E-09 Ry

     total magnetization       =    16.19 Bohr mag/cell
     absolute magnetization    =    21.50 Bohr mag/cell

     iteration # 52     ecut=    60.00 Ry     beta= 0.30
     Davidson diagonalization with overlap
     ethr =  3.04E-13,  avg # of iterations =  3.3

     negative rho (up, down):  0.000E+00 1.160E-04

     total cpu time spent up to now is    18129.0 secs

     total energy              =   -4700.75566334 Ry
     estimated scf accuracy    <          8.6E-10 Ry

     total magnetization       =    16.19 Bohr mag/cell
     absolute magnetization    =    21.50 Bohr mag/cell

     iteration # 53     ecut=    60.00 Ry     beta= 0.30
     Davidson diagonalization with overlap
     ethr =  3.04E-13,  avg # of iterations =  2.6

     negative rho (up, down):  0.000E+00 1.160E-04

     total cpu time spent up to now is    18167.8 secs

     total energy              =   -4700.75566334 Ry
     estimated scf accuracy    <          3.9E-10 Ry

     total magnetization       =    16.19 Bohr mag/cell
     absolute magnetization    =    21.50 Bohr mag/cell

     iteration # 54     ecut=    60.00 Ry     beta= 0.30
     Davidson diagonalization with overlap
     ethr =  1.62E-13,  avg # of iterations =  7.1

     negative rho (up, down):  0.000E+00 1.160E-04

     total cpu time spent up to now is    18230.7 secs

     total energy              =   -4700.75566334 Ry
     estimated scf accuracy    <          3.7E-10 Ry

     total magnetization       =    16.19 Bohr mag/cell
     absolute magnetization    =    21.50 Bohr mag/cell

     iteration # 55     ecut=    60.00 Ry     beta= 0.30
     Davidson diagonalization with overlap
     ethr =  1.53E-13,  avg # of iterations =  5.2

     negative rho (up, down):  0.000E+00 1.160E-04

     total cpu time spent up to now is    18276.8 secs

     total energy              =   -4700.75566334 Ry
     estimated scf accuracy    <          4.8E-10 Ry

     total magnetization       =    16.19 Bohr mag/cell
     absolute magnetization    =    21.50 Bohr mag/cell

     iteration # 56     ecut=    60.00 Ry     beta= 0.30
     Davidson diagonalization with overlap
     ethr =  1.53E-13,  avg # of iterations =  5.5

     negative rho (up, down):  0.000E+00 1.160E-04

     total cpu time spent up to now is    18329.0 secs

     total energy              =   -4700.75566334 Ry
     estimated scf accuracy    <          7.0E-10 Ry

     total magnetization       =    16.19 Bohr mag/cell
     absolute magnetization    =    21.50 Bohr mag/cell

     iteration # 57     ecut=    60.00 Ry     beta= 0.30
     Davidson diagonalization with overlap
     ethr =  1.53E-13,  avg # of iterations =  5.0

     negative rho (up, down):  0.000E+00 1.160E-04

     total cpu time spent up to now is    18377.0 secs

     total energy              =   -4700.75566334 Ry
     estimated scf accuracy    <          3.6E-10 Ry

     total magnetization       =    16.19 Bohr mag/cell
     absolute magnetization    =    21.50 Bohr mag/cell

     iteration # 58     ecut=    60.00 Ry     beta= 0.30
     Davidson diagonalization with overlap
     ethr =  1.47E-13,  avg # of iterations =  6.8

     negative rho (up, down):  0.000E+00 1.160E-04

     total cpu time spent up to now is    18439.9 secs

     total energy              =   -4700.75566334 Ry
     estimated scf accuracy    <          2.3E-10 Ry

     total magnetization       =    16.19 Bohr mag/cell
     absolute magnetization    =    21.50 Bohr mag/cell

     iteration # 59     ecut=    60.00 Ry     beta= 0.30
     Davidson diagonalization with overlap
     ethr =  1.00E-13,  avg # of iterations =  5.2

     negative rho (up, down):  0.000E+00 1.160E-04

     total cpu time spent up to now is    18493.3 secs

     total energy              =   -4700.75566334 Ry
     estimated scf accuracy    <          1.7E-09 Ry

     total magnetization       =    16.19 Bohr mag/cell
     absolute magnetization    =    21.50 Bohr mag/cell

     iteration # 60     ecut=    60.00 Ry     beta= 0.30
     Davidson diagonalization with overlap
     ethr =  1.00E-13,  avg # of iterations =  6.1

     negative rho (up, down):  0.000E+00 1.160E-04

     total cpu time spent up to now is    18553.7 secs

     total energy              =   -4700.75566334 Ry
     estimated scf accuracy    <          1.4E-10 Ry

     total magnetization       =    16.19 Bohr mag/cell
     absolute magnetization    =    21.50 Bohr mag/cell

     iteration # 61     ecut=    60.00 Ry     beta= 0.30
     Davidson diagonalization with overlap
     ethr =  1.00E-13,  avg # of iterations =  2.3

     negative rho (up, down):  0.000E+00 1.160E-04

     total cpu time spent up to now is    18591.3 secs

     total energy              =   -4700.75566334 Ry
     estimated scf accuracy    <          1.7E-10 Ry

     total magnetization       =    16.19 Bohr mag/cell
     absolute magnetization    =    21.50 Bohr mag/cell

     iteration # 62     ecut=    60.00 Ry     beta= 0.30
     Davidson diagonalization with overlap
     ethr =  1.00E-13,  avg # of iterations =  2.7

     negative rho (up, down):  0.000E+00 1.160E-04

     total cpu time spent up to now is    18630.6 secs

     total energy              =   -4700.75566334 Ry
     estimated scf accuracy    <          1.3E-10 Ry

     total magnetization       =    16.19 Bohr mag/cell
     absolute magnetization    =    21.50 Bohr mag/cell

     iteration # 63     ecut=    60.00 Ry     beta= 0.30
     Davidson diagonalization with overlap
     ethr =  1.00E-13,  avg # of iterations =  3.1

     negative rho (up, down):  0.000E+00 1.160E-04

     total cpu time spent up to now is    18671.7 secs

     total energy              =   -4700.75566334 Ry
     estimated scf accuracy    <          1.1E-10 Ry

     total magnetization       =    16.19 Bohr mag/cell
     absolute magnetization    =    21.50 Bohr mag/cell

     iteration # 64     ecut=    60.00 Ry     beta= 0.30
     Davidson diagonalization with overlap
     ethr =  1.00E-13,  avg # of iterations =  1.3

     negative rho (up, down):  0.000E+00 1.160E-04
 
     Magnetic moment per site  (integrated on atomic sphere of radius R)
     atom   1 (R=0.179)  charge= 12.1363  magn= -0.3614
     atom   2 (R=0.179)  charge= 14.4304  magn=  1.9228
     atom   3 (R=0.179)  charge= 14.4110  magn=  2.0453
     atom   4 (R=0.179)  charge= 12.1650  magn=  0.3910
     atom   5 (R=0.179)  charge= 12.1416  magn= -0.0501
     atom   6 (R=0.179)  charge= 14.4305  magn=  1.9111
     atom   7 (R=0.179)  charge= 12.1363  magn= -0.3614
     atom   8 (R=0.179)  charge= 14.4304  magn=  1.9228
     atom   9 (R=0.179)  charge= 12.1217  magn= -0.5432
     atom  10 (R=0.179)  charge= 14.4304  magn=  1.9228
     atom  11 (R=0.179)  charge= 14.4062  magn=  2.2575
     atom  12 (R=0.179)  charge= 14.4305  magn=  1.9111
     atom  13 (R=0.179)  charge= 14.4126  magn=  1.9469
     atom  14 (R=0.179)  charge= 12.1650  magn=  0.3910
     atom  15 (R=0.179)  charge= 12.1217  magn= -0.5432
     atom  16 (R=0.179)  charge= 14.4304  magn=  1.9228

     total cpu time spent up to now is    18706.0 secs

     End of self-consistent calculation

     Number of k-points >= 100: set verbosity='high' to print the bands.

     the Fermi energy is    19.2675 ev

!    total energy              =   -4700.75566334 Ry
     total all-electron energy =    -37622.153211 Ry
     estimated scf accuracy    <          9.7E-11 Ry
     smearing contrib. (-TS)   =      -0.00313485 Ry
     internal energy E=F+TS    =   -4700.75252849 Ry

     The total energy is F=E-TS. E is the sum of the following terms:
     one-electron contribution =   -1376.64737330 Ry
     hartree contribution      =     841.35928172 Ry
     xc contribution           =    -405.55449098 Ry
     ewald contribution        =   -2495.04448286 Ry
     one-center paw contrib.   =   -1264.86546307 Ry

     total magnetization       =    16.19 Bohr mag/cell
     absolute magnetization    =    21.50 Bohr mag/cell

     convergence has been achieved in  64 iterations

     negative rho (up, down):  0.000E+00 1.160E-04

     Forces acting on atoms (cartesian axes, Ry/au):

     atom    1 type  2   force =     0.00000000    0.00000000    0.00000000
     atom    2 type  1   force =     0.00009083    0.00010266    0.00037644
     atom    3 type  1   force =     0.00000000    0.00000000    0.00000000
     atom    4 type  2   force =    -0.00001113   -0.00010088   -0.00010088
     atom    5 type  2   force =     0.00000000    0.00000000    0.00000000
     atom    6 type  1   force =     0.00050397   -0.00000672   -0.00000672
     atom    7 type  2   force =     0.00000000    0.00000000    0.00000000
     atom    8 type  1   force =     0.00009083    0.00037644    0.00010266
     atom    9 type  2   force =     0.00000000    0.00000000    0.00000000
     atom   10 type  1   force =    -0.00009083   -0.00037644   -0.00010266
     atom   11 type  1   force =     0.00000000    0.00000000    0.00000000
     atom   12 type  1   force =    -0.00050397    0.00000672    0.00000672
     atom   13 type  1   force =     0.00000000    0.00000000    0.00000000
     atom   14 type  2   force =     0.00001113    0.00010088    0.00010088
     atom   15 type  2   force =     0.00000000    0.00000000    0.00000000
     atom   16 type  1   force =    -0.00009083   -0.00010266   -0.00037644

     Total force =     0.001091     Total SCF correction =     0.000031


     Computing stress (Cartesian axis) and pressure


     negative rho (up, down):  0.000E+00 1.160E-04
          total   stress  (Ry/bohr**3)                   (kbar)     P=        0.01
  -0.00000262  -0.00000293  -0.00000293           -0.39       -0.43       -0.43
  -0.00000293   0.00000144  -0.00000443           -0.43        0.21       -0.65
  -0.00000293  -0.00000443   0.00000144           -0.43       -0.65        0.21

     Energy error            =      3.4E-05 Ry
     Gradient error          =      5.0E-04 Ry/Bohr
     Cell gradient error     =      6.5E-01 kbar

     number of scf cycles    =   6
     number of bfgs steps    =   5

     enthalpy           old  =   -4700.7556297485 Ry
     enthalpy           new  =   -4700.7556633408 Ry

     CASE: enthalpy          _new < enthalpy          _old

     new trust radius        =       0.0021839512 bohr
     new conv_thr            =            1.0E-10 Ry

     new unit-cell volume =   1223.67954 a.u.^3 (   181.33060 Ang^3 )
     density =      7.93570 g/cm^3

CELL_PARAMETERS (angstrom)
   5.707370824   0.019766407   0.019766407
   0.019627793   5.636767020   0.032849557
   0.019627793   0.032849557   5.636767020

ATOMIC_POSITIONS (crystal)
Cr               0.0000000000        0.0000000000        0.0000000000
Fe               0.2501357729        0.2499184062        0.2502846472
Fe              -0.0000000000       -0.0000000000        0.5000000000
Cr               0.2454863038        0.2515229787        0.7515229787
Cr               0.0000000000        0.5000000000       -0.0000000000
Fe               0.2522075956        0.7508908497        0.2508908497
Cr               0.0000000000        0.5000000000        0.5000000000
Fe               0.2501357729        0.7502846472        0.7499184062
Cr               0.5000000000       -0.0000000000       -0.0000000000
Fe               0.7498642271        0.2497153528        0.2500815938
Fe               0.5000000000       -0.0000000000        0.5000000000
Fe               0.7477924044        0.2491091503        0.7491091503
Fe               0.5000000000        0.5000000000       -0.0000000000
Cr               0.7545136962        0.7484770213        0.2484770213
Cr               0.5000000000        0.5000000000        0.5000000000
Fe               0.7498642271        0.7500815938        0.7497153528



     Writing config-only to output data dir ./tmp/fecr_fe09cr07_vcr.save/ :
     XML data file
     NEW-OLD atomic charge density approx. for the potential

     Check: negative core charge=   -0.000003

     negative rho (up, down):  0.000E+00 1.176E-04
     Generating pointlists ...

     total cpu time spent up to now is    18774.9 secs

     Self-consistent Calculation

     iteration #  1     ecut=    60.00 Ry     beta= 0.30
     Davidson diagonalization with overlap
     ethr =  1.00E-06,  avg # of iterations =  3.0

     Threshold (ethr) on eigenvalues was too large:
     Diagonalizing with lowered threshold

     Davidson diagonalization with overlap
     ethr =  1.79E-09,  avg # of iterations =  6.9

     negative rho (up, down):  0.000E+00 1.177E-04

     total cpu time spent up to now is    18890.6 secs

     total energy              =   -4700.75566467 Ry
     estimated scf accuracy    <       0.00000374 Ry

     total magnetization       =    16.19 Bohr mag/cell
     absolute magnetization    =    21.50 Bohr mag/cell

     iteration #  2     ecut=    60.00 Ry     beta= 0.30
     Davidson diagonalization with overlap
     ethr =  1.55E-09,  avg # of iterations =  6.1

     negative rho (up, down):  0.000E+00 1.178E-04

     total cpu time spent up to now is    18945.6 secs

     total energy              =   -4700.75566301 Ry
     estimated scf accuracy    <       0.00006117 Ry

     total magnetization       =    16.19 Bohr mag/cell
     absolute magnetization    =    21.50 Bohr mag/cell

     iteration #  3     ecut=    60.00 Ry     beta= 0.30
     Davidson diagonalization with overlap
     ethr =  1.55E-09,  avg # of iterations =  6.0

     negative rho (up, down):  0.000E+00 1.178E-04

     total cpu time spent up to now is    18997.9 secs

     total energy              =   -4700.75566591 Ry
     estimated scf accuracy    <       0.00000233 Ry

     total magnetization       =    16.19 Bohr mag/cell
     absolute magnetization    =    21.50 Bohr mag/cell

     iteration #  4     ecut=    60.00 Ry     beta= 0.30
     Davidson diagonalization with overlap
     ethr =  9.62E-10,  avg # of iterations =  4.3

     negative rho (up, down):  0.000E+00 1.179E-04

     total cpu time spent up to now is    19043.3 secs

     total energy              =   -4700.75566666 Ry
     estimated scf accuracy    <       0.00000610 Ry

     total magnetization       =    16.18 Bohr mag/cell
     absolute magnetization    =    21.50 Bohr mag/cell

     iteration #  5     ecut=    60.00 Ry     beta= 0.30
     Davidson diagonalization with overlap
     ethr =  9.62E-10,  avg # of iterations =  1.8

     negative rho (up, down):  0.000E+00 1.179E-04

     total cpu time spent up to now is    19081.5 secs

     total energy              =   -4700.75566707 Ry
     estimated scf accuracy    <       0.00000086 Ry

     total magnetization       =    16.19 Bohr mag/cell
     absolute magnetization    =    21.50 Bohr mag/cell

     iteration #  6     ecut=    60.00 Ry     beta= 0.30
     Davidson diagonalization with overlap
     ethr =  3.57E-10,  avg # of iterations =  2.1

     negative rho (up, down):  0.000E+00 1.179E-04

     total cpu time spent up to now is    19118.8 secs

     total energy              =   -4700.75566742 Ry
     estimated scf accuracy    <       0.00000025 Ry

     total magnetization       =    16.19 Bohr mag/cell
     absolute magnetization    =    21.50 Bohr mag/cell

     iteration #  7     ecut=    60.00 Ry     beta= 0.30
     Davidson diagonalization with overlap
     ethr =  1.02E-10,  avg # of iterations =  4.9

     negative rho (up, down):  0.000E+00 1.179E-04

     total cpu time spent up to now is    19165.7 secs

     total energy              =   -4700.75566771 Ry
     estimated scf accuracy    <       0.00000052 Ry

     total magnetization       =    16.19 Bohr mag/cell
     absolute magnetization    =    21.50 Bohr mag/cell

     iteration #  8     ecut=    60.00 Ry     beta= 0.30
     Davidson diagonalization with overlap
     ethr =  1.02E-10,  avg # of iterations =  2.5

     negative rho (up, down):  0.000E+00 1.179E-04

     total cpu time spent up to now is    19206.4 secs

     total energy              =   -4700.75566793 Ry
     estimated scf accuracy    <       0.00000022 Ry

     total magnetization       =    16.19 Bohr mag/cell
     absolute magnetization    =    21.50 Bohr mag/cell

     iteration #  9     ecut=    60.00 Ry     beta= 0.30
     Davidson diagonalization with overlap
     ethr =  9.15E-11,  avg # of iterations =  3.3

     negative rho (up, down):  0.000E+00 1.179E-04

     total cpu time spent up to now is    19250.3 secs

     total energy              =   -4700.75566797 Ry
     estimated scf accuracy    <       0.00000045 Ry

     total magnetization       =    16.19 Bohr mag/cell
     absolute magnetization    =    21.50 Bohr mag/cell

     iteration # 10     ecut=    60.00 Ry     beta= 0.30
     Davidson diagonalization with overlap
     ethr =  9.15E-11,  avg # of iterations =  1.8

     negative rho (up, down):  0.000E+00 1.179E-04

     total cpu time spent up to now is    19287.3 secs

     total energy              =   -4700.75566799 Ry
     estimated scf accuracy    <       0.00000002 Ry

     total magnetization       =    16.19 Bohr mag/cell
     absolute magnetization    =    21.50 Bohr mag/cell

     iteration # 11     ecut=    60.00 Ry     beta= 0.30
     Davidson diagonalization with overlap
     ethr =  9.69E-12,  avg # of iterations =  6.1

     negative rho (up, down):  0.000E+00 1.179E-04

     total cpu time spent up to now is    19338.9 secs

     total energy              =   -4700.75566800 Ry
     estimated scf accuracy    <       0.00000006 Ry

     total magnetization       =    16.19 Bohr mag/cell
     absolute magnetization    =    21.50 Bohr mag/cell

     iteration # 12     ecut=    60.00 Ry     beta= 0.30
     Davidson diagonalization with overlap
     ethr =  9.69E-12,  avg # of iterations =  1.9

     negative rho (up, down):  0.000E+00 1.179E-04

     total cpu time spent up to now is    19375.8 secs

     total energy              =   -4700.75566800 Ry
     estimated scf accuracy    <       0.00000001 Ry

     total magnetization       =    16.19 Bohr mag/cell
     absolute magnetization    =    21.50 Bohr mag/cell

     iteration # 13     ecut=    60.00 Ry     beta= 0.30
     Davidson diagonalization with overlap
     ethr =  4.20E-12,  avg # of iterations =  4.1

     negative rho (up, down):  0.000E+00 1.179E-04

     total cpu time spent up to now is    19421.0 secs

     total energy              =   -4700.75566800 Ry
     estimated scf accuracy    <       0.00000002 Ry

     total magnetization       =    16.19 Bohr mag/cell
     absolute magnetization    =    21.50 Bohr mag/cell

     iteration # 14     ecut=    60.00 Ry     beta= 0.30
     Davidson diagonalization with overlap
     ethr =  4.20E-12,  avg # of iterations =  2.0

     negative rho (up, down):  0.000E+00 1.179E-04

     total cpu time spent up to now is    19458.9 secs

     total energy              =   -4700.75566800 Ry
     estimated scf accuracy    <          7.8E-09 Ry

     total magnetization       =    16.19 Bohr mag/cell
     absolute magnetization    =    21.50 Bohr mag/cell

     iteration # 15     ecut=    60.00 Ry     beta= 0.30
     Davidson diagonalization with overlap
     ethr =  3.21E-12,  avg # of iterations =  1.8

     negative rho (up, down):  0.000E+00 1.179E-04

     total cpu time spent up to now is    19495.0 secs

     total energy              =   -4700.75566800 Ry
     estimated scf accuracy    <          7.0E-09 Ry

     total magnetization       =    16.19 Bohr mag/cell
     absolute magnetization    =    21.50 Bohr mag/cell

     iteration # 16     ecut=    60.00 Ry     beta= 0.30
     Davidson diagonalization with overlap
     ethr =  2.89E-12,  avg # of iterations =  1.4

     negative rho (up, down):  0.000E+00 1.179E-04

     total cpu time spent up to now is    19529.9 secs

     total energy              =   -4700.75566800 Ry
     estimated scf accuracy    <          5.7E-09 Ry

     total magnetization       =    16.19 Bohr mag/cell
     absolute magnetization    =    21.50 Bohr mag/cell

     iteration # 17     ecut=    60.00 Ry     beta= 0.30
     Davidson diagonalization with overlap
     ethr =  2.36E-12,  avg # of iterations =  3.1

     negative rho (up, down):  0.000E+00 1.179E-04

     total cpu time spent up to now is    19572.1 secs

     total energy              =   -4700.75566801 Ry
     estimated scf accuracy    <          3.1E-09 Ry

     total magnetization       =    16.19 Bohr mag/cell
     absolute magnetization    =    21.49 Bohr mag/cell

     iteration # 18     ecut=    60.00 Ry     beta= 0.30
     Davidson diagonalization with overlap
     ethr =  1.29E-12,  avg # of iterations =  4.0

     negative rho (up, down):  0.000E+00 1.179E-04

     total cpu time spent up to now is    19618.4 secs

     total energy              =   -4700.75566801 Ry
     estimated scf accuracy    <       0.00000002 Ry

     total magnetization       =    16.19 Bohr mag/cell
     absolute magnetization    =    21.49 Bohr mag/cell

     iteration # 19     ecut=    60.00 Ry     beta= 0.30
     Davidson diagonalization with overlap
     ethr =  1.29E-12,  avg # of iterations =  4.4

     negative rho (up, down):  0.000E+00 1.179E-04

     total cpu time spent up to now is    19666.4 secs

     total energy              =   -4700.75566801 Ry
     estimated scf accuracy    <          7.0E-09 Ry

     total magnetization       =    16.19 Bohr mag/cell
     absolute magnetization    =    21.49 Bohr mag/cell

     iteration # 20     ecut=    60.00 Ry     beta= 0.30
     Davidson diagonalization with overlap
     ethr =  1.29E-12,  avg # of iterations =  2.5

     negative rho (up, down):  0.000E+00 1.179E-04

     total cpu time spent up to now is    19706.8 secs

     total energy              =   -4700.75566801 Ry
     estimated scf accuracy    <          4.2E-09 Ry

     total magnetization       =    16.19 Bohr mag/cell
     absolute magnetization    =    21.49 Bohr mag/cell

     iteration # 21     ecut=    60.00 Ry     beta= 0.30
     Davidson diagonalization with overlap
     ethr =  1.29E-12,  avg # of iterations =  4.6

     negative rho (up, down):  0.000E+00 1.179E-04

     total cpu time spent up to now is    19751.5 secs

     total energy              =   -4700.75566801 Ry
     estimated scf accuracy    <       0.00000001 Ry

     total magnetization       =    16.19 Bohr mag/cell
     absolute magnetization    =    21.49 Bohr mag/cell

     iteration # 22     ecut=    60.00 Ry     beta= 0.30
     Davidson diagonalization with overlap
     ethr =  1.29E-12,  avg # of iterations =  3.0

     negative rho (up, down):  0.000E+00 1.180E-04

     total cpu time spent up to now is    19791.8 secs

     total energy              =   -4700.75566801 Ry
     estimated scf accuracy    <          4.3E-09 Ry

     total magnetization       =    16.19 Bohr mag/cell
     absolute magnetization    =    21.49 Bohr mag/cell

     iteration # 23     ecut=    60.00 Ry     beta= 0.30
     Davidson diagonalization with overlap
     ethr =  1.29E-12,  avg # of iterations =  4.0

     negative rho (up, down):  0.000E+00 1.180E-04

     total cpu time spent up to now is    19835.3 secs

     total energy              =   -4700.75566801 Ry
     estimated scf accuracy    <          3.4E-09 Ry

     total magnetization       =    16.19 Bohr mag/cell
     absolute magnetization    =    21.49 Bohr mag/cell

     iteration # 24     ecut=    60.00 Ry     beta= 0.30
     Davidson diagonalization with overlap
     ethr =  1.29E-12,  avg # of iterations =  1.6

     negative rho (up, down):  0.000E+00 1.180E-04

     total cpu time spent up to now is    19871.1 secs

     total energy              =   -4700.75566801 Ry
     estimated scf accuracy    <          2.8E-09 Ry

     total magnetization       =    16.19 Bohr mag/cell
     absolute magnetization    =    21.49 Bohr mag/cell

     iteration # 25     ecut=    60.00 Ry     beta= 0.30
     Davidson diagonalization with overlap
     ethr =  1.16E-12,  avg # of iterations =  2.4

     negative rho (up, down):  0.000E+00 1.180E-04

     total cpu time spent up to now is    19909.9 secs

     total energy              =   -4700.75566801 Ry
     estimated scf accuracy    <          1.7E-09 Ry

     total magnetization       =    16.19 Bohr mag/cell
     absolute magnetization    =    21.49 Bohr mag/cell

     iteration # 26     ecut=    60.00 Ry     beta= 0.30
     Davidson diagonalization with overlap
     ethr =  7.15E-13,  avg # of iterations =  5.6

     negative rho (up, down):  0.000E+00 1.180E-04

     total cpu time spent up to now is    19960.8 secs

     total energy              =   -4700.75566801 Ry
     estimated scf accuracy    <          3.2E-09 Ry

     total magnetization       =    16.19 Bohr mag/cell
     absolute magnetization    =    21.49 Bohr mag/cell

     iteration # 27     ecut=    60.00 Ry     beta= 0.30
     Davidson diagonalization with overlap
     ethr =  7.15E-13,  avg # of iterations =  2.1

     negative rho (up, down):  0.000E+00 1.180E-04

     total cpu time spent up to now is    19998.3 secs

     total energy              =   -4700.75566801 Ry
     estimated scf accuracy    <          3.3E-09 Ry

     total magnetization       =    16.19 Bohr mag/cell
     absolute magnetization    =    21.49 Bohr mag/cell

     iteration # 28     ecut=    60.00 Ry     beta= 0.30
     Davidson diagonalization with overlap
     ethr =  7.15E-13,  avg # of iterations =  2.4

     negative rho (up, down):  0.000E+00 1.180E-04

     total cpu time spent up to now is    20036.7 secs

     total energy              =   -4700.75566801 Ry
     estimated scf accuracy    <          3.5E-09 Ry

     total magnetization       =    16.19 Bohr mag/cell
     absolute magnetization    =    21.49 Bohr mag/cell

     iteration # 29     ecut=    60.00 Ry     beta= 0.30
     Davidson diagonalization with overlap
     ethr =  7.15E-13,  avg # of iterations =  1.2

     negative rho (up, down):  0.000E+00 1.180E-04

     total cpu time spent up to now is    20070.9 secs

     total energy              =   -4700.75566801 Ry
     estimated scf accuracy    <          1.9E-09 Ry

     total magnetization       =    16.19 Bohr mag/cell
     absolute magnetization    =    21.49 Bohr mag/cell

     iteration # 30     ecut=    60.00 Ry     beta= 0.30
     Davidson diagonalization with overlap
     ethr =  7.15E-13,  avg # of iterations =  3.0

     negative rho (up, down):  0.000E+00 1.180E-04

     total cpu time spent up to now is    20111.4 secs

     total energy              =   -4700.75566801 Ry
     estimated scf accuracy    <          1.7E-09 Ry

     total magnetization       =    16.19 Bohr mag/cell
     absolute magnetization    =    21.49 Bohr mag/cell

     iteration # 31     ecut=    60.00 Ry     beta= 0.30
     Davidson diagonalization with overlap
     ethr =  6.86E-13,  avg # of iterations =  5.8

     negative rho (up, down):  0.000E+00 1.180E-04

     total cpu time spent up to now is    20167.4 secs

     total energy              =   -4700.75566801 Ry
     estimated scf accuracy    <          1.1E-09 Ry

     total magnetization       =    16.19 Bohr mag/cell
     absolute magnetization    =    21.49 Bohr mag/cell

     iteration # 32     ecut=    60.00 Ry     beta= 0.30
     Davidson diagonalization with overlap
     ethr =  4.72E-13,  avg # of iterations =  4.0

     negative rho (up, down):  0.000E+00 1.180E-04

     total cpu time spent up to now is    20211.3 secs

     total energy              =   -4700.75566802 Ry
     estimated scf accuracy    <          1.5E-09 Ry

     total magnetization       =    16.19 Bohr mag/cell
     absolute magnetization    =    21.49 Bohr mag/cell

     iteration # 33     ecut=    60.00 Ry     beta= 0.30
     Davidson diagonalization with overlap
     ethr =  4.72E-13,  avg # of iterations =  1.0

     negative rho (up, down):  0.000E+00 1.180E-04

     total cpu time spent up to now is    20244.4 secs

     total energy              =   -4700.75566802 Ry
     estimated scf accuracy    <          1.2E-09 Ry

     total magnetization       =    16.19 Bohr mag/cell
     absolute magnetization    =    21.49 Bohr mag/cell

     iteration # 34     ecut=    60.00 Ry     beta= 0.30
     Davidson diagonalization with overlap
     ethr =  4.72E-13,  avg # of iterations =  5.4

     negative rho (up, down):  0.000E+00 1.180E-04

     total cpu time spent up to now is    20294.4 secs

     total energy              =   -4700.75566802 Ry
     estimated scf accuracy    <          2.2E-09 Ry

     total magnetization       =    16.19 Bohr mag/cell
     absolute magnetization    =    21.49 Bohr mag/cell

     iteration # 35     ecut=    60.00 Ry     beta= 0.30
     Davidson diagonalization with overlap
     ethr =  4.72E-13,  avg # of iterations =  1.3

     negative rho (up, down):  0.000E+00 1.180E-04

     total cpu time spent up to now is    20329.0 secs

     total energy              =   -4700.75566802 Ry
     estimated scf accuracy    <          1.2E-09 Ry

     total magnetization       =    16.19 Bohr mag/cell
     absolute magnetization    =    21.49 Bohr mag/cell

     iteration # 36     ecut=    60.00 Ry     beta= 0.30
     Davidson diagonalization with overlap
     ethr =  4.72E-13,  avg # of iterations =  6.1

     negative rho (up, down):  0.000E+00 1.180E-04

     total cpu time spent up to now is    20387.9 secs

     total energy              =   -4700.75566802 Ry
     estimated scf accuracy    <          1.5E-09 Ry

     total magnetization       =    16.19 Bohr mag/cell
     absolute magnetization    =    21.49 Bohr mag/cell

     iteration # 37     ecut=    60.00 Ry     beta= 0.30
     Davidson diagonalization with overlap
     ethr =  4.72E-13,  avg # of iterations =  5.3

     negative rho (up, down):  0.000E+00 1.180E-04

     total cpu time spent up to now is    20437.2 secs

     total energy              =   -4700.75566802 Ry
     estimated scf accuracy    <          2.1E-09 Ry

     total magnetization       =    16.19 Bohr mag/cell
     absolute magnetization    =    21.49 Bohr mag/cell

     iteration # 38     ecut=    60.00 Ry     beta= 0.30
     Davidson diagonalization with overlap
     ethr =  4.72E-13,  avg # of iterations =  5.4

     negative rho (up, down):  0.000E+00 1.180E-04

     total cpu time spent up to now is    20494.2 secs

     total energy              =   -4700.75566802 Ry
     estimated scf accuracy    <          1.2E-09 Ry

     total magnetization       =    16.19 Bohr mag/cell
     absolute magnetization    =    21.49 Bohr mag/cell

     iteration # 39     ecut=    60.00 Ry     beta= 0.30
     Davidson diagonalization with overlap
     ethr =  4.72E-13,  avg # of iterations =  4.0

     negative rho (up, down):  0.000E+00 1.180E-04

     total cpu time spent up to now is    20537.0 secs

     total energy              =   -4700.75566802 Ry
     estimated scf accuracy    <          1.0E-09 Ry

     total magnetization       =    16.19 Bohr mag/cell
     absolute magnetization    =    21.49 Bohr mag/cell

     iteration # 40     ecut=    60.00 Ry     beta= 0.30
     Davidson diagonalization with overlap
     ethr =  4.14E-13,  avg # of iterations =  1.5

     negative rho (up, down):  0.000E+00 1.180E-04

     total cpu time spent up to now is    20572.5 secs

     total energy              =   -4700.75566802 Ry
     estimated scf accuracy    <          5.9E-10 Ry

     total magnetization       =    16.19 Bohr mag/cell
     absolute magnetization    =    21.49 Bohr mag/cell

     iteration # 41     ecut=    60.00 Ry     beta= 0.30
     Davidson diagonalization with overlap
     ethr =  2.43E-13,  avg # of iterations =  4.2

     negative rho (up, down):  0.000E+00 1.179E-04

     total cpu time spent up to now is    20617.3 secs

     total energy              =   -4700.75566802 Ry
     estimated scf accuracy    <          1.8E-09 Ry

     total magnetization       =    16.19 Bohr mag/cell
     absolute magnetization    =    21.49 Bohr mag/cell

     iteration # 42     ecut=    60.00 Ry     beta= 0.30
     Davidson diagonalization with overlap
     ethr =  2.43E-13,  avg # of iterations =  6.9

     negative rho (up, down):  0.000E+00 1.179E-04

     total cpu time spent up to now is    20679.2 secs

     total energy              =   -4700.75566802 Ry
     estimated scf accuracy    <          8.1E-10 Ry

     total magnetization       =    16.19 Bohr mag/cell
     absolute magnetization    =    21.49 Bohr mag/cell

     iteration # 43     ecut=    60.00 Ry     beta= 0.30
     Davidson diagonalization with overlap
     ethr =  2.43E-13,  avg # of iterations =  5.4

     negative rho (up, down):  0.000E+00 1.179E-04

     total cpu time spent up to now is    20735.3 secs

     total energy              =   -4700.75566802 Ry
     estimated scf accuracy    <          4.0E-10 Ry

     total magnetization       =    16.19 Bohr mag/cell
     absolute magnetization    =    21.49 Bohr mag/cell

     iteration # 44     ecut=    60.00 Ry     beta= 0.30
     Davidson diagonalization with overlap
     ethr =  1.64E-13,  avg # of iterations =  2.3

     negative rho (up, down):  0.000E+00 1.179E-04

     total cpu time spent up to now is    20773.7 secs

     total energy              =   -4700.75566802 Ry
     estimated scf accuracy    <          4.2E-10 Ry

     total magnetization       =    16.19 Bohr mag/cell
     absolute magnetization    =    21.49 Bohr mag/cell

     iteration # 45     ecut=    60.00 Ry     beta= 0.30
     Davidson diagonalization with overlap
     ethr =  1.64E-13,  avg # of iterations =  6.8

     negative rho (up, down):  0.000E+00 1.179E-04

     total cpu time spent up to now is    20836.6 secs

     total energy              =   -4700.75566802 Ry
     estimated scf accuracy    <          2.6E-10 Ry

     total magnetization       =    16.19 Bohr mag/cell
     absolute magnetization    =    21.49 Bohr mag/cell

     iteration # 46     ecut=    60.00 Ry     beta= 0.30
     Davidson diagonalization with overlap
     ethr =  1.06E-13,  avg # of iterations =  5.4

     negative rho (up, down):  0.000E+00 1.179E-04

     total cpu time spent up to now is    20886.3 secs

     total energy              =   -4700.75566802 Ry
     estimated scf accuracy    <          6.5E-10 Ry

     total magnetization       =    16.19 Bohr mag/cell
     absolute magnetization    =    21.49 Bohr mag/cell

     iteration # 47     ecut=    60.00 Ry     beta= 0.30
     Davidson diagonalization with overlap
     ethr =  1.06E-13,  avg # of iterations =  7.2

     negative rho (up, down):  0.000E+00 1.179E-04

     total cpu time spent up to now is    20951.1 secs

     total energy              =   -4700.75566802 Ry
     estimated scf accuracy    <          1.9E-09 Ry

     total magnetization       =    16.19 Bohr mag/cell
     absolute magnetization    =    21.49 Bohr mag/cell

     iteration # 48     ecut=    60.00 Ry     beta= 0.30
     Davidson diagonalization with overlap
     ethr =  1.06E-13,  avg # of iterations =  7.1

     negative rho (up, down):  0.000E+00 1.179E-04

     total cpu time spent up to now is    21016.5 secs

     total energy              =   -4700.75566802 Ry
     estimated scf accuracy    <          1.2E-09 Ry

     total magnetization       =    16.19 Bohr mag/cell
     absolute magnetization    =    21.49 Bohr mag/cell

     iteration # 49     ecut=    60.00 Ry     beta= 0.30
     Davidson diagonalization with overlap
     ethr =  1.06E-13,  avg # of iterations =  8.0

     negative rho (up, down):  0.000E+00 1.179E-04

     total cpu time spent up to now is    21088.0 secs

     total energy              =   -4700.75566802 Ry
     estimated scf accuracy    <          6.2E-10 Ry

     total magnetization       =    16.19 Bohr mag/cell
     absolute magnetization    =    21.49 Bohr mag/cell

     iteration # 50     ecut=    60.00 Ry     beta= 0.30
     Davidson diagonalization with overlap
     ethr =  1.06E-13,  avg # of iterations = 10.4

     negative rho (up, down):  0.000E+00 1.179E-04

     total cpu time spent up to now is    21171.7 secs

     total energy              =   -4700.75566802 Ry
     estimated scf accuracy    <          2.7E-10 Ry

     total magnetization       =    16.19 Bohr mag/cell
     absolute magnetization    =    21.49 Bohr mag/cell

     iteration # 51     ecut=    60.00 Ry     beta= 0.30
     Davidson diagonalization with overlap
     ethr =  1.06E-13,  avg # of iterations =  5.4

     negative rho (up, down):  0.000E+00 1.179E-04

     total cpu time spent up to now is    21221.6 secs

     total energy              =   -4700.75566802 Ry
     estimated scf accuracy    <          1.7E-10 Ry

     total magnetization       =    16.19 Bohr mag/cell
     absolute magnetization    =    21.49 Bohr mag/cell

     iteration # 52     ecut=    60.00 Ry     beta= 0.30
     Davidson diagonalization with overlap
     ethr =  1.00E-13,  avg # of iterations =  3.8

     negative rho (up, down):  0.000E+00 1.179E-04

     total cpu time spent up to now is    21263.6 secs

     total energy              =   -4700.75566802 Ry
     estimated scf accuracy    <          1.1E-10 Ry

     total magnetization       =    16.19 Bohr mag/cell
     absolute magnetization    =    21.49 Bohr mag/cell

     iteration # 53     ecut=    60.00 Ry     beta= 0.30
     Davidson diagonalization with overlap
     ethr =  1.00E-13,  avg # of iterations =  1.9

     negative rho (up, down):  0.000E+00 1.179E-04
 
     Magnetic moment per site  (integrated on atomic sphere of radius R)
     atom   1 (R=0.179)  charge= 12.1362  magn= -0.3599
     atom   2 (R=0.179)  charge= 14.4305  magn=  1.9219
     atom   3 (R=0.179)  charge= 14.4111  magn=  2.0444
     atom   4 (R=0.179)  charge= 12.1650  magn=  0.3890
     atom   5 (R=0.179)  charge= 12.1414  magn= -0.0484
     atom   6 (R=0.179)  charge= 14.4305  magn=  1.9118
     atom   7 (R=0.179)  charge= 12.1362  magn= -0.3599
     atom   8 (R=0.179)  charge= 14.4305  magn=  1.9219
     atom   9 (R=0.179)  charge= 12.1218  magn= -0.5419
     atom  10 (R=0.179)  charge= 14.4305  magn=  1.9219
     atom  11 (R=0.179)  charge= 14.4064  magn=  2.2575
     atom  12 (R=0.179)  charge= 14.4305  magn=  1.9118
     atom  13 (R=0.179)  charge= 14.4126  magn=  1.9463
     atom  14 (R=0.179)  charge= 12.1650  magn=  0.3890
     atom  15 (R=0.179)  charge= 12.1218  magn= -0.5419
     atom  16 (R=0.179)  charge= 14.4305  magn=  1.9219

     total cpu time spent up to now is    21300.0 secs

     End of self-consistent calculation

     Number of k-points >= 100: set verbosity='high' to print the bands.

     the Fermi energy is    19.2681 ev

!    total energy              =   -4700.75566802 Ry
     total all-electron energy =    -37622.153215 Ry
     estimated scf accuracy    <          6.5E-11 Ry
     smearing contrib. (-TS)   =      -0.00313903 Ry
     internal energy E=F+TS    =   -4700.75252900 Ry

     The total energy is F=E-TS. E is the sum of the following terms:
     one-electron contribution =   -1376.60520202 Ry
     hartree contribution      =     841.34344051 Ry
     xc contribution           =    -405.55405320 Ry
     ewald contribution        =   -2495.07119592 Ry
     one-center paw contrib.   =   -1264.86551836 Ry

     total magnetization       =    16.19 Bohr mag/cell
     absolute magnetization    =    21.49 Bohr mag/cell

     convergence has been achieved in  53 iterations

     negative rho (up, down):  0.000E+00 1.179E-04

     Forces acting on atoms (cartesian axes, Ry/au):

     atom    1 type  2   force =     0.00000000    0.00000000    0.00000000
     atom    2 type  1   force =     0.00006150    0.00009404    0.00022587
     atom    3 type  1   force =     0.00000000    0.00000000    0.00000000
     atom    4 type  2   force =     0.00002791   -0.00004030   -0.00004030
     atom    5 type  2   force =     0.00000000    0.00000000    0.00000000
     atom    6 type  1   force =     0.00026293   -0.00002725   -0.00002725
     atom    7 type  2   force =     0.00000000    0.00000000    0.00000000
     atom    8 type  1   force =     0.00006150    0.00022587    0.00009404
     atom    9 type  2   force =     0.00000000    0.00000000    0.00000000
     atom   10 type  1   force =    -0.00006150   -0.00022587   -0.00009404
     atom   11 type  1   force =     0.00000000    0.00000000    0.00000000
     atom   12 type  1   force =    -0.00026293    0.00002725    0.00002725
     atom   13 type  1   force =     0.00000000    0.00000000    0.00000000
     atom   14 type  2   force =    -0.00002791    0.00004030    0.00004030
     atom   15 type  2   force =     0.00000000    0.00000000    0.00000000
     atom   16 type  1   force =    -0.00006150   -0.00009404   -0.00022587

     Total force =     0.000636     Total SCF correction =     0.000021


     Computing stress (Cartesian axis) and pressure


     negative rho (up, down):  0.000E+00 1.179E-04
          total   stress  (Ry/bohr**3)                   (kbar)     P=        0.02
  -0.00000240  -0.00000027  -0.00000027           -0.35       -0.04       -0.04
  -0.00000027   0.00000141  -0.00000013           -0.04        0.21       -0.02
  -0.00000027  -0.00000013   0.00000141           -0.04       -0.02        0.21

     Energy error            =      4.7E-06 Ry
     Gradient error          =      2.6E-04 Ry/Bohr
     Cell gradient error     =      3.5E-01 kbar

     number of scf cycles    =   7
     number of bfgs steps    =   6

     enthalpy           old  =   -4700.7556633408 Ry
     enthalpy           new  =   -4700.7556680234 Ry

     CASE: enthalpy          _new < enthalpy          _old

     new trust radius        =       0.0009579806 bohr
     new conv_thr            =            1.0E-10 Ry

     new unit-cell volume =   1223.67361 a.u.^3 (   181.32972 Ang^3 )
     density =      7.93574 g/cm^3

CELL_PARAMETERS (angstrom)
   5.706668499   0.019519269   0.019519269
   0.019382196   5.637096494   0.032497385
   0.019382196   0.032497385   5.637096494

ATOMIC_POSITIONS (crystal)
Cr               0.0000000000        0.0000000000        0.0000000000
Fe               0.2501440840        0.2499315930        0.2503171161
Fe              -0.0000000000       -0.0000000000        0.5000000000
Cr               0.2455056888        0.2515105983        0.7515105983
Cr               0.0000000000        0.5000000000       -0.0000000000
Fe               0.2522406013        0.7508845238        0.2508845238
Cr               0.0000000000        0.5000000000        0.5000000000
Fe               0.2501440840        0.7503171161        0.7499315930
Cr               0.5000000000       -0.0000000000       -0.0000000000
Fe               0.7498559160        0.2496828839        0.2500684070
Fe               0.5000000000       -0.0000000000        0.5000000000
Fe               0.7477593987        0.2491154762        0.7491154762
Fe               0.5000000000        0.5000000000       -0.0000000000
Cr               0.7544943112        0.7484894017        0.2484894017
Cr               0.5000000000        0.5000000000        0.5000000000
Fe               0.7498559160        0.7500684070        0.7496828839



     Writing config-only to output data dir ./tmp/fecr_fe09cr07_vcr.save/ :
     XML data file
     NEW-OLD atomic charge density approx. for the potential

     Check: negative core charge=   -0.000003

     negative rho (up, down):  0.000E+00 1.186E-04
     Generating pointlists ...

     total cpu time spent up to now is    21369.0 secs

     Self-consistent Calculation

     iteration #  1     ecut=    60.00 Ry     beta= 0.30
     Davidson diagonalization with overlap
     ethr =  1.00E-06,  avg # of iterations =  2.0

     Threshold (ethr) on eigenvalues was too large:
     Diagonalizing with lowered threshold

     Davidson diagonalization with overlap
     ethr =  6.69E-10,  avg # of iterations =  6.1

     negative rho (up, down):  0.000E+00 1.187E-04

     total cpu time spent up to now is    21472.5 secs

     total energy              =   -4700.75566784 Ry
     estimated scf accuracy    <       0.00000141 Ry

     total magnetization       =    16.19 Bohr mag/cell
     absolute magnetization    =    21.49 Bohr mag/cell

     iteration #  2     ecut=    60.00 Ry     beta= 0.30
     Davidson diagonalization with overlap
     ethr =  5.82E-10,  avg # of iterations =  6.3

     negative rho (up, down):  0.000E+00 1.187E-04

     total cpu time spent up to now is    21530.2 secs

     total energy              =   -4700.75566670 Ry
     estimated scf accuracy    <       0.00004331 Ry

     total magnetization       =    16.19 Bohr mag/cell
     absolute magnetization    =    21.49 Bohr mag/cell

     iteration #  3     ecut=    60.00 Ry     beta= 0.30
     Davidson diagonalization with overlap
     ethr =  5.82E-10,  avg # of iterations =  6.0

     negative rho (up, down):  0.000E+00 1.187E-04

     total cpu time spent up to now is    21585.6 secs

     total energy              =   -4700.75566842 Ry
     estimated scf accuracy    <       0.00000042 Ry

     total magnetization       =    16.19 Bohr mag/cell
     absolute magnetization    =    21.49 Bohr mag/cell

     iteration #  4     ecut=    60.00 Ry     beta= 0.30
     Davidson diagonalization with overlap
     ethr =  1.72E-10,  avg # of iterations =  4.2

     negative rho (up, down):  0.000E+00 1.188E-04

     total cpu time spent up to now is    21631.4 secs

     total energy              =   -4700.75566859 Ry
     estimated scf accuracy    <       0.00000128 Ry

     total magnetization       =    16.19 Bohr mag/cell
     absolute magnetization    =    21.48 Bohr mag/cell

     iteration #  5     ecut=    60.00 Ry     beta= 0.30
     Davidson diagonalization with overlap
     ethr =  1.72E-10,  avg # of iterations =  2.0

     negative rho (up, down):  0.000E+00 1.188E-04

     total cpu time spent up to now is    21670.3 secs

     total energy              =   -4700.75566868 Ry
     estimated scf accuracy    <       0.00000023 Ry

     total magnetization       =    16.19 Bohr mag/cell
     absolute magnetization    =    21.49 Bohr mag/cell

     iteration #  6     ecut=    60.00 Ry     beta= 0.30
     Davidson diagonalization with overlap
     ethr =  9.38E-11,  avg # of iterations =  1.2

     negative rho (up, down):  0.000E+00 1.188E-04

     total cpu time spent up to now is    21704.4 secs

     total energy              =   -4700.75566876 Ry
     estimated scf accuracy    <       0.00000004 Ry

     total magnetization       =    16.19 Bohr mag/cell
     absolute magnetization    =    21.49 Bohr mag/cell

     iteration #  7     ecut=    60.00 Ry     beta= 0.30
     Davidson diagonalization with overlap
     ethr =  1.76E-11,  avg # of iterations =  4.7

     negative rho (up, down):  0.000E+00 1.188E-04

     total cpu time spent up to now is    21751.1 secs

     total energy              =   -4700.75566881 Ry
     estimated scf accuracy    <       0.00000007 Ry

     total magnetization       =    16.19 Bohr mag/cell
     absolute magnetization    =    21.49 Bohr mag/cell

     iteration #  8     ecut=    60.00 Ry     beta= 0.30
     Davidson diagonalization with overlap
     ethr =  1.76E-11,  avg # of iterations =  1.9

     negative rho (up, down):  0.000E+00 1.188E-04

     total cpu time spent up to now is    21788.7 secs

     total energy              =   -4700.75566887 Ry
     estimated scf accuracy    <       0.00000003 Ry

     total magnetization       =    16.19 Bohr mag/cell
     absolute magnetization    =    21.49 Bohr mag/cell

     iteration #  9     ecut=    60.00 Ry     beta= 0.30
     Davidson diagonalization with overlap
     ethr =  1.40E-11,  avg # of iterations =  3.7

     negative rho (up, down):  0.000E+00 1.188E-04

     total cpu time spent up to now is    21833.7 secs

     total energy              =   -4700.75566889 Ry
     estimated scf accuracy    <       0.00000011 Ry

     total magnetization       =    16.19 Bohr mag/cell
     absolute magnetization    =    21.48 Bohr mag/cell

     iteration # 10     ecut=    60.00 Ry     beta= 0.30
     Davidson diagonalization with overlap
     ethr =  1.40E-11,  avg # of iterations =  2.3

     negative rho (up, down):  0.000E+00 1.188E-04

     total cpu time spent up to now is    21874.2 secs

     total energy              =   -4700.75566889 Ry
     estimated scf accuracy    <          7.6E-09 Ry

     total magnetization       =    16.19 Bohr mag/cell
     absolute magnetization    =    21.48 Bohr mag/cell

     iteration # 11     ecut=    60.00 Ry     beta= 0.30
     Davidson diagonalization with overlap
     ethr =  3.12E-12,  avg # of iterations =  5.6

     negative rho (up, down):  0.000E+00 1.188E-04

     total cpu time spent up to now is    21922.1 secs

     total energy              =   -4700.75566889 Ry
     estimated scf accuracy    <       0.00000002 Ry

     total magnetization       =    16.19 Bohr mag/cell
     absolute magnetization    =    21.48 Bohr mag/cell

     iteration # 12     ecut=    60.00 Ry     beta= 0.30
     Davidson diagonalization with overlap
     ethr =  3.12E-12,  avg # of iterations =  3.6

     negative rho (up, down):  0.000E+00 1.188E-04

     total cpu time spent up to now is    21964.7 secs

     total energy              =   -4700.75566889 Ry
     estimated scf accuracy    <       0.00000001 Ry

     total magnetization       =    16.19 Bohr mag/cell
     absolute magnetization    =    21.48 Bohr mag/cell

     iteration # 13     ecut=    60.00 Ry     beta= 0.30
     Davidson diagonalization with overlap
     ethr =  3.12E-12,  avg # of iterations =  1.1

     negative rho (up, down):  0.000E+00 1.188E-04

     total cpu time spent up to now is    21998.0 secs

     total energy              =   -4700.75566890 Ry
     estimated scf accuracy    <          1.7E-09 Ry

     total magnetization       =    16.19 Bohr mag/cell
     absolute magnetization    =    21.48 Bohr mag/cell

     iteration # 14     ecut=    60.00 Ry     beta= 0.30
     Davidson diagonalization with overlap
     ethr =  7.02E-13,  avg # of iterations =  3.3

     negative rho (up, down):  0.000E+00 1.188E-04

     total cpu time spent up to now is    22040.4 secs

     total energy              =   -4700.75566890 Ry
     estimated scf accuracy    <          2.3E-09 Ry

     total magnetization       =    16.19 Bohr mag/cell
     absolute magnetization    =    21.48 Bohr mag/cell

     iteration # 15     ecut=    60.00 Ry     beta= 0.30
     Davidson diagonalization with overlap
     ethr =  7.02E-13,  avg # of iterations =  1.4

     negative rho (up, down):  0.000E+00 1.188E-04

     total cpu time spent up to now is    22075.1 secs

     total energy              =   -4700.75566890 Ry
     estimated scf accuracy    <          1.3E-09 Ry

     total magnetization       =    16.19 Bohr mag/cell
     absolute magnetization    =    21.48 Bohr mag/cell

     iteration # 16     ecut=    60.00 Ry     beta= 0.30
     Davidson diagonalization with overlap
     ethr =  5.32E-13,  avg # of iterations =  1.5

     negative rho (up, down):  0.000E+00 1.188E-04

     total cpu time spent up to now is    22110.8 secs

     total energy              =   -4700.75566890 Ry
     estimated scf accuracy    <          1.4E-09 Ry

     total magnetization       =    16.19 Bohr mag/cell
     absolute magnetization    =    21.48 Bohr mag/cell

     iteration # 17     ecut=    60.00 Ry     beta= 0.30
     Davidson diagonalization with overlap
     ethr =  5.32E-13,  avg # of iterations =  5.0

     negative rho (up, down):  0.000E+00 1.188E-04

     total cpu time spent up to now is    22158.5 secs

     total energy              =   -4700.75566890 Ry
     estimated scf accuracy    <          1.2E-09 Ry

     total magnetization       =    16.19 Bohr mag/cell
     absolute magnetization    =    21.48 Bohr mag/cell

     iteration # 18     ecut=    60.00 Ry     beta= 0.30
     Davidson diagonalization with overlap
     ethr =  4.76E-13,  avg # of iterations =  1.9

     negative rho (up, down):  0.000E+00 1.188E-04

     total cpu time spent up to now is    22196.2 secs

     total energy              =   -4700.75566890 Ry
     estimated scf accuracy    <          1.7E-09 Ry

     total magnetization       =    16.19 Bohr mag/cell
     absolute magnetization    =    21.48 Bohr mag/cell

     iteration # 19     ecut=    60.00 Ry     beta= 0.30
     Davidson diagonalization with overlap
     ethr =  4.76E-13,  avg # of iterations =  5.5

     negative rho (up, down):  0.000E+00 1.188E-04

     total cpu time spent up to now is    22247.5 secs

     total energy              =   -4700.75566890 Ry
     estimated scf accuracy    <          2.1E-09 Ry

     total magnetization       =    16.19 Bohr mag/cell
     absolute magnetization    =    21.48 Bohr mag/cell

     iteration # 20     ecut=    60.00 Ry     beta= 0.30
     Davidson diagonalization with overlap
     ethr =  4.76E-13,  avg # of iterations =  1.9

     negative rho (up, down):  0.000E+00 1.188E-04

     total cpu time spent up to now is    22285.7 secs

     total energy              =   -4700.75566890 Ry
     estimated scf accuracy    <          1.3E-09 Ry

     total magnetization       =    16.19 Bohr mag/cell
     absolute magnetization    =    21.48 Bohr mag/cell

     iteration # 21     ecut=    60.00 Ry     beta= 0.30
     Davidson diagonalization with overlap
     ethr =  4.76E-13,  avg # of iterations =  3.3

     negative rho (up, down):  0.000E+00 1.188E-04

     total cpu time spent up to now is    22327.0 secs

     total energy              =   -4700.75566890 Ry
     estimated scf accuracy    <          3.2E-09 Ry

     total magnetization       =    16.19 Bohr mag/cell
     absolute magnetization    =    21.48 Bohr mag/cell

     iteration # 22     ecut=    60.00 Ry     beta= 0.30
     Davidson diagonalization with overlap
     ethr =  4.76E-13,  avg # of iterations =  1.3

     negative rho (up, down):  0.000E+00 1.188E-04

     total cpu time spent up to now is    22361.8 secs

     total energy              =   -4700.75566890 Ry
     estimated scf accuracy    <          8.7E-10 Ry

     total magnetization       =    16.19 Bohr mag/cell
     absolute magnetization    =    21.48 Bohr mag/cell

     iteration # 23     ecut=    60.00 Ry     beta= 0.30
     Davidson diagonalization with overlap
     ethr =  3.61E-13,  avg # of iterations =  4.2

     negative rho (up, down):  0.000E+00 1.188E-04

     total cpu time spent up to now is    22406.3 secs

     total energy              =   -4700.75566890 Ry
     estimated scf accuracy    <          8.2E-10 Ry

     total magnetization       =    16.19 Bohr mag/cell
     absolute magnetization    =    21.48 Bohr mag/cell

     iteration # 24     ecut=    60.00 Ry     beta= 0.30
     Davidson diagonalization with overlap
     ethr =  3.41E-13,  avg # of iterations =  1.8

     negative rho (up, down):  0.000E+00 1.188E-04

     total cpu time spent up to now is    22442.9 secs

     total energy              =   -4700.75566890 Ry
     estimated scf accuracy    <          1.2E-09 Ry

     total magnetization       =    16.19 Bohr mag/cell
     absolute magnetization    =    21.48 Bohr mag/cell

     iteration # 25     ecut=    60.00 Ry     beta= 0.30
     Davidson diagonalization with overlap
     ethr =  3.41E-13,  avg # of iterations =  5.8

     negative rho (up, down):  0.000E+00 1.188E-04

     total cpu time spent up to now is    22497.0 secs

     total energy              =   -4700.75566890 Ry
     estimated scf accuracy    <          7.0E-10 Ry

     total magnetization       =    16.19 Bohr mag/cell
     absolute magnetization    =    21.48 Bohr mag/cell

     iteration # 26     ecut=    60.00 Ry     beta= 0.30
     Davidson diagonalization with overlap
     ethr =  2.89E-13,  avg # of iterations =  5.3

     negative rho (up, down):  0.000E+00 1.188E-04

     total cpu time spent up to now is    22548.8 secs

     total energy              =   -4700.75566890 Ry
     estimated scf accuracy    <          6.9E-10 Ry

     total magnetization       =    16.19 Bohr mag/cell
     absolute magnetization    =    21.48 Bohr mag/cell

     iteration # 27     ecut=    60.00 Ry     beta= 0.30
     Davidson diagonalization with overlap
     ethr =  2.83E-13,  avg # of iterations =  5.3

     negative rho (up, down):  0.000E+00 1.188E-04

     total cpu time spent up to now is    22605.0 secs

     total energy              =   -4700.75566890 Ry
     estimated scf accuracy    <          4.4E-10 Ry

     total magnetization       =    16.19 Bohr mag/cell
     absolute magnetization    =    21.48 Bohr mag/cell

     iteration # 28     ecut=    60.00 Ry     beta= 0.30
     Davidson diagonalization with overlap
     ethr =  1.82E-13,  avg # of iterations =  4.4

     negative rho (up, down):  0.000E+00 1.188E-04

     total cpu time spent up to now is    22652.7 secs

     total energy              =   -4700.75566890 Ry
     estimated scf accuracy    <          1.8E-09 Ry

     total magnetization       =    16.19 Bohr mag/cell
     absolute magnetization    =    21.48 Bohr mag/cell

     iteration # 29     ecut=    60.00 Ry     beta= 0.30
     Davidson diagonalization with overlap
     ethr =  1.82E-13,  avg # of iterations =  8.1

     negative rho (up, down):  0.000E+00 1.188E-04

     total cpu time spent up to now is    22723.7 secs

     total energy              =   -4700.75566890 Ry
     estimated scf accuracy    <          5.5E-10 Ry

     total magnetization       =    16.19 Bohr mag/cell
     absolute magnetization    =    21.48 Bohr mag/cell

     iteration # 30     ecut=    60.00 Ry     beta= 0.30
     Davidson diagonalization with overlap
     ethr =  1.82E-13,  avg # of iterations =  5.2

     negative rho (up, down):  0.000E+00 1.188E-04

     total cpu time spent up to now is    22772.5 secs

     total energy              =   -4700.75566890 Ry
     estimated scf accuracy    <          7.8E-10 Ry

     total magnetization       =    16.19 Bohr mag/cell
     absolute magnetization    =    21.48 Bohr mag/cell

     iteration # 31     ecut=    60.00 Ry     beta= 0.30
     Davidson diagonalization with overlap
     ethr =  1.82E-13,  avg # of iterations =  5.2

     negative rho (up, down):  0.000E+00 1.188E-04

     total cpu time spent up to now is    22819.8 secs

     total energy              =   -4700.75566890 Ry
     estimated scf accuracy    <          6.2E-10 Ry

     total magnetization       =    16.19 Bohr mag/cell
     absolute magnetization    =    21.48 Bohr mag/cell

     iteration # 32     ecut=    60.00 Ry     beta= 0.30
     Davidson diagonalization with overlap
     ethr =  1.82E-13,  avg # of iterations =  5.4

     negative rho (up, down):  0.000E+00 1.188E-04

     total cpu time spent up to now is    22873.4 secs

     total energy              =   -4700.75566890 Ry
     estimated scf accuracy    <          3.8E-10 Ry

     total magnetization       =    16.19 Bohr mag/cell
     absolute magnetization    =    21.48 Bohr mag/cell

     iteration # 33     ecut=    60.00 Ry     beta= 0.30
     Davidson diagonalization with overlap
     ethr =  1.57E-13,  avg # of iterations =  2.6

     negative rho (up, down):  0.000E+00 1.187E-04

     total cpu time spent up to now is    22912.8 secs

     total energy              =   -4700.75566890 Ry
     estimated scf accuracy    <          2.5E-10 Ry

     total magnetization       =    16.19 Bohr mag/cell
     absolute magnetization    =    21.48 Bohr mag/cell

     iteration # 34     ecut=    60.00 Ry     beta= 0.30
     Davidson diagonalization with overlap
     ethr =  1.04E-13,  avg # of iterations =  3.3

     negative rho (up, down):  0.000E+00 1.188E-04

     total cpu time spent up to now is    22955.3 secs

     total energy              =   -4700.75566890 Ry
     estimated scf accuracy    <          5.9E-10 Ry

     total magnetization       =    16.19 Bohr mag/cell
     absolute magnetization    =    21.48 Bohr mag/cell

     iteration # 35     ecut=    60.00 Ry     beta= 0.30
     Davidson diagonalization with overlap
     ethr =  1.04E-13,  avg # of iterations =  4.1

     negative rho (up, down):  0.000E+00 1.187E-04

     total cpu time spent up to now is    22999.0 secs

     total energy              =   -4700.75566890 Ry
     estimated scf accuracy    <          4.4E-10 Ry

     total magnetization       =    16.19 Bohr mag/cell
     absolute magnetization    =    21.48 Bohr mag/cell

     iteration # 36     ecut=    60.00 Ry     beta= 0.30
     Davidson diagonalization with overlap
     ethr =  1.04E-13,  avg # of iterations =  5.5

     negative rho (up, down):  0.000E+00 1.187E-04

     total cpu time spent up to now is    23049.5 secs

     total energy              =   -4700.75566890 Ry
     estimated scf accuracy    <          2.7E-10 Ry

     total magnetization       =    16.19 Bohr mag/cell
     absolute magnetization    =    21.48 Bohr mag/cell

     iteration # 37     ecut=    60.00 Ry     beta= 0.30
     Davidson diagonalization with overlap
     ethr =  1.04E-13,  avg # of iterations =  5.3

     negative rho (up, down):  0.000E+00 1.187E-04

     total cpu time spent up to now is    23104.3 secs

     total energy              =   -4700.75566890 Ry
     estimated scf accuracy    <          1.4E-10 Ry

     total magnetization       =    16.19 Bohr mag/cell
     absolute magnetization    =    21.48 Bohr mag/cell

     iteration # 38     ecut=    60.00 Ry     beta= 0.30
     Davidson diagonalization with overlap
     ethr =  1.00E-13,  avg # of iterations =  5.2

     negative rho (up, down):  0.000E+00 1.187E-04

     total cpu time spent up to now is    23155.3 secs

     total energy              =   -4700.75566890 Ry
     estimated scf accuracy    <          1.4E-10 Ry

     total magnetization       =    16.19 Bohr mag/cell
     absolute magnetization    =    21.48 Bohr mag/cell

     iteration # 39     ecut=    60.00 Ry     beta= 0.30
     Davidson diagonalization with overlap
     ethr =  1.00E-13,  avg # of iterations =  2.3

     negative rho (up, down):  0.000E+00 1.187E-04

     total cpu time spent up to now is    23194.1 secs

     total energy              =   -4700.75566890 Ry
     estimated scf accuracy    <          1.8E-10 Ry

     total magnetization       =    16.19 Bohr mag/cell
     absolute magnetization    =    21.48 Bohr mag/cell

     iteration # 40     ecut=    60.00 Ry     beta= 0.30
     Davidson diagonalization with overlap
     ethr =  1.00E-13,  avg # of iterations =  7.2

     negative rho (up, down):  0.000E+00 1.187E-04

     total cpu time spent up to now is    23259.4 secs

     total energy              =   -4700.75566890 Ry
     estimated scf accuracy    <          4.0E-10 Ry

     total magnetization       =    16.19 Bohr mag/cell
     absolute magnetization    =    21.48 Bohr mag/cell

     iteration # 41     ecut=    60.00 Ry     beta= 0.30
     Davidson diagonalization with overlap
     ethr =  1.00E-13,  avg # of iterations =  2.1

     negative rho (up, down):  0.000E+00 1.187E-04

     total cpu time spent up to now is    23297.1 secs

     total energy              =   -4700.75566890 Ry
     estimated scf accuracy    <          2.9E-10 Ry

     total magnetization       =    16.19 Bohr mag/cell
     absolute magnetization    =    21.48 Bohr mag/cell

     iteration # 42     ecut=    60.00 Ry     beta= 0.30
     Davidson diagonalization with overlap
     ethr =  1.00E-13,  avg # of iterations =  5.5

     negative rho (up, down):  0.000E+00 1.187E-04

     total cpu time spent up to now is    23346.5 secs

     total energy              =   -4700.75566891 Ry
     estimated scf accuracy    <          1.4E-10 Ry

     total magnetization       =    16.19 Bohr mag/cell
     absolute magnetization    =    21.48 Bohr mag/cell

     iteration # 43     ecut=    60.00 Ry     beta= 0.30
     Davidson diagonalization with overlap
     ethr =  1.00E-13,  avg # of iterations =  5.3

     negative rho (up, down):  0.000E+00 1.187E-04

     total cpu time spent up to now is    23396.7 secs

     total energy              =   -4700.75566890 Ry
     estimated scf accuracy    <          1.2E-10 Ry

     total magnetization       =    16.19 Bohr mag/cell
     absolute magnetization    =    21.48 Bohr mag/cell

     iteration # 44     ecut=    60.00 Ry     beta= 0.30
     Davidson diagonalization with overlap
     ethr =  1.00E-13,  avg # of iterations =  5.2

     negative rho (up, down):  0.000E+00 1.187E-04
 
     Magnetic moment per site  (integrated on atomic sphere of radius R)
     atom   1 (R=0.179)  charge= 12.1362  magn= -0.3589
     atom   2 (R=0.179)  charge= 14.4305  magn=  1.9216
     atom   3 (R=0.179)  charge= 14.4111  magn=  2.0444
     atom   4 (R=0.179)  charge= 12.1649  magn=  0.3878
     atom   5 (R=0.179)  charge= 12.1413  magn= -0.0481
     atom   6 (R=0.179)  charge= 14.4305  magn=  1.9119
     atom   7 (R=0.179)  charge= 12.1362  magn= -0.3589
     atom   8 (R=0.179)  charge= 14.4305  magn=  1.9216
     atom   9 (R=0.179)  charge= 12.1218  magn= -0.5405
     atom  10 (R=0.179)  charge= 14.4305  magn=  1.9216
     atom  11 (R=0.179)  charge= 14.4065  magn=  2.2575
     atom  12 (R=0.179)  charge= 14.4305  magn=  1.9119
     atom  13 (R=0.179)  charge= 14.4126  magn=  1.9461
     atom  14 (R=0.179)  charge= 12.1649  magn=  0.3878
     atom  15 (R=0.179)  charge= 12.1218  magn= -0.5405
     atom  16 (R=0.179)  charge= 14.4305  magn=  1.9216

     total cpu time spent up to now is    23451.0 secs

     End of self-consistent calculation

     Number of k-points >= 100: set verbosity='high' to print the bands.

     the Fermi energy is    19.2681 ev

!    total energy              =   -4700.75566890 Ry
     total all-electron energy =    -37622.153216 Ry
     estimated scf accuracy    <          7.8E-11 Ry
     smearing contrib. (-TS)   =      -0.00313598 Ry
     internal energy E=F+TS    =   -4700.75253293 Ry

     The total energy is F=E-TS. E is the sum of the following terms:
     one-electron contribution =   -1376.60050192 Ry
     hartree contribution      =     841.34164248 Ry
     xc contribution           =    -405.55377518 Ry
     ewald contribution        =   -2495.07436838 Ry
     one-center paw contrib.   =   -1264.86552991 Ry

     total magnetization       =    16.19 Bohr mag/cell
     absolute magnetization    =    21.48 Bohr mag/cell

     convergence has been achieved in  44 iterations

     negative rho (up, down):  0.000E+00 1.187E-04

     Forces acting on atoms (cartesian axes, Ry/au):

     atom    1 type  2   force =     0.00000000    0.00000000    0.00000000
     atom    2 type  1   force =     0.00003186    0.00007455    0.00013439
     atom    3 type  1   force =     0.00000000    0.00000000    0.00000000
     atom    4 type  2   force =    -0.00003721    0.00001742    0.00001742
     atom    5 type  2   force =     0.00000000    0.00000000    0.00000000
     atom    6 type  1   force =     0.00016538   -0.00001431   -0.00001431
     atom    7 type  2   force =     0.00000000    0.00000000    0.00000000
     atom    8 type  1   force =     0.00003186    0.00013439    0.00007455
     atom    9 type  2   force =     0.00000000    0.00000000    0.00000000
     atom   10 type  1   force =    -0.00003186   -0.00013439   -0.00007455
     atom   11 type  1   force =     0.00000000    0.00000000    0.00000000
     atom   12 type  1   force =    -0.00016538    0.00001431    0.00001431
     atom   13 type  1   force =     0.00000000    0.00000000    0.00000000
     atom   14 type  2   force =     0.00003721   -0.00001742   -0.00001742
     atom   15 type  2   force =     0.00000000    0.00000000    0.00000000
     atom   16 type  1   force =    -0.00003186   -0.00007455   -0.00013439

     Total force =     0.000398     Total SCF correction =     0.000014


     Computing stress (Cartesian axis) and pressure


     negative rho (up, down):  0.000E+00 1.187E-04
          total   stress  (Ry/bohr**3)                   (kbar)     P=        0.00
  -0.00000157   0.00000042   0.00000042           -0.23        0.06        0.06
   0.00000042   0.00000079   0.00000083            0.06        0.12        0.12
   0.00000042   0.00000083   0.00000079            0.06        0.12        0.12

     Energy error            =      8.8E-07 Ry
     Gradient error          =      1.7E-04 Ry/Bohr
     Cell gradient error     =      2.3E-01 kbar

     number of scf cycles    =   8
     number of bfgs steps    =   7

     enthalpy           old  =   -4700.7556680234 Ry
     enthalpy           new  =   -4700.7556689050 Ry

     CASE: enthalpy          _new < enthalpy          _old

     new trust radius        =       0.0007738878 bohr
     new conv_thr            =            1.0E-10 Ry

     new unit-cell volume =   1223.66987 a.u.^3 (   181.32917 Ang^3 )
     density =      7.93576 g/cm^3

CELL_PARAMETERS (angstrom)
   5.706038572   0.019483005   0.019483005
   0.019349204   5.637398776   0.032494899
   0.019349204   0.032494899   5.637398776

ATOMIC_POSITIONS (crystal)
Cr               0.0000000000        0.0000000000        0.0000000000
Fe               0.2501525842        0.2499481977        0.2503515276
Fe              -0.0000000000       -0.0000000000        0.5000000000
Cr               0.2455066162        0.2515080529        0.7515080529
Cr              -0.0000000000        0.5000000000       -0.0000000000
Fe               0.2522812117        0.7508802744        0.2508802744
Cr               0.0000000000        0.5000000000        0.5000000000
Fe               0.2501525842        0.7503515276        0.7499481977
Cr               0.5000000000       -0.0000000000       -0.0000000000
Fe               0.7498474158        0.2496484724        0.2500518023
Fe               0.5000000000       -0.0000000000        0.5000000000
Fe               0.7477187883        0.2491197256        0.7491197256
Fe               0.5000000000        0.5000000000       -0.0000000000
Cr               0.7544933838        0.7484919471        0.2484919471
Cr               0.5000000000        0.5000000000        0.5000000000
Fe               0.7498474158        0.7500518023        0.7496484724



     Writing config-only to output data dir ./tmp/fecr_fe09cr07_vcr.save/ :
     XML data file
     NEW-OLD atomic charge density approx. for the potential

     Check: negative core charge=   -0.000003

     negative rho (up, down):  0.000E+00 1.195E-04
     Generating pointlists ...

     total cpu time spent up to now is    23519.8 secs

     Self-consistent Calculation

     iteration #  1     ecut=    60.00 Ry     beta= 0.30
     Davidson diagonalization with overlap
     ethr =  1.00E-06,  avg # of iterations =  2.0

     Threshold (ethr) on eigenvalues was too large:
     Diagonalizing with lowered threshold

     Davidson diagonalization with overlap
     ethr =  5.61E-10,  avg # of iterations =  6.0

     negative rho (up, down):  0.000E+00 1.196E-04

     total cpu time spent up to now is    23619.0 secs

     total energy              =   -4700.75566841 Ry
     estimated scf accuracy    <       0.00000112 Ry

     total magnetization       =    16.19 Bohr mag/cell
     absolute magnetization    =    21.48 Bohr mag/cell

     iteration #  2     ecut=    60.00 Ry     beta= 0.30
     Davidson diagonalization with overlap
     ethr =  4.64E-10,  avg # of iterations =  6.1

     negative rho (up, down):  0.000E+00 1.196E-04

     total cpu time spent up to now is    23676.2 secs

     total energy              =   -4700.75566762 Ry
     estimated scf accuracy    <       0.00003067 Ry

     total magnetization       =    16.19 Bohr mag/cell
     absolute magnetization    =    21.48 Bohr mag/cell

     iteration #  3     ecut=    60.00 Ry     beta= 0.30
     Davidson diagonalization with overlap
     ethr =  4.64E-10,  avg # of iterations =  5.9

     negative rho (up, down):  0.000E+00 1.196E-04

     total cpu time spent up to now is    23730.6 secs

     total energy              =   -4700.75566894 Ry
     estimated scf accuracy    <       0.00000031 Ry

     total magnetization       =    16.19 Bohr mag/cell
     absolute magnetization    =    21.48 Bohr mag/cell

     iteration #  4     ecut=    60.00 Ry     beta= 0.30
     Davidson diagonalization with overlap
     ethr =  1.27E-10,  avg # of iterations =  5.1

     negative rho (up, down):  0.000E+00 1.196E-04

     total cpu time spent up to now is    23780.2 secs

     total energy              =   -4700.75566904 Ry
     estimated scf accuracy    <       0.00000185 Ry

     total magnetization       =    16.19 Bohr mag/cell
     absolute magnetization    =    21.48 Bohr mag/cell

     iteration #  5     ecut=    60.00 Ry     beta= 0.30
     Davidson diagonalization with overlap
     ethr =  1.27E-10,  avg # of iterations =  2.6

     negative rho (up, down):  0.000E+00 1.196E-04

     total cpu time spent up to now is    23821.0 secs

     total energy              =   -4700.75566915 Ry
     estimated scf accuracy    <       0.00000012 Ry

     total magnetization       =    16.19 Bohr mag/cell
     absolute magnetization    =    21.48 Bohr mag/cell

     iteration #  6     ecut=    60.00 Ry     beta= 0.30
     Davidson diagonalization with overlap
     ethr =  4.80E-11,  avg # of iterations =  3.2

     negative rho (up, down):  0.000E+00 1.196E-04

     total cpu time spent up to now is    23861.7 secs

     total energy              =   -4700.75566928 Ry
     estimated scf accuracy    <       0.00000004 Ry

     total magnetization       =    16.19 Bohr mag/cell
     absolute magnetization    =    21.48 Bohr mag/cell

     iteration #  7     ecut=    60.00 Ry     beta= 0.30
     Davidson diagonalization with overlap
     ethr =  1.59E-11,  avg # of iterations =  5.5

     negative rho (up, down):  0.000E+00 1.196E-04

     total cpu time spent up to now is    23912.2 secs

     total energy              =   -4700.75566932 Ry
     estimated scf accuracy    <       0.00000011 Ry

     total magnetization       =    16.19 Bohr mag/cell
     absolute magnetization    =    21.48 Bohr mag/cell

     iteration #  8     ecut=    60.00 Ry     beta= 0.30
     Davidson diagonalization with overlap
     ethr =  1.59E-11,  avg # of iterations =  1.7

     negative rho (up, down):  0.000E+00 1.196E-04

     total cpu time spent up to now is    23949.6 secs

     total energy              =   -4700.75566938 Ry
     estimated scf accuracy    <       0.00000004 Ry

     total magnetization       =    16.19 Bohr mag/cell
     absolute magnetization    =    21.48 Bohr mag/cell

     iteration #  9     ecut=    60.00 Ry     beta= 0.30
     Davidson diagonalization with overlap
     ethr =  1.59E-11,  avg # of iterations =  3.4

     negative rho (up, down):  0.000E+00 1.196E-04

     total cpu time spent up to now is    23994.3 secs

     total energy              =   -4700.75566939 Ry
     estimated scf accuracy    <       0.00000004 Ry

     total magnetization       =    16.19 Bohr mag/cell
     absolute magnetization    =    21.48 Bohr mag/cell

     iteration # 10     ecut=    60.00 Ry     beta= 0.30
     Davidson diagonalization with overlap
     ethr =  1.59E-11,  avg # of iterations =  1.4

     negative rho (up, down):  0.000E+00 1.196E-04

     total cpu time spent up to now is    24029.1 secs

     total energy              =   -4700.75566939 Ry
     estimated scf accuracy    <          8.1E-09 Ry

     total magnetization       =    16.19 Bohr mag/cell
     absolute magnetization    =    21.48 Bohr mag/cell

     iteration # 11     ecut=    60.00 Ry     beta= 0.30
     Davidson diagonalization with overlap
     ethr =  3.33E-12,  avg # of iterations =  4.3

     negative rho (up, down):  0.000E+00 1.196E-04

     total cpu time spent up to now is    24073.1 secs

     total energy              =   -4700.75566939 Ry
     estimated scf accuracy    <       0.00000002 Ry

     total magnetization       =    16.19 Bohr mag/cell
     absolute magnetization    =    21.48 Bohr mag/cell

     iteration # 12     ecut=    60.00 Ry     beta= 0.30
     Davidson diagonalization with overlap
     ethr =  3.33E-12,  avg # of iterations =  2.0

     negative rho (up, down):  0.000E+00 1.196E-04

     total cpu time spent up to now is    24110.3 secs

     total energy              =   -4700.75566939 Ry
     estimated scf accuracy    <          1.8E-09 Ry

     total magnetization       =    16.19 Bohr mag/cell
     absolute magnetization    =    21.48 Bohr mag/cell

     iteration # 13     ecut=    60.00 Ry     beta= 0.30
     Davidson diagonalization with overlap
     ethr =  7.55E-13,  avg # of iterations =  5.5

     negative rho (up, down):  0.000E+00 1.196E-04

     total cpu time spent up to now is    24159.0 secs

     total energy              =   -4700.75566939 Ry
     estimated scf accuracy    <          3.2E-09 Ry

     total magnetization       =    16.19 Bohr mag/cell
     absolute magnetization    =    21.48 Bohr mag/cell

     iteration # 14     ecut=    60.00 Ry     beta= 0.30
     Davidson diagonalization with overlap
     ethr =  7.55E-13,  avg # of iterations =  2.0

     negative rho (up, down):  0.000E+00 1.196E-04

     total cpu time spent up to now is    24195.9 secs

     total energy              =   -4700.75566939 Ry
     estimated scf accuracy    <          5.7E-10 Ry

     total magnetization       =    16.19 Bohr mag/cell
     absolute magnetization    =    21.48 Bohr mag/cell

     iteration # 15     ecut=    60.00 Ry     beta= 0.30
     Davidson diagonalization with overlap
     ethr =  2.35E-13,  avg # of iterations =  5.8

     negative rho (up, down):  0.000E+00 1.196E-04

     total cpu time spent up to now is    24246.6 secs

     total energy              =   -4700.75566939 Ry
     estimated scf accuracy    <          2.0E-09 Ry

     total magnetization       =    16.19 Bohr mag/cell
     absolute magnetization    =    21.48 Bohr mag/cell

     iteration # 16     ecut=    60.00 Ry     beta= 0.30
     Davidson diagonalization with overlap
     ethr =  2.35E-13,  avg # of iterations =  2.3

     negative rho (up, down):  0.000E+00 1.196E-04

     total cpu time spent up to now is    24285.3 secs

     total energy              =   -4700.75566939 Ry
     estimated scf accuracy    <          5.0E-10 Ry

     total magnetization       =    16.19 Bohr mag/cell
     absolute magnetization    =    21.48 Bohr mag/cell

     iteration # 17     ecut=    60.00 Ry     beta= 0.30
     Davidson diagonalization with overlap
     ethr =  2.08E-13,  avg # of iterations =  2.5

     negative rho (up, down):  0.000E+00 1.196E-04

     total cpu time spent up to now is    24324.6 secs

     total energy              =   -4700.75566939 Ry
     estimated scf accuracy    <          3.1E-10 Ry

     total magnetization       =    16.19 Bohr mag/cell
     absolute magnetization    =    21.48 Bohr mag/cell

     iteration # 18     ecut=    60.00 Ry     beta= 0.30
     Davidson diagonalization with overlap
     ethr =  1.30E-13,  avg # of iterations =  5.7

     negative rho (up, down):  0.000E+00 1.196E-04

     total cpu time spent up to now is    24378.3 secs

     total energy              =   -4700.75566939 Ry
     estimated scf accuracy    <          1.5E-09 Ry

     total magnetization       =    16.19 Bohr mag/cell
     absolute magnetization    =    21.48 Bohr mag/cell

     iteration # 19     ecut=    60.00 Ry     beta= 0.30
     Davidson diagonalization with overlap
     ethr =  1.30E-13,  avg # of iterations =  4.0

     negative rho (up, down):  0.000E+00 1.196E-04

     total cpu time spent up to now is    24422.3 secs

     total energy              =   -4700.75566940 Ry
     estimated scf accuracy    <          4.7E-10 Ry

     total magnetization       =    16.19 Bohr mag/cell
     absolute magnetization    =    21.48 Bohr mag/cell

     iteration # 20     ecut=    60.00 Ry     beta= 0.30
     Davidson diagonalization with overlap
     ethr =  1.30E-13,  avg # of iterations =  1.3

     negative rho (up, down):  0.000E+00 1.196E-04

     total cpu time spent up to now is    24456.6 secs

     total energy              =   -4700.75566940 Ry
     estimated scf accuracy    <          4.4E-10 Ry

     total magnetization       =    16.19 Bohr mag/cell
     absolute magnetization    =    21.48 Bohr mag/cell

     iteration # 21     ecut=    60.00 Ry     beta= 0.30
     Davidson diagonalization with overlap
     ethr =  1.30E-13,  avg # of iterations =  6.0

     negative rho (up, down):  0.000E+00 1.196E-04

     total cpu time spent up to now is    24513.3 secs

     total energy              =   -4700.75566940 Ry
     estimated scf accuracy    <          2.7E-10 Ry

     total magnetization       =    16.19 Bohr mag/cell
     absolute magnetization    =    21.48 Bohr mag/cell

     iteration # 22     ecut=    60.00 Ry     beta= 0.30
     Davidson diagonalization with overlap
     ethr =  1.10E-13,  avg # of iterations =  2.0

     negative rho (up, down):  0.000E+00 1.196E-04

     total cpu time spent up to now is    24550.7 secs

     total energy              =   -4700.75566940 Ry
     estimated scf accuracy    <          4.7E-10 Ry

     total magnetization       =    16.19 Bohr mag/cell
     absolute magnetization    =    21.48 Bohr mag/cell

     iteration # 23     ecut=    60.00 Ry     beta= 0.30
     Davidson diagonalization with overlap
     ethr =  1.10E-13,  avg # of iterations =  5.7

     negative rho (up, down):  0.000E+00 1.196E-04

     total cpu time spent up to now is    24603.4 secs

     total energy              =   -4700.75566940 Ry
     estimated scf accuracy    <          2.9E-10 Ry

     total magnetization       =    16.19 Bohr mag/cell
     absolute magnetization    =    21.48 Bohr mag/cell

     iteration # 24     ecut=    60.00 Ry     beta= 0.30
     Davidson diagonalization with overlap
     ethr =  1.10E-13,  avg # of iterations =  3.4

     negative rho (up, down):  0.000E+00 1.196E-04

     total cpu time spent up to now is    24645.2 secs

     total energy              =   -4700.75566940 Ry
     estimated scf accuracy    <          2.0E-10 Ry

     total magnetization       =    16.19 Bohr mag/cell
     absolute magnetization    =    21.48 Bohr mag/cell

     iteration # 25     ecut=    60.00 Ry     beta= 0.30
     Davidson diagonalization with overlap
     ethr =  1.00E-13,  avg # of iterations =  5.8

     negative rho (up, down):  0.000E+00 1.196E-04

     total cpu time spent up to now is    24702.1 secs

     total energy              =   -4700.75566940 Ry
     estimated scf accuracy    <          3.4E-10 Ry

     total magnetization       =    16.19 Bohr mag/cell
     absolute magnetization    =    21.48 Bohr mag/cell

     iteration # 26     ecut=    60.00 Ry     beta= 0.30
     Davidson diagonalization with overlap
     ethr =  1.00E-13,  avg # of iterations =  5.2

     negative rho (up, down):  0.000E+00 1.196E-04

     total cpu time spent up to now is    24750.7 secs

     total energy              =   -4700.75566940 Ry
     estimated scf accuracy    <          2.2E-10 Ry

     total magnetization       =    16.19 Bohr mag/cell
     absolute magnetization    =    21.48 Bohr mag/cell

     iteration # 27     ecut=    60.00 Ry     beta= 0.30
     Davidson diagonalization with overlap
     ethr =  1.00E-13,  avg # of iterations =  2.5

     negative rho (up, down):  0.000E+00 1.196E-04

     total cpu time spent up to now is    24789.3 secs

     total energy              =   -4700.75566940 Ry
     estimated scf accuracy    <          1.5E-10 Ry

     total magnetization       =    16.19 Bohr mag/cell
     absolute magnetization    =    21.48 Bohr mag/cell

     iteration # 28     ecut=    60.00 Ry     beta= 0.30
     Davidson diagonalization with overlap
     ethr =  1.00E-13,  avg # of iterations =  5.9

     negative rho (up, down):  0.000E+00 1.196E-04

     total cpu time spent up to now is    24844.8 secs

     total energy              =   -4700.75566940 Ry
     estimated scf accuracy    <          2.5E-10 Ry

     total magnetization       =    16.19 Bohr mag/cell
     absolute magnetization    =    21.48 Bohr mag/cell

     iteration # 29     ecut=    60.00 Ry     beta= 0.30
     Davidson diagonalization with overlap
     ethr =  1.00E-13,  avg # of iterations =  3.1

     negative rho (up, down):  0.000E+00 1.196E-04

     total cpu time spent up to now is    24885.6 secs

     total energy              =   -4700.75566940 Ry
     estimated scf accuracy    <          2.1E-10 Ry

     total magnetization       =    16.19 Bohr mag/cell
     absolute magnetization    =    21.48 Bohr mag/cell

     iteration # 30     ecut=    60.00 Ry     beta= 0.30
     Davidson diagonalization with overlap
     ethr =  1.00E-13,  avg # of iterations =  5.4

     negative rho (up, down):  0.000E+00 1.196E-04

     total cpu time spent up to now is    24935.6 secs

     total energy              =   -4700.75566940 Ry
     estimated scf accuracy    <          1.8E-10 Ry

     total magnetization       =    16.19 Bohr mag/cell
     absolute magnetization    =    21.47 Bohr mag/cell

     iteration # 31     ecut=    60.00 Ry     beta= 0.30
     Davidson diagonalization with overlap
     ethr =  1.00E-13,  avg # of iterations =  4.4

     negative rho (up, down):  0.000E+00 1.196E-04

     total cpu time spent up to now is    24980.5 secs

     total energy              =   -4700.75566940 Ry
     estimated scf accuracy    <          1.8E-10 Ry

     total magnetization       =    16.19 Bohr mag/cell
     absolute magnetization    =    21.47 Bohr mag/cell

     iteration # 32     ecut=    60.00 Ry     beta= 0.30
     Davidson diagonalization with overlap
     ethr =  1.00E-13,  avg # of iterations =  5.7

     negative rho (up, down):  0.000E+00 1.196E-04

     total cpu time spent up to now is    25038.6 secs

     total energy              =   -4700.75566940 Ry
     estimated scf accuracy    <          1.4E-10 Ry

     total magnetization       =    16.19 Bohr mag/cell
     absolute magnetization    =    21.47 Bohr mag/cell

     iteration # 33     ecut=    60.00 Ry     beta= 0.30
     Davidson diagonalization with overlap
     ethr =  1.00E-13,  avg # of iterations =  5.4

     negative rho (up, down):  0.000E+00 1.196E-04

     total cpu time spent up to now is    25090.7 secs

     total energy              =   -4700.75566940 Ry
     estimated scf accuracy    <          1.6E-10 Ry

     total magnetization       =    16.19 Bohr mag/cell
     absolute magnetization    =    21.47 Bohr mag/cell

     iteration # 34     ecut=    60.00 Ry     beta= 0.30
     Davidson diagonalization with overlap
     ethr =  1.00E-13,  avg # of iterations =  2.3

     negative rho (up, down):  0.000E+00 1.196E-04
 
     Magnetic moment per site  (integrated on atomic sphere of radius R)
     atom   1 (R=0.179)  charge= 12.1361  magn= -0.3583
     atom   2 (R=0.179)  charge= 14.4305  magn=  1.9217
     atom   3 (R=0.179)  charge= 14.4111  magn=  2.0445
     atom   4 (R=0.179)  charge= 12.1649  magn=  0.3872
     atom   5 (R=0.179)  charge= 12.1412  magn= -0.0481
     atom   6 (R=0.179)  charge= 14.4305  magn=  1.9118
     atom   7 (R=0.179)  charge= 12.1361  magn= -0.3583
     atom   8 (R=0.179)  charge= 14.4305  magn=  1.9217
     atom   9 (R=0.179)  charge= 12.1219  magn= -0.5396
     atom  10 (R=0.179)  charge= 14.4305  magn=  1.9217
     atom  11 (R=0.179)  charge= 14.4066  magn=  2.2575
     atom  12 (R=0.179)  charge= 14.4305  magn=  1.9118
     atom  13 (R=0.179)  charge= 14.4126  magn=  1.9461
     atom  14 (R=0.179)  charge= 12.1649  magn=  0.3872
     atom  15 (R=0.179)  charge= 12.1219  magn= -0.5396
     atom  16 (R=0.179)  charge= 14.4305  magn=  1.9217

     total cpu time spent up to now is    25128.6 secs

     End of self-consistent calculation

     Number of k-points >= 100: set verbosity='high' to print the bands.

     the Fermi energy is    19.2681 ev

!    total energy              =   -4700.75566940 Ry
     total all-electron energy =    -37622.153217 Ry
     estimated scf accuracy    <          8.4E-11 Ry
     smearing contrib. (-TS)   =      -0.00313254 Ry
     internal energy E=F+TS    =   -4700.75253686 Ry

     The total energy is F=E-TS. E is the sum of the following terms:
     one-electron contribution =   -1376.60096005 Ry
     hartree contribution      =     841.34243968 Ry
     xc contribution           =    -405.55373957 Ry
     ewald contribution        =   -2495.07475037 Ry
     one-center paw contrib.   =   -1264.86552654 Ry

     total magnetization       =    16.19 Bohr mag/cell
     absolute magnetization    =    21.47 Bohr mag/cell

     convergence has been achieved in  34 iterations

     negative rho (up, down):  0.000E+00 1.196E-04

     Forces acting on atoms (cartesian axes, Ry/au):

     atom    1 type  2   force =     0.00000000    0.00000000    0.00000000
     atom    2 type  1   force =     0.00000021    0.00005029    0.00004939
     atom    3 type  1   force =     0.00000000    0.00000000    0.00000000
     atom    4 type  2   force =    -0.00006326    0.00005070    0.00005070
     atom    5 type  2   force =     0.00000000    0.00000000    0.00000000
     atom    6 type  1   force =     0.00006474   -0.00000323   -0.00000323
     atom    7 type  2   force =     0.00000000    0.00000000    0.00000000
     atom    8 type  1   force =     0.00000021    0.00004939    0.00005029
     atom    9 type  2   force =     0.00000000    0.00000000    0.00000000
     atom   10 type  1   force =    -0.00000021   -0.00004939   -0.00005029
     atom   11 type  1   force =     0.00000000    0.00000000    0.00000000
     atom   12 type  1   force =    -0.00006474    0.00000323    0.00000323
     atom   13 type  1   force =     0.00000000    0.00000000    0.00000000
     atom   14 type  2   force =     0.00006326   -0.00005070   -0.00005070
     atom   15 type  2   force =     0.00000000    0.00000000    0.00000000
     atom   16 type  1   force =    -0.00000021   -0.00005029   -0.00004939

     Total force =     0.000216     Total SCF correction =     0.000018


     Computing stress (Cartesian axis) and pressure


     negative rho (up, down):  0.000E+00 1.196E-04
          total   stress  (Ry/bohr**3)                   (kbar)     P=        0.01
  -0.00000055   0.00000051   0.00000051           -0.08        0.07        0.07
   0.00000051   0.00000041   0.00000080            0.07        0.06        0.12
   0.00000051   0.00000080   0.00000041            0.07        0.12        0.06

     Energy error            =      4.9E-07 Ry
     Gradient error          =      6.5E-05 Ry/Bohr
     Cell gradient error     =      1.2E-01 kbar

     bfgs converged in   9 scf cycles and   8 bfgs steps
     (criteria: energy <  1.0E-04 Ry, force <  1.0E-04 Ry/Bohr, cell <  5.0E-01 kbar)

     End of BFGS Geometry Optimization

     Final enthalpy           =   -4700.7556693972 Ry

     File ./tmp/fecr_fe09cr07_vcr.bfgs deleted, as requested
Begin final coordinates
     new unit-cell volume =   1223.66987 a.u.^3 (   181.32917 Ang^3 )
     density =      7.93576 g/cm^3

CELL_PARAMETERS (angstrom)
   5.706038572   0.019483005   0.019483005
   0.019349204   5.637398776   0.032494899
   0.019349204   0.032494899   5.637398776

ATOMIC_POSITIONS (crystal)
Cr               0.0000000000        0.0000000000        0.0000000000
Fe               0.2501525842        0.2499481977        0.2503515276
Fe              -0.0000000000       -0.0000000000        0.5000000000
Cr               0.2455066162        0.2515080529        0.7515080529
Cr              -0.0000000000        0.5000000000       -0.0000000000
Fe               0.2522812117        0.7508802744        0.2508802744
Cr               0.0000000000        0.5000000000        0.5000000000
Fe               0.2501525842        0.7503515276        0.7499481977
Cr               0.5000000000       -0.0000000000       -0.0000000000
Fe               0.7498474158        0.2496484724        0.2500518023
Fe               0.5000000000       -0.0000000000        0.5000000000
Fe               0.7477187883        0.2491197256        0.7491197256
Fe               0.5000000000        0.5000000000       -0.0000000000
Cr               0.7544933838        0.7484919471        0.2484919471
Cr               0.5000000000        0.5000000000        0.5000000000
Fe               0.7498474158        0.7500518023        0.7496484724
End final coordinates



     Writing config-only to output data dir ./tmp/fecr_fe09cr07_vcr.save/ :
     XML data file

     Final scf calculation at the relaxed structure.
     The G-vectors are recalculated for the final unit cell
     Results may differ from those at the preceding step.
 
     G-vector sticks info
     --------------------
     sticks:   dense  smooth     PW     G-vecs:    dense   smooth      PW
     Sum        4389    2197    617               217291    76841   11587
 
     Using Slab Decomposition
 


     bravais-lattice index     =            0
     lattice parameter (alat)  =      10.6819  a.u.
     unit-cell volume          =    1223.6699 (a.u.)^3
     number of atoms/cell      =           16
     number of atomic types    =            2
     number of electrons       =       242.00
     number of Kohn-Sham states=          145
     kinetic-energy cutoff     =      60.0000  Ry
     charge density cutoff     =     480.0000  Ry
     scf convergence threshold =      1.0E-10
     mixing beta               =       0.3000
     number of iterations used =            8  plain     mixing
     press convergence thresh. =      5.0E-01
     Exchange-correlation= SLA  PW   PBX  PBC
                           (   1   4   3   4   0   0   0)

     GPU acceleration is ACTIVE.  1 visible GPUs per MPI rank


     celldm(1)=  10.681924  celldm(2)=   0.000000  celldm(3)=   0.000000
     celldm(4)=   0.000000  celldm(5)=   0.000000  celldm(6)=   0.000000

     crystal axes: (cart. coord. in units of alat)
               a(1) = (   1.009448   0.003447   0.003447 )  
               a(2) = (   0.003423   0.997305   0.005749 )  
               a(3) = (   0.003423   0.005749   0.997305 )  

     reciprocal axes: (cart. coord. in units 2 pi/alat)
               b(1) = (  0.990663 -0.003381 -0.003381 )  
               b(2) = ( -0.003404  1.002747 -0.005768 )  
               b(3) = ( -0.003404 -0.005768  1.002747 )  


     PseudoPot. # 1 for Fe read from file:
     ./pseudo/Fe.pbe-spn-kjpaw_psl.1.0.0.UPF
     MD5 check sum: fc81f059e5c5069939230b1155715ae8
     Pseudo is Projector augmented-wave + core cor, Zval = 16.0
     Generated using &quot;atomic&quot; code by A. Dal Corso  v.6.3
     Shape of augmentation charge: PSQ
     Using radial grid of 1191 points,  6 beta functions with: 
                l(1) =   0
                l(2) =   0
                l(3) =   1
                l(4) =   1
                l(5) =   2
                l(6) =   2
     Q(r) pseudized with 0 coefficients 


     PseudoPot. # 2 for Cr read from file:
     ./pseudo/Cr.pbe-spn-kjpaw_psl.1.0.0.UPF
     MD5 check sum: 198f1a2427a48552563eee314eba32ba
     Pseudo is Projector augmented-wave + core cor, Zval = 14.0
     Generated using &quot;atomic&quot; code by A. Dal Corso  v.6.3
     Shape of augmentation charge: PSQ
     Using radial grid of 1183 points,  6 beta functions with: 
                l(1) =   0
                l(2) =   0
                l(3) =   1
                l(4) =   1
                l(5) =   2
                l(6) =   2
     Q(r) pseudized with 0 coefficients 


     atomic species   valence    mass     pseudopotential
     Fe               16.00    55.84500     Fe( 1.00)
     Cr               14.00    51.99600     Cr( 1.00)

     Starting magnetic structure 
     atomic species   magnetization
     Fe              0.137
     Cr             -0.013

      4 Sym. Ops., with inversion, found ( 2 have fractional translation)



   Cartesian axes

     site n.     atom                  positions (alat units)
         1        Cr     tau(   1) = (   0.0000000   0.0000000   0.0000000  )
         2        Fe     tau(   2) = (   0.2542286   0.2515760   0.2519760  )
         3        Fe     tau(   3) = (   0.0017115   0.0028743   0.4986526  )
         4        Cr     tau(   4) = (   0.2512596   0.2559966   0.7517750  )
         5        Cr     tau(   5) = (   0.0017115   0.4986526   0.0028743  )
         6        Fe     tau(   6) = (   0.2580939   0.7511686   0.2553903  )
         7        Cr     tau(   7) = (   0.0034230   0.5015270   0.5015270  )
         8        Fe     tau(   8) = (   0.2576517   0.7535029   0.7531030  )
         9        Cr     tau(   9) = (   0.5047241   0.0017234   0.0017234  )
        10        Fe     tau(  10) = (   0.7586427   0.2529977   0.2533976  )
        11        Fe     tau(  11) = (   0.5064357   0.0045977   0.5003760  )
        12        Fe     tau(  12) = (   0.7582005   0.2553320   0.7511103  )
        13        Fe     tau(  13) = (   0.5064357   0.5003760   0.0045977  )
        14        Cr     tau(  14) = (   0.7650348   0.7505040   0.2547257  )
        15        Cr     tau(  15) = (   0.5081472   0.5032503   0.5032503  )
        16        Fe     tau(  16) = (   0.7620657   0.7549246   0.7545247  )

     number of k points=    68  Marzari-Vanderbilt smearing, width (Ry)=  0.0200
                       cart. coord. in units 2pi/alat
        k(    1) = (   0.0000000   0.0000000   0.0000000), wk =   0.0046296
        k(    2) = (  -0.0005674  -0.0009614   0.1671245), wk =   0.0185185
        k(    3) = (  -0.0011347  -0.0019228   0.3342490), wk =   0.0185185
        k(    4) = (   0.0017021   0.0028842  -0.5013735), wk =   0.0092593
        k(    5) = (  -0.0011347   0.1661631   0.1661631), wk =   0.0092593
        k(    6) = (  -0.0017021   0.1652017   0.3332876), wk =   0.0185185
        k(    7) = (   0.0011347   0.1700086  -0.5023349), wk =   0.0185185
        k(    8) = (  -0.0022694   0.3323262   0.3323262), wk =   0.0092593
        k(    9) = (   0.0005674   0.3371331  -0.5032962), wk =   0.0185185
        k(   10) = (   0.0034041  -0.4984893  -0.4984893), wk =   0.0046296
        k(   11) = (   0.1639758   0.1655996   0.1655996), wk =   0.0092593
        k(   12) = (   0.1634085   0.1646383   0.3327241), wk =   0.0185185
        k(   13) = (   0.1662453   0.1694452  -0.5028983), wk =   0.0185185
        k(   14) = (   0.1628411   0.3317627   0.3317627), wk =   0.0092593
        k(   15) = (   0.1656779   0.3365697  -0.5038597), wk =   0.0185185
        k(   16) = (   0.1685147  -0.4990528  -0.4990528), wk =   0.0092593
        k(   17) = (   0.3279517   0.3311993   0.3311993), wk =   0.0092593
        k(   18) = (   0.3307884   0.3360062  -0.5044232), wk =   0.0185185
        k(   19) = (   0.3336252  -0.4996162  -0.4996162), wk =   0.0092593
        k(   20) = (  -0.4919275  -0.4967989  -0.4967989), wk =   0.0046296
        k(   21) = (   0.1651105  -0.0005635  -0.0005635), wk =   0.0092593
        k(   22) = (   0.3302211  -0.0011269  -0.0011269), wk =   0.0092593
        k(   23) = (  -0.4953316   0.0016904   0.0016904), wk =   0.0046296
        k(   24) = (   0.1656779   0.0003979  -0.1676879), wk =   0.0185185
        k(   25) = (  -0.1645432   0.0015248  -0.1665610), wk =   0.0185185
        k(   26) = (   0.0000000  -0.1680859   0.1680859), wk =   0.0092593
        k(   27) = (   0.1662453   0.0013593  -0.3348124), wk =   0.0185185
        k(   28) = (  -0.1639758   0.0024862  -0.3336855), wk =   0.0185185
        k(   29) = (   0.3307884  -0.1682514  -0.0001655), wk =   0.0185185
        k(   30) = (  -0.3296537  -0.1659976   0.0020883), wk =   0.0185185
        k(   31) = (  -0.0005674  -0.1690473   0.3352104), wk =   0.0185185
        k(   32) = (   0.1634085  -0.0034476   0.5008100), wk =   0.0185185
        k(   33) = (  -0.4947643  -0.1654341   0.0026518), wk =   0.0185185
        k(   34) = (   0.3313558   0.0007959  -0.3353759), wk =   0.0185185
        k(   35) = (  -0.3290864   0.0030497  -0.3331221), wk =   0.0185185
        k(   36) = (   0.0000000  -0.3361717   0.3361717), wk =   0.0092593
        k(   37) = (   0.3285190  -0.0040111   0.5002465), wk =   0.0185185
        k(   38) = (  -0.4941969  -0.3325586   0.0036132), wk =   0.0185185
        k(   39) = (  -0.4970337  -0.0011938   0.5030638), wk =   0.0092593
        k(   40) = (   0.1651105   0.1675224  -0.1686493), wk =   0.0185185
        k(   41) = (  -0.1662453   0.1667266   0.1667266), wk =   0.0092593
        k(   42) = (   0.1656779   0.1684838  -0.3357738), wk =   0.0185185
        k(   43) = (   0.1645432  -0.1696107   0.3346469), wk =   0.0185185
        k(   44) = (  -0.1668126   0.1657652   0.3338511), wk =   0.0185185
        k(   45) = (   0.3302211  -0.1692128   0.1669590), wk =   0.0185185
        k(   46) = (  -0.3290864  -0.1650362  -0.1650362), wk =   0.0092593
        k(   47) = (  -0.3313558   0.1672900   0.1672900), wk =   0.0092593
        k(   48) = (   0.1673800  -0.1648038  -0.5009755), wk =   0.0185185
        k(   49) = (  -0.4953316  -0.1663955   0.1697763), wk =   0.0092593
        k(   50) = (   0.4964663  -0.1678535  -0.1678535), wk =   0.0092593
        k(   51) = (   0.3307884   0.1679203  -0.3363373), wk =   0.0185185
        k(   52) = (  -0.3285190  -0.1640748  -0.3321607), wk =   0.0185185
        k(   53) = (   0.3296537  -0.1701742   0.3340834), wk =   0.0185185
        k(   54) = (  -0.3319232   0.1663286   0.3344145), wk =   0.0185185
        k(   55) = (  -0.1673800   0.3328897   0.3328897), wk =   0.0092593
        k(   56) = (  -0.1651105  -0.3356083   0.3367352), wk =   0.0185185
        k(   57) = (   0.3279517   0.1631134   0.4992852), wk =   0.0185185
        k(   58) = (   0.3324905  -0.1653673  -0.5015390), wk =   0.0185185
        k(   59) = (  -0.4947643  -0.3335200   0.1707376), wk =   0.0185185
        k(   60) = (   0.4970337  -0.3349780  -0.1668921), wk =   0.0185185
        k(   61) = (  -0.1645432  -0.5027328   0.3376966), wk =   0.0185185
        k(   62) = (  -0.4976011   0.1659307   0.5021025), wk =   0.0185185
        k(   63) = (   0.3302211   0.3350448  -0.3372987), wk =   0.0185185
        k(   64) = (  -0.3324905   0.3334531   0.3334531), wk =   0.0092593
        k(   65) = (   0.3330579  -0.3324917  -0.5005776), wk =   0.0185185
        k(   66) = (  -0.4953316  -0.3344814   0.3378621), wk =   0.0092593
        k(   67) = (   0.4976011  -0.3340166  -0.3340166), wk =   0.0092593
        k(   68) = (  -0.4981684   0.3330552   0.5011411), wk =   0.0185185

     Dense  grid:   217291 G-vectors     FFT dimensions: (  75,  80,  80)

     Smooth grid:    76841 G-vectors     FFT dimensions: (  54,  54,  54)

     Estimated max dynamical RAM per process >       3.79 GB

     Check: negative core charge=   -0.000003
     Generating pointlists ...

     Initial potential from superposition of free atoms

     starting charge     241.9907, renormalised to     242.0000
     Starting wfcs are  160 randomized atomic wfcs
     Checking if some PAW data can be deallocated... 

     total cpu time spent up to now is    25191.0 secs

     Self-consistent Calculation

     iteration #  1     ecut=    60.00 Ry     beta= 0.30
     Davidson diagonalization with overlap
     c_bands:  1 eigenvalues not converged
     c_bands:  2 eigenvalues not converged
     c_bands:  2 eigenvalues not converged
     c_bands:  1 eigenvalues not converged
     c_bands:  1 eigenvalues not converged
     c_bands:  5 eigenvalues not converged
     c_bands:  1 eigenvalues not converged
     c_bands:  1 eigenvalues not converged
     c_bands:  2 eigenvalues not converged
     c_bands:  1 eigenvalues not converged
     c_bands:  1 eigenvalues not converged
     c_bands:  2 eigenvalues not converged
     c_bands:  1 eigenvalues not converged
     c_bands:  1 eigenvalues not converged
     c_bands:  1 eigenvalues not converged
     c_bands:  3 eigenvalues not converged
     c_bands:  3 eigenvalues not converged
     c_bands:  4 eigenvalues not converged
     c_bands:  2 eigenvalues not converged
     c_bands:  2 eigenvalues not converged
     c_bands:  5 eigenvalues not converged
     c_bands:  3 eigenvalues not converged
     c_bands:  1 eigenvalues not converged
     c_bands:  3 eigenvalues not converged
     c_bands:  4 eigenvalues not converged
     c_bands:  2 eigenvalues not converged
     c_bands:  1 eigenvalues not converged
     c_bands:  1 eigenvalues not converged
     c_bands:  2 eigenvalues not converged
     c_bands:  1 eigenvalues not converged
     c_bands:  1 eigenvalues not converged
     c_bands:  2 eigenvalues not converged
     c_bands:  2 eigenvalues not converged
     c_bands:  2 eigenvalues not converged
     c_bands:  1 eigenvalues not converged
     c_bands:  5 eigenvalues not converged
     c_bands:  3 eigenvalues not converged
     c_bands:  1 eigenvalues not converged
     c_bands:  1 eigenvalues not converged
     c_bands:  1 eigenvalues not converged
     c_bands:  1 eigenvalues not converged
     c_bands:  4 eigenvalues not converged
     c_bands:  1 eigenvalues not converged
     c_bands:  2 eigenvalues not converged
     c_bands:  2 eigenvalues not converged
     c_bands:  1 eigenvalues not converged
     c_bands:  2 eigenvalues not converged
     c_bands:  2 eigenvalues not converged
     c_bands:  2 eigenvalues not converged
     c_bands:  1 eigenvalues not converged
     c_bands:  1 eigenvalues not converged
     c_bands:  2 eigenvalues not converged
     c_bands:  1 eigenvalues not converged
     c_bands:  3 eigenvalues not converged
     c_bands:  3 eigenvalues not converged
     c_bands:  3 eigenvalues not converged
     ethr =  1.00E-06,  avg # of iterations = 32.8

     negative rho (up, down):  0.000E+00 5.758E-02

     total cpu time spent up to now is    25436.4 secs

     total energy              =   -4699.40788328 Ry
     estimated scf accuracy    <       6.21196961 Ry

     total magnetization       =    15.75 Bohr mag/cell
     absolute magnetization    =    22.96 Bohr mag/cell

     iteration #  2     ecut=    60.00 Ry     beta= 0.30
     Davidson diagonalization with overlap
     ethr =  2.57E-03,  avg # of iterations =  3.0

     negative rho (up, down):  0.000E+00 3.809E-02

     total cpu time spent up to now is    25479.4 secs

     total energy              =   -4698.79118827 Ry
     estimated scf accuracy    <      12.26308847 Ry

     total magnetization       =    16.80 Bohr mag/cell
     absolute magnetization    =    19.74 Bohr mag/cell

     iteration #  3     ecut=    60.00 Ry     beta= 0.30
     Davidson diagonalization with overlap
     ethr =  2.57E-03,  avg # of iterations =  2.4

     negative rho (up, down):  0.000E+00 1.816E-02

     total cpu time spent up to now is    25518.6 secs

     total energy              =   -4700.09584875 Ry
     estimated scf accuracy    <      12.37825325 Ry

     total magnetization       =    13.34 Bohr mag/cell
     absolute magnetization    =    15.74 Bohr mag/cell

     iteration #  4     ecut=    60.00 Ry     beta= 0.30
     Davidson diagonalization with overlap
     ethr =  2.57E-03,  avg # of iterations =  1.0

     negative rho (up, down):  0.000E+00 1.480E-02

     total cpu time spent up to now is    25551.9 secs

     total energy              =   -4700.59052374 Ry
     estimated scf accuracy    <       0.76183803 Ry

     total magnetization       =    16.16 Bohr mag/cell
     absolute magnetization    =    18.87 Bohr mag/cell

     iteration #  5     ecut=    60.00 Ry     beta= 0.30
     Davidson diagonalization with overlap
     ethr =  3.15E-04,  avg # of iterations =  2.3

     negative rho (up, down):  0.000E+00 3.908E-03

     total cpu time spent up to now is    25590.2 secs

     total energy              =   -4700.63858216 Ry
     estimated scf accuracy    <       0.32533846 Ry

     total magnetization       =    16.36 Bohr mag/cell
     absolute magnetization    =    19.09 Bohr mag/cell

     iteration #  6     ecut=    60.00 Ry     beta= 0.30
     Davidson diagonalization with overlap
     ethr =  1.34E-04,  avg # of iterations =  2.7

     negative rho (up, down):  0.000E+00 1.377E-03

     total cpu time spent up to now is    25630.0 secs

     total energy              =   -4700.66345118 Ry
     estimated scf accuracy    <       0.26316799 Ry

     total magnetization       =    16.77 Bohr mag/cell
     absolute magnetization    =    19.50 Bohr mag/cell

     iteration #  7     ecut=    60.00 Ry     beta= 0.30
     Davidson diagonalization with overlap
     ethr =  1.09E-04,  avg # of iterations =  1.6

     total cpu time spent up to now is    25666.2 secs

     total energy              =   -4700.69773060 Ry
     estimated scf accuracy    <       0.22595206 Ry

     total magnetization       =    16.65 Bohr mag/cell
     absolute magnetization    =    19.41 Bohr mag/cell

     iteration #  8     ecut=    60.00 Ry     beta= 0.30
     Davidson diagonalization with overlap
     ethr =  9.34E-05,  avg # of iterations =  1.8

     total cpu time spent up to now is    25702.6 secs

     total energy              =   -4700.72071131 Ry
     estimated scf accuracy    <       0.14259008 Ry

     total magnetization       =    16.44 Bohr mag/cell
     absolute magnetization    =    19.20 Bohr mag/cell

     iteration #  9     ecut=    60.00 Ry     beta= 0.30
     Davidson diagonalization with overlap
     ethr =  5.89E-05,  avg # of iterations =  1.2

     total cpu time spent up to now is    25736.5 secs

     total energy              =   -4700.73574803 Ry
     estimated scf accuracy    <       0.08400521 Ry

     total magnetization       =    16.40 Bohr mag/cell
     absolute magnetization    =    19.27 Bohr mag/cell

     iteration # 10     ecut=    60.00 Ry     beta= 0.30
     Davidson diagonalization with overlap
     ethr =  3.47E-05,  avg # of iterations =  1.4

     negative rho (up, down):  0.000E+00 1.100E-04

     total cpu time spent up to now is    25771.4 secs

     total energy              =   -4700.74821087 Ry
     estimated scf accuracy    <       0.05817089 Ry

     total magnetization       =    16.44 Bohr mag/cell
     absolute magnetization    =    19.35 Bohr mag/cell

     iteration # 11     ecut=    60.00 Ry     beta= 0.30
     Davidson diagonalization with overlap
     c_bands:  1 eigenvalues not converged
     ethr =  2.40E-05,  avg # of iterations =  2.9

     negative rho (up, down):  0.000E+00 1.096E-04

     total cpu time spent up to now is    25813.8 secs

     total energy              =   -4700.75280707 Ry
     estimated scf accuracy    <       0.02664900 Ry

     total magnetization       =    16.54 Bohr mag/cell
     absolute magnetization    =    19.62 Bohr mag/cell

     iteration # 12     ecut=    60.00 Ry     beta= 0.30
     Davidson diagonalization with overlap
     c_bands:  1 eigenvalues not converged
     c_bands:  1 eigenvalues not converged
     c_bands:  1 eigenvalues not converged
     c_bands:  2 eigenvalues not converged
     c_bands:  3 eigenvalues not converged
     c_bands:  1 eigenvalues not converged
     c_bands:  1 eigenvalues not converged
     ethr =  1.10E-05,  avg # of iterations =  6.7

     negative rho (up, down):  0.000E+00 1.099E-04

     total cpu time spent up to now is    25864.4 secs

     total energy              =   -4700.75464478 Ry
     estimated scf accuracy    <       0.01769094 Ry

     total magnetization       =    16.58 Bohr mag/cell
     absolute magnetization    =    19.83 Bohr mag/cell

     iteration # 13     ecut=    60.00 Ry     beta= 0.30
     Davidson diagonalization with overlap
     c_bands:  2 eigenvalues not converged
     c_bands:  4 eigenvalues not converged
     c_bands:  1 eigenvalues not converged
     c_bands:  2 eigenvalues not converged
     c_bands:  2 eigenvalues not converged
     c_bands:  1 eigenvalues not converged
     ethr =  7.31E-06,  avg # of iterations =  4.2

     negative rho (up, down):  0.000E+00 1.186E-04

     total cpu time spent up to now is    25907.8 secs

     total energy              =   -4700.75473833 Ry
     estimated scf accuracy    <       0.00651191 Ry

     total magnetization       =    16.62 Bohr mag/cell
     absolute magnetization    =    19.81 Bohr mag/cell

     iteration # 14     ecut=    60.00 Ry     beta= 0.30
     Davidson diagonalization with overlap
     c_bands:  1 eigenvalues not converged
     c_bands:  1 eigenvalues not converged
     c_bands:  1 eigenvalues not converged
     c_bands:  2 eigenvalues not converged
     c_bands:  1 eigenvalues not converged
     c_bands:  1 eigenvalues not converged
     c_bands:  1 eigenvalues not converged
     c_bands:  3 eigenvalues not converged
     c_bands:  1 eigenvalues not converged
     c_bands:  4 eigenvalues not converged
     ethr =  2.69E-06,  avg # of iterations =  9.4

     negative rho (up, down):  0.000E+00 1.117E-04

     total cpu time spent up to now is    25966.7 secs

     total energy              =   -4700.75520837 Ry
     estimated scf accuracy    <       0.00352343 Ry

     total magnetization       =    16.52 Bohr mag/cell
     absolute magnetization    =    19.81 Bohr mag/cell

     iteration # 15     ecut=    60.00 Ry     beta= 0.30
     Davidson diagonalization with overlap
     c_bands:  1 eigenvalues not converged
     c_bands:  1 eigenvalues not converged
     c_bands:  2 eigenvalues not converged
     ethr =  1.46E-06,  avg # of iterations =  3.3

     negative rho (up, down):  0.000E+00 1.089E-04

     total cpu time spent up to now is    26007.1 secs

     total energy              =   -4700.75529502 Ry
     estimated scf accuracy    <       0.00185571 Ry

     total magnetization       =    16.53 Bohr mag/cell
     absolute magnetization    =    19.79 Bohr mag/cell

     iteration # 16     ecut=    60.00 Ry     beta= 0.30
     Davidson diagonalization with overlap
     c_bands:  1 eigenvalues not converged
     c_bands:  1 eigenvalues not converged
     c_bands:  1 eigenvalues not converged
     ethr =  7.67E-07,  avg # of iterations =  7.3

     negative rho (up, down):  0.000E+00 1.038E-04

     total cpu time spent up to now is    26061.4 secs

     total energy              =   -4700.75512678 Ry
     estimated scf accuracy    <       0.01215281 Ry

     total magnetization       =    16.50 Bohr mag/cell
     absolute magnetization    =    19.80 Bohr mag/cell

     iteration # 17     ecut=    60.00 Ry     beta= 0.30
     Davidson diagonalization with overlap
     ethr =  7.67E-07,  avg # of iterations =  4.5

     negative rho (up, down):  0.000E+00 1.120E-04

     total cpu time spent up to now is    26105.8 secs

     total energy              =   -4700.75555148 Ry
     estimated scf accuracy    <       0.00055161 Ry

     total magnetization       =    16.52 Bohr mag/cell
     absolute magnetization    =    19.84 Bohr mag/cell

     iteration # 18     ecut=    60.00 Ry     beta= 0.30
     Davidson diagonalization with overlap
     c_bands:  1 eigenvalues not converged
     ethr =  2.28E-07,  avg # of iterations =  4.8

     negative rho (up, down):  0.000E+00 1.093E-04

     total cpu time spent up to now is    26151.9 secs

     total energy              =   -4700.75562014 Ry
     estimated scf accuracy    <       0.00047112 Ry

     total magnetization       =    16.52 Bohr mag/cell
     absolute magnetization    =    19.84 Bohr mag/cell

     iteration # 19     ecut=    60.00 Ry     beta= 0.30
     Davidson diagonalization with overlap
     ethr =  1.95E-07,  avg # of iterations =  1.3

     negative rho (up, down):  0.000E+00 1.062E-04

     total cpu time spent up to now is    26186.2 secs

     total energy              =   -4700.75567666 Ry
     estimated scf accuracy    <       0.00037111 Ry

     total magnetization       =    16.52 Bohr mag/cell
     absolute magnetization    =    19.86 Bohr mag/cell

     iteration # 20     ecut=    60.00 Ry     beta= 0.30
     Davidson diagonalization with overlap
     ethr =  1.53E-07,  avg # of iterations =  1.8

     negative rho (up, down):  0.000E+00 1.046E-04

     total cpu time spent up to now is    26222.9 secs

     total energy              =   -4700.75573026 Ry
     estimated scf accuracy    <       0.00013216 Ry

     total magnetization       =    16.51 Bohr mag/cell
     absolute magnetization    =    19.88 Bohr mag/cell

     iteration # 21     ecut=    60.00 Ry     beta= 0.30
     Davidson diagonalization with overlap
     c_bands:  1 eigenvalues not converged
     ethr =  5.46E-08,  avg # of iterations =  4.8

     negative rho (up, down):  0.000E+00 1.040E-04

     total cpu time spent up to now is    26267.9 secs

     total energy              =   -4700.75576833 Ry
     estimated scf accuracy    <       0.00010420 Ry

     total magnetization       =    16.51 Bohr mag/cell
     absolute magnetization    =    19.91 Bohr mag/cell

     iteration # 22     ecut=    60.00 Ry     beta= 0.30
     Davidson diagonalization with overlap
     c_bands:  1 eigenvalues not converged
     ethr =  4.31E-08,  avg # of iterations =  5.2

     negative rho (up, down):  0.000E+00 1.020E-04

     total cpu time spent up to now is    26314.6 secs

     total energy              =   -4700.75581615 Ry
     estimated scf accuracy    <       0.00020321 Ry

     total magnetization       =    16.50 Bohr mag/cell
     absolute magnetization    =    19.93 Bohr mag/cell

     iteration # 23     ecut=    60.00 Ry     beta= 0.30
     Davidson diagonalization with overlap
     ethr =  4.31E-08,  avg # of iterations =  5.9

     negative rho (up, down):  0.000E+00 1.027E-04

     total cpu time spent up to now is    26367.0 secs

     total energy              =   -4700.75583705 Ry
     estimated scf accuracy    <       0.00020144 Ry

     total magnetization       =    16.49 Bohr mag/cell
     absolute magnetization    =    20.00 Bohr mag/cell

     iteration # 24     ecut=    60.00 Ry     beta= 0.30
     Davidson diagonalization with overlap
     ethr =  4.31E-08,  avg # of iterations =  1.1

     negative rho (up, down):  0.000E+00 1.029E-04

     total cpu time spent up to now is    26400.4 secs

     total energy              =   -4700.75583859 Ry
     estimated scf accuracy    <       0.00010573 Ry

     total magnetization       =    16.49 Bohr mag/cell
     absolute magnetization    =    19.99 Bohr mag/cell

     iteration # 25     ecut=    60.00 Ry     beta= 0.30
     Davidson diagonalization with overlap
     ethr =  4.31E-08,  avg # of iterations =  2.2

     negative rho (up, down):  0.000E+00 1.024E-04

     total cpu time spent up to now is    26438.7 secs

     total energy              =   -4700.75585724 Ry
     estimated scf accuracy    <       0.00025959 Ry

     total magnetization       =    16.49 Bohr mag/cell
     absolute magnetization    =    19.98 Bohr mag/cell

     iteration # 26     ecut=    60.00 Ry     beta= 0.30
     Davidson diagonalization with overlap
     ethr =  4.31E-08,  avg # of iterations =  1.3

     negative rho (up, down):  0.000E+00 1.027E-04

     total cpu time spent up to now is    26473.6 secs

     total energy              =   -4700.75588109 Ry
     estimated scf accuracy    <       0.00006055 Ry

     total magnetization       =    16.49 Bohr mag/cell
     absolute magnetization    =    20.01 Bohr mag/cell

     iteration # 27     ecut=    60.00 Ry     beta= 0.30
     Davidson diagonalization with overlap
     ethr =  2.50E-08,  avg # of iterations =  3.3

     negative rho (up, down):  0.000E+00 1.013E-04

     total cpu time spent up to now is    26515.5 secs

     total energy              =   -4700.75589941 Ry
     estimated scf accuracy    <       0.00014726 Ry

     total magnetization       =    16.49 Bohr mag/cell
     absolute magnetization    =    20.03 Bohr mag/cell

     iteration # 28     ecut=    60.00 Ry     beta= 0.30
     Davidson diagonalization with overlap
     ethr =  2.50E-08,  avg # of iterations =  6.2

     negative rho (up, down):  0.000E+00 1.020E-04

     total cpu time spent up to now is    26573.3 secs

     total energy              =   -4700.75594857 Ry
     estimated scf accuracy    <       0.00008288 Ry

     total magnetization       =    16.47 Bohr mag/cell
     absolute magnetization    =    20.12 Bohr mag/cell

     iteration # 29     ecut=    60.00 Ry     beta= 0.30
     Davidson diagonalization with overlap
     ethr =  2.50E-08,  avg # of iterations =  1.1

     negative rho (up, down):  0.000E+00 1.021E-04

     total cpu time spent up to now is    26606.3 secs

     total energy              =   -4700.75596197 Ry
     estimated scf accuracy    <       0.00007653 Ry

     total magnetization       =    16.47 Bohr mag/cell
     absolute magnetization    =    20.11 Bohr mag/cell

     iteration # 30     ecut=    60.00 Ry     beta= 0.30
     Davidson diagonalization with overlap
     ethr =  2.50E-08,  avg # of iterations =  1.1

     negative rho (up, down):  0.000E+00 1.025E-04

     total cpu time spent up to now is    26639.7 secs

     total energy              =   -4700.75595726 Ry
     estimated scf accuracy    <       0.00008936 Ry

     total magnetization       =    16.47 Bohr mag/cell
     absolute magnetization    =    20.13 Bohr mag/cell

     iteration # 31     ecut=    60.00 Ry     beta= 0.30
     Davidson diagonalization with overlap
     ethr =  2.50E-08,  avg # of iterations =  1.0

     negative rho (up, down):  0.000E+00 1.025E-04

     total cpu time spent up to now is    26672.6 secs

     total energy              =   -4700.75597224 Ry
     estimated scf accuracy    <       0.00008886 Ry

     total magnetization       =    16.47 Bohr mag/cell
     absolute magnetization    =    20.12 Bohr mag/cell

     iteration # 32     ecut=    60.00 Ry     beta= 0.30
     Davidson diagonalization with overlap
     ethr =  2.50E-08,  avg # of iterations =  6.0

     negative rho (up, down):  0.000E+00 1.029E-04

     total cpu time spent up to now is    26725.7 secs

     total energy              =   -4700.75595661 Ry
     estimated scf accuracy    <       0.00004546 Ry

     total magnetization       =    16.45 Bohr mag/cell
     absolute magnetization    =    20.23 Bohr mag/cell

     iteration # 33     ecut=    60.00 Ry     beta= 0.30
     Davidson diagonalization with overlap
     ethr =  1.88E-08,  avg # of iterations =  5.3

     negative rho (up, down):  0.000E+00 1.034E-04

     total cpu time spent up to now is    26774.3 secs

     total energy              =   -4700.75600483 Ry
     estimated scf accuracy    <       0.00008655 Ry

     total magnetization       =    16.46 Bohr mag/cell
     absolute magnetization    =    20.16 Bohr mag/cell

     iteration # 34     ecut=    60.00 Ry     beta= 0.30
     Davidson diagonalization with overlap
     ethr =  1.88E-08,  avg # of iterations =  5.2

     negative rho (up, down):  0.000E+00 1.042E-04

     total cpu time spent up to now is    26822.8 secs

     total energy              =   -4700.75604593 Ry
     estimated scf accuracy    <       0.00007876 Ry

     total magnetization       =    16.45 Bohr mag/cell
     absolute magnetization    =    20.24 Bohr mag/cell

     iteration # 35     ecut=    60.00 Ry     beta= 0.30
     Davidson diagonalization with overlap
     ethr =  1.88E-08,  avg # of iterations =  5.4

     negative rho (up, down):  0.000E+00 1.046E-04

     total cpu time spent up to now is    26876.0 secs

     total energy              =   -4700.75609123 Ry
     estimated scf accuracy    <       0.00012337 Ry

     total magnetization       =    16.43 Bohr mag/cell
     absolute magnetization    =    20.32 Bohr mag/cell

     iteration # 36     ecut=    60.00 Ry     beta= 0.30
     Davidson diagonalization with overlap
     ethr =  1.88E-08,  avg # of iterations =  5.3

     negative rho (up, down):  0.000E+00 1.051E-04

     total cpu time spent up to now is    26923.1 secs

     total energy              =   -4700.75611903 Ry
     estimated scf accuracy    <       0.00003494 Ry

     total magnetization       =    16.42 Bohr mag/cell
     absolute magnetization    =    20.39 Bohr mag/cell

     iteration # 37     ecut=    60.00 Ry     beta= 0.30
     Davidson diagonalization with overlap
     ethr =  1.44E-08,  avg # of iterations =  2.1

     negative rho (up, down):  0.000E+00 1.066E-04

     total cpu time spent up to now is    26961.2 secs

     total energy              =   -4700.75611865 Ry
     estimated scf accuracy    <       0.00004312 Ry

     total magnetization       =    16.42 Bohr mag/cell
     absolute magnetization    =    20.41 Bohr mag/cell

     iteration # 38     ecut=    60.00 Ry     beta= 0.30
     Davidson diagonalization with overlap
     ethr =  1.44E-08,  avg # of iterations =  3.9

     negative rho (up, down):  0.000E+00 1.075E-04

     total cpu time spent up to now is    27006.3 secs

     total energy              =   -4700.75609557 Ry
     estimated scf accuracy    <       0.00010274 Ry

     total magnetization       =    16.41 Bohr mag/cell
     absolute magnetization    =    20.42 Bohr mag/cell

     iteration # 39     ecut=    60.00 Ry     beta= 0.30
     Davidson diagonalization with overlap
     ethr =  1.44E-08,  avg # of iterations =  7.0

     negative rho (up, down):  0.000E+00 1.097E-04

     total cpu time spent up to now is    27069.7 secs

     total energy              =   -4700.75614918 Ry
     estimated scf accuracy    <       0.00004333 Ry

     total magnetization       =    16.38 Bohr mag/cell
     absolute magnetization    =    20.57 Bohr mag/cell

     iteration # 40     ecut=    60.00 Ry     beta= 0.30
     Davidson diagonalization with overlap
     ethr =  1.44E-08,  avg # of iterations =  7.1

     negative rho (up, down):  0.000E+00 1.098E-04

     total cpu time spent up to now is    27133.7 secs

     total energy              =   -4700.75624469 Ry
     estimated scf accuracy    <       0.00005330 Ry

     total magnetization       =    16.35 Bohr mag/cell
     absolute magnetization    =    20.73 Bohr mag/cell

     iteration # 41     ecut=    60.00 Ry     beta= 0.30
     Davidson diagonalization with overlap
     ethr =  1.44E-08,  avg # of iterations =  1.2

     negative rho (up, down):  0.000E+00 1.113E-04

     total cpu time spent up to now is    27167.5 secs

     total energy              =   -4700.75624764 Ry
     estimated scf accuracy    <       0.00002481 Ry

     total magnetization       =    16.35 Bohr mag/cell
     absolute magnetization    =    20.74 Bohr mag/cell

     iteration # 42     ecut=    60.00 Ry     beta= 0.30
     Davidson diagonalization with overlap
     ethr =  1.03E-08,  avg # of iterations =  6.2

     negative rho (up, down):  0.000E+00 1.118E-04

     total cpu time spent up to now is    27223.9 secs

     total energy              =   -4700.75627502 Ry
     estimated scf accuracy    <       0.00004477 Ry

     total magnetization       =    16.33 Bohr mag/cell
     absolute magnetization    =    20.83 Bohr mag/cell

     iteration # 43     ecut=    60.00 Ry     beta= 0.30
     Davidson diagonalization with overlap
     ethr =  1.03E-08,  avg # of iterations =  5.2

     negative rho (up, down):  0.000E+00 1.127E-04

     total cpu time spent up to now is    27271.8 secs

     total energy              =   -4700.75627668 Ry
     estimated scf accuracy    <       0.00006647 Ry

     total magnetization       =    16.32 Bohr mag/cell
     absolute magnetization    =    20.86 Bohr mag/cell

     iteration # 44     ecut=    60.00 Ry     beta= 0.30
     Davidson diagonalization with overlap
     ethr =  1.03E-08,  avg # of iterations =  5.6

     negative rho (up, down):  0.000E+00 1.130E-04

     total cpu time spent up to now is    27325.2 secs

     total energy              =   -4700.75630457 Ry
     estimated scf accuracy    <       0.00001860 Ry

     total magnetization       =    16.31 Bohr mag/cell
     absolute magnetization    =    20.94 Bohr mag/cell

     iteration # 45     ecut=    60.00 Ry     beta= 0.30
     Davidson diagonalization with overlap
     ethr =  7.69E-09,  avg # of iterations =  3.3

     negative rho (up, down):  0.000E+00 1.152E-04

     total cpu time spent up to now is    27366.9 secs

     total energy              =   -4700.75625020 Ry
     estimated scf accuracy    <       0.00003069 Ry

     total magnetization       =    16.30 Bohr mag/cell
     absolute magnetization    =    20.96 Bohr mag/cell

     iteration # 46     ecut=    60.00 Ry     beta= 0.30
     Davidson diagonalization with overlap
     ethr =  7.69E-09,  avg # of iterations =  8.0

     negative rho (up, down):  0.000E+00 1.163E-04

     total cpu time spent up to now is    27437.6 secs

     total energy              =   -4700.75632454 Ry
     estimated scf accuracy    <       0.00000996 Ry

     total magnetization       =    16.26 Bohr mag/cell
     absolute magnetization    =    21.12 Bohr mag/cell

     iteration # 47     ecut=    60.00 Ry     beta= 0.30
     Davidson diagonalization with overlap
     ethr =  4.12E-09,  avg # of iterations =  6.8

     negative rho (up, down):  0.000E+00 1.176E-04

     total cpu time spent up to now is    27499.8 secs

     total energy              =   -4700.75632624 Ry
     estimated scf accuracy    <       0.00001610 Ry

     total magnetization       =    16.25 Bohr mag/cell
     absolute magnetization    =    21.20 Bohr mag/cell

     iteration # 48     ecut=    60.00 Ry     beta= 0.30
     Davidson diagonalization with overlap
     ethr =  4.12E-09,  avg # of iterations =  7.1

     negative rho (up, down):  0.000E+00 1.169E-04

     total cpu time spent up to now is    27566.2 secs

     total energy              =   -4700.75634200 Ry
     estimated scf accuracy    <       0.00001879 Ry

     total magnetization       =    16.22 Bohr mag/cell
     absolute magnetization    =    21.31 Bohr mag/cell

     iteration # 49     ecut=    60.00 Ry     beta= 0.30
     Davidson diagonalization with overlap
     ethr =  4.12E-09,  avg # of iterations =  5.2

     negative rho (up, down):  0.000E+00 1.171E-04

     total cpu time spent up to now is    27620.5 secs

     total energy              =   -4700.75635545 Ry
     estimated scf accuracy    <       0.00001189 Ry

     total magnetization       =    16.24 Bohr mag/cell
     absolute magnetization    =    21.25 Bohr mag/cell

     iteration # 50     ecut=    60.00 Ry     beta= 0.30
     Davidson diagonalization with overlap
     ethr =  4.12E-09,  avg # of iterations =  5.0

     negative rho (up, down):  0.000E+00 1.182E-04

     total cpu time spent up to now is    27666.3 secs

     total energy              =   -4700.75633785 Ry
     estimated scf accuracy    <       0.00001748 Ry

     total magnetization       =    16.23 Bohr mag/cell
     absolute magnetization    =    21.26 Bohr mag/cell

     iteration # 51     ecut=    60.00 Ry     beta= 0.30
     Davidson diagonalization with overlap
     ethr =  4.12E-09,  avg # of iterations =  7.1

     negative rho (up, down):  0.000E+00 1.188E-04

     total cpu time spent up to now is    27730.4 secs

     total energy              =   -4700.75635999 Ry
     estimated scf accuracy    <       0.00001594 Ry

     total magnetization       =    16.21 Bohr mag/cell
     absolute magnetization    =    21.35 Bohr mag/cell

     iteration # 52     ecut=    60.00 Ry     beta= 0.30
     Davidson diagonalization with overlap
     ethr =  4.12E-09,  avg # of iterations =  5.3

     negative rho (up, down):  0.000E+00 1.194E-04

     total cpu time spent up to now is    27779.6 secs

     total energy              =   -4700.75636162 Ry
     estimated scf accuracy    <       0.00001265 Ry

     total magnetization       =    16.21 Bohr mag/cell
     absolute magnetization    =    21.39 Bohr mag/cell

     iteration # 53     ecut=    60.00 Ry     beta= 0.30
     Davidson diagonalization with overlap
     ethr =  4.12E-09,  avg # of iterations =  5.2

     negative rho (up, down):  0.000E+00 1.199E-04

     total cpu time spent up to now is    27829.2 secs

     total energy              =   -4700.75636459 Ry
     estimated scf accuracy    <       0.00000529 Ry

     total magnetization       =    16.20 Bohr mag/cell
     absolute magnetization    =    21.42 Bohr mag/cell

     iteration # 54     ecut=    60.00 Ry     beta= 0.30
     Davidson diagonalization with overlap
     ethr =  2.18E-09,  avg # of iterations =  5.2

     negative rho (up, down):  0.000E+00 1.199E-04

     total cpu time spent up to now is    27882.5 secs

     total energy              =   -4700.75636750 Ry
     estimated scf accuracy    <       0.00000815 Ry

     total magnetization       =    16.19 Bohr mag/cell
     absolute magnetization    =    21.45 Bohr mag/cell

     iteration # 55     ecut=    60.00 Ry     beta= 0.30
     Davidson diagonalization with overlap
     ethr =  2.18E-09,  avg # of iterations =  1.1

     negative rho (up, down):  0.000E+00 1.202E-04

     total cpu time spent up to now is    27915.6 secs

     total energy              =   -4700.75636769 Ry
     estimated scf accuracy    <       0.00000102 Ry

     total magnetization       =    16.19 Bohr mag/cell
     absolute magnetization    =    21.45 Bohr mag/cell

     iteration # 56     ecut=    60.00 Ry     beta= 0.30
     Davidson diagonalization with overlap
     ethr =  4.21E-10,  avg # of iterations =  6.1

     negative rho (up, down):  0.000E+00 1.204E-04

     total cpu time spent up to now is    27968.8 secs

     total energy              =   -4700.75636780 Ry
     estimated scf accuracy    <       0.00000122 Ry

     total magnetization       =    16.19 Bohr mag/cell
     absolute magnetization    =    21.46 Bohr mag/cell

     iteration # 57     ecut=    60.00 Ry     beta= 0.30
     Davidson diagonalization with overlap
     ethr =  4.21E-10,  avg # of iterations =  5.4

     negative rho (up, down):  0.000E+00 1.200E-04

     total cpu time spent up to now is    28019.9 secs

     total energy              =   -4700.75636562 Ry
     estimated scf accuracy    <       0.00000211 Ry

     total magnetization       =    16.19 Bohr mag/cell
     absolute magnetization    =    21.48 Bohr mag/cell

     iteration # 58     ecut=    60.00 Ry     beta= 0.30
     Davidson diagonalization with overlap
     ethr =  4.21E-10,  avg # of iterations =  7.0

     negative rho (up, down):  0.000E+00 1.206E-04

     total cpu time spent up to now is    28083.3 secs

     total energy              =   -4700.75636570 Ry
     estimated scf accuracy    <       0.00000174 Ry

     total magnetization       =    16.19 Bohr mag/cell
     absolute magnetization    =    21.45 Bohr mag/cell

     iteration # 59     ecut=    60.00 Ry     beta= 0.30
     Davidson diagonalization with overlap
     ethr =  4.21E-10,  avg # of iterations =  7.0

     negative rho (up, down):  0.000E+00 1.209E-04

     total cpu time spent up to now is    28147.9 secs

     total energy              =   -4700.75636843 Ry
     estimated scf accuracy    <       0.00000066 Ry

     total magnetization       =    16.19 Bohr mag/cell
     absolute magnetization    =    21.48 Bohr mag/cell

     iteration # 60     ecut=    60.00 Ry     beta= 0.30
     Davidson diagonalization with overlap
     ethr =  2.73E-10,  avg # of iterations =  5.4

     negative rho (up, down):  0.000E+00 1.209E-04

     total cpu time spent up to now is    28197.6 secs

     total energy              =   -4700.75636881 Ry
     estimated scf accuracy    <       0.00000083 Ry

     total magnetization       =    16.18 Bohr mag/cell
     absolute magnetization    =    21.49 Bohr mag/cell

     iteration # 61     ecut=    60.00 Ry     beta= 0.30
     Davidson diagonalization with overlap
     ethr =  2.73E-10,  avg # of iterations =  1.6

     negative rho (up, down):  0.000E+00 1.209E-04

     total cpu time spent up to now is    28233.4 secs

     total energy              =   -4700.75636885 Ry
     estimated scf accuracy    <       0.00000046 Ry

     total magnetization       =    16.19 Bohr mag/cell
     absolute magnetization    =    21.49 Bohr mag/cell

     iteration # 62     ecut=    60.00 Ry     beta= 0.30
     Davidson diagonalization with overlap
     ethr =  1.90E-10,  avg # of iterations =  2.0

     negative rho (up, down):  0.000E+00 1.209E-04

     total cpu time spent up to now is    28271.0 secs

     total energy              =   -4700.75636893 Ry
     estimated scf accuracy    <       0.00000063 Ry

     total magnetization       =    16.19 Bohr mag/cell
     absolute magnetization    =    21.49 Bohr mag/cell

     iteration # 63     ecut=    60.00 Ry     beta= 0.30
     Davidson diagonalization with overlap
     ethr =  1.90E-10,  avg # of iterations =  1.7

     negative rho (up, down):  0.000E+00 1.209E-04

     total cpu time spent up to now is    28307.6 secs

     total energy              =   -4700.75636894 Ry
     estimated scf accuracy    <       0.00000052 Ry

     total magnetization       =    16.19 Bohr mag/cell
     absolute magnetization    =    21.49 Bohr mag/cell

     iteration # 64     ecut=    60.00 Ry     beta= 0.30
     Davidson diagonalization with overlap
     ethr =  1.90E-10,  avg # of iterations =  3.1

     negative rho (up, down):  0.000E+00 1.211E-04

     total cpu time spent up to now is    28349.4 secs

     total energy              =   -4700.75636889 Ry
     estimated scf accuracy    <       0.00000154 Ry

     total magnetization       =    16.19 Bohr mag/cell
     absolute magnetization    =    21.49 Bohr mag/cell

     iteration # 65     ecut=    60.00 Ry     beta= 0.30
     Davidson diagonalization with overlap
     ethr =  1.90E-10,  avg # of iterations =  5.6

     negative rho (up, down):  0.000E+00 1.211E-04

     total cpu time spent up to now is    28397.8 secs

     total energy              =   -4700.75636909 Ry
     estimated scf accuracy    <       0.00000018 Ry

     total magnetization       =    16.19 Bohr mag/cell
     absolute magnetization    =    21.49 Bohr mag/cell

     iteration # 66     ecut=    60.00 Ry     beta= 0.30
     Davidson diagonalization with overlap
     ethr =  7.53E-11,  avg # of iterations =  5.1

     negative rho (up, down):  0.000E+00 1.211E-04

     total cpu time spent up to now is    28444.4 secs

     total energy              =   -4700.75636913 Ry
     estimated scf accuracy    <       0.00000021 Ry

     total magnetization       =    16.19 Bohr mag/cell
     absolute magnetization    =    21.49 Bohr mag/cell

     iteration # 67     ecut=    60.00 Ry     beta= 0.30
     Davidson diagonalization with overlap
     ethr =  7.53E-11,  avg # of iterations =  2.9

     negative rho (up, down):  0.000E+00 1.212E-04

     total cpu time spent up to now is    28484.8 secs

     total energy              =   -4700.75636908 Ry
     estimated scf accuracy    <       0.00000013 Ry

     total magnetization       =    16.19 Bohr mag/cell
     absolute magnetization    =    21.49 Bohr mag/cell

     iteration # 68     ecut=    60.00 Ry     beta= 0.30
     Davidson diagonalization with overlap
     ethr =  5.53E-11,  avg # of iterations =  5.8

     negative rho (up, down):  0.000E+00 1.211E-04

     total cpu time spent up to now is    28537.1 secs

     total energy              =   -4700.75636914 Ry
     estimated scf accuracy    <       0.00000040 Ry

     total magnetization       =    16.19 Bohr mag/cell
     absolute magnetization    =    21.49 Bohr mag/cell

     iteration # 69     ecut=    60.00 Ry     beta= 0.30
     Davidson diagonalization with overlap
     ethr =  5.53E-11,  avg # of iterations =  3.2

     negative rho (up, down):  0.000E+00 1.211E-04

     total cpu time spent up to now is    28578.5 secs

     total energy              =   -4700.75636917 Ry
     estimated scf accuracy    <       0.00000010 Ry

     total magnetization       =    16.19 Bohr mag/cell
     absolute magnetization    =    21.49 Bohr mag/cell

     iteration # 70     ecut=    60.00 Ry     beta= 0.30
     Davidson diagonalization with overlap
     ethr =  4.03E-11,  avg # of iterations =  2.8

     negative rho (up, down):  0.000E+00 1.210E-04

     total cpu time spent up to now is    28618.2 secs

     total energy              =   -4700.75636918 Ry
     estimated scf accuracy    <       0.00000005 Ry

     total magnetization       =    16.19 Bohr mag/cell
     absolute magnetization    =    21.49 Bohr mag/cell

     iteration # 71     ecut=    60.00 Ry     beta= 0.30
     Davidson diagonalization with overlap
     ethr =  2.09E-11,  avg # of iterations =  5.6

     negative rho (up, down):  0.000E+00 1.210E-04

     total cpu time spent up to now is    28669.1 secs

     total energy              =   -4700.75636920 Ry
     estimated scf accuracy    <       0.00000003 Ry

     total magnetization       =    16.19 Bohr mag/cell
     absolute magnetization    =    21.49 Bohr mag/cell

     iteration # 72     ecut=    60.00 Ry     beta= 0.30
     Davidson diagonalization with overlap
     ethr =  1.27E-11,  avg # of iterations =  2.3

     negative rho (up, down):  0.000E+00 1.210E-04

     total cpu time spent up to now is    28707.5 secs

     total energy              =   -4700.75636920 Ry
     estimated scf accuracy    <       0.00000003 Ry

     total magnetization       =    16.19 Bohr mag/cell
     absolute magnetization    =    21.49 Bohr mag/cell

     iteration # 73     ecut=    60.00 Ry     beta= 0.30
     Davidson diagonalization with overlap
     ethr =  1.24E-11,  avg # of iterations =  1.4

     negative rho (up, down):  0.000E+00 1.209E-04

     total cpu time spent up to now is    28742.4 secs

     total energy              =   -4700.75636921 Ry
     estimated scf accuracy    <       0.00000002 Ry

     total magnetization       =    16.19 Bohr mag/cell
     absolute magnetization    =    21.49 Bohr mag/cell

     iteration # 74     ecut=    60.00 Ry     beta= 0.30
     Davidson diagonalization with overlap
     ethr =  7.60E-12,  avg # of iterations =  3.4

     negative rho (up, down):  0.000E+00 1.209E-04

     total cpu time spent up to now is    28783.9 secs

     total energy              =   -4700.75636921 Ry
     estimated scf accuracy    <       0.00000002 Ry

     total magnetization       =    16.19 Bohr mag/cell
     absolute magnetization    =    21.49 Bohr mag/cell

     iteration # 75     ecut=    60.00 Ry     beta= 0.30
     Davidson diagonalization with overlap
     ethr =  6.35E-12,  avg # of iterations =  5.4

     negative rho (up, down):  0.000E+00 1.208E-04

     total cpu time spent up to now is    28836.0 secs

     total energy              =   -4700.75636922 Ry
     estimated scf accuracy    <       0.00000005 Ry

     total magnetization       =    16.19 Bohr mag/cell
     absolute magnetization    =    21.49 Bohr mag/cell

     iteration # 76     ecut=    60.00 Ry     beta= 0.30
     Davidson diagonalization with overlap
     ethr =  6.35E-12,  avg # of iterations =  5.2

     negative rho (up, down):  0.000E+00 1.208E-04

     total cpu time spent up to now is    28885.8 secs

     total energy              =   -4700.75636923 Ry
     estimated scf accuracy    <       0.00000002 Ry

     total magnetization       =    16.19 Bohr mag/cell
     absolute magnetization    =    21.48 Bohr mag/cell

     iteration # 77     ecut=    60.00 Ry     beta= 0.30
     Davidson diagonalization with overlap
     ethr =  6.35E-12,  avg # of iterations =  2.1

     negative rho (up, down):  0.000E+00 1.208E-04

     total cpu time spent up to now is    28923.7 secs

     total energy              =   -4700.75636922 Ry
     estimated scf accuracy    <       0.00000002 Ry

     total magnetization       =    16.19 Bohr mag/cell
     absolute magnetization    =    21.48 Bohr mag/cell

     iteration # 78     ecut=    60.00 Ry     beta= 0.30
     Davidson diagonalization with overlap
     ethr =  6.35E-12,  avg # of iterations =  3.0

     negative rho (up, down):  0.000E+00 1.208E-04

     total cpu time spent up to now is    28965.3 secs

     total energy              =   -4700.75636923 Ry
     estimated scf accuracy    <       0.00000003 Ry

     total magnetization       =    16.19 Bohr mag/cell
     absolute magnetization    =    21.48 Bohr mag/cell

     iteration # 79     ecut=    60.00 Ry     beta= 0.30
     Davidson diagonalization with overlap
     ethr =  6.35E-12,  avg # of iterations =  2.0

     negative rho (up, down):  0.000E+00 1.208E-04

     total cpu time spent up to now is    29002.7 secs

     total energy              =   -4700.75636923 Ry
     estimated scf accuracy    <          4.7E-09 Ry

     total magnetization       =    16.19 Bohr mag/cell
     absolute magnetization    =    21.48 Bohr mag/cell

     iteration # 80     ecut=    60.00 Ry     beta= 0.30
     Davidson diagonalization with overlap
     ethr =  1.93E-12,  avg # of iterations =  5.0

     negative rho (up, down):  0.000E+00 1.208E-04

     total cpu time spent up to now is    29049.8 secs

     total energy              =   -4700.75636923 Ry
     estimated scf accuracy    <          8.9E-09 Ry

     total magnetization       =    16.19 Bohr mag/cell
     absolute magnetization    =    21.48 Bohr mag/cell

     iteration # 81     ecut=    60.00 Ry     beta= 0.30
     Davidson diagonalization with overlap
     ethr =  1.93E-12,  avg # of iterations =  3.0

     negative rho (up, down):  0.000E+00 1.208E-04

     total cpu time spent up to now is    29090.2 secs

     total energy              =   -4700.75636923 Ry
     estimated scf accuracy    <          5.2E-09 Ry

     total magnetization       =    16.19 Bohr mag/cell
     absolute magnetization    =    21.48 Bohr mag/cell

     iteration # 82     ecut=    60.00 Ry     beta= 0.30
     Davidson diagonalization with overlap
     ethr =  1.93E-12,  avg # of iterations =  2.0

     negative rho (up, down):  0.000E+00 1.208E-04

     total cpu time spent up to now is    29127.1 secs

     total energy              =   -4700.75636923 Ry
     estimated scf accuracy    <          5.8E-09 Ry

     total magnetization       =    16.19 Bohr mag/cell
     absolute magnetization    =    21.48 Bohr mag/cell

     iteration # 83     ecut=    60.00 Ry     beta= 0.30
     Davidson diagonalization with overlap
     ethr =  1.93E-12,  avg # of iterations =  2.3

     negative rho (up, down):  0.000E+00 1.207E-04

     total cpu time spent up to now is    29165.4 secs

     total energy              =   -4700.75636923 Ry
     estimated scf accuracy    <          4.4E-09 Ry

     total magnetization       =    16.19 Bohr mag/cell
     absolute magnetization    =    21.48 Bohr mag/cell

     iteration # 84     ecut=    60.00 Ry     beta= 0.30
     Davidson diagonalization with overlap
     ethr =  1.83E-12,  avg # of iterations =  3.6

     negative rho (up, down):  0.000E+00 1.207E-04

     total cpu time spent up to now is    29207.2 secs

     total energy              =   -4700.75636923 Ry
     estimated scf accuracy    <          4.2E-09 Ry

     total magnetization       =    16.19 Bohr mag/cell
     absolute magnetization    =    21.48 Bohr mag/cell

     iteration # 85     ecut=    60.00 Ry     beta= 0.30
     Davidson diagonalization with overlap
     ethr =  1.73E-12,  avg # of iterations =  5.5

     negative rho (up, down):  0.000E+00 1.208E-04

     total cpu time spent up to now is    29257.4 secs

     total energy              =   -4700.75636923 Ry
     estimated scf accuracy    <          5.2E-09 Ry

     total magnetization       =    16.19 Bohr mag/cell
     absolute magnetization    =    21.48 Bohr mag/cell

     iteration # 86     ecut=    60.00 Ry     beta= 0.30
     Davidson diagonalization with overlap
     ethr =  1.73E-12,  avg # of iterations =  4.0

     negative rho (up, down):  0.000E+00 1.207E-04

     total cpu time spent up to now is    29302.3 secs

     total energy              =   -4700.75636924 Ry
     estimated scf accuracy    <          4.4E-09 Ry

     total magnetization       =    16.19 Bohr mag/cell
     absolute magnetization    =    21.48 Bohr mag/cell

     iteration # 87     ecut=    60.00 Ry     beta= 0.30
     Davidson diagonalization with overlap
     ethr =  1.73E-12,  avg # of iterations =  3.3

     negative rho (up, down):  0.000E+00 1.207E-04

     total cpu time spent up to now is    29343.1 secs

     total energy              =   -4700.75636924 Ry
     estimated scf accuracy    <          2.8E-09 Ry

     total magnetization       =    16.19 Bohr mag/cell
     absolute magnetization    =    21.48 Bohr mag/cell

     iteration # 88     ecut=    60.00 Ry     beta= 0.30
     Davidson diagonalization with overlap
     ethr =  1.16E-12,  avg # of iterations =  3.0

     negative rho (up, down):  0.000E+00 1.207E-04

     total cpu time spent up to now is    29383.2 secs

     total energy              =   -4700.75636924 Ry
     estimated scf accuracy    <          3.4E-09 Ry

     total magnetization       =    16.19 Bohr mag/cell
     absolute magnetization    =    21.48 Bohr mag/cell

     iteration # 89     ecut=    60.00 Ry     beta= 0.30
     Davidson diagonalization with overlap
     ethr =  1.16E-12,  avg # of iterations =  5.3

     negative rho (up, down):  0.000E+00 1.207E-04

     total cpu time spent up to now is    29434.8 secs

     total energy              =   -4700.75636924 Ry
     estimated scf accuracy    <          7.7E-09 Ry

     total magnetization       =    16.19 Bohr mag/cell
     absolute magnetization    =    21.48 Bohr mag/cell

     iteration # 90     ecut=    60.00 Ry     beta= 0.30
     Davidson diagonalization with overlap
     ethr =  1.16E-12,  avg # of iterations =  5.3

     negative rho (up, down):  0.000E+00 1.207E-04

     total cpu time spent up to now is    29486.7 secs

     total energy              =   -4700.75636924 Ry
     estimated scf accuracy    <          2.1E-09 Ry

     total magnetization       =    16.19 Bohr mag/cell
     absolute magnetization    =    21.48 Bohr mag/cell

     iteration # 91     ecut=    60.00 Ry     beta= 0.30
     Davidson diagonalization with overlap
     ethr =  8.65E-13,  avg # of iterations =  4.4

     negative rho (up, down):  0.000E+00 1.207E-04

     total cpu time spent up to now is    29532.2 secs

     total energy              =   -4700.75636924 Ry
     estimated scf accuracy    <          3.8E-09 Ry

     total magnetization       =    16.19 Bohr mag/cell
     absolute magnetization    =    21.48 Bohr mag/cell

     iteration # 92     ecut=    60.00 Ry     beta= 0.30
     Davidson diagonalization with overlap
     ethr =  8.65E-13,  avg # of iterations =  1.1

     negative rho (up, down):  0.000E+00 1.207E-04

     total cpu time spent up to now is    29565.9 secs

     total energy              =   -4700.75636924 Ry
     estimated scf accuracy    <          1.4E-09 Ry

     total magnetization       =    16.19 Bohr mag/cell
     absolute magnetization    =    21.48 Bohr mag/cell

     iteration # 93     ecut=    60.00 Ry     beta= 0.30
     Davidson diagonalization with overlap
     ethr =  5.88E-13,  avg # of iterations =  5.2

     negative rho (up, down):  0.000E+00 1.207E-04

     total cpu time spent up to now is    29614.5 secs

     total energy              =   -4700.75636924 Ry
     estimated scf accuracy    <          1.4E-09 Ry

     total magnetization       =    16.19 Bohr mag/cell
     absolute magnetization    =    21.48 Bohr mag/cell

     iteration # 94     ecut=    60.00 Ry     beta= 0.30
     Davidson diagonalization with overlap
     ethr =  5.88E-13,  avg # of iterations =  5.7

     negative rho (up, down):  0.000E+00 1.207E-04

     total cpu time spent up to now is    29670.8 secs

     total energy              =   -4700.75636925 Ry
     estimated scf accuracy    <          2.8E-09 Ry

     total magnetization       =    16.19 Bohr mag/cell
     absolute magnetization    =    21.48 Bohr mag/cell

     iteration # 95     ecut=    60.00 Ry     beta= 0.30
     Davidson diagonalization with overlap
     ethr =  5.88E-13,  avg # of iterations =  4.7

     negative rho (up, down):  0.000E+00 1.207E-04

     total cpu time spent up to now is    29716.2 secs

     total energy              =   -4700.75636925 Ry
     estimated scf accuracy    <          2.3E-09 Ry

     total magnetization       =    16.19 Bohr mag/cell
     absolute magnetization    =    21.48 Bohr mag/cell

     iteration # 96     ecut=    60.00 Ry     beta= 0.30
     Davidson diagonalization with overlap
     ethr =  5.88E-13,  avg # of iterations =  6.9

     negative rho (up, down):  0.000E+00 1.207E-04

     total cpu time spent up to now is    29779.6 secs

     total energy              =   -4700.75636925 Ry
     estimated scf accuracy    <          1.9E-09 Ry

     total magnetization       =    16.19 Bohr mag/cell
     absolute magnetization    =    21.48 Bohr mag/cell

     iteration # 97     ecut=    60.00 Ry     beta= 0.30
     Davidson diagonalization with overlap
     ethr =  5.88E-13,  avg # of iterations =  5.6

     negative rho (up, down):  0.000E+00 1.207E-04

     total cpu time spent up to now is    29832.7 secs

     total energy              =   -4700.75636925 Ry
     estimated scf accuracy    <          3.0E-09 Ry

     total magnetization       =    16.19 Bohr mag/cell
     absolute magnetization    =    21.48 Bohr mag/cell

     iteration # 98     ecut=    60.00 Ry     beta= 0.30
     Davidson diagonalization with overlap
     ethr =  5.88E-13,  avg # of iterations =  5.2

     negative rho (up, down):  0.000E+00 1.207E-04

     total cpu time spent up to now is    29882.1 secs

     total energy              =   -4700.75636925 Ry
     estimated scf accuracy    <          1.0E-09 Ry

     total magnetization       =    16.19 Bohr mag/cell
     absolute magnetization    =    21.48 Bohr mag/cell

     iteration # 99     ecut=    60.00 Ry     beta= 0.30
     Davidson diagonalization with overlap
     ethr =  4.16E-13,  avg # of iterations =  2.0

     negative rho (up, down):  0.000E+00 1.207E-04

     total cpu time spent up to now is    29919.3 secs

     total energy              =   -4700.75636925 Ry
     estimated scf accuracy    <          1.6E-09 Ry

     total magnetization       =    16.19 Bohr mag/cell
     absolute magnetization    =    21.48 Bohr mag/cell

     iteration #100     ecut=    60.00 Ry     beta= 0.30
     Davidson diagonalization with overlap
     ethr =  4.16E-13,  avg # of iterations =  5.9

     negative rho (up, down):  0.000E+00 1.207E-04

     total cpu time spent up to now is    29977.4 secs

     total energy              =   -4700.75636925 Ry
     estimated scf accuracy    <          6.4E-10 Ry

     total magnetization       =    16.19 Bohr mag/cell
     absolute magnetization    =    21.48 Bohr mag/cell

     End of self-consistent calculation

     convergence NOT achieved after 100 iterations: stopping

     Writing config to output data dir ./tmp/fecr_fe09cr07_vcr.save/ :
     XML data file, charge density
 
     init_run     :     50.44s CPU     40.12s WALL (       2 calls)
     electrons    :  33015.79s CPU  29342.00s WALL (      10 calls)
     update_pot   :    114.11s CPU     65.80s WALL (       8 calls)
     forces       :     79.21s CPU     75.57s WALL (       9 calls)
     stress       :    319.49s CPU    316.33s WALL (       9 calls)

     Called by init_run:
     wfcinit      :     20.60s CPU     22.06s WALL (       2 calls)
     potinit      :     28.41s CPU     16.49s WALL (       2 calls)
     hinit0       :      0.93s CPU      0.90s WALL (       2 calls)

     Called by electrons:
     c_bands      :  22446.40s CPU  22466.25s WALL (     611 calls)
     sum_band     :   1804.97s CPU   1801.97s WALL (     611 calls)
     v_of_rho     :     12.41s CPU     11.62s WALL (     615 calls)
     newd         :     45.60s CPU     45.68s WALL (     615 calls)
                                       45.67s GPU  (     615 calls)
     PAW_pot      :   8921.82s CPU   5124.83s WALL (     623 calls)
     mix_rho      :     24.14s CPU     24.36s WALL (     611 calls)

     Called by c_bands:
     init_us_2    :    130.67s CPU    125.80s WALL (  170000 calls)
     cegterg      :  21265.43s CPU  21286.93s WALL (   83210 calls)

     Called by *egterg:
     cdiaghg      :   5754.78s CPU   5780.70s WALL (  446628 calls)
                                     5778.64s GPU  (  446628 calls)
     h_psi        :   6985.80s CPU   7003.74s WALL (  448918 calls)
                                     6998.38s GPU  (  448918 calls)
     s_psi        :    268.95s CPU    271.00s WALL (  448918 calls)
     g_psi        :      1.88s CPU     38.73s WALL (  365436 calls)
                                       37.32s GPU  (  365436 calls)

     Called by h_psi:
     h_psi:calbec :     16.19s CPU   1273.58s WALL (  448918 calls)
                                     1271.66s GPU  (  448918 calls)
     vloc_psi     :   3936.39s CPU   3940.18s WALL (  448918 calls)
                                     3938.42s GPU  (  448918 calls)
     add_vuspsi   :    261.95s CPU   1755.16s WALL (  448918 calls)
                                     1753.27s GPU  (  448918 calls)

     General routines
     calbec       :    140.20s CPU     82.84s WALL (  539222 calls)
     fft          :      6.75s CPU      9.09s WALL (   15735 calls)
                                        2.76s GPU  (   14505 calls)
     ffts         :      1.84s CPU      1.92s WALL (    2452 calls)
                                        0.11s GPU  (    1222 calls)
     fftw         :     87.79s CPU   3896.75s WALL ( 5249954 calls)
                                     3879.85s GPU  ( 5249954 calls)
     interpolate  :      9.63s CPU      9.23s WALL (    1230 calls)
     davcio       :      0.03s CPU      0.55s WALL (     154 calls)
 
     Parallel routines
 
     PWSCF        :      9h23m CPU      8h19m WALL

 
   This run was terminated on:  18:23: 7  14May2026            

=------------------------------------------------------------------------------=
   JOB DONE.
=------------------------------------------------------------------------------=
Warning: ieee_invalid is signaling
Warning: ieee_divide_by_zero is signaling
Warning: ieee_inexact is signaling
FORTRAN STOP
